<?xml version="1.0"?>
<VTKFile type="UnstructuredGrid" version="0.1" byte_order="LittleEndian">
<UnstructuredGrid>
<Piece NumberOfPoints="30578" NumberOfCells="10723">
<Points>
<DataArray type="Float64" NumberOfComponents="3" format="ascii">
-0.5 -0.5 0 -0.47439485679867832 -0.48072581506667478 0 -0.5 -0.44765434486020428 0 -0.5 -0.5 0 -0.47439485679867832 -0.48072581506667478 0 -0.43702443379937372 -0.49999999999999922 0 -0.47439485679867832 -0.48072581506667478 0 -0.45530669598391149 -0.47718009944797551 0 -0.43702443379937372 -0.49999999999999922 0 -0.47439485679867832 -0.48072581506667478 0 -0.45530669598391149 -0.47718009944797551 0 -0.4597353119515426 -0.45943449384344293 0 -0.45530669598391149 -0.47718009944797551 0 -0.44381084376742141 -0.47114793899167112 0 -0.4597353119515426 -0.45943449384344293 0 -0.45530669598391149 -0.47718009944797551 0 -0.44381084376742141 -0.47114793899167112 0 -0.43702443379937372 -0.49999999999999922 0 -0.44381084376742141 -0.47114793899167112 0 -0.43702443379937372 -0.49999999999999922 0 -0.45059725373546922 -0.44229587798334291 0 -0.4339166039271336 -0.43498117536117131 0 -0.43309128002320102 -0.45351235807576151 0 -0.44381084376742141 -0.47114793899167112 0 -0.45059725373546922 -0.44229587798334291 0 -0.4597353119515426 -0.45943449384344293 0 -0.44381084376742141 -0.47114793899167112 0 -0.45059725373546922 -0.44229587798334291 0 -0.43309128002320102 -0.45351235807576151 0 -0.44381084376742141 -0.47114793899167112 0 -0.45059725373546922 -0.44229587798334291 0 -0.4597353119515426 -0.45943449384344293 0 -0.47505511338101108 -0.44868394208069429 0 -0.46517432262153441 -0.43649963461163338 0 -0.45059725373546922 -0.44229587798334291 0 -0.4597353119515426 -0.45943449384344293 0 -0.46517432262153441 -0.43649963461163338 0 -0.47505511338101108 -0.44868394208069429 0 -0.47820614292347569 -0.42776699273468149 0 -0.46517432262153441 -0.43649963461163338 0 -0.47505511338101108 -0.44868394208069429 0 -0.47820614292347569 -0.42776699273468149 0 -0.47439485679867832 -0.48072581506667478 0 -0.47505511338101108 -0.44868394208069429 0 -0.5 -0.44765434486020428 0 -0.47439485679867832 -0.48072581506667478 0 -0.4597353119515426 -0.45943449384344293 0 -0.47505511338101108 -0.44868394208069429 0 -0.47505511338101108 -0.44868394208069429 0 -0.5 -0.44765434486020428 0 -0.47820614292347569 -0.42776699273468149 0 -0.5 -0.44765434486020428 0 -0.49656450065014057 -0.42151023988558672 0 -0.47820614292347569 -0.42776699273468149 0 -0.5 -0.44765434486020428 0 -0.49656450065014057 -0.42151023988558672 0 -0.50000000000000089 -0.37904661106745707 0 -0.49656450065014057 -0.42151023988558672 0 -0.48135717246594062 -0.40685004338866881 0 -0.47820614292347569 -0.42776699273468149 0 -0.49656450065014057 -0.42151023988558672 0 -0.48135717246594062 -0.40685004338866881 0 -0.48135717246594062 -0.40685004338866881 0 -0.47820614292347569 -0.42776699273468149 0 -0.48135717246594062 -0.40685004338866881 0 -0.47820614292347569 -0.42776699273468149 0 -0.45738366370351707 -0.41344381697501481 0 -0.49656450065014057 -0.42151023988558672 0 -0.48135717246594062 -0.40685004338866881 0 -0.50000000000000089 -0.37904661106745707 0 -0.50000000000000089 -0.37904661106745707 0 -0.48466894952205442 -0.38486603086372417 0 -0.48717439863114548 -0.36823452950912272 0 -0.48135717246594062 -0.40685004338866881 0 -0.50000000000000089 -0.37904661106745707 0 -0.48466894952205442 -0.38486603086372417 0 -0.48466894952205442 -0.38486603086372417 0 -0.48717439863114548 -0.36823452950912272 0 -0.50000000000000089 -0.37904661106745707 0 -0.48466894952205442 -0.38486603086372417 0 -0.48135717246594062 -0.40685004338866881 0 -0.48466894952205442 -0.38486603086372417 0 -0.46593083509403682 -0.39197871725165279 0 -0.48135717246594062 -0.40685004338866881 0 -0.48466894952205442 -0.38486603086372417 0 -0.48135717246594062 -0.40685004338866881 0 -0.46593083509403682 -0.39197871725165279 0 -0.48466894952205442 -0.38486603086372417 0 -0.47195833844942919 -0.37959069520904498 0 -0.46593083509403682 -0.39197871725165279 0 -0.48466894952205442 -0.38486603086372417 0 -0.46593083509403682 -0.39197871725165279 0 -0.48466894952205442 -0.38486603086372417 0 -0.47195833844942919 -0.37959069520904498 0 -0.48717439863114548 -0.36823452950912272 0 -0.46593083509403682 -0.39197871725165279 0 -0.44890944387521442 -0.39029302340116001 0 -0.45132291774153199 -0.37789636588759368 0 -0.47195833844942919 -0.37959069520904498 0 -0.46593083509403682 -0.39197871725165279 0 -0.45132291774153199 -0.37789636588759368 0 -0.46593083509403682 -0.39197871725165279 0 -0.45132291774153199 -0.37789636588759368 0 -0.48135717246594062 -0.40685004338866881 0 -0.46593083509403682 -0.39197871725165279 0 -0.45738366370351707 -0.41344381697501481 0 -0.46593083509403682 -0.39197871725165279 0 -0.44275815558040038 -0.40077469311046232 0 -0.45738366370351707 -0.41344381697501481 0 -0.46593083509403682 -0.39197871725165279 0 -0.44275815558040038 -0.40077469311046232 0 -0.46593083509403682 -0.39197871725165279 0 -0.44275815558040038 -0.40077469311046232 0 -0.44890944387521442 -0.39029302340116001 0 -0.44275815558040038 -0.40077469311046232 0 -0.44064580868350911 -0.39542861624611658 0 -0.44890944387521442 -0.39029302340116001 0 -0.44225344557501872 -0.38376649822575309 0 -0.45132291774153199 -0.37789636588759368 0 -0.43671500038902772 -0.36381401452353412 0 -0.44890944387521442 -0.39029302340116001 0 -0.44225344557501872 -0.38376649822575309 0 -0.45132291774153199 -0.37789636588759368 0 -0.44064580868350911 -0.39542861624611658 0 -0.44225344557501872 -0.38376649822575309 0 -0.43040194378266172 -0.3881600185019185 0 -0.44064580868350911 -0.39542861624611658 0 -0.44890944387521442 -0.39029302340116001 0 -0.44225344557501872 -0.38376649822575309 0 -0.47820614292347569 -0.42776699273468149 0 -0.46517432262153441 -0.43649963461163338 0 -0.45738366370351707 -0.41344381697501481 0 -0.45059725373546922 -0.44229587798334291 0 -0.45738366370351707 -0.41344381697501481 0 -0.45059725373546922 -0.44229587798334291 0 -0.46517432262153441 -0.43649963461163338 0 -0.45738366370351707 -0.41344381697501481 0 -0.44275815558040038 -0.40077469311046232 0 -0.45738366370351707 -0.41344381697501481 0 -0.44164244492799948 -0.42121090558557039 0 -0.45059725373546922 -0.44229587798334291 0 -0.45738366370351707 -0.41344381697501481 0 -0.44164244492799948 -0.42121090558557039 0 -0.45059725373546922 -0.44229587798334291 0 -0.44164244492799948 -0.42121090558557039 0 -0.4339166039271336 -0.43498117536117131 0 -0.4339166039271336 -0.43498117536117131 0 -0.42355654769347711 -0.414558964497861 0 -0.41671115160429401 -0.44095791049380378 0 -0.44164244492799948 -0.42121090558557039 0 -0.4339166039271336 -0.43498117536117131 0 -0.42355654769347711 -0.414558964497861 0 -0.44275815558040038 -0.40077469311046232 0 -0.44164244492799948 -0.42121090558557039 0 -0.42355654769347711 -0.414558964497861 0 -0.42355654769347711 -0.414558964497861 0 -0.41056920252370888 -0.3963363404412637 0 -0.40050668374064252 -0.41734442193795029 0 -0.42355654769347711 -0.414558964497861 0 -0.41671115160429401 -0.44095791049380378 0 -0.42355654769347711 -0.414558964497861 0 -0.40050668374064252 -0.41734442193795029 0 -0.41671115160429401 -0.44095791049380378 0 -0.44225344557501872 -0.38376649822575309 0 -0.43040194378266172 -0.3881600185019185 0 -0.43671500038902772 -0.36381401452353412 0 -0.43040194378266172 -0.3881600185019185 0 -0.43671500038902772 -0.36381401452353412 0 -0.44064580868350911 -0.39542861624611658 0 -0.42355654769347711 -0.414558964497861 0 -0.43040194378266172 -0.3881600185019185 0 -0.42355654769347711 -0.414558964497861 0 -0.43040194378266172 -0.3881600185019185 0 -0.44275815558040038 -0.40077469311046232 0 -0.44064580868350911 -0.39542861624611658 0 -0.42355654769347711 -0.414558964497861 0 -0.44064580868350911 -0.39542861624611658 0 -0.43040194378266172 -0.3881600185019185 0 -0.42355654769347711 -0.414558964497861 0 -0.43040194378266172 -0.3881600185019185 0 -0.41056920252370888 -0.3963363404412637 0 -0.43040194378266172 -0.3881600185019185 0 -0.4079689369259607 -0.37224253963894771 0 -0.43040194378266172 -0.3881600185019185 0 -0.41056920252370888 -0.3963363404412637 0 -0.4079689369259607 -0.37224253963894771 0 -0.41056920252370888 -0.3963363404412637 0 -0.39195929229331972 -0.37982250283040359 0 -0.4079689369259607 -0.37224253963894771 0 -0.41056920252370888 -0.3963363404412637 0 -0.39195929229331972 -0.37982250283040359 0 -0.39357845321732049 -0.39746174547711199 0 -0.41056920252370888 -0.3963363404412637 0 -0.39357845321732049 -0.39746174547711199 0 -0.40050668374064252 -0.41734442193795029 0 -0.39357845321732049 -0.39746174547711199 0 -0.38114412328536468 -0.40833987260765031 0 -0.36544727141479139 -0.39026932065168712 0 -0.39195929229331972 -0.37982250283040359 0 -0.37549160074202448 -0.3732971907138336 0 -0.36544727141479139 -0.39026932065168712 0 -0.39195929229331972 -0.37982250283040359 0 -0.39357845321732049 -0.39746174547711199 0 -0.36544727141479139 -0.39026932065168712 0 -0.40050668374064252 -0.41734442193795029 0 -0.3944977858259317 -0.43926335073686201 0 -0.41671115160429401 -0.44095791049380378 0 -0.40050668374064252 -0.41734442193795029 0 -0.38028594703985957 -0.42392304976487449 0 -0.3944977858259317 -0.43926335073686201 0 -0.39357845321732049 -0.39746174547711199 0 -0.40050668374064252 -0.41734442193795029 0 -0.38114412328536468 -0.40833987260765031 0 -0.40050668374064252 -0.41734442193795029 0 -0.38114412328536468 -0.40833987260765031 0 -0.38028594703985957 -0.42392304976487449 0 -0.38114412328536468 -0.40833987260765031 0 -0.38028594703985957 -0.42392304976487449 0 -0.36590226101420908 -0.41270082520662749 0 -0.38028594703985957 -0.42392304976487449 0 -0.3944977858259317 -0.43926335073686201 0 -0.3723601590800425 -0.44005613486137668 0 -0.3944977858259317 -0.43926335073686201 0 -0.38265619596279349 -0.45813348326120767 0 -0.3723601590800425 -0.44005613486137668 0 -0.40093272222703252 -0.45142790024540502 0 -0.3944977858259317 -0.43926335073686201 0 -0.38265619596279349 -0.45813348326120767 0 -0.40093272222703252 -0.45142790024540502 0 -0.3944977858259317 -0.43926335073686201 0 -0.41671115160429401 -0.44095791049380378 0 -0.38265619596279349 -0.45813348326120767 0 -0.40986575551511062 -0.46735685648974662 0 -0.38265619596279349 -0.45813348326120767 0 -0.39389470715733632 -0.47355095168427308 0 -0.40986575551511062 -0.46735685648974662 0 -0.40093272222703252 -0.45142790024540502 0 -0.38265619596279349 -0.45813348326120767 0 -0.40986575551511062 -0.46735685648974662 0 -0.38265619596279349 -0.45813348326120767 0 -0.38272382101637098 -0.47243968377412587 0 -0.39389470715733632 -0.47355095168427308 0 -0.38272382101637098 -0.47243968377412587 0 -0.38859428369766791 -0.48614630665141417 0 -0.36652141413456929 -0.48474993749143802 0 -0.38272382101637098 -0.47243968377412587 0 -0.38859428369766791 -0.48614630665141417 0 -0.39389470715733632 -0.47355095168427308 0 -0.37500484199342449 -0.5 0 -0.38859428369766791 -0.48614630665141417 0 -0.40140120367436599 -0.49999999999999611 0 -0.37500484199342449 -0.5 0 -0.38859428369766791 -0.48614630665141417 0 -0.36652141413456929 -0.48474993749143802 0 -0.38859428369766791 -0.48614630665141417 0 -0.40140120367436599 -0.49999999999999611 0 -0.40563347959473789 -0.48367842824487117 0 -0.40140120367436599 -0.49999999999999611 0 -0.40563347959473789 -0.48367842824487117 0 -0.40563347959473789 -0.48367842824487117 0 -0.39389470715733632 -0.47355095168427308 0 -0.40986575551511062 -0.46735685648974662 0 -0.38859428369766791 -0.48614630665141417 0 -0.40563347959473789 -0.48367842824487117 0 -0.39389470715733632 -0.47355095168427308 0 -0.40563347959473789 -0.48367842824487117 0 -0.40986575551511062 -0.46735685648974662 0 -0.42809744812538553 -0.47353695305504512 0 -0.40986575551511062 -0.46735685648974662 0 -0.4199949121527507 -0.4855396040697898 0 -0.42809744812538553 -0.47353695305504512 0 -0.40986575551511062 -0.46735685648974662 0 -0.40563347959473789 -0.48367842824487117 0 -0.4199949121527507 -0.4855396040697898 0 -0.40986575551511062 -0.46735685648974662 0 -0.40563347959473789 -0.48367842824487117 0 -0.4199949121527507 -0.4855396040697898 0 -0.41921281873686977 -0.5 0 -0.40140120367436599 -0.49999999999999611 0 -0.40563347959473789 -0.48367842824487117 0 -0.41921281873686977 -0.5 0 -0.4199949121527507 -0.4855396040697898 0 -0.41921281873686977 -0.5 0 -0.43702443379937372 -0.49999999999999922 0 -0.4199949121527507 -0.4855396040697898 0 -0.43702443379937372 -0.49999999999999922 0 -0.42809744812538553 -0.47353695305504512 0 -0.44381084376742141 -0.47114793899167112 0 -0.43702443379937372 -0.49999999999999922 0 -0.42809744812538553 -0.47353695305504512 0 -0.42809744812538553 -0.47353695305504512 0 -0.42194140881699782 -0.45884101952858919 0 -0.43309128002320102 -0.45351235807576151 0 -0.44381084376742141 -0.47114793899167112 0 -0.42809744812538553 -0.47353695305504512 0 -0.43309128002320102 -0.45351235807576151 0 -0.4339166039271336 -0.43498117536117131 0 -0.43309128002320102 -0.45351235807576151 0 -0.41671115160429401 -0.44095791049380378 0 -0.42194140881699782 -0.45884101952858919 0 -0.43309128002320102 -0.45351235807576151 0 -0.41671115160429401 -0.44095791049380378 0 -0.42194140881699782 -0.45884101952858919 0 -0.41671115160429401 -0.44095791049380378 0 -0.40986575551511062 -0.46735685648974662 0 -0.41671115160429401 -0.44095791049380378 0 -0.40986575551511062 -0.46735685648974662 0 -0.40093272222703252 -0.45142790024540502 0 -0.41671115160429401 -0.44095791049380378 0 -0.40986575551511062 -0.46735685648974662 0 -0.42809744812538553 -0.47353695305504512 0 -0.42194140881699782 -0.45884101952858919 0 -0.40986575551511062 -0.46735685648974662 0 -0.45828666285701658 -0.26028432573271792 0 -0.43487007995442373 -0.25384069753834382 0 -0.45658005330295048 -0.2439827770756183 0 -0.43864273500925549 -0.2751587481676856 0 -0.45828666285701658 -0.26028432573271792 0 -0.43487007995442373 -0.25384069753834382 0 -0.43864273500925549 -0.2751587481676856 0 -0.45645423860141388 -0.27827293425430932 0 -0.45828666285701658 -0.26028432573271792 0 -0.43864273500925549 -0.2751587481676856 0 -0.45828666285701658 -0.26028432573271792 0 -0.45645423860141388 -0.27827293425430932 0 -0.47869064668718631 -0.2683854874950159 0 -0.47091363495918082 -0.28947603344621109 0 -0.45645423860141388 -0.27827293425430932 0 -0.45828666285701658 -0.26028432573271792 0 -0.47869064668718631 -0.2683854874950159 0 -0.45828666285701658 -0.26028432573271792 0 -0.47793059070477772 -0.24540990329775009 0 -0.45828666285701658 -0.26028432573271792 0 -0.47869064668718631 -0.2683854874950159 0 -0.47793059070477772 -0.24540990329775009 0 -0.4872249908214738 -0.25598993182963242 0 -0.47869064668718631 -0.2683854874950159 0 -0.47793059070477772 -0.24540990329775009 0 -0.4872249908214738 -0.25598993182963242 0 -0.5 -0.25006354863638108 0 -0.5 -0.27586016112259643 0 -0.4872249908214738 -0.25598993182963242 0 -0.5 -0.25006354863638108 0 -0.49068252501969761 -0.24549971615663649 0 -0.4872249908214738 -0.25598993182963242 0 -0.5 -0.27586016112259643 0 -0.47869064668718631 -0.2683854874950159 0 -0.5 -0.27586016112259643 0 -0.47869064668718631 -0.2683854874950159 0 -0.48721788021035761 -0.2882082846164955 0 -0.47869064668718631 -0.2683854874950159 0 -0.47091363495918082 -0.28947603344621109 0 -0.48721788021035761 -0.2882082846164955 0 -0.47091363495918082 -0.28947603344621109 0 -0.48721788021035761 -0.2882082846164955 0 -0.48161809245015419 -0.30465866835107641 0 -0.5 -0.27586016112259643 0 -0.48721788021035761 -0.2882082846164955 0 -0.5 -0.3016567736088116 0 -0.48721788021035761 -0.2882082846164955 0 -0.5 -0.3016567736088116 0 -0.48161809245015419 -0.30465866835107641 0 -0.5 -0.3016567736088116 0 -0.48161809245015419 -0.30465866835107641 0 -0.5 -0.32745338609502678 0 -0.47091363495918082 -0.28947603344621109 0 -0.48161809245015419 -0.30465866835107641 0 -0.45879166701778518 -0.3036258058313378 0 -0.48161809245015419 -0.30465866835107641 0 -0.45879166701778518 -0.3036258058313378 0 -0.47638885418803739 -0.32253493654140952 0 -0.45645423860141388 -0.27827293425430932 0 -0.47091363495918082 -0.28947603344621109 0 -0.45879166701778518 -0.3036258058313378 0 -0.45645423860141388 -0.27827293425430932 0 -0.45879166701778518 -0.3036258058313378 0 -0.43905227881958647 -0.29505920944709452 0 -0.43864273500925549 -0.2751587481676856 0 -0.45645423860141388 -0.27827293425430932 0 -0.43905227881958647 -0.29505920944709452 0 -0.45879166701778518 -0.3036258058313378 0 -0.43905227881958647 -0.29505920944709452 0 -0.4399695753826649 -0.31139282438396382 0 -0.4399695753826649 -0.31139282438396382 0 -0.45223868162566522 -0.32343332413938758 0 -0.42808850906329299 -0.32433171173736591 0 -0.45879166701778518 -0.3036258058313378 0 -0.4399695753826649 -0.31139282438396382 0 -0.45223868162566522 -0.32343332413938758 0 -0.45223868162566522 -0.32343332413938758 0 -0.42808850906329299 -0.32433171173736591 0 -0.45223868162566522 -0.32343332413938758 0 -0.44207286924452832 -0.33783824796895978 0 -0.46140244920768408 -0.33754740415941759 0 -0.44207286924452832 -0.33783824796895978 0 -0.46140244920768408 -0.33754740415941759 0 -0.45117994904742642 -0.3486532256997657 0 -0.45223868162566522 -0.32343332413938758 0 -0.44207286924452832 -0.33783824796895978 0 -0.42808850906329299 -0.32433171173736591 0 -0.45879166701778518 -0.3036258058313378 0 -0.45223868162566522 -0.32343332413938758 0 -0.47638885418803739 -0.32253493654140952 0 -0.45223868162566522 -0.32343332413938758 0 -0.46140244920768408 -0.33754740415941759 0 -0.47638885418803739 -0.32253493654140952 0 -0.45223868162566522 -0.32343332413938758 0 -0.47638885418803739 -0.32253493654140952 0 -0.48161809245015419 -0.30465866835107641 0 -0.47638885418803739 -0.32253493654140952 0 -0.5 -0.32745338609502678 0 -0.47638885418803739 -0.32253493654140952 0 -0.5 -0.32745338609502678 0 -0.48104103145021149 -0.34129537751375599 0 -0.5 -0.32745338609502678 0 -0.48104103145021149 -0.34129537751375599 0 -0.5 -0.35324999858124201 0 -0.46140244920768408 -0.33754740415941759 0 -0.48104103145021149 -0.34129537751375599 0 -0.46549330969023639 -0.35152931309322771 0 -0.46140244920768408 -0.33754740415941759 0 -0.47638885418803739 -0.32253493654140952 0 -0.48104103145021149 -0.34129537751375599 0 -0.48104103145021149 -0.34129537751375599 0 -0.48025743214923627 -0.35616585996071459 0 -0.46549330969023639 -0.35152931309322771 0 -0.48025743214923627 -0.35616585996071459 0 -0.46757842097458802 -0.36652008110622503 0 -0.46549330969023639 -0.35152931309322771 0 -0.48025743214923627 -0.35616585996071459 0 -0.5 -0.35324999858124201 0 -0.48717439863114548 -0.36823452950912272 0 -0.48104103145021149 -0.34129537751375599 0 -0.48025743214923627 -0.35616585996071459 0 -0.5 -0.35324999858124201 0 -0.50000000000000089 -0.37904661106745707 0 -0.5 -0.35324999858124201 0 -0.48717439863114548 -0.36823452950912272 0 -0.47195833844942919 -0.37959069520904498 0 -0.48717439863114548 -0.36823452950912272 0 -0.46757842097458802 -0.36652008110622503 0 -0.48025743214923627 -0.35616585996071459 0 -0.48717439863114548 -0.36823452950912272 0 -0.46757842097458802 -0.36652008110622503 0 -0.45132291774153199 -0.37789636588759368 0 -0.46757842097458802 -0.36652008110622503 0 -0.45216690816074923 -0.36231126303824313 0 -0.47195833844942919 -0.37959069520904498 0 -0.45132291774153199 -0.37789636588759368 0 -0.46757842097458802 -0.36652008110622503 0 -0.46757842097458802 -0.36652008110622503 0 -0.46549330969023639 -0.35152931309322771 0 -0.45216690816074923 -0.36231126303824313 0 -0.46140244920768408 -0.33754740415941759 0 -0.46549330969023639 -0.35152931309322771 0 -0.45117994904742642 -0.3486532256997657 0 -0.46549330969023639 -0.35152931309322771 0 -0.45117994904742642 -0.3486532256997657 0 -0.45216690816074923 -0.36231126303824313 0 -0.44599028472907742 -0.35554349803526408 0 -0.45117994904742642 -0.3486532256997657 0 -0.45216690816074923 -0.36231126303824313 0 -0.44599028472907742 -0.35554349803526408 0 -0.45117994904742642 -0.3486532256997657 0 -0.44228407783080631 -0.34851364977492799 0 -0.44207286924452832 -0.33783824796895978 0 -0.44228407783080631 -0.34851364977492799 0 -0.43394442261003058 -0.34546672586134508 0 -0.44228407783080631 -0.34851364977492799 0 -0.43858436747801349 -0.35660488883003821 0 -0.43394442261003058 -0.34546672586134508 0 -0.44207286924452832 -0.33783824796895978 0 -0.45117994904742642 -0.3486532256997657 0 -0.44228407783080631 -0.34851364977492799 0 -0.44599028472907742 -0.35554349803526408 0 -0.44228407783080631 -0.34851364977492799 0 -0.43858436747801349 -0.35660488883003821 0 -0.44599028472907742 -0.35554349803526408 0 -0.43858436747801349 -0.35660488883003821 0 -0.43671500038902772 -0.36381401452353412 0 -0.43858436747801349 -0.35660488883003821 0 -0.43671500038902772 -0.36381401452353412 0 -0.44599028472907742 -0.35554349803526408 0 -0.45216690816074923 -0.36231126303824313 0 -0.43671500038902772 -0.36381401452353412 0 -0.45132291774153199 -0.37789636588759368 0 -0.43671500038902772 -0.36381401452353412 0 -0.45132291774153199 -0.37789636588759368 0 -0.45216690816074923 -0.36231126303824313 0 -0.43671500038902772 -0.36381401452353412 0 -0.43040194378266172 -0.3881600185019185 0 -0.43671500038902772 -0.36381401452353412 0 -0.4079689369259607 -0.37224253963894771 0 -0.43858436747801349 -0.35660488883003821 0 -0.43671500038902772 -0.36381401452353412 0 -0.41901032175007979 -0.34674631764622038 0 -0.43671500038902772 -0.36381401452353412 0 -0.41901032175007979 -0.34674631764622038 0 -0.43858436747801349 -0.35660488883003821 0 -0.43394442261003058 -0.34546672586134508 0 -0.41901032175007979 -0.34674631764622038 0 -0.41901032175007979 -0.34674631764622038 0 -0.4079689369259607 -0.37224253963894771 0 -0.40160491304204049 -0.35527610236370899 0 -0.43671500038902772 -0.36381401452353412 0 -0.41901032175007979 -0.34674631764622038 0 -0.4079689369259607 -0.37224253963894771 0 -0.4079689369259607 -0.37224253963894771 0 -0.38553593006925752 -0.3563250607759802 0 -0.4079689369259607 -0.37224253963894771 0 -0.38553593006925752 -0.3563250607759802 0 -0.40160491304204049 -0.35527610236370899 0 -0.39195929229331972 -0.37982250283040359 0 -0.4079689369259607 -0.37224253963894771 0 -0.38553593006925752 -0.3563250607759802 0 -0.39195929229331972 -0.37982250283040359 0 -0.37549160074202448 -0.3732971907138336 0 -0.38553593006925752 -0.3563250607759802 0 -0.37549160074202448 -0.3732971907138336 0 -0.38553593006925752 -0.3563250607759802 0 -0.38553593006925752 -0.3563250607759802 0 -0.36666079927166728 -0.34293209489202431 0 -0.38553593006925752 -0.3563250607759802 0 -0.39342078659019603 -0.34300184077244372 0 -0.38006824781918919 -0.33243312042550199 0 -0.38553593006925752 -0.3563250607759802 0 -0.38006824781918919 -0.33243312042550199 0 -0.36666079927166728 -0.34293209489202431 0 -0.38553593006925752 -0.3563250607759802 0 -0.39342078659019603 -0.34300184077244372 0 -0.41901032175007979 -0.34674631764622038 0 -0.40160491304204049 -0.35527610236370899 0 -0.39342078659019603 -0.34300184077244372 0 -0.38553593006925752 -0.3563250607759802 0 -0.40160491304204049 -0.35527610236370899 0 -0.39342078659019603 -0.34300184077244372 0 -0.41901032175007979 -0.34674631764622038 0 -0.40130564311113259 -0.32967862076890581 0 -0.39342078659019603 -0.34300184077244372 0 -0.40130564311113259 -0.32967862076890581 0 -0.39064670272592411 -0.32967160323888278 0 -0.39342078659019603 -0.34300184077244372 0 -0.40130564311113259 -0.32967862076890581 0 -0.39342078659019603 -0.34300184077244372 0 -0.39064670272592411 -0.32967160323888278 0 -0.39342078659019603 -0.34300184077244372 0 -0.38006824781918919 -0.33243312042550199 0 -0.38006824781918919 -0.33243312042550199 0 -0.38935907146989862 -0.31816186479418052 0 -0.37140736883531977 -0.32183989730859341 0 -0.38935907146989862 -0.31816186479418052 0 -0.38351210912712752 -0.30253866195360818 0 -0.37140736883531977 -0.32183989730859341 0 -0.39064670272592411 -0.32967160323888278 0 -0.38006824781918919 -0.33243312042550199 0 -0.38935907146989862 -0.31816186479418052 0 -0.38935907146989862 -0.31816186479418052 0 -0.401514660155255 -0.31819685637317691 0 -0.39554973675391708 -0.30949047449279188 0 -0.40130564311113259 -0.32967862076890581 0 -0.38935907146989862 -0.31816186479418052 0 -0.40130564311113259 -0.32967862076890581 0 -0.38935907146989862 -0.31816186479418052 0 -0.39962023335203928 -0.32539073298322901 0 -0.38935907146989862 -0.31816186479418052 0 -0.39962023335203928 -0.32539073298322901 0 -0.401514660155255 -0.31819685637317691 0 -0.40130564311113259 -0.32967862076890581 0 -0.39064670272592411 -0.32967160323888278 0 -0.38935907146989862 -0.31816186479418052 0 -0.40130564311113259 -0.32967862076890581 0 -0.39962023335203928 -0.32539073298322901 0 -0.4039383365009207 -0.3252300993353433 0 -0.39962023335203928 -0.32539073298322901 0 -0.4039383365009207 -0.3252300993353433 0 -0.39962023335203928 -0.32539073298322901 0 -0.4039383365009207 -0.3252300993353433 0 -0.401514660155255 -0.31819685637317691 0 -0.40130564311113259 -0.32967862076890581 0 -0.4039383365009207 -0.3252300993353433 0 -0.401514660155255 -0.31819685637317691 0 -0.4088463285069534 -0.31693695448250642 0 -0.4053668684804122 -0.3086126184714344 0 -0.4039383365009207 -0.3252300993353433 0 -0.401514660155255 -0.31819685637317691 0 -0.4088463285069534 -0.31693695448250642 0 -0.4039383365009207 -0.3252300993353433 0 -0.42808850906329299 -0.32433171173736591 0 -0.4088463285069534 -0.31693695448250642 0 -0.42808850906329299 -0.32433171173736591 0 -0.41503252140001728 -0.31110728079830707 0 -0.4039383365009207 -0.3252300993353433 0 -0.4088463285069534 -0.31693695448250642 0 -0.42808850906329299 -0.32433171173736591 0 -0.4039383365009207 -0.3252300993353433 0 -0.41609663568284688 -0.33258428014908531 0 -0.42808850906329299 -0.32433171173736591 0 -0.4039383365009207 -0.3252300993353433 0 -0.4088463285069534 -0.31693695448250642 0 -0.40130564311113259 -0.32967862076890581 0 -0.4039383365009207 -0.3252300993353433 0 -0.41609663568284688 -0.33258428014908531 0 -0.41901032175007979 -0.34674631764622038 0 -0.40130564311113259 -0.32967862076890581 0 -0.41609663568284688 -0.33258428014908531 0 -0.41901032175007979 -0.34674631764622038 0 -0.40130564311113259 -0.32967862076890581 0 -0.41901032175007979 -0.34674631764622038 0 -0.41609663568284688 -0.33258428014908531 0 -0.42777047674672519 -0.33763052508657909 0 -0.41609663568284688 -0.33258428014908531 0 -0.42777047674672519 -0.33763052508657909 0 -0.42808850906329299 -0.32433171173736591 0 -0.43394442261003058 -0.34546672586134508 0 -0.41901032175007979 -0.34674631764622038 0 -0.42777047674672519 -0.33763052508657909 0 -0.44207286924452832 -0.33783824796895978 0 -0.43394442261003058 -0.34546672586134508 0 -0.42777047674672519 -0.33763052508657909 0 -0.44207286924452832 -0.33783824796895978 0 -0.42777047674672519 -0.33763052508657909 0 -0.42808850906329299 -0.32433171173736591 0 -0.4399695753826649 -0.31139282438396382 0 -0.42808850906329299 -0.32433171173736591 0 -0.42349591428063971 -0.31031667424466408 0 -0.42808850906329299 -0.32433171173736591 0 -0.42349591428063971 -0.31031667424466408 0 -0.41503252140001728 -0.31110728079830707 0 -0.43905227881958647 -0.29505920944709452 0 -0.42349591428063971 -0.31031667424466408 0 -0.41899880716149451 -0.29003317060265321 0 -0.43905227881958647 -0.29505920944709452 0 -0.4399695753826649 -0.31139282438396382 0 -0.42349591428063971 -0.31031667424466408 0 -0.43864273500925549 -0.2751587481676856 0 -0.43905227881958647 -0.29505920944709452 0 -0.41899880716149451 -0.29003317060265321 0 -0.43864273500925549 -0.2751587481676856 0 -0.41899880716149451 -0.29003317060265321 0 -0.41649742047364408 -0.2919272257303569 0 -0.41502826726935188 -0.28951283527362931 0 -0.41151645216318689 -0.29124877083691719 0 -0.41899880716149451 -0.29003317060265321 0 -0.41649742047364408 -0.2919272257303569 0 -0.41502826726935188 -0.28951283527362931 0 -0.41899880716149451 -0.29003317060265321 0 -0.41649742047364408 -0.2919272257303569 0 -0.41899880716149451 -0.29003317060265321 0 -0.41502826726935188 -0.28951283527362931 0 -0.41310038927908221 -0.28484217392458988 0 -0.41310038927908221 -0.28484217392458988 0 -0.40629814920556201 -0.2872410904076857 0 -0.40433064532645308 -0.27892106023783952 0 -0.41502826726935188 -0.28951283527362931 0 -0.41310038927908221 -0.28484217392458988 0 -0.41151645216318689 -0.29124877083691719 0 -0.41310038927908221 -0.28484217392458988 0 -0.40629814920556201 -0.2872410904076857 0 -0.41151645216318689 -0.29124877083691719 0 -0.41649742047364408 -0.2919272257303569 0 -0.41151645216318689 -0.29124877083691719 0 -0.41283916949633909 -0.29890888486812428 0 -0.40629814920556201 -0.2872410904076857 0 -0.41151645216318689 -0.29124877083691719 0 -0.4052488046064433 -0.29379102377099447 0 -0.41151645216318689 -0.29124877083691719 0 -0.41283916949633909 -0.29890888486812428 0 -0.4052488046064433 -0.29379102377099447 0 -0.42349591428063971 -0.31031667424466408 0 -0.41899880716149451 -0.29003317060265321 0 -0.42349591428063971 -0.31031667424466408 0 -0.41649742047364408 -0.2919272257303569 0 -0.41283916949633909 -0.29890888486812428 0 -0.42349591428063971 -0.31031667424466408 0 -0.41899880716149451 -0.29003317060265321 0 -0.41649742047364408 -0.2919272257303569 0 -0.40711072979061191 -0.30081998795009107 0 -0.41283916949633909 -0.29890888486812428 0 -0.4052488046064433 -0.29379102377099447 0 -0.40711072979061191 -0.30081998795009107 0 -0.41283916949633909 -0.29890888486812428 0 -0.41256685577174013 -0.30556786269479153 0 -0.42349591428063971 -0.31031667424466408 0 -0.41283916949633909 -0.29890888486812428 0 -0.41256685577174013 -0.30556786269479153 0 -0.42349591428063971 -0.31031667424466408 0 -0.41503252140001728 -0.31110728079830707 0 -0.41256685577174013 -0.30556786269479153 0 -0.4088463285069534 -0.31693695448250642 0 -0.41503252140001728 -0.31110728079830707 0 -0.4053668684804122 -0.3086126184714344 0 -0.41503252140001728 -0.31110728079830707 0 -0.41256685577174013 -0.30556786269479153 0 -0.4053668684804122 -0.3086126184714344 0 -0.40711072979061191 -0.30081998795009107 0 -0.41256685577174013 -0.30556786269479153 0 -0.4053668684804122 -0.3086126184714344 0 -0.401514660155255 -0.31819685637317691 0 -0.4053668684804122 -0.3086126184714344 0 -0.39554973675391708 -0.30949047449279188 0 -0.4053668684804122 -0.3086126184714344 0 -0.39799597453689262 -0.29994237087155962 0 -0.39554973675391708 -0.30949047449279188 0 -0.40711072979061191 -0.30081998795009107 0 -0.4053668684804122 -0.3086126184714344 0 -0.39799597453689262 -0.29994237087155962 0 -0.40711072979061191 -0.30081998795009107 0 -0.39799597453689262 -0.29994237087155962 0 -0.4052488046064433 -0.29379102377099447 0 -0.39799597453689262 -0.29994237087155962 0 -0.39554973675391708 -0.30949047449279188 0 -0.38351210912712752 -0.30253866195360818 0 -0.38935907146989862 -0.31816186479418052 0 -0.39554973675391708 -0.30949047449279188 0 -0.38351210912712752 -0.30253866195360818 0 -0.38351210912712752 -0.30253866195360818 0 -0.3950660262777419 -0.28803976586637831 0 -0.37433096522584453 -0.28132989654828328 0 -0.39799597453689262 -0.29994237087155962 0 -0.38351210912712752 -0.30253866195360818 0 -0.3950660262777419 -0.28803976586637831 0 -0.39799597453689262 -0.29994237087155962 0 -0.3950660262777419 -0.28803976586637831 0 -0.4052488046064433 -0.29379102377099447 0 -0.40629814920556201 -0.2872410904076857 0 -0.3950660262777419 -0.28803976586637831 0 -0.4052488046064433 -0.29379102377099447 0 -0.40629814920556201 -0.2872410904076857 0 -0.3950660262777419 -0.28803976586637831 0 -0.40433064532645308 -0.27892106023783952 0 -0.40433064532645308 -0.27892106023783952 0 -0.39374553591587069 -0.27251425727467649 0 -0.41316010660589619 -0.2636986180010682 0 -0.39374553591587069 -0.27251425727467649 0 -0.41316010660589619 -0.2636986180010682 0 -0.3950660262777419 -0.28803976586637831 0 -0.40433064532645308 -0.27892106023783952 0 -0.39374553591587069 -0.27251425727467649 0 -0.39374553591587069 -0.27251425727467649 0 -0.37433096522584453 -0.28132989654828328 0 -0.3950660262777419 -0.28803976586637831 0 -0.39374553591587069 -0.27251425727467649 0 -0.37433096522584453 -0.28132989654828328 0 -0.39374553591587069 -0.27251425727467649 0 -0.37648826808451968 -0.27741199289956509 0 -0.37433096522584453 -0.28132989654828328 0 -0.39374553591587069 -0.27251425727467649 0 -0.37598097480723441 -0.26745556380373348 0 -0.38363075469537122 -0.26088114511686322 0 -0.39374553591587069 -0.27251425727467649 0 -0.37598097480723441 -0.26745556380373348 0 -0.37648826808451968 -0.27741199289956509 0 -0.37598097480723441 -0.26745556380373348 0 -0.37648826808451968 -0.27741199289956509 0 -0.37277902062147272 -0.27405557492128901 0 -0.37648826808451968 -0.27741199289956509 0 -0.37433096522584453 -0.28132989654828328 0 -0.38363075469537122 -0.26088114511686322 0 -0.37393540655460039 -0.25504906339868932 0 -0.38258347849844832 -0.24967798674395081 0 -0.37598097480723441 -0.26745556380373348 0 -0.38363075469537122 -0.26088114511686322 0 -0.37393540655460039 -0.25504906339868932 0 -0.38363075469537122 -0.26088114511686322 0 -0.3945867816951415 -0.25828321704239809 0 -0.38258347849844832 -0.24967798674395081 0 -0.3945867816951415 -0.25828321704239809 0 -0.3933004523496676 -0.24484402304582939 0 -0.38258347849844832 -0.24967798674395081 0 -0.39374553591587069 -0.27251425727467649 0 -0.3945867816951415 -0.25828321704239809 0 -0.41316010660589619 -0.2636986180010682 0 -0.3945867816951415 -0.25828321704239809 0 -0.41316010660589619 -0.2636986180010682 0 -0.40847937369743209 -0.24258689873782929 0 -0.39374553591587069 -0.27251425727467649 0 -0.38363075469537122 -0.26088114511686322 0 -0.3945867816951415 -0.25828321704239809 0 -0.41316010660589619 -0.2636986180010682 0 -0.42931567121415071 -0.25028064732030619 0 -0.40847937369743209 -0.24258689873782929 0 -0.41316010660589619 -0.2636986180010682 0 -0.40847937369743209 -0.24258689873782929 0 -0.41899880716149451 -0.29003317060265321 0 -0.41310038927908221 -0.28484217392458988 0 -0.41316010660589619 -0.2636986180010682 0 -0.41310038927908221 -0.28484217392458988 0 -0.40433064532645308 -0.27892106023783952 0 -0.41316010660589619 -0.2636986180010682 0 -0.41899880716149451 -0.29003317060265321 0 -0.41316010660589619 -0.2636986180010682 0 -0.42551969657153998 -0.27199364899169498 0 -0.41899880716149451 -0.29003317060265321 0 -0.41316010660589619 -0.2636986180010682 0 -0.43864273500925549 -0.2751587481676856 0 -0.42551969657153998 -0.27199364899169498 0 -0.43487007995442373 -0.25384069753834382 0 -0.43864273500925549 -0.2751587481676856 0 -0.41899880716149451 -0.29003317060265321 0 -0.42551969657153998 -0.27199364899169498 0 -0.41316010660589619 -0.2636986180010682 0 -0.43487007995442373 -0.25384069753834382 0 -0.41316010660589619 -0.2636986180010682 0 -0.42551969657153998 -0.27199364899169498 0 -0.43487007995442373 -0.25384069753834382 0 -0.41316010660589619 -0.2636986180010682 0 -0.43487007995442373 -0.25384069753834382 0 -0.42931567121415071 -0.25028064732030619 0 -0.32316489217708799 -0.25890650528201359 0 -0.32888695585781391 -0.26910619260742191 0 -0.31032083431566337 -0.26180085087236171 0 -0.32316489217708799 -0.25890650528201359 0 -0.32888695585781391 -0.26910619260742191 0 -0.33131030172746923 -0.25321851497678438 0 -0.32888695585781391 -0.26910619260742191 0 -0.31032083431566337 -0.26180085087236171 0 -0.32316489217708799 -0.25890650528201359 0 -0.33131030172746923 -0.25321851497678438 0 -0.32202724095639168 -0.2495658441092535 0 -0.32316489217708799 -0.25890650528201359 0 -0.31032083431566337 -0.26180085087236171 0 -0.32202724095639168 -0.2495658441092535 0 -0.31032083431566337 -0.26180085087236171 0 -0.32202724095639168 -0.2495658441092535 0 -0.31283906540333922 -0.25031215033235238 0 -0.31032083431566337 -0.26180085087236171 0 -0.32202724095639168 -0.2495658441092535 0 -0.31480478096024378 -0.27564718726691712 0 -0.32888695585781391 -0.26910619260742191 0 -0.31032083431566337 -0.26180085087236171 0 -0.31480478096024378 -0.27564718726691712 0 -0.32888695585781391 -0.26910619260742191 0 -0.32507396769595592 -0.29410449247197662 0 -0.32888695585781391 -0.26910619260742191 0 -0.3381311227387106 -0.26238754928509761 0 -0.34453036853746388 -0.27526151563856671 0 -0.32888695585781391 -0.26910619260742191 0 -0.34453036853746388 -0.27526151563856671 0 -0.33279411355556121 -0.28213246275860349 0 -0.32888695585781391 -0.26910619260742191 0 -0.34453036853746388 -0.27526151563856671 0 -0.34453036853746388 -0.27526151563856671 0 -0.34450588037081892 -0.28462367662190302 0 -0.33279411355556121 -0.28213246275860349 0 -0.32888695585781391 -0.26910619260742191 0 -0.33131030172746923 -0.25321851497678438 0 -0.32888695585781391 -0.26910619260742191 0 -0.3381311227387106 -0.26238754928509761 0 -0.33131030172746923 -0.25321851497678438 0 -0.3381311227387106 -0.26238754928509761 0 -0.34897267059429732 -0.25990550268967838 0 -0.3420777495351906 -0.24844208584564559 0 -0.3381311227387106 -0.26238754928509761 0 -0.33131030172746923 -0.25321851497678438 0 -0.3420777495351906 -0.24844208584564559 0 -0.34897267059429732 -0.25990550268967838 0 -0.35255150303394622 -0.24812522560144931 0 -0.3420777495351906 -0.24844208584564559 0 -0.34897267059429732 -0.25990550268967838 0 -0.35751050643918753 -0.2560897164936603 0 -0.35722060467742811 -0.26762499714769428 0 -0.34897267059429732 -0.25990550268967838 0 -0.35751050643918753 -0.2560897164936603 0 -0.35255150303394622 -0.24812522560144931 0 -0.35751050643918753 -0.2560897164936603 0 -0.363557814049559 -0.2486896754833777 0 -0.35255150303394622 -0.24812522560144931 0 -0.35751050643918753 -0.2560897164936603 0 -0.36561260290989678 -0.26128521942254013 0 -0.363557814049559 -0.2486896754833777 0 -0.35751050643918753 -0.2560897164936603 0 -0.36561260290989678 -0.26128521942254013 0 -0.35722060467742811 -0.26762499714769428 0 -0.37598097480723441 -0.26745556380373348 0 -0.36561260290989678 -0.26128521942254013 0 -0.37393540655460039 -0.25504906339868932 0 -0.36561260290989678 -0.26128521942254013 0 -0.37393540655460039 -0.25504906339868932 0 -0.363557814049559 -0.2486896754833777 0 -0.37277902062147272 -0.27405557492128901 0 -0.36654922363893422 -0.27215591673696138 0 -0.37433096522584453 -0.28132989654828328 0 -0.37648826808451968 -0.27741199289956509 0 -0.37277902062147272 -0.27405557492128901 0 -0.37433096522584453 -0.28132989654828328 0 -0.37598097480723441 -0.26745556380373348 0 -0.37277902062147272 -0.27405557492128901 0 -0.36654922363893422 -0.27215591673696138 0 -0.37598097480723441 -0.26745556380373348 0 -0.36561260290989678 -0.26128521942254013 0 -0.36654922363893422 -0.27215591673696138 0 -0.36561260290989678 -0.26128521942254013 0 -0.36654922363893422 -0.27215591673696138 0 -0.35722060467742811 -0.26762499714769428 0 -0.36654922363893422 -0.27215591673696138 0 -0.35722060467742811 -0.26762499714769428 0 -0.36017378121711419 -0.28141683866971062 0 -0.36654922363893422 -0.27215591673696138 0 -0.36017378121711419 -0.28141683866971062 0 -0.37433096522584453 -0.28132989654828328 0 -0.34453036853746388 -0.27526151563856671 0 -0.36017378121711419 -0.28141683866971062 0 -0.35722060467742811 -0.26762499714769428 0 -0.34453036853746388 -0.27526151563856671 0 -0.36017378121711419 -0.28141683866971062 0 -0.34453036853746388 -0.27526151563856671 0 -0.34450588037081892 -0.28462367662190302 0 -0.36017378121711419 -0.28141683866971062 0 -0.34897267059429732 -0.25990550268967838 0 -0.35722060467742811 -0.26762499714769428 0 -0.34453036853746388 -0.27526151563856671 0 -0.3381311227387106 -0.26238754928509761 0 -0.34897267059429732 -0.25990550268967838 0 -0.34453036853746388 -0.27526151563856671 0 -0.34450588037081892 -0.28462367662190302 0 -0.34891652205724832 -0.29286991805537971 0 -0.36017378121711419 -0.28141683866971062 0 -0.37433096522584453 -0.28132989654828328 0 -0.36105831684996031 -0.30543451277817618 0 -0.34891652205724832 -0.29286991805537971 0 -0.37433096522584453 -0.28132989654828328 0 -0.34891652205724832 -0.29286991805537971 0 -0.36017378121711419 -0.28141683866971062 0 -0.37433096522584453 -0.28132989654828328 0 -0.38351210912712752 -0.30253866195360818 0 -0.37433096522584453 -0.28132989654828328 0 -0.36105831684996031 -0.30543451277817618 0 -0.34891652205724832 -0.29286991805537971 0 -0.37433096522584453 -0.28132989654828328 0 -0.36105831684996031 -0.30543451277817618 0 -0.38351210912712752 -0.30253866195360818 0 -0.36105831684996031 -0.30543451277817618 0 -0.37140736883531977 -0.32183989730859341 0 -0.36105831684996031 -0.30543451277817618 0 -0.3496688877197569 -0.30429177800002122 0 -0.34586440994984541 -0.3145735322147622 0 -0.34891652205724832 -0.29286991805537971 0 -0.36105831684996031 -0.30543451277817618 0 -0.3496688877197569 -0.30429177800002122 0 -0.34891652205724832 -0.29286991805537971 0 -0.3496688877197569 -0.30429177800002122 0 -0.33956299038192078 -0.30735077663143923 0 -0.3496688877197569 -0.30429177800002122 0 -0.33956299038192078 -0.30735077663143923 0 -0.34586440994984541 -0.3145735322147622 0 -0.34891652205724832 -0.29286991805537971 0 -0.33956299038192078 -0.30735077663143923 0 -0.32350207888865212 -0.30440993956247547 0 -0.33956299038192078 -0.30735077663143923 0 -0.3301339810941622 -0.31110503031331638 0 -0.32350207888865212 -0.30440993956247547 0 -0.34891652205724832 -0.29286991805537971 0 -0.32350207888865212 -0.30440993956247547 0 -0.33956299038192078 -0.30735077663143923 0 -0.3301339810941622 -0.31110503031331638 0 -0.33675509785737662 -0.31655799101612769 0 -0.34891652205724832 -0.29286991805537971 0 -0.33611461648670682 -0.29143764798725502 0 -0.32350207888865212 -0.30440993956247547 0 -0.32888695585781391 -0.26910619260742191 0 -0.33279411355556121 -0.28213246275860349 0 -0.32507396769595592 -0.29410449247197662 0 -0.34450588037081892 -0.28462367662190302 0 -0.34891652205724832 -0.29286991805537971 0 -0.33611461648670682 -0.29143764798725502 0 -0.34450588037081892 -0.28462367662190302 0 -0.33611461648670682 -0.29143764798725502 0 -0.33279411355556121 -0.28213246275860349 0 -0.33279411355556121 -0.28213246275860349 0 -0.33070524953878982 -0.29012978506972142 0 -0.32507396769595592 -0.29410449247197662 0 -0.33611461648670682 -0.29143764798725502 0 -0.33279411355556121 -0.28213246275860349 0 -0.33070524953878982 -0.29012978506972142 0 -0.33611461648670682 -0.29143764798725502 0 -0.32742439802278828 -0.29462709162158601 0 -0.32350207888865212 -0.30440993956247547 0 -0.33611461648670682 -0.29143764798725502 0 -0.33070524953878982 -0.29012978506972142 0 -0.32742439802278828 -0.29462709162158601 0 -0.32507396769595592 -0.29410449247197662 0 -0.30234930147786221 -0.28905184696057518 0 -0.32507396769595592 -0.29410449247197662 0 -0.32350207888865212 -0.30440993956247547 0 -0.30234930147786221 -0.28905184696057518 0 -0.31480478096024378 -0.27564718726691712 0 -0.32507396769595592 -0.29410449247197662 0 -0.30234930147786221 -0.28905184696057518 0 -0.32888695585781391 -0.26910619260742191 0 -0.32507396769595592 -0.29410449247197662 0 -0.32507396769595592 -0.29410449247197662 0 -0.32742439802278828 -0.29462709162158601 0 -0.33070524953878982 -0.29012978506972142 0 -0.32507396769595592 -0.29410449247197662 0 -0.32742439802278828 -0.29462709162158601 0 -0.32302725724223008 -0.30752291379569302 0 -0.32350207888865212 -0.30440993956247547 0 -0.2999756881373381 -0.31509264677165549 0 -0.3301339810941622 -0.31110503031331638 0 -0.32302725724223008 -0.30752291379569302 0 -0.32422013968378288 -0.31561436227230438 0 -0.32302725724223008 -0.30752291379569302 0 -0.32350207888865212 -0.30440993956247547 0 -0.3301339810941622 -0.31110503031331638 0 -0.32302725724223008 -0.30752291379569302 0 -0.32350207888865212 -0.30440993956247547 0 -0.32507396769595592 -0.29410449247197662 0 -0.32742439802278828 -0.29462709162158601 0 -0.32350207888865212 -0.30440993956247547 0 -0.32507396769595592 -0.29410449247197662 0 -0.32350207888865212 -0.30440993956247547 0 -0.32302725724223008 -0.30752291379569302 0 -0.31656029902357641 -0.31849097864348519 0 -0.2999756881373381 -0.31509264677165549 0 -0.32265466046617669 -0.32198754646013139 0 -0.33127214989488979 -0.33008610863815152 0 -0.32872450059276898 -0.31896534214889599 0 -0.32265466046617669 -0.32198754646013139 0 -0.31892782856615448 -0.32825501756413727 0 -0.33127214989488979 -0.33008610863815152 0 -0.32265466046617669 -0.32198754646013139 0 -0.32422013968378288 -0.31561436227230438 0 -0.32872450059276898 -0.31896534214889599 0 -0.32302725724223008 -0.30752291379569302 0 -0.32422013968378288 -0.31561436227230438 0 -0.31656029902357641 -0.31849097864348519 0 -0.3301339810941622 -0.31110503031331638 0 -0.32422013968378288 -0.31561436227230438 0 -0.32872450059276898 -0.31896534214889599 0 -0.32265466046617669 -0.32198754646013139 0 -0.32422013968378288 -0.31561436227230438 0 -0.31656029902357641 -0.31849097864348519 0 -0.32265466046617669 -0.32198754646013139 0 -0.31656029902357641 -0.31849097864348519 0 -0.31892782856615448 -0.32825501756413727 0 -0.31656029902357641 -0.31849097864348519 0 -0.31892782856615448 -0.32825501756413727 0 -0.30936258926988919 -0.3261434941065412 0 -0.31892782856615448 -0.32825501756413727 0 -0.31208723605418232 -0.33616024018399832 0 -0.30936258926988919 -0.3261434941065412 0 -0.31892782856615448 -0.32825501756413727 0 -0.32183099473442811 -0.33958013728355868 0 -0.31208723605418232 -0.33616024018399832 0 -0.32183099473442811 -0.33958013728355868 0 -0.31234840654553953 -0.34764506024843322 0 -0.31208723605418232 -0.33616024018399832 0 -0.31892782856615448 -0.32825501756413727 0 -0.32183099473442811 -0.33958013728355868 0 -0.33127214989488979 -0.33008610863815152 0 -0.33127214989488979 -0.33008610863815152 0 -0.34778566847407638 -0.32953912900806931 0 -0.33412452318830171 -0.35434929914508079 0 -0.32183099473442811 -0.33958013728355868 0 -0.33127214989488979 -0.33008610863815152 0 -0.33412452318830171 -0.35434929914508079 0 -0.34778566847407638 -0.32953912900806931 0 -0.33412452318830171 -0.35434929914508079 0 -0.33127214989488979 -0.33008610863815152 0 -0.34035549841598117 -0.32426700585474 0 -0.34778566847407638 -0.32953912900806931 0 -0.34035549841598117 -0.32426700585474 0 -0.33427681169025408 -0.32246911191447869 0 -0.33675509785737662 -0.31655799101612769 0 -0.33127214989488979 -0.33008610863815152 0 -0.34035549841598117 -0.32426700585474 0 -0.33427681169025408 -0.32246911191447869 0 -0.33127214989488979 -0.33008610863815152 0 -0.33427681169025408 -0.32246911191447869 0 -0.32872450059276898 -0.31896534214889599 0 -0.33427681169025408 -0.32246911191447869 0 -0.32872450059276898 -0.31896534214889599 0 -0.33675509785737662 -0.31655799101612769 0 -0.3301339810941622 -0.31110503031331638 0 -0.32872450059276898 -0.31896534214889599 0 -0.33675509785737662 -0.31655799101612769 0 -0.33956299038192078 -0.30735077663143923 0 -0.33675509785737662 -0.31655799101612769 0 -0.34586440994984541 -0.3145735322147622 0 -0.34035549841598117 -0.32426700585474 0 -0.33675509785737662 -0.31655799101612769 0 -0.34586440994984541 -0.3145735322147622 0 -0.36105831684996031 -0.30543451277817618 0 -0.34778566847407638 -0.32953912900806931 0 -0.36105831684996031 -0.30543451277817618 0 -0.34586440994984541 -0.3145735322147622 0 -0.34778566847407638 -0.32953912900806931 0 -0.34035549841598117 -0.32426700585474 0 -0.34586440994984541 -0.3145735322147622 0 -0.34778566847407638 -0.32953912900806931 0 -0.34035549841598117 -0.32426700585474 0 -0.34778566847407638 -0.32953912900806931 0 -0.36105831684996031 -0.30543451277817618 0 -0.37140736883531977 -0.32183989730859341 0 -0.34778566847407638 -0.32953912900806931 0 -0.38006824781918919 -0.33243312042550199 0 -0.37140736883531977 -0.32183989730859341 0 -0.36666079927166728 -0.34293209489202431 0 -0.37140736883531977 -0.32183989730859341 0 -0.36666079927166728 -0.34293209489202431 0 -0.34778566847407638 -0.32953912900806931 0 -0.34778566847407638 -0.32953912900806931 0 -0.35170181166344461 -0.34709871950800919 0 -0.33412452318830171 -0.35434929914508079 0 -0.36666079927166728 -0.34293209489202431 0 -0.34778566847407638 -0.32953912900806931 0 -0.36666079927166728 -0.34293209489202431 0 -0.34778566847407638 -0.32953912900806931 0 -0.35170181166344461 -0.34709871950800919 0 -0.36666079927166728 -0.34293209489202431 0 -0.35170181166344461 -0.34709871950800919 0 -0.35823625571973289 -0.36157435498686258 0 -0.35170181166344461 -0.34709871950800919 0 -0.35823625571973289 -0.36157435498686258 0 -0.33412452318830171 -0.35434929914508079 0 -0.38553593006925752 -0.3563250607759802 0 -0.36666079927166728 -0.34293209489202431 0 -0.35823625571973289 -0.36157435498686258 0 -0.37549160074202448 -0.3732971907138336 0 -0.38553593006925752 -0.3563250607759802 0 -0.35823625571973289 -0.36157435498686258 0 -0.37549160074202448 -0.3732971907138336 0 -0.35823625571973289 -0.36157435498686258 0 -0.35302350150803719 -0.38208755235937009 0 -0.35823625571973289 -0.36157435498686258 0 -0.34413293857164062 -0.37054757780120701 0 -0.35302350150803719 -0.38208755235937009 0 -0.35823625571973289 -0.36157435498686258 0 -0.34413293857164062 -0.37054757780120701 0 -0.33412452318830171 -0.35434929914508079 0 -0.34413293857164062 -0.37054757780120701 0 -0.33412452318830171 -0.35434929914508079 0 -0.33519042443293379 -0.3802220457599616 0 -0.33412452318830171 -0.35434929914508079 0 -0.33519042443293379 -0.3802220457599616 0 -0.32046337790252549 -0.37915946928209171 0 -0.32183099473442811 -0.33958013728355868 0 -0.33412452318830171 -0.35434929914508079 0 -0.31234840654553953 -0.34764506024843322 0 -0.33412452318830171 -0.35434929914508079 0 -0.316806384823896 -0.36257585725837499 0 -0.31234840654553953 -0.34764506024843322 0 -0.316806384823896 -0.36257585725837499 0 -0.3002892316592175 -0.36914960035789463 0 -0.32046337790252549 -0.37915946928209171 0 -0.33412452318830171 -0.35434929914508079 0 -0.316806384823896 -0.36257585725837499 0 -0.32046337790252549 -0.37915946928209171 0 -0.33412452318830171 -0.35434929914508079 0 -0.32046337790252549 -0.37915946928209171 0 -0.3002892316592175 -0.36914960035789463 0 -0.32046337790252549 -0.37915946928209171 0 -0.3002892316592175 -0.36914960035789463 0 -0.31234840654553953 -0.34764506024843322 0 -0.29527517448125451 -0.36666176000398298 0 -0.316806384823896 -0.36257585725837499 0 -0.3002892316592175 -0.36914960035789463 0 -0.31234840654553953 -0.34764506024843322 0 -0.3002892316592175 -0.36914960035789463 0 -0.29527517448125451 -0.36666176000398298 0 -0.3002892316592175 -0.36914960035789463 0 -0.29403121103535113 -0.38030922419454549 0 -0.31234840654553953 -0.34764506024843322 0 -0.29527517448125451 -0.36666176000398298 0 -0.2976254313092957 -0.34087720338781918 0 -0.3002892316592175 -0.36914960035789463 0 -0.31234840654553953 -0.34764506024843322 0 -0.29527517448125451 -0.36666176000398298 0 -0.26926364122666091 -0.35375553660024128 0 -0.28048823453243299 -0.34080574413418752 0 -0.29527517448125451 -0.36666176000398298 0 -0.2976254313092957 -0.34087720338781918 0 -0.29527517448125451 -0.36666176000398298 0 -0.28048823453243299 -0.34080574413418752 0 -0.2976254313092957 -0.34087720338781918 0 -0.29527517448125451 -0.36666176000398298 0 -0.26926364122666091 -0.35375553660024128 0 -0.29527517448125451 -0.36666176000398298 0 -0.27994264201103719 -0.36323993691456841 0 -0.26926364122666091 -0.35375553660024128 0 -0.29527517448125451 -0.36666176000398298 0 -0.28588261091775702 -0.37268605543787447 0 -0.29403121103535113 -0.38030922419454549 0 -0.29527517448125451 -0.36666176000398298 0 -0.29403121103535113 -0.38030922419454549 0 -0.3002892316592175 -0.36914960035789463 0 -0.29527517448125451 -0.36666176000398298 0 -0.29403121103535113 -0.38030922419454549 0 -0.29527517448125451 -0.36666176000398298 0 -0.28588261091775702 -0.37268605543787447 0 -0.27994264201103719 -0.36323993691456841 0 -0.28588261091775702 -0.37268605543787447 0 -0.27994264201103719 -0.36323993691456841 0 -0.2742629371717063 -0.37916463673385931 0 -0.27994264201103719 -0.36323993691456841 0 -0.26568404082974961 -0.36651666061706623 0 -0.2742629371717063 -0.37916463673385931 0 -0.27994264201103719 -0.36323993691456841 0 -0.26568404082974961 -0.36651666061706623 0 -0.26017799311385281 -0.35268912854855933 0 -0.26568404082974961 -0.36651666061706623 0 -0.25909124390184018 -0.37475905286733341 0 -0.2742629371717063 -0.37916463673385931 0 -0.26568404082974961 -0.36651666061706623 0 -0.25909124390184018 -0.37475905286733341 0 -0.25494538795031141 -0.36273054802101118 0 -0.26568404082974961 -0.36651666061706623 0 -0.25494538795031141 -0.36273054802101118 0 -0.26017799311385281 -0.35268912854855933 0 -0.25909124390184018 -0.37475905286733341 0 -0.25494538795031141 -0.36273054802101118 0 -0.24748772700216881 -0.3717564301773445 0 -0.26017799311385281 -0.35268912854855933 0 -0.2404133442166683 -0.34213832018255058 0 -0.26926364122666091 -0.35375553660024128 0 -0.24325210797206609 -0.34084931319650169 0 -0.26017799311385281 -0.35268912854855933 0 -0.26926364122666091 -0.35375553660024128 0 -0.24325210797206609 -0.34084931319650169 0 -0.25494538795031141 -0.36273054802101118 0 -0.26017799311385281 -0.35268912854855933 0 -0.24808760514302669 -0.3536558827211943 0 -0.27994264201103719 -0.36323993691456841 0 -0.26017799311385281 -0.35268912854855933 0 -0.27994264201103719 -0.36323993691456841 0 -0.26017799311385281 -0.35268912854855933 0 -0.26926364122666091 -0.35375553660024128 0 -0.28048823453243299 -0.34080574413418752 0 -0.2621599680271573 -0.33226375772155409 0 -0.28106782808224812 -0.3236782022466056 0 -0.26926364122666091 -0.35375553660024128 0 -0.28048823453243299 -0.34080574413418752 0 -0.2621599680271573 -0.33226375772155409 0 -0.2621599680271573 -0.33226375772155409 0 -0.24518994726652291 -0.33234415230164399 0 -0.24308922262768951 -0.32099342612622928 0 -0.2621599680271573 -0.33226375772155409 0 -0.24325210797206609 -0.34084931319650169 0 -0.24518994726652291 -0.33234415230164399 0 -0.2621599680271573 -0.33226375772155409 0 -0.24325210797206609 -0.34084931319650169 0 -0.26926364122666091 -0.35375553660024128 0 -0.2621599680271573 -0.33226375772155409 0 -0.24325210797206609 -0.34084931319650169 0 -0.2621599680271573 -0.33226375772155409 0 -0.25915672867891859 -0.31415112243359272 0 -0.24308922262768951 -0.32099342612622928 0 -0.2621599680271573 -0.33226375772155409 0 -0.28106782808224812 -0.3236782022466056 0 -0.25915672867891859 -0.31415112243359272 0 -0.28106782808224812 -0.3236782022466056 0 -0.2709678639136075 -0.30238435136382452 0 -0.2621599680271573 -0.33226375772155409 0 -0.25915672867891859 -0.31415112243359272 0 -0.28106782808224812 -0.3236782022466056 0 -0.28106782808224812 -0.3236782022466056 0 -0.2999756881373381 -0.31509264677165549 0 -0.28453315598845252 -0.30841843357299598 0 -0.28106782808224812 -0.3236782022466056 0 -0.2976254313092957 -0.34087720338781918 0 -0.2999756881373381 -0.31509264677165549 0 -0.28106782808224812 -0.3236782022466056 0 -0.2999756881373381 -0.31509264677165549 0 -0.28048823453243299 -0.34080574413418752 0 -0.28106782808224812 -0.3236782022466056 0 -0.2976254313092957 -0.34087720338781918 0 -0.31234840654553953 -0.34764506024843322 0 -0.2976254313092957 -0.34087720338781918 0 -0.31208723605418232 -0.33616024018399832 0 -0.2976254313092957 -0.34087720338781918 0 -0.31208723605418232 -0.33616024018399832 0 -0.30936258926988919 -0.3261434941065412 0 -0.2976254313092957 -0.34087720338781918 0 -0.2999756881373381 -0.31509264677165549 0 -0.2976254313092957 -0.34087720338781918 0 -0.30936258926988919 -0.3261434941065412 0 -0.2999756881373381 -0.31509264677165549 0 -0.31656029902357641 -0.31849097864348519 0 -0.30936258926988919 -0.3261434941065412 0 -0.2999756881373381 -0.31509264677165549 0 -0.32350207888865212 -0.30440993956247547 0 -0.2999756881373381 -0.31509264677165549 0 -0.30234930147786221 -0.28905184696057518 0 -0.2999756881373381 -0.31509264677165549 0 -0.30234930147786221 -0.28905184696057518 0 -0.2999756881373381 -0.31509264677165549 0 -0.30234930147786221 -0.28905184696057518 0 -0.29239547880504652 -0.30127313523009702 0 -0.32350207888865212 -0.30440993956247547 0 -0.2999756881373381 -0.31509264677165549 0 -0.30234930147786221 -0.28905184696057518 0 -0.29006270545698909 -0.29189763306700739 0 -0.29239547880504652 -0.30127313523009702 0 -0.30234930147786221 -0.28905184696057518 0 -0.29006270545698909 -0.29189763306700739 0 -0.28742262680475061 -0.28573302172180548 0 -0.30234930147786221 -0.28905184696057518 0 -0.28742262680475061 -0.28573302172180548 0 -0.29006270545698909 -0.29189763306700739 0 -0.28742262680475061 -0.28573302172180548 0 -0.28158089536532038 -0.29680102193740848 0 -0.29006270545698909 -0.29189763306700739 0 -0.28158089536532038 -0.29680102193740848 0 -0.29239547880504652 -0.30127313523009702 0 -0.28158089536532038 -0.29680102193740848 0 -0.29239547880504652 -0.30127313523009702 0 -0.28453315598845252 -0.30841843357299598 0 -0.2999756881373381 -0.31509264677165549 0 -0.29239547880504652 -0.30127313523009702 0 -0.28453315598845252 -0.30841843357299598 0 -0.28106782808224812 -0.3236782022466056 0 -0.28453315598845252 -0.30841843357299598 0 -0.2709678639136075 -0.30238435136382452 0 -0.28158089536532038 -0.29680102193740848 0 -0.28453315598845252 -0.30841843357299598 0 -0.2709678639136075 -0.30238435136382452 0 -0.25915672867891859 -0.31415112243359272 0 -0.25718459078837252 -0.29759752524363881 0 -0.24047089863443691 -0.30798947189970438 0 -0.25915672867891859 -0.31415112243359272 0 -0.2709678639136075 -0.30238435136382452 0 -0.25718459078837252 -0.29759752524363881 0 -0.25718459078837252 -0.29759752524363881 0 -0.25108388684634803 -0.28956965662021522 0 -0.26792751193251091 -0.28139844079955562 0 -0.25108388684634803 -0.28956965662021522 0 -0.26792751193251091 -0.28139844079955562 0 -0.2484323970602714 -0.27706385987730509 0 -0.2709678639136075 -0.30238435136382452 0 -0.25718459078837252 -0.29759752524363881 0 -0.26792751193251091 -0.28139844079955562 0 -0.28742262680475061 -0.28573302172180548 0 -0.26792751193251091 -0.28139844079955562 0 -0.28158089536532038 -0.29680102193740848 0 -0.2709678639136075 -0.30238435136382452 0 -0.26792751193251091 -0.28139844079955562 0 -0.28742262680475061 -0.28573302172180548 0 -0.28158089536532038 -0.29680102193740848 0 -0.26792751193251091 -0.28139844079955562 0 -0.26792751193251091 -0.28139844079955562 0 -0.27965676560653041 -0.27550351800418249 0 -0.27506057922854799 -0.26523935036500679 0 -0.28742262680475061 -0.28573302172180548 0 -0.26792751193251091 -0.28139844079955562 0 -0.27965676560653041 -0.27550351800418249 0 -0.26792751193251091 -0.28139844079955562 0 -0.26170023695288303 -0.26848976391570201 0 -0.27506057922854799 -0.26523935036500679 0 -0.27965676560653041 -0.27550351800418249 0 -0.27506057922854799 -0.26523935036500679 0 -0.28821634446031208 -0.2696432591303618 0 -0.26792751193251091 -0.28139844079955562 0 -0.2484323970602714 -0.27706385987730509 0 -0.26792751193251091 -0.28139844079955562 0 -0.26170023695288303 -0.26848976391570201 0 -0.2484323970602714 -0.27706385987730509 0 -0.26170023695288303 -0.26848976391570201 0 -0.25309751137434572 -0.26289123234143091 0 -0.2484323970602714 -0.27706385987730509 0 -0.2565674865322034 -0.25340195958415102 0 -0.26524553468775469 -0.25886506807255583 0 -0.27383001930629169 -0.24744255459442921 0 -0.2565674865322034 -0.25340195958415102 0 -0.27383001930629169 -0.24744255459442921 0 -0.2565674865322034 -0.25340195958415102 0 -0.25309751137434572 -0.26289123234143091 0 -0.24233717299785959 -0.25960849866204011 0 -0.2565674865322034 -0.25340195958415102 0 -0.25309751137434572 -0.26289123234143091 0 -0.26524553468775469 -0.25886506807255583 0 -0.26170023695288303 -0.26848976391570201 0 -0.25309751137434572 -0.26289123234143091 0 -0.26524553468775469 -0.25886506807255583 0 -0.27506057922854799 -0.26523935036500679 0 -0.28942662192718172 -0.25357945894426132 0 -0.27383001930629169 -0.24744255459442921 0 -0.26524553468775469 -0.25886506807255583 0 -0.27506057922854799 -0.26523935036500679 0 -0.27383001930629169 -0.24744255459442921 0 -0.26170023695288303 -0.26848976391570201 0 -0.26524553468775469 -0.25886506807255583 0 -0.27506057922854799 -0.26523935036500679 0 -0.28942662192718172 -0.25357945894426132 0 -0.29569431645386429 -0.26311293363000732 0 -0.28821634446031208 -0.2696432591303618 0 -0.28942662192718172 -0.25357945894426132 0 -0.27383001930629169 -0.24744255459442921 0 -0.27506057922854799 -0.26523935036500679 0 -0.28942662192718172 -0.25357945894426132 0 -0.28821634446031208 -0.2696432591303618 0 -0.28942662192718172 -0.25357945894426132 0 -0.29569431645386429 -0.26311293363000732 0 -0.30502322454807101 -0.25971636329409542 0 -0.29569431645386429 -0.26311293363000732 0 -0.28821634446031208 -0.2696432591303618 0 -0.30425539613548452 -0.26814017253042433 0 -0.28742262680475061 -0.28573302172180548 0 -0.27965676560653041 -0.27550351800418249 0 -0.28821634446031208 -0.2696432591303618 0 -0.28742262680475061 -0.28573302172180548 0 -0.28821634446031208 -0.2696432591303618 0 -0.30425539613548452 -0.26814017253042433 0 -0.28742262680475061 -0.28573302172180548 0 -0.30425539613548452 -0.26814017253042433 0 -0.31480478096024378 -0.27564718726691712 0 -0.30234930147786221 -0.28905184696057518 0 -0.30425539613548452 -0.26814017253042433 0 -0.30234930147786221 -0.28905184696057518 0 -0.30425539613548452 -0.26814017253042433 0 -0.30234930147786221 -0.28905184696057518 0 -0.28742262680475061 -0.28573302172180548 0 -0.30425539613548452 -0.26814017253042433 0 -0.31480478096024378 -0.27564718726691712 0 -0.30425539613548452 -0.26814017253042433 0 -0.31032083431566337 -0.26180085087236171 0 -0.30425539613548452 -0.26814017253042433 0 -0.31032083431566337 -0.26180085087236171 0 -0.30502322454807101 -0.25971636329409542 0 -0.28942662192718172 -0.25357945894426132 0 -0.30538593138510828 -0.25573712372202267 0 -0.29948497002523827 -0.2483657822867901 0 -0.28942662192718172 -0.25357945894426132 0 -0.30502322454807101 -0.25971636329409542 0 -0.30538593138510828 -0.25573712372202267 0 -0.30425539613548452 -0.26814017253042433 0 -0.31032083431566337 -0.26180085087236171 0 -0.31032083431566337 -0.26180085087236171 0 -0.30502322454807101 -0.25971636329409542 0 -0.31032083431566337 -0.26180085087236171 0 -0.30502322454807101 -0.25971636329409542 0 -0.30538593138510828 -0.25573712372202267 0 -0.31283906540333922 -0.25031215033235238 0 -0.31032083431566337 -0.26180085087236171 0 -0.30538593138510828 -0.25573712372202267 0 -0.31283906540333922 -0.25031215033235238 0 -0.30538593138510828 -0.25573712372202267 0 -0.30623861516307299 -0.24935013043731349 0 -0.30502322454807101 -0.25971636329409542 0 -0.30538593138510828 -0.25573712372202267 0 -0.28942662192718172 -0.25357945894426132 0 -0.30502322454807101 -0.25971636329409542 0 -0.30538593138510828 -0.25573712372202267 0 -0.29948497002523827 -0.2483657822867901 0 -0.30623861516307299 -0.24935013043731349 0 -0.30425539613548452 -0.26814017253042433 0 -0.30502322454807101 -0.25971636329409542 0 -0.29569431645386429 -0.26311293363000732 0 -0.30425539613548452 -0.26814017253042433 0 -0.30502322454807101 -0.25971636329409542 0 -0.33143192801526428 -0.45396038638140679 0 -0.33152258580119082 -0.46633970128806979 0 -0.34296165509457921 -0.45730971557378147 0 -0.34069406563311189 -0.44566521365826578 0 -0.32492704317595772 -0.44077768091168912 0 -0.33812272201467081 -0.43047089330918592 0 -0.33143192801526428 -0.45396038638140679 0 -0.34069406563311189 -0.44566521365826578 0 -0.32492704317595772 -0.44077768091168912 0 -0.33143192801526428 -0.45396038638140679 0 -0.34296165509457921 -0.45730971557378147 0 -0.34069406563311189 -0.44566521365826578 0 -0.33143192801526428 -0.45396038638140679 0 -0.32492704317595772 -0.44077768091168912 0 -0.31987457796333868 -0.4551426725204325 0 -0.32492704317595772 -0.44077768091168912 0 -0.31987457796333868 -0.4551426725204325 0 -0.31015853372433788 -0.44544301337781073 0 -0.33152258580119082 -0.46633970128806979 0 -0.30592196819360068 -0.46328971004504182 0 -0.33152258580119082 -0.46633970128806979 0 -0.31987457796333868 -0.4551426725204325 0 -0.30592196819360068 -0.46328971004504182 0 -0.33152258580119082 -0.46633970128806979 0 -0.32094261384274558 -0.46854088973335889 0 -0.30592196819360068 -0.46328971004504182 0 -0.33143192801526428 -0.45396038638140679 0 -0.33152258580119082 -0.46633970128806979 0 -0.31987457796333868 -0.4551426725204325 0 -0.33152258580119082 -0.46633970128806979 0 -0.32094261384274558 -0.46854088973335889 0 -0.32966732857214198 -0.4835879285261328 0 -0.32094261384274558 -0.46854088973335889 0 -0.32966732857214198 -0.4835879285261328 0 -0.31208929727375578 -0.48491526738579699 0 -0.32221211863154181 -0.5 0 -0.32966732857214198 -0.4835879285261328 0 -0.31208929727375578 -0.48491526738579699 0 -0.32221211863154181 -0.5 0 -0.32966732857214198 -0.4835879285261328 0 -0.34860848031248309 -0.5 0 -0.32966732857214198 -0.4835879285261328 0 -0.34707385437868848 -0.48052394199199022 0 -0.34860848031248309 -0.5 0 -0.33152258580119082 -0.46633970128806979 0 -0.32966732857214198 -0.4835879285261328 0 -0.34707385437868848 -0.48052394199199022 0 -0.33152258580119082 -0.46633970128806979 0 -0.3571232034087809 -0.46938969253109791 0 -0.34707385437868848 -0.48052394199199022 0 -0.3571232034087809 -0.46938969253109791 0 -0.34707385437868848 -0.48052394199199022 0 -0.36652141413456929 -0.48474993749143802 0 -0.34707385437868848 -0.48052394199199022 0 -0.34860848031248309 -0.5 0 -0.36652141413456929 -0.48474993749143802 0 -0.37500484199342449 -0.5 0 -0.34860848031248309 -0.5 0 -0.36652141413456929 -0.48474993749143802 0 -0.38272382101637098 -0.47243968377412587 0 -0.3571232034087809 -0.46938969253109791 0 -0.36652141413456929 -0.48474993749143802 0 -0.38272382101637098 -0.47243968377412587 0 -0.3571232034087809 -0.46938969253109791 0 -0.38265619596279349 -0.45813348326120767 0 -0.38272382101637098 -0.47243968377412587 0 -0.3571232034087809 -0.46938969253109791 0 -0.38265619596279349 -0.45813348326120767 0 -0.3571232034087809 -0.46938969253109791 0 -0.35544663641047641 -0.4489101100326689 0 -0.38265619596279349 -0.45813348326120767 0 -0.35544663641047641 -0.4489101100326689 0 -0.34296165509457921 -0.45730971557378147 0 -0.3571232034087809 -0.46938969253109791 0 -0.35544663641047641 -0.4489101100326689 0 -0.33152258580119082 -0.46633970128806979 0 -0.3571232034087809 -0.46938969253109791 0 -0.33152258580119082 -0.46633970128806979 0 -0.34296165509457921 -0.45730971557378147 0 -0.3571232034087809 -0.46938969253109791 0 -0.34069406563311189 -0.44566521365826578 0 -0.35544663641047641 -0.4489101100326689 0 -0.35372302635176472 -0.43532257313283612 0 -0.34296165509457921 -0.45730971557378147 0 -0.34069406563311189 -0.44566521365826578 0 -0.35544663641047641 -0.4489101100326689 0 -0.35544663641047641 -0.4489101100326689 0 -0.3723601590800425 -0.44005613486137668 0 -0.35372302635176472 -0.43532257313283612 0 -0.38265619596279349 -0.45813348326120767 0 -0.35544663641047641 -0.4489101100326689 0 -0.3723601590800425 -0.44005613486137668 0 -0.38028594703985957 -0.42392304976487449 0 -0.3723601590800425 -0.44005613486137668 0 -0.36423780173753523 -0.4264797532188066 0 -0.3723601590800425 -0.44005613486137668 0 -0.36423780173753523 -0.4264797532188066 0 -0.35372302635176472 -0.43532257313283612 0 -0.38028594703985957 -0.42392304976487449 0 -0.36423780173753523 -0.4264797532188066 0 -0.36590226101420908 -0.41270082520662749 0 -0.36423780173753523 -0.4264797532188066 0 -0.36590226101420908 -0.41270082520662749 0 -0.35147677323475168 -0.42035333371671318 0 -0.36590226101420908 -0.41270082520662749 0 -0.35147677323475168 -0.42035333371671318 0 -0.35184044830027089 -0.40346733636007898 0 -0.35147677323475168 -0.42035333371671318 0 -0.35184044830027089 -0.40346733636007898 0 -0.33675831632547681 -0.41105613646481343 0 -0.35147677323475168 -0.42035333371671318 0 -0.35372302635176472 -0.43532257313283612 0 -0.33812272201467081 -0.43047089330918592 0 -0.34069406563311189 -0.44566521365826578 0 -0.35372302635176472 -0.43532257313283612 0 -0.33812272201467081 -0.43047089330918592 0 -0.36423780173753523 -0.4264797532188066 0 -0.35147677323475168 -0.42035333371671318 0 -0.35372302635176472 -0.43532257313283612 0 -0.37549160074202448 -0.3732971907138336 0 -0.36544727141479139 -0.39026932065168712 0 -0.37549160074202448 -0.3732971907138336 0 -0.36544727141479139 -0.39026932065168712 0 -0.35302350150803719 -0.38208755235937009 0 -0.36590226101420908 -0.41270082520662749 0 -0.36544727141479139 -0.39026932065168712 0 -0.35184044830027089 -0.40346733636007898 0 -0.38114412328536468 -0.40833987260765031 0 -0.36590226101420908 -0.41270082520662749 0 -0.36544727141479139 -0.39026932065168712 0 -0.35184044830027089 -0.40346733636007898 0 -0.35302350150803719 -0.38208755235937009 0 -0.34082557137486691 -0.39523504024196021 0 -0.36544727141479139 -0.39026932065168712 0 -0.35184044830027089 -0.40346733636007898 0 -0.35302350150803719 -0.38208755235937009 0 -0.34413293857164062 -0.37054757780120701 0 -0.35302350150803719 -0.38208755235937009 0 -0.33519042443293379 -0.3802220457599616 0 -0.35302350150803719 -0.38208755235937009 0 -0.33519042443293379 -0.3802220457599616 0 -0.34082557137486691 -0.39523504024196021 0 -0.33519042443293379 -0.3802220457599616 0 -0.32808226850220168 -0.39240284671641351 0 -0.3247168406287716 -0.38559411673624039 0 -0.33519042443293379 -0.3802220457599616 0 -0.34082557137486691 -0.39523504024196021 0 -0.32808226850220168 -0.39240284671641351 0 -0.34082557137486691 -0.39523504024196021 0 -0.32808226850220168 -0.39240284671641351 0 -0.33675831632547681 -0.41105613646481343 0 -0.32808226850220168 -0.39240284671641351 0 -0.33675831632547681 -0.41105613646481343 0 -0.3206477944579052 -0.41019310838576051 0 -0.35184044830027089 -0.40346733636007898 0 -0.34082557137486691 -0.39523504024196021 0 -0.33675831632547681 -0.41105613646481343 0 -0.32808226850220168 -0.39240284671641351 0 -0.31437491003333667 -0.39021680895226152 0 -0.3206477944579052 -0.41019310838576051 0 -0.32808226850220168 -0.39240284671641351 0 -0.3247168406287716 -0.38559411673624039 0 -0.31437491003333667 -0.39021680895226152 0 -0.31437491003333667 -0.39021680895226152 0 -0.32046337790252549 -0.37915946928209171 0 -0.30588070030683939 -0.38181824174751872 0 -0.3247168406287716 -0.38559411673624039 0 -0.31437491003333667 -0.39021680895226152 0 -0.32046337790252549 -0.37915946928209171 0 -0.31437491003333667 -0.39021680895226152 0 -0.32046337790252549 -0.37915946928209171 0 -0.33519042443293379 -0.3802220457599616 0 -0.3247168406287716 -0.38559411673624039 0 -0.32046337790252549 -0.37915946928209171 0 -0.32492704317595772 -0.44077768091168912 0 -0.33812272201467081 -0.43047089330918592 0 -0.32670905357880831 -0.42305010768611329 0 -0.35147677323475168 -0.42035333371671318 0 -0.33812272201467081 -0.43047089330918592 0 -0.33675831632547681 -0.41105613646481343 0 -0.33812272201467081 -0.43047089330918592 0 -0.33675831632547681 -0.41105613646481343 0 -0.32670905357880831 -0.42305010768611329 0 -0.33675831632547681 -0.41105613646481343 0 -0.3206477944579052 -0.41019310838576051 0 -0.32670905357880831 -0.42305010768611329 0 -0.3206477944579052 -0.41019310838576051 0 -0.31307232924124478 -0.42559811140412351 0 -0.32670905357880831 -0.42305010768611329 0 -0.32492704317595772 -0.44077768091168912 0 -0.31307232924124478 -0.42559811140412351 0 -0.31015853372433788 -0.44544301337781073 0 -0.32492704317595772 -0.44077768091168912 0 -0.31307232924124478 -0.42559811140412351 0 -0.32670905357880831 -0.42305010768611329 0 -0.31307232924124478 -0.42559811140412351 0 -0.29907098912325059 -0.43374406761790368 0 -0.29851577765410048 -0.41098608612968202 0 -0.31307232924124478 -0.42559811140412351 0 -0.29907098912325059 -0.43374406761790368 0 -0.31015853372433788 -0.44544301337781073 0 -0.3206477944579052 -0.41019310838576051 0 -0.31307232924124478 -0.42559811140412351 0 -0.29851577765410048 -0.41098608612968202 0 -0.3206477944579052 -0.41019310838576051 0 -0.29851577765410048 -0.41098608612968202 0 -0.29851577765410048 -0.41098608612968202 0 -0.27638376085029581 -0.41177906387360241 0 -0.29851577765410048 -0.41098608612968202 0 -0.28520748594282241 -0.3960441440340734 0 -0.27638376085029581 -0.41177906387360241 0 -0.29851577765410048 -0.41098608612968202 0 -0.28540276919059199 -0.42535658303670731 0 -0.27638376085029581 -0.41177906387360241 0 -0.29907098912325059 -0.43374406761790368 0 -0.29851577765410048 -0.41098608612968202 0 -0.28540276919059199 -0.42535658303670731 0 -0.28540276919059199 -0.42535658303670731 0 -0.27848929033898201 -0.43669604725877897 0 -0.28902284908971709 -0.44016681433255572 0 -0.29907098912325059 -0.43374406761790368 0 -0.28540276919059199 -0.42535658303670731 0 -0.28902284908971709 -0.44016681433255572 0 -0.3002892316592175 -0.36914960035789463 0 -0.32046337790252549 -0.37915946928209171 0 -0.30588070030683939 -0.38181824174751872 0 -0.3002892316592175 -0.36914960035789463 0 -0.29819443980788141 -0.38001079285233907 0 -0.30588070030683939 -0.38181824174751872 0 -0.3002892316592175 -0.36914960035789463 0 -0.29819443980788141 -0.38001079285233907 0 -0.29403121103535113 -0.38030922419454549 0 -0.31437491003333667 -0.39021680895226152 0 -0.30588070030683939 -0.38181824174751872 0 -0.30232780815510779 -0.39560758766926629 0 -0.29819443980788141 -0.38001079285233907 0 -0.30588070030683939 -0.38181824174751872 0 -0.29681739610749358 -0.387616864260033 0 -0.30588070030683939 -0.38181824174751872 0 -0.30232780815510779 -0.39560758766926629 0 -0.29681739610749358 -0.387616864260033 0 -0.31437491003333667 -0.39021680895226152 0 -0.3206477944579052 -0.41019310838576051 0 -0.30232780815510779 -0.39560758766926629 0 -0.3206477944579052 -0.41019310838576051 0 -0.29851577765410048 -0.41098608612968202 0 -0.30232780815510779 -0.39560758766926629 0 -0.30232780815510779 -0.39560758766926629 0 -0.28520748594282241 -0.3960441440340734 0 -0.29681739610749358 -0.387616864260033 0 -0.29851577765410048 -0.41098608612968202 0 -0.30232780815510779 -0.39560758766926629 0 -0.28520748594282241 -0.3960441440340734 0 -0.28520748594282241 -0.3960441440340734 0 -0.28484606126690931 -0.38205101510008821 0 -0.29403121103535113 -0.38030922419454549 0 -0.28520748594282241 -0.3960441440340734 0 -0.29403121103535113 -0.38030922419454549 0 -0.28520748594282241 -0.3960441440340734 0 -0.29681739610749358 -0.387616864260033 0 -0.29403121103535113 -0.38030922419454549 0 -0.28520748594282241 -0.3960441440340734 0 -0.28484606126690931 -0.38205101510008821 0 -0.2742629371717063 -0.37916463673385931 0 -0.28588261091775702 -0.37268605543787447 0 -0.28484606126690931 -0.38205101510008821 0 -0.2742629371717063 -0.37916463673385931 0 -0.28588261091775702 -0.37268605543787447 0 -0.28484606126690931 -0.38205101510008821 0 -0.29403121103535113 -0.38030922419454549 0 -0.29819443980788141 -0.38001079285233907 0 -0.29681739610749358 -0.387616864260033 0 -0.29403121103535113 -0.38030922419454549 0 -0.28520748594282241 -0.3960441440340734 0 -0.2742629371717063 -0.37916463673385931 0 -0.26755910350718881 -0.39582792531461569 0 -0.2742629371717063 -0.37916463673385931 0 -0.26755910350718881 -0.39582792531461569 0 -0.26281209396899169 -0.38517470131063508 0 -0.28520748594282241 -0.3960441440340734 0 -0.27638376085029581 -0.41177906387360241 0 -0.28520748594282241 -0.3960441440340734 0 -0.26755910350718881 -0.39582792531461569 0 -0.27638376085029581 -0.41177906387360241 0 -0.26755910350718881 -0.39582792531461569 0 -0.25033509129523179 -0.39094719032673231 0 -0.25487024651921952 -0.41254988102096568 0 -0.26755910350718881 -0.39582792531461569 0 -0.25033509129523179 -0.39094719032673231 0 -0.26281209396899169 -0.38517470131063508 0 -0.25909124390184018 -0.37475905286733341 0 -0.25033509129523179 -0.39094719032673231 0 -0.26281209396899169 -0.38517470131063508 0 -0.25909124390184018 -0.37475905286733341 0 -0.25033509129523179 -0.39094719032673231 0 -0.24748772700216881 -0.3717564301773445 0 -0.25909124390184018 -0.37475905286733341 0 -0.2742629371717063 -0.37916463673385931 0 -0.26281209396899169 -0.38517470131063508 0 -0.26911429951178012 -0.42474234074800371 0 -0.27848929033898201 -0.43669604725877897 0 -0.26690007516498948 -0.44242471351124879 0 -0.28540276919059199 -0.42535658303670731 0 -0.26911429951178012 -0.42474234074800371 0 -0.27848929033898201 -0.43669604725877897 0 -0.27638376085029581 -0.41177906387360241 0 -0.25487024651921952 -0.41254988102096568 0 -0.28540276919059199 -0.42535658303670731 0 -0.26911429951178012 -0.42474234074800371 0 -0.27638376085029581 -0.41177906387360241 0 -0.26911429951178012 -0.42474234074800371 0 -0.27638376085029581 -0.41177906387360241 0 -0.25487024651921952 -0.41254988102096568 0 -0.26755910350718881 -0.39582792531461569 0 -0.27638376085029581 -0.41177906387360241 0 -0.25487024651921952 -0.41254988102096568 0 -0.26911429951178012 -0.42474234074800371 0 -0.27638376085029581 -0.41177906387360241 0 -0.26911429951178012 -0.42474234074800371 0 -0.25908880606166329 -0.43064529781943001 0 -0.26690007516498948 -0.44242471351124879 0 -0.25487024651921952 -0.41254988102096568 0 -0.25908880606166329 -0.43064529781943001 0 -0.2468605885266735 -0.43014712497011809 0 -0.26911429951178012 -0.42474234074800371 0 -0.25487024651921952 -0.41254988102096568 0 -0.25908880606166329 -0.43064529781943001 0 -0.25908880606166329 -0.43064529781943001 0 -0.25479397652280911 -0.44050862113911837 0 -0.2468605885266735 -0.43014712497011809 0 -0.25479397652280911 -0.44050862113911837 0 -0.2546108597688766 -0.45375703833677078 0 -0.2450571310604201 -0.44414202720417628 0 -0.25479397652280911 -0.44050862113911837 0 -0.2546108597688766 -0.45375703833677078 0 -0.26690007516498948 -0.44242471351124879 0 -0.2546108597688766 -0.45375703833677078 0 -0.26838297633475061 -0.45652413347846638 0 -0.26690007516498948 -0.44242471351124879 0 -0.25908880606166329 -0.43064529781943001 0 -0.25479397652280911 -0.44050862113911837 0 -0.26690007516498948 -0.44242471351124879 0 -0.25109629719050858 -0.46406488014867903 0 -0.2546108597688766 -0.45375703833677078 0 -0.26079873433517492 -0.46936342421069649 0 -0.2546108597688766 -0.45375703833677078 0 -0.26838297633475061 -0.45652413347846638 0 -0.26079873433517492 -0.46936342421069649 0 -0.27799569035848881 -0.46687050799545499 0 -0.26838297633475061 -0.45652413347846638 0 -0.26079873433517492 -0.46936342421069649 0 -0.27799569035848881 -0.46687050799545499 0 -0.26838297633475061 -0.45652413347846638 0 -0.28160952204622303 -0.450204983338161 0 -0.26838297633475061 -0.45652413347846638 0 -0.26690007516498948 -0.44242471351124879 0 -0.28160952204622303 -0.450204983338161 0 -0.27848929033898201 -0.43669604725877897 0 -0.26690007516498948 -0.44242471351124879 0 -0.28160952204622303 -0.450204983338161 0 -0.29907098912325059 -0.43374406761790368 0 -0.28902284908971709 -0.44016681433255572 0 -0.29708038679871529 -0.44973292283788502 0 -0.27848929033898201 -0.43669604725877897 0 -0.28902284908971709 -0.44016681433255572 0 -0.28160952204622303 -0.450204983338161 0 -0.28902284908971709 -0.44016681433255572 0 -0.28160952204622303 -0.450204983338161 0 -0.29708038679871529 -0.44973292283788502 0 -0.27799569035848881 -0.46687050799545499 0 -0.29150619976335518 -0.46129715127825488 0 -0.29492343141974797 -0.47638763217473168 0 -0.27799569035848881 -0.46687050799545499 0 -0.28160952204622303 -0.450204983338161 0 -0.29150619976335518 -0.46129715127825488 0 -0.28160952204622303 -0.450204983338161 0 -0.29150619976335518 -0.46129715127825488 0 -0.29708038679871529 -0.44973292283788502 0 -0.29150619976335518 -0.46129715127825488 0 -0.30592196819360068 -0.46328971004504182 0 -0.29708038679871529 -0.44973292283788502 0 -0.31987457796333868 -0.4551426725204325 0 -0.30592196819360068 -0.46328971004504182 0 -0.31015853372433788 -0.44544301337781073 0 -0.29150619976335518 -0.46129715127825488 0 -0.30592196819360068 -0.46328971004504182 0 -0.29492343141974797 -0.47638763217473168 0 -0.29907098912325059 -0.43374406761790368 0 -0.31015853372433788 -0.44544301337781073 0 -0.29708038679871529 -0.44973292283788502 0 -0.30592196819360068 -0.46328971004504182 0 -0.31015853372433788 -0.44544301337781073 0 -0.29708038679871529 -0.44973292283788502 0 -0.31208929727375578 -0.48491526738579699 0 -0.29492343141974797 -0.47638763217473168 0 -0.29581575695060047 -0.5 0 -0.32221211863154181 -0.5 0 -0.31208929727375578 -0.48491526738579699 0 -0.29581575695060047 -0.5 0 -0.32094261384274558 -0.46854088973335889 0 -0.30592196819360068 -0.46328971004504182 0 -0.29492343141974797 -0.47638763217473168 0 -0.32094261384274558 -0.46854088973335889 0 -0.29492343141974797 -0.47638763217473168 0 -0.32094261384274558 -0.46854088973335889 0 -0.31208929727375578 -0.48491526738579699 0 -0.29492343141974797 -0.47638763217473168 0 -0.29492343141974797 -0.47638763217473168 0 -0.26890424899675031 -0.48423437461610452 0 -0.29492343141974797 -0.47638763217473168 0 -0.28441593737837417 -0.48860776134254891 0 -0.26890424899675031 -0.48423437461610452 0 -0.29492343141974797 -0.47638763217473168 0 -0.28441593737837417 -0.48860776134254891 0 -0.29581575695060047 -0.5 0 -0.28441593737837417 -0.48860776134254891 0 -0.29581575695060047 -0.5 0 -0.26941939526965919 -0.5 0 -0.28441593737837417 -0.48860776134254891 0 -0.26941939526965919 -0.5 0 -0.26890424899675031 -0.48423437461610452 0 -0.27799569035848881 -0.46687050799545499 0 -0.29492343141974797 -0.47638763217473168 0 -0.26890424899675031 -0.48423437461610452 0 -0.27799569035848881 -0.46687050799545499 0 -0.26890424899675031 -0.48423437461610452 0 -0.26079873433517492 -0.46936342421069649 0 -0.26890424899675031 -0.48423437461610452 0 -0.26079873433517492 -0.46936342421069649 0 -0.25379328426056558 -0.48205965705463422 0 -0.26079873433517492 -0.46936342421069649 0 -0.25379328426056558 -0.48205965705463422 0 -0.250874604213362 -0.47391739130808008 0 -0.25109629719050858 -0.46406488014867903 0 -0.26079873433517492 -0.46936342421069649 0 -0.250874604213362 -0.47391739130808008 0 -0.26941939526965919 -0.5 0 -0.26890424899675031 -0.48423437461610452 0 -0.2544134183364497 -0.49413622749019132 0 -0.26941939526965919 -0.5 0 -0.2544134183364497 -0.49413622749019132 0 -0.2430230335887178 -0.5 0 -0.26890424899675031 -0.48423437461610452 0 -0.2544134183364497 -0.49413622749019132 0 -0.24288506657375261 -0.49208111705747781 0 -0.26890424899675031 -0.48423437461610452 0 -0.25379328426056558 -0.48205965705463422 0 -0.24288506657375261 -0.49208111705747781 0 -0.26890424899675031 -0.48423437461610452 0 -0.24288506657375261 -0.49208111705747781 0 -0.2544134183364497 -0.49413622749019132 0 -0.2430230335887178 -0.5 0 -0.24783534725336881 -0.49436564577737419 0 -0.2544134183364497 -0.49413622749019132 0 -0.24783534725336881 -0.49436564577737419 0 -0.24288506657375261 -0.49208111705747781 0 -0.2430230335887178 -0.5 0 -0.24783534725336881 -0.49436564577737419 0 -0.24288506657375261 -0.49208111705747781 0 -0.24783534725336881 -0.49436564577737419 0 -0.24288506657375261 -0.49208111705747781 0 -0.24288506657375261 -0.49208111705747781 0 -0.24429345028001889 -0.4821559175287794 0 -0.23457410743521059 -0.47899140825596259 0 -0.25379328426056558 -0.48205965705463422 0 -0.24288506657375261 -0.49208111705747781 0 -0.24429345028001889 -0.4821559175287794 0 -0.25379328426056558 -0.48205965705463422 0 -0.250874604213362 -0.47391739130808008 0 -0.24429345028001889 -0.4821559175287794 0 -0.24429345028001889 -0.4821559175287794 0 -0.2443912550005416 -0.47194307759761112 0 -0.2395637252682277 -0.47605318874815389 0 -0.25109629719050858 -0.46406488014867903 0 -0.250874604213362 -0.47391739130808008 0 -0.2443912550005416 -0.47194307759761112 0 -0.250874604213362 -0.47391739130808008 0 -0.24429345028001889 -0.4821559175287794 0 -0.2443912550005416 -0.47194307759761112 0 -0.2443912550005416 -0.47194307759761112 0 -0.2395637252682277 -0.47605318874815389 0 -0.23499608835713959 -0.47112235161026261 0 -0.2395637252682277 -0.47605318874815389 0 -0.23499608835713959 -0.47112235161026261 0 -0.23457410743521059 -0.47899140825596259 0 -0.24429345028001889 -0.4821559175287794 0 -0.2395637252682277 -0.47605318874815389 0 -0.23457410743521059 -0.47899140825596259 0 -0.23457410743521059 -0.47899140825596259 0 -0.2250369990674011 -0.47003999804886298 0 -0.2204246459600448 -0.48171575006642248 0 -0.24288506657375261 -0.49208111705747781 0 -0.23457410743521059 -0.47899140825596259 0 -0.2204246459600448 -0.48171575006642248 0 -0.23499608835713959 -0.47112235161026261 0 -0.23457410743521059 -0.47899140825596259 0 -0.2250369990674011 -0.47003999804886298 0 -0.2430230335887178 -0.5 0 -0.24288506657375261 -0.49208111705747781 0 -0.21662667190777651 -0.49999999999999939 0 -0.24288506657375261 -0.49208111705747781 0 -0.21662667190777651 -0.49999999999999939 0 -0.24288506657375261 -0.49208111705747781 0 -0.2204246459600448 -0.48171575006642248 0 -0.24288506657375261 -0.49208111705747781 0 -0.2204246459600448 -0.48171575006642248 0 -0.21662667190777651 -0.49999999999999939 0 -0.2450571310604201 -0.44414202720417628 0 -0.23716380350122879 -0.45645441389937441 0 -0.23280677558438309 -0.43386548686292281 0 -0.2546108597688766 -0.45375703833677078 0 -0.2450571310604201 -0.44414202720417628 0 -0.23716380350122879 -0.45645441389937441 0 -0.25479397652280911 -0.44050862113911837 0 -0.2450571310604201 -0.44414202720417628 0 -0.2468605885266735 -0.43014712497011809 0 -0.25109629719050858 -0.46406488014867903 0 -0.2546108597688766 -0.45375703833677078 0 -0.23716380350122879 -0.45645441389937441 0 -0.25109629719050858 -0.46406488014867903 0 -0.2443912550005416 -0.47194307759761112 0 -0.23716380350122879 -0.45645441389937441 0 -0.2443912550005416 -0.47194307759761112 0 -0.23499608835713959 -0.47112235161026261 0 -0.23716380350122879 -0.45645441389937441 0 -0.2250369990674011 -0.47003999804886298 0 -0.21844010846223411 -0.44206575668227449 0 -0.2250369990674011 -0.47003999804886298 0 -0.23716380350122879 -0.45645441389937441 0 -0.21844010846223411 -0.44206575668227449 0 -0.23499608835713959 -0.47112235161026261 0 -0.2250369990674011 -0.47003999804886298 0 -0.23716380350122879 -0.45645441389937441 0 -0.23716380350122879 -0.45645441389937441 0 -0.21844010846223411 -0.44206575668227449 0 -0.23280677558438309 -0.43386548686292281 0 -0.21844010846223411 -0.44206575668227449 0 -0.21054881561508179 -0.46151962797655111 0 -0.19087809923939161 -0.44242625200982799 0 -0.2250369990674011 -0.47003999804886298 0 -0.21844010846223411 -0.44206575668227449 0 -0.21054881561508179 -0.46151962797655111 0 -0.21054881561508179 -0.46151962797655111 0 -0.19087809923939161 -0.44242625200982799 0 -0.1979642253463372 -0.47135038307536692 0 -0.19087809923939161 -0.44242625200982799 0 -0.1979642253463372 -0.47135038307536692 0 -0.17550380473262961 -0.46098501608431119 0 -0.2039060436575347 -0.48788306012054039 0 -0.21662667190777651 -0.49999999999999939 0 -0.191185415407293 -0.5 0 -0.2204246459600448 -0.48171575006642248 0 -0.2039060436575347 -0.48788306012054039 0 -0.21662667190777651 -0.49999999999999939 0 -0.2250369990674011 -0.47003999804886298 0 -0.2204246459600448 -0.48171575006642248 0 -0.21054881561508179 -0.46151962797655111 0 -0.2204246459600448 -0.48171575006642248 0 -0.2039060436575347 -0.48788306012054039 0 -0.1979642253463372 -0.47135038307536692 0 -0.2204246459600448 -0.48171575006642248 0 -0.1979642253463372 -0.47135038307536692 0 -0.2204246459600448 -0.48171575006642248 0 -0.21054881561508179 -0.46151962797655111 0 -0.1979642253463372 -0.47135038307536692 0 -0.2039060436575347 -0.48788306012054039 0 -0.1979642253463372 -0.47135038307536692 0 -0.18170511770794731 -0.48283447360099019 0 -0.2039060436575347 -0.48788306012054039 0 -0.191185415407293 -0.5 0 -0.18170511770794731 -0.48283447360099019 0 -0.191185415407293 -0.5 0 -0.16574415890680941 -0.5 0 -0.18170511770794731 -0.48283447360099019 0 -0.16574415890680941 -0.5 0 -0.18170511770794731 -0.48283447360099019 0 -0.1559270581970803 -0.47678838232572268 0 -0.18170511770794731 -0.48283447360099019 0 -0.17550380473262961 -0.46098501608431119 0 -0.1559270581970803 -0.47678838232572268 0 -0.1979642253463372 -0.47135038307536692 0 -0.18170511770794731 -0.48283447360099019 0 -0.17550380473262961 -0.46098501608431119 0 -0.1979642253463372 -0.47135038307536692 0 -0.17550380473262961 -0.46098501608431119 0 -0.19087809923939161 -0.44242625200982799 0 -0.17550380473262961 -0.46098501608431119 0 -0.16487953686040341 -0.43668708651363358 0 -0.17550380473262961 -0.46098501608431119 0 -0.15866236735209521 -0.45377864165300308 0 -0.16487953686040341 -0.43668708651363358 0 -0.17550380473262961 -0.46098501608431119 0 -0.15866236735209521 -0.45377864165300308 0 -0.1559270581970803 -0.47678838232572268 0 -0.15866236735209521 -0.45377864165300308 0 -0.14280129841846509 -0.46103953978105727 0 -0.1559270581970803 -0.47678838232572268 0 -0.15866236735209521 -0.45377864165300308 0 -0.14280129841846509 -0.46103953978105727 0 -0.1438484805828521 -0.43705968193712769 0 -0.15866236735209521 -0.45377864165300308 0 -0.1438484805828521 -0.43705968193712769 0 -0.16487953686040341 -0.43668708651363358 0 -0.14280129841846509 -0.46103953978105727 0 -0.13093011984253891 -0.44972195681556543 0 -0.1438484805828521 -0.43705968193712769 0 -0.13093011984253891 -0.44972195681556543 0 -0.1438484805828521 -0.43705968193712769 0 -0.123519809913229 -0.43733662075251151 0 -0.14280129841846509 -0.46103953978105727 0 -0.13093011984253891 -0.44972195681556543 0 -0.12704973474613379 -0.46277216333596533 0 -0.14280129841846509 -0.46103953978105727 0 -0.12704973474613379 -0.46277216333596533 0 -0.13010403334985379 -0.48000251283874379 0 -0.13010403334985379 -0.48000251283874379 0 -0.1403029024063259 -0.5 0 -0.1148616459058424 -0.5 0 -0.16574415890680941 -0.5 0 -0.1403029024063259 -0.5 0 -0.1559270581970803 -0.47678838232572268 0 -0.13010403334985379 -0.48000251283874379 0 -0.1403029024063259 -0.5 0 -0.1559270581970803 -0.47678838232572268 0 -0.14280129841846509 -0.46103953978105727 0 -0.13010403334985379 -0.48000251283874379 0 -0.1559270581970803 -0.47678838232572268 0 -0.13724659116883831 -0.38156720383825199 0 -0.13696324729183901 -0.40051159333262831 0 -0.1562511533772393 -0.40085091578326698 0 -0.13696324729183901 -0.40051159333262831 0 -0.14428023194946249 -0.41611080081516499 0 -0.1562511533772393 -0.40085091578326698 0 -0.13724659116883831 -0.38156720383825199 0 -0.1562511533772393 -0.40085091578326698 0 -0.1663441030446621 -0.37717300760659073 0 -0.13724659116883831 -0.38156720383825199 0 -0.11827115974421661 -0.40327967795429231 0 -0.13724659116883831 -0.38156720383825199 0 -0.13696324729183901 -0.40051159333262831 0 -0.11827115974421661 -0.40327967795429231 0 -0.13696324729183901 -0.40051159333262831 0 -0.12597911368703019 -0.41952469120143437 0 -0.14428023194946249 -0.41611080081516499 0 -0.13696324729183901 -0.40051159333262831 0 -0.12597911368703019 -0.41952469120143437 0 -0.11827115974421661 -0.40327967795429231 0 -0.12597911368703019 -0.41952469120143437 0 -0.1438484805828521 -0.43705968193712769 0 -0.123519809913229 -0.43733662075251151 0 -0.12597911368703019 -0.41952469120143437 0 -0.1438484805828521 -0.43705968193712769 0 -0.14428023194946249 -0.41611080081516499 0 -0.1438484805828521 -0.43705968193712769 0 -0.16487953686040341 -0.43668708651363358 0 -0.1579375607246061 -0.42228606781690858 0 -0.1438484805828521 -0.43705968193712769 0 -0.14428023194946249 -0.41611080081516499 0 -0.1579375607246061 -0.42228606781690858 0 -0.14428023194946249 -0.41611080081516499 0 -0.1579375607246061 -0.42228606781690858 0 -0.1562511533772393 -0.40085091578326698 0 -0.1717517290487513 -0.41486076781395709 0 -0.1579375607246061 -0.42228606781690858 0 -0.1562511533772393 -0.40085091578326698 0 -0.1717517290487513 -0.41486076781395709 0 -0.16487953686040341 -0.43668708651363358 0 -0.1579375607246061 -0.42228606781690858 0 -0.1717517290487513 -0.41486076781395709 0 -0.16487953686040341 -0.43668708651363358 0 -0.19087809923939161 -0.44242625200982799 0 -0.16487953686040341 -0.43668708651363358 0 -0.18049207608238291 -0.42812424827546058 0 -0.1717517290487513 -0.41486076781395709 0 -0.16487953686040341 -0.43668708651363358 0 -0.18049207608238291 -0.42812424827546058 0 -0.1717517290487513 -0.41486076781395709 0 -0.18680736564207029 -0.41498853585306777 0 -0.17862392123709919 -0.39303444911428059 0 -0.1717517290487513 -0.41486076781395709 0 -0.18049207608238291 -0.42812424827546058 0 -0.18680736564207029 -0.41498853585306777 0 -0.18680736564207029 -0.41498853585306777 0 -0.17862392123709919 -0.39303444911428059 0 -0.19656737959219739 -0.40219111980173922 0 -0.1717517290487513 -0.41486076781395709 0 -0.17862392123709919 -0.39303444911428059 0 -0.1717517290487513 -0.41486076781395709 0 -0.17862392123709919 -0.39303444911428059 0 -0.1562511533772393 -0.40085091578326698 0 -0.17862392123709919 -0.39303444911428059 0 -0.1562511533772393 -0.40085091578326698 0 -0.1663441030446621 -0.37717300760659073 0 -0.17862392123709919 -0.39303444911428059 0 -0.1663441030446621 -0.37717300760659073 0 -0.1854961134254472 -0.37120813041460421 0 -0.17862392123709919 -0.39303444911428059 0 -0.1854961134254472 -0.37120813041460421 0 -0.17862392123709919 -0.39303444911428059 0 -0.20527564977482679 -0.38624161667098289 0 -0.1854961134254472 -0.37120813041460421 0 -0.17862392123709919 -0.39303444911428059 0 -0.19656737959219739 -0.40219111980173922 0 -0.20527564977482679 -0.38624161667098289 0 -0.20527564977482679 -0.38624161667098289 0 -0.2118432178570665 -0.41409151531568628 0 -0.2281799985799623 -0.39436158075255778 0 -0.19656737959219739 -0.40219111980173922 0 -0.20527564977482679 -0.38624161667098289 0 -0.2118432178570665 -0.41409151531568628 0 -0.20527564977482679 -0.38624161667098289 0 -0.2118432178570665 -0.41409151531568628 0 -0.20527564977482679 -0.38624161667098289 0 -0.22195794658956111 -0.37463091785279867 0 -0.21168543115216709 -0.36681117402183649 0 -0.20527564977482679 -0.38624161667098289 0 -0.2281799985799623 -0.39436158075255778 0 -0.22195794658956111 -0.37463091785279867 0 -0.18049207608238291 -0.42812424827546058 0 -0.18680736564207029 -0.41498853585306777 0 -0.19899408631087909 -0.4269358685541359 0 -0.19087809923939161 -0.44242625200982799 0 -0.18049207608238291 -0.42812424827546058 0 -0.19899408631087909 -0.4269358685541359 0 -0.21844010846223411 -0.44206575668227449 0 -0.19087809923939161 -0.44242625200982799 0 -0.19899408631087909 -0.4269358685541359 0 -0.18680736564207029 -0.41498853585306777 0 -0.19656737959219739 -0.40219111980173922 0 -0.2118432178570665 -0.41409151531568628 0 -0.18680736564207029 -0.41498853585306777 0 -0.19899408631087909 -0.4269358685541359 0 -0.2118432178570665 -0.41409151531568628 0 -0.18680736564207029 -0.41498853585306777 0 -0.2118432178570665 -0.41409151531568628 0 -0.21844010846223411 -0.44206575668227449 0 -0.19899408631087909 -0.4269358685541359 0 -0.2118432178570665 -0.41409151531568628 0 -0.21844010846223411 -0.44206575668227449 0 -0.2118432178570665 -0.41409151531568628 0 -0.21844010846223411 -0.44206575668227449 0 -0.2118432178570665 -0.41409151531568628 0 -0.23280677558438309 -0.43386548686292281 0 -0.2118432178570665 -0.41409151531568628 0 -0.23335673218814301 -0.41332069816832789 0 -0.2281799985799623 -0.39436158075255778 0 -0.2118432178570665 -0.41409151531568628 0 -0.23335673218814301 -0.41332069816832789 0 -0.2118432178570665 -0.41409151531568628 0 -0.23280677558438309 -0.43386548686292281 0 -0.23335673218814301 -0.41332069816832789 0 -0.25487024651921952 -0.41254988102096568 0 -0.23335673218814301 -0.41332069816832789 0 -0.25487024651921952 -0.41254988102096568 0 -0.23335673218814301 -0.41332069816832789 0 -0.24168551714563921 -0.4027948375671459 0 -0.25487024651921952 -0.41254988102096568 0 -0.23335673218814301 -0.41332069816832789 0 -0.2468605885266735 -0.43014712497011809 0 -0.23280677558438309 -0.43386548686292281 0 -0.23335673218814301 -0.41332069816832789 0 -0.2468605885266735 -0.43014712497011809 0 -0.2450571310604201 -0.44414202720417628 0 -0.23280677558438309 -0.43386548686292281 0 -0.2468605885266735 -0.43014712497011809 0 -0.2281799985799623 -0.39436158075255778 0 -0.2359431282162788 -0.37698905115118858 0 -0.22195794658956111 -0.37463091785279867 0 -0.25033509129523179 -0.39094719032673231 0 -0.2281799985799623 -0.39436158075255778 0 -0.24168551714563921 -0.4027948375671459 0 -0.25033509129523179 -0.39094719032673231 0 -0.25487024651921952 -0.41254988102096568 0 -0.24168551714563921 -0.4027948375671459 0 -0.23335673218814301 -0.41332069816832789 0 -0.2281799985799623 -0.39436158075255778 0 -0.24168551714563921 -0.4027948375671459 0 -0.25033509129523179 -0.39094719032673231 0 -0.2359431282162788 -0.37698905115118858 0 -0.24748772700216881 -0.3717564301773445 0 -0.25033509129523179 -0.39094719032673231 0 -0.2281799985799623 -0.39436158075255778 0 -0.2359431282162788 -0.37698905115118858 0 -0.25494538795031141 -0.36273054802101118 0 -0.24748772700216881 -0.3717564301773445 0 -0.24521251836493849 -0.35951647641646678 0 -0.24748772700216881 -0.3717564301773445 0 -0.24521251836493849 -0.35951647641646678 0 -0.23939899228441261 -0.3655962622813349 0 -0.23939899228441261 -0.3655962622813349 0 -0.23024759562621139 -0.36380396142485888 0 -0.23761117654761921 -0.35850429625613017 0 -0.24521251836493849 -0.35951647641646678 0 -0.23939899228441261 -0.3655962622813349 0 -0.23761117654761921 -0.35850429625613017 0 -0.2359431282162788 -0.37698905115118858 0 -0.23939899228441261 -0.3655962622813349 0 -0.23024759562621139 -0.36380396142485888 0 -0.2359431282162788 -0.37698905115118858 0 -0.24748772700216881 -0.3717564301773445 0 -0.23939899228441261 -0.3655962622813349 0 -0.2359431282162788 -0.37698905115118858 0 -0.23024759562621139 -0.36380396142485888 0 -0.22195794658956111 -0.37463091785279867 0 -0.23024759562621139 -0.36380396142485888 0 -0.22135664398937441 -0.36020929429952131 0 -0.2310785660723691 -0.35440187846705151 0 -0.23024759562621139 -0.36380396142485888 0 -0.22135664398937441 -0.36020929429952131 0 -0.22195794658956111 -0.37463091785279867 0 -0.22135664398937441 -0.36020929429952131 0 -0.22331676928072861 -0.34527245129667988 0 -0.2310785660723691 -0.35440187846705151 0 -0.23024759562621139 -0.36380396142485888 0 -0.2310785660723691 -0.35440187846705151 0 -0.23761117654761921 -0.35850429625613017 0 -0.22331676928072861 -0.34527245129667988 0 -0.2337118992122327 -0.34903918396608452 0 -0.23708401688859529 -0.34365007901650441 0 -0.22331676928072861 -0.34527245129667988 0 -0.2310785660723691 -0.35440187846705151 0 -0.2337118992122327 -0.34903918396608452 0 -0.26017799311385281 -0.35268912854855933 0 -0.24808760514302669 -0.3536558827211943 0 -0.2404133442166683 -0.34213832018255058 0 -0.2310785660723691 -0.35440187846705151 0 -0.2337118992122327 -0.34903918396608452 0 -0.2396887820693627 -0.35120494043738398 0 -0.26017799311385281 -0.35268912854855933 0 -0.24325210797206609 -0.34084931319650169 0 -0.2404133442166683 -0.34213832018255058 0 -0.2396887820693627 -0.35120494043738398 0 -0.23708401688859529 -0.34365007901650441 0 -0.2404133442166683 -0.34213832018255058 0 -0.2337118992122327 -0.34903918396608452 0 -0.2396887820693627 -0.35120494043738398 0 -0.23708401688859529 -0.34365007901650441 0 -0.2310785660723691 -0.35440187846705151 0 -0.2396887820693627 -0.35120494043738398 0 -0.23761117654761921 -0.35850429625613017 0 -0.24521251836493849 -0.35951647641646678 0 -0.2396887820693627 -0.35120494043738398 0 -0.23761117654761921 -0.35850429625613017 0 -0.24521251836493849 -0.35951647641646678 0 -0.2396887820693627 -0.35120494043738398 0 -0.24808760514302669 -0.3536558827211943 0 -0.25494538795031141 -0.36273054802101118 0 -0.24521251836493849 -0.35951647641646678 0 -0.24808760514302669 -0.3536558827211943 0 -0.2396887820693627 -0.35120494043738398 0 -0.24808760514302669 -0.3536558827211943 0 -0.2404133442166683 -0.34213832018255058 0 -0.24325210797206609 -0.34084931319650169 0 -0.24518994726652291 -0.33234415230164399 0 -0.23958942898634211 -0.33903199036576709 0 -0.24518994726652291 -0.33234415230164399 0 -0.23560348244150561 -0.32909319502054812 0 -0.23958942898634211 -0.33903199036576709 0 -0.23708401688859529 -0.34365007901650441 0 -0.2404133442166683 -0.34213832018255058 0 -0.24325210797206609 -0.34084931319650169 0 -0.2404133442166683 -0.34213832018255058 0 -0.23958942898634211 -0.33903199036576709 0 -0.24325210797206609 -0.34084931319650169 0 -0.2404133442166683 -0.34213832018255058 0 -0.24325210797206609 -0.34084931319650169 0 -0.23958942898634211 -0.33903199036576709 0 -0.25915672867891859 -0.31415112243359272 0 -0.24308922262768951 -0.32099342612622928 0 -0.24047089863443691 -0.30798947189970438 0 -0.24518994726652291 -0.33234415230164399 0 -0.23560348244150561 -0.32909319502054812 0 -0.24308922262768951 -0.32099342612622928 0 -0.23560348244150561 -0.32909319502054812 0 -0.24308922262768951 -0.32099342612622928 0 -0.22938765682563561 -0.32144886021699343 0 -0.24308922262768951 -0.32099342612622928 0 -0.22938765682563561 -0.32144886021699343 0 -0.23158309368585001 -0.31181085789310747 0 -0.24308922262768951 -0.32099342612622928 0 -0.24047089863443691 -0.30798947189970438 0 -0.23158309368585001 -0.31181085789310747 0 -0.22938765682563561 -0.32144886021699343 0 -0.23158309368585001 -0.31181085789310747 0 -0.22249387381410951 -0.31123320620709588 0 -0.23560348244150561 -0.32909319502054812 0 -0.22938765682563561 -0.32144886021699343 0 -0.22076115650133771 -0.33164754609210678 0 -0.22938765682563561 -0.32144886021699343 0 -0.22076115650133771 -0.33164754609210678 0 -0.2180259411870723 -0.31620608063285149 0 -0.22938765682563561 -0.32144886021699343 0 -0.2180259411870723 -0.31620608063285149 0 -0.22249387381410951 -0.31123320620709588 0 -0.22331676928072861 -0.34527245129667988 0 -0.23708401688859529 -0.34365007901650441 0 -0.22076115650133771 -0.33164754609210678 0 -0.23560348244150561 -0.32909319502054812 0 -0.23958942898634211 -0.33903199036576709 0 -0.22076115650133771 -0.33164754609210678 0 -0.2404133442166683 -0.34213832018255058 0 -0.22076115650133771 -0.33164754609210678 0 -0.2404133442166683 -0.34213832018255058 0 -0.23958942898634211 -0.33903199036576709 0 -0.22076115650133771 -0.33164754609210678 0 -0.23708401688859529 -0.34365007901650441 0 -0.2404133442166683 -0.34213832018255058 0 -0.22076115650133771 -0.33164754609210678 0 -0.22331676928072861 -0.34527245129667988 0 -0.22076115650133771 -0.33164754609210678 0 -0.20784983644103361 -0.34097302903627591 0 -0.22076115650133771 -0.33164754609210678 0 -0.20348412114368319 -0.33156666209817831 0 -0.20784983644103361 -0.34097302903627591 0 -0.2180259411870723 -0.31620608063285149 0 -0.19974136112887431 -0.31343603927203523 0 -0.20110896878600679 -0.32115677200166343 0 -0.22076115650133771 -0.33164754609210678 0 -0.2180259411870723 -0.31620608063285149 0 -0.20110896878600679 -0.32115677200166343 0 -0.22076115650133771 -0.33164754609210678 0 -0.20348412114368319 -0.33156666209817831 0 -0.20110896878600679 -0.32115677200166343 0 -0.22076115650133771 -0.33164754609210678 0 -0.20110896878600679 -0.32115677200166343 0 -0.2180259411870723 -0.31620608063285149 0 -0.19974136112887431 -0.31343603927203523 0 -0.20904493575850211 -0.30938578927939081 0 -0.2180259411870723 -0.31620608063285149 0 -0.19974136112887431 -0.31343603927203523 0 -0.19974136112887431 -0.31343603927203523 0 -0.20110896878600679 -0.32115677200166343 0 -0.1814567810706762 -0.3106659979112194 0 -0.20110896878600679 -0.32115677200166343 0 -0.1814567810706762 -0.3106659979112194 0 -0.20110896878600679 -0.32115677200166343 0 -0.19214051361034601 -0.33054181938157612 0 -0.1814567810706762 -0.3106659979112194 0 -0.20348412114368319 -0.33156666209817831 0 -0.20110896878600679 -0.32115677200166343 0 -0.19214051361034601 -0.33054181938157612 0 -0.20348412114368319 -0.33156666209817831 0 -0.20784983644103361 -0.34097302903627591 0 -0.19214051361034601 -0.33054181938157612 0 -0.20784983644103361 -0.34097302903627591 0 -0.19214051361034601 -0.33054181938157612 0 -0.20232946575910341 -0.34593351830387509 0 -0.19214051361034601 -0.33054181938157612 0 -0.19236830561379509 -0.34938181171492771 0 -0.18622265824693729 -0.34003474470360739 0 -0.19214051361034601 -0.33054181938157612 0 -0.19236830561379509 -0.34938181171492771 0 -0.19870808169258641 -0.35839171802627962 0 -0.19214051361034601 -0.33054181938157612 0 -0.19870808169258641 -0.35839171802627962 0 -0.19214051361034601 -0.33054181938157612 0 -0.20232946575910341 -0.34593351830387509 0 -0.19870808169258641 -0.35839171802627962 0 -0.19236830561379509 -0.34938181171492771 0 -0.1854961134254472 -0.37120813041460421 0 -0.20527564977482679 -0.38624161667098289 0 -0.19870808169258641 -0.35839171802627962 0 -0.20527564977482679 -0.38624161667098289 0 -0.19870808169258641 -0.35839171802627962 0 -0.1854961134254472 -0.37120813041460421 0 -0.19236830561379509 -0.34938181171492771 0 -0.19870808169258641 -0.35839171802627962 0 -0.1854961134254472 -0.37120813041460421 0 -0.20527564977482679 -0.38624161667098289 0 -0.19870808169258641 -0.35839171802627962 0 -0.21168543115216709 -0.36681117402183649 0 -0.19870808169258641 -0.35839171802627962 0 -0.21168543115216709 -0.36681117402183649 0 -0.21061943129244759 -0.3538275067713687 0 -0.22135664398937441 -0.36020929429952131 0 -0.22195794658956111 -0.37463091785279867 0 -0.21168543115216709 -0.36681117402183649 0 -0.22135664398937441 -0.36020929429952131 0 -0.21168543115216709 -0.36681117402183649 0 -0.21061943129244759 -0.3538275067713687 0 -0.22135664398937441 -0.36020929429952131 0 -0.22331676928072861 -0.34527245129667988 0 -0.21061943129244759 -0.3538275067713687 0 -0.22331676928072861 -0.34527245129667988 0 -0.20784983644103361 -0.34097302903627591 0 -0.21061943129244759 -0.3538275067713687 0 -0.20784983644103361 -0.34097302903627591 0 -0.20232946575910341 -0.34593351830387509 0 -0.21061943129244759 -0.3538275067713687 0 -0.20232946575910341 -0.34593351830387509 0 -0.19870808169258641 -0.35839171802627962 0 -0.21061943129244759 -0.3538275067713687 0 -0.22866545068461799 -0.25948943059043711 0 -0.21759888839251429 -0.26212753750200368 0 -0.22025275826160279 -0.2471257797298928 0 -0.22866545068461799 -0.25948943059043711 0 -0.22398633244919169 -0.27132847136955079 0 -0.21759888839251429 -0.26212753750200368 0 -0.22866545068461799 -0.25948943059043711 0 -0.23442911476228809 -0.24683612341654529 0 -0.22025275826160279 -0.2471257797298928 0 -0.22866545068461799 -0.25948943059043711 0 -0.24233717299785959 -0.25960849866204011 0 -0.23442911476228809 -0.24683612341654529 0 -0.2565674865322034 -0.25340195958415102 0 -0.24233717299785959 -0.25960849866204011 0 -0.25018128361314113 -0.24746468840205441 0 -0.22866545068461799 -0.25948943059043711 0 -0.24233717299785959 -0.25960849866204011 0 -0.2333815926018066 -0.27110706845475141 0 -0.24233717299785959 -0.25960849866204011 0 -0.2333815926018066 -0.27110706845475141 0 -0.24140403581614819 -0.28379898528087227 0 -0.24233717299785959 -0.25960849866204011 0 -0.24140403581614819 -0.28379898528087227 0 -0.24233717299785959 -0.25960849866204011 0 -0.2484323970602714 -0.27706385987730509 0 -0.24140403581614819 -0.28379898528087227 0 -0.25309751137434572 -0.26289123234143091 0 -0.24233717299785959 -0.25960849866204011 0 -0.2484323970602714 -0.27706385987730509 0 -0.2333815926018066 -0.27110706845475141 0 -0.2300547693907766 -0.28178467995593781 0 -0.24140403581614819 -0.28379898528087227 0 -0.2333815926018066 -0.27110706845475141 0 -0.22398633244919169 -0.27132847136955079 0 -0.2300547693907766 -0.28178467995593781 0 -0.22866545068461799 -0.25948943059043711 0 -0.2333815926018066 -0.27110706845475141 0 -0.22398633244919169 -0.27132847136955079 0 -0.22398633244919169 -0.27132847136955079 0 -0.21947311754018139 -0.28174823216008099 0 -0.2300547693907766 -0.28178467995593781 0 -0.21947311754018139 -0.28174823216008099 0 -0.22569627159534009 -0.29064390563822362 0 -0.2300547693907766 -0.28178467995593781 0 -0.21947311754018139 -0.28174823216008099 0 -0.22569627159534009 -0.29064390563822362 0 -0.21595054291829549 -0.29285447433738648 0 -0.22569627159534009 -0.29064390563822362 0 -0.22453607640027501 -0.29842387346705762 0 -0.21595054291829549 -0.29285447433738648 0 -0.22569627159534009 -0.29064390563822362 0 -0.2341156104824163 -0.28973116501788848 0 -0.23104294706112549 -0.29817392722980551 0 -0.22569627159534009 -0.29064390563822362 0 -0.23104294706112549 -0.29817392722980551 0 -0.22453607640027501 -0.29842387346705762 0 -0.22569627159534009 -0.29064390563822362 0 -0.2341156104824163 -0.28973116501788848 0 -0.2300547693907766 -0.28178467995593781 0 -0.25108388684634803 -0.28956965662021522 0 -0.24140403581614819 -0.28379898528087227 0 -0.24047089863443691 -0.30798947189970438 0 -0.2341156104824163 -0.28973116501788848 0 -0.24140403581614819 -0.28379898528087227 0 -0.24047089863443691 -0.30798947189970438 0 -0.24140403581614819 -0.28379898528087227 0 -0.24047089863443691 -0.30798947189970438 0 -0.2341156104824163 -0.28973116501788848 0 -0.2300547693907766 -0.28178467995593781 0 -0.24140403581614819 -0.28379898528087227 0 -0.25108388684634803 -0.28956965662021522 0 -0.2484323970602714 -0.27706385987730509 0 -0.24140403581614819 -0.28379898528087227 0 -0.25718459078837252 -0.29759752524363881 0 -0.25108388684634803 -0.28956965662021522 0 -0.24047089863443691 -0.30798947189970438 0 -0.2341156104824163 -0.28973116501788848 0 -0.24047089863443691 -0.30798947189970438 0 -0.23104294706112549 -0.29817392722980551 0 -0.24047089863443691 -0.30798947189970438 0 -0.23158309368585001 -0.31181085789310747 0 -0.2303958781931594 -0.30408122012615352 0 -0.23158309368585001 -0.31181085789310747 0 -0.2303958781931594 -0.30408122012615352 0 -0.2249978911063876 -0.30539226771637512 0 -0.24047089863443691 -0.30798947189970438 0 -0.23104294706112549 -0.29817392722980551 0 -0.2303958781931594 -0.30408122012615352 0 -0.23104294706112549 -0.29817392722980551 0 -0.2303958781931594 -0.30408122012615352 0 -0.22453607640027501 -0.29842387346705762 0 -0.2303958781931594 -0.30408122012615352 0 -0.22453607640027501 -0.29842387346705762 0 -0.2249978911063876 -0.30539226771637512 0 -0.22453607640027501 -0.29842387346705762 0 -0.2249978911063876 -0.30539226771637512 0 -0.21872282414136721 -0.30136563651957121 0 -0.22453607640027501 -0.29842387346705762 0 -0.21872282414136721 -0.30136563651957121 0 -0.21595054291829549 -0.29285447433738648 0 -0.22249387381410951 -0.31123320620709588 0 -0.2249978911063876 -0.30539226771637512 0 -0.21872282414136721 -0.30136563651957121 0 -0.23158309368585001 -0.31181085789310747 0 -0.22249387381410951 -0.31123320620709588 0 -0.2249978911063876 -0.30539226771637512 0 -0.22249387381410951 -0.31123320620709588 0 -0.20819654573008861 -0.30010144335043992 0 -0.2180259411870723 -0.31620608063285149 0 -0.2144403241224431 -0.30923162986744451 0 -0.20904493575850211 -0.30938578927939081 0 -0.22249387381410951 -0.31123320620709588 0 -0.2144403241224431 -0.30923162986744451 0 -0.20819654573008861 -0.30010144335043992 0 -0.2180259411870723 -0.31620608063285149 0 -0.22249387381410951 -0.31123320620709588 0 -0.2144403241224431 -0.30923162986744451 0 -0.21872282414136721 -0.30136563651957121 0 -0.20819654573008861 -0.30010144335043992 0 -0.21595054291829549 -0.29285447433738648 0 -0.22249387381410951 -0.31123320620709588 0 -0.21872282414136721 -0.30136563651957121 0 -0.20819654573008861 -0.30010144335043992 0 -0.20819654573008861 -0.30010144335043992 0 -0.20288915614788011 -0.30684576889979082 0 -0.200327377448308 -0.30070497350852549 0 -0.19974136112887431 -0.31343603927203523 0 -0.20904493575850211 -0.30938578927939081 0 -0.20288915614788011 -0.30684576889979082 0 -0.2144403241224431 -0.30923162986744451 0 -0.20819654573008861 -0.30010144335043992 0 -0.20904493575850211 -0.30938578927939081 0 -0.20819654573008861 -0.30010144335043992 0 -0.20904493575850211 -0.30938578927939081 0 -0.20288915614788011 -0.30684576889979082 0 -0.19974136112887431 -0.31343603927203523 0 -0.1814567810706762 -0.3106659979112194 0 -0.19974136112887431 -0.31343603927203523 0 -0.20288915614788011 -0.30684576889979082 0 -0.19308950921137841 -0.30535425612401718 0 -0.19974136112887431 -0.31343603927203523 0 -0.19308950921137841 -0.30535425612401718 0 -0.1814567810706762 -0.3106659979112194 0 -0.19308950921137841 -0.30535425612401718 0 -0.1899902243989981 -0.29832565749187118 0 -0.1817779539512053 -0.30255714357571323 0 -0.19308950921137841 -0.30535425612401718 0 -0.1899902243989981 -0.29832565749187118 0 -0.200327377448308 -0.30070497350852549 0 -0.20288915614788011 -0.30684576889979082 0 -0.19308950921137841 -0.30535425612401718 0 -0.200327377448308 -0.30070497350852549 0 -0.20819654573008861 -0.30010144335043992 0 -0.19389921764606771 -0.28896968049378402 0 -0.200327377448308 -0.30070497350852549 0 -0.19389921764606771 -0.28896968049378402 0 -0.20819654573008861 -0.30010144335043992 0 -0.200327377448308 -0.30070497350852549 0 -0.19389921764606771 -0.28896968049378402 0 -0.20819654573008861 -0.30010144335043992 0 -0.19389921764606771 -0.28896968049378402 0 -0.2049502680629153 -0.28953974020436019 0 -0.1899902243989981 -0.29832565749187118 0 -0.19389921764606771 -0.28896968049378402 0 -0.18066470514172869 -0.29420676669921531 0 -0.1899902243989981 -0.29832565749187118 0 -0.200327377448308 -0.30070497350852549 0 -0.19389921764606771 -0.28896968049378402 0 -0.19389921764606771 -0.28896968049378402 0 -0.18643891475010321 -0.2753500999052107 0 -0.19389921764606771 -0.28896968049378402 0 -0.1815972113741586 -0.27939145610981342 0 -0.19389921764606771 -0.28896968049378402 0 -0.2049502680629153 -0.28953974020436019 0 -0.20163083764207049 -0.27816255368004889 0 -0.2099333729274668 -0.28317129254800538 0 -0.2049502680629153 -0.28953974020436019 0 -0.20163083764207049 -0.27816255368004889 0 -0.2099333729274668 -0.28317129254800538 0 -0.2049502680629153 -0.28953974020436019 0 -0.21595054291829549 -0.29285447433738648 0 -0.20819654573008861 -0.30010144335043992 0 -0.2049502680629153 -0.28953974020436019 0 -0.21595054291829549 -0.29285447433738648 0 -0.21947311754018139 -0.28174823216008099 0 -0.2099333729274668 -0.28317129254800538 0 -0.21595054291829549 -0.29285447433738648 0 -0.2117440640613063 -0.2714560660025862 0 -0.20163083764207049 -0.27816255368004889 0 -0.20334583650585281 -0.26123793981755161 0 -0.22398633244919169 -0.27132847136955079 0 -0.21947311754018139 -0.28174823216008099 0 -0.2117440640613063 -0.2714560660025862 0 -0.21947311754018139 -0.28174823216008099 0 -0.2099333729274668 -0.28317129254800538 0 -0.2117440640613063 -0.2714560660025862 0 -0.22398633244919169 -0.27132847136955079 0 -0.2117440640613063 -0.2714560660025862 0 -0.21759888839251429 -0.26212753750200368 0 -0.2099333729274668 -0.28317129254800538 0 -0.2117440640613063 -0.2714560660025862 0 -0.20163083764207049 -0.27816255368004889 0 -0.20163083764207049 -0.27816255368004889 0 -0.20334583650585281 -0.26123793981755161 0 -0.18643891475010321 -0.2753500999052107 0 -0.20334583650585281 -0.26123793981755161 0 -0.18643891475010321 -0.2753500999052107 0 -0.1892261620383611 -0.26071341320317981 0 -0.20334583650585281 -0.26123793981755161 0 -0.18643891475010321 -0.2753500999052107 0 -0.19389921764606771 -0.28896968049378402 0 -0.20163083764207049 -0.27816255368004889 0 -0.18643891475010321 -0.2753500999052107 0 -0.1892261620383611 -0.26071341320317981 0 -0.20334583650585281 -0.26123793981755161 0 -0.1971211098569064 -0.2485562144643311 0 -0.20334583650585281 -0.26123793981755161 0 -0.21759888839251429 -0.26212753750200368 0 -0.22025275826160279 -0.2471257797298928 0 -0.20334583650585281 -0.26123793981755161 0 -0.22025275826160279 -0.2471257797298928 0 -0.20334583650585281 -0.26123793981755161 0 -0.1971211098569064 -0.2485562144643311 0 -0.22025275826160279 -0.2471257797298928 0 -0.2117440640613063 -0.2714560660025862 0 -0.20334583650585281 -0.26123793981755161 0 -0.21759888839251429 -0.26212753750200368 0 -0.15821309250511281 -0.26118480488572993 0 -0.17536452169406261 -0.25513261131262932 0 -0.1815972113741586 -0.27939145610981342 0 -0.15821309250511281 -0.26118480488572993 0 -0.17536452169406261 -0.25513261131262932 0 -0.15566934165753701 -0.24482136105764621 0 -0.1892261620383611 -0.26071341320317981 0 -0.17536452169406261 -0.25513261131262932 0 -0.1971211098569064 -0.2485562144643311 0 -0.1892261620383611 -0.26071341320317981 0 -0.17536452169406261 -0.25513261131262932 0 -0.18643891475010321 -0.2753500999052107 0 -0.17536452169406261 -0.25513261131262932 0 -0.18643891475010321 -0.2753500999052107 0 -0.17536452169406261 -0.25513261131262932 0 -0.18643891475010321 -0.2753500999052107 0 -0.1815972113741586 -0.27939145610981342 0 -0.19389921764606771 -0.28896968049378402 0 -0.18643891475010321 -0.2753500999052107 0 -0.1815972113741586 -0.27939145610981342 0 -0.18643891475010321 -0.2753500999052107 0 -0.1815972113741586 -0.27939145610981342 0 -0.15821309250511281 -0.26118480488572993 0 -0.1815972113741586 -0.27939145610981342 0 -0.1605334253196628 -0.27705414769848019 0 -0.15821309250511281 -0.26118480488572993 0 -0.1815972113741586 -0.27939145610981342 0 -0.1605334253196628 -0.27705414769848019 0 -0.16662117086531369 -0.29189191504570172 0 -0.1460397447830028 -0.28392096720827609 0 -0.1815972113741586 -0.27939145610981342 0 -0.1605334253196628 -0.27705414769848019 0 -0.16662117086531369 -0.29189191504570172 0 -0.16662117086531369 -0.29189191504570172 0 -0.18066470514172869 -0.29420676669921531 0 -0.16807172941449361 -0.30108874618849107 0 -0.1815972113741586 -0.27939145610981342 0 -0.16662117086531369 -0.29189191504570172 0 -0.1815972113741586 -0.27939145610981342 0 -0.16662117086531369 -0.29189191504570172 0 -0.18066470514172869 -0.29420676669921531 0 -0.19389921764606771 -0.28896968049378402 0 -0.1815972113741586 -0.27939145610981342 0 -0.18066470514172869 -0.29420676669921531 0 -0.18066470514172869 -0.29420676669921531 0 -0.1817779539512053 -0.30255714357571323 0 -0.16807172941449361 -0.30108874618849107 0 -0.1817779539512053 -0.30255714357571323 0 -0.17538193411824851 -0.30742310974349601 0 -0.16807172941449361 -0.30108874618849107 0 -0.1899902243989981 -0.29832565749187118 0 -0.18066470514172869 -0.29420676669921531 0 -0.1817779539512053 -0.30255714357571323 0 -0.19308950921137841 -0.30535425612401718 0 -0.1817779539512053 -0.30255714357571323 0 -0.1814567810706762 -0.3106659979112194 0 -0.1817779539512053 -0.30255714357571323 0 -0.1814567810706762 -0.3106659979112194 0 -0.17538193411824851 -0.30742310974349601 0 -0.1814567810706762 -0.3106659979112194 0 -0.17538193411824851 -0.30742310974349601 0 -0.1814567810706762 -0.3106659979112194 0 -0.17538193411824851 -0.30742310974349601 0 -0.1521471234576928 -0.30622570102712859 0 -0.16662117086531369 -0.29189191504570172 0 -0.16807172941449361 -0.30108874618849107 0 -0.15164513035647001 -0.30439237398159158 0 -0.17538193411824851 -0.30742310974349601 0 -0.16807172941449361 -0.30108874618849107 0 -0.1521471234576928 -0.30622570102712859 0 -0.16807172941449361 -0.30108874618849107 0 -0.1521471234576928 -0.30622570102712859 0 -0.15164513035647001 -0.30439237398159158 0 -0.1814567810706762 -0.3106659979112194 0 -0.1521471234576928 -0.30622570102712859 0 -0.16662117086531369 -0.29189191504570172 0 -0.15164513035647001 -0.30439237398159158 0 -0.14986325126998301 -0.30587970344869631 0 -0.1472482395654931 -0.30806244637126978 0 -0.13137693926794269 -0.30307910049847142 0 -0.14986325126998301 -0.30587970344869631 0 -0.13137693926794269 -0.30307910049847142 0 -0.14191197011226919 -0.29595195204747682 0 -0.1521471234576928 -0.30622570102712859 0 -0.15536928910057479 -0.31799335959440589 0 -0.1521471234576928 -0.30622570102712859 0 -0.1472482395654931 -0.30806244637126978 0 -0.1481744133336001 -0.31559103279323952 0 -0.1521471234576928 -0.30622570102712859 0 -0.14986325126998301 -0.30587970344869631 0 -0.1472482395654931 -0.30806244637126978 0 -0.1521471234576928 -0.30622570102712859 0 -0.14986325126998301 -0.30587970344869631 0 -0.15164513035647001 -0.30439237398159158 0 -0.1521471234576928 -0.30622570102712859 0 -0.14986325126998301 -0.30587970344869631 0 -0.1521471234576928 -0.30622570102712859 0 -0.15164513035647001 -0.30439237398159158 0 -0.14986325126998301 -0.30587970344869631 0 -0.15164513035647001 -0.30439237398159158 0 -0.14986325126998301 -0.30587970344869631 0 -0.1472482395654931 -0.30806244637126978 0 -0.14986325126998301 -0.30587970344869631 0 -0.15164513035647001 -0.30439237398159158 0 -0.14191197011226919 -0.29595195204747682 0 -0.1472482395654931 -0.30806244637126978 0 -0.13676428411235661 -0.311985534419285 0 -0.1481744133336001 -0.31559103279323952 0 -0.14986325126998301 -0.30587970344869631 0 -0.13137693926794269 -0.30307910049847142 0 -0.1472482395654931 -0.30806244637126978 0 -0.13676428411235661 -0.311985534419285 0 -0.13137693926794269 -0.30307910049847142 0 -0.13137693926794269 -0.30307910049847142 0 -0.14191197011226919 -0.29595195204747682 0 -0.12354370332633501 -0.29237215235494779 0 -0.13676428411235661 -0.311985534419285 0 -0.13137693926794269 -0.30307910049847142 0 -0.12202825811921469 -0.30947938976295097 0 -0.1460397447830028 -0.28392096720827609 0 -0.14191197011226919 -0.29595195204747682 0 -0.13317406737037779 -0.2802173890703723 0 -0.14191197011226919 -0.29595195204747682 0 -0.13317406737037779 -0.2802173890703723 0 -0.12354370332633501 -0.29237215235494779 0 -0.13317406737037779 -0.2802173890703723 0 -0.121176560474238 -0.27855216134530347 0 -0.12354370332633501 -0.29237215235494779 0 -0.16662117086531369 -0.29189191504570172 0 -0.15164513035647001 -0.30439237398159158 0 -0.1460397447830028 -0.28392096720827609 0 -0.15164513035647001 -0.30439237398159158 0 -0.1460397447830028 -0.28392096720827609 0 -0.14191197011226919 -0.29595195204747682 0 -0.15164513035647001 -0.30439237398159158 0 -0.1460397447830028 -0.28392096720827609 0 -0.1460397447830028 -0.28392096720827609 0 -0.14043435920953651 -0.26344956043496021 0 -0.1605334253196628 -0.27705414769848019 0 -0.1460397447830028 -0.28392096720827609 0 -0.14043435920953651 -0.26344956043496021 0 -0.15821309250511281 -0.26118480488572993 0 -0.1605334253196628 -0.27705414769848019 0 -0.14043435920953651 -0.26344956043496021 0 -0.13317406737037779 -0.2802173890703723 0 -0.1259380663168852 -0.26705754103126977 0 -0.14043435920953651 -0.26344956043496021 0 -0.1460397447830028 -0.28392096720827609 0 -0.13317406737037779 -0.2802173890703723 0 -0.14043435920953651 -0.26344956043496021 0 -0.13317406737037779 -0.2802173890703723 0 -0.1259380663168852 -0.26705754103126977 0 -0.121176560474238 -0.27855216134530347 0 -0.14043435920953651 -0.26344956043496021 0 -0.1283361407779757 -0.25159171728621699 0 -0.13482897363606841 -0.24297815366164491 0 -0.14043435920953651 -0.26344956043496021 0 -0.13482897363606841 -0.24297815366164491 0 -0.1259380663168852 -0.26705754103126977 0 -0.14043435920953651 -0.26344956043496021 0 -0.1283361407779757 -0.25159171728621699 0 -0.15821309250511281 -0.26118480488572993 0 -0.13482897363606841 -0.24297815366164491 0 -0.15821309250511281 -0.26118480488572993 0 -0.14043435920953651 -0.26344956043496021 0 -0.13482897363606841 -0.24297815366164491 0 -0.17697510949039719 -0.35596577996135209 0 -0.17519745401808179 -0.33814225560617162 0 -0.1562220225934601 -0.35985472972221177 0 -0.17519745401808179 -0.33814225560617162 0 -0.1532624182972378 -0.33871633494107939 0 -0.1562220225934601 -0.35985472972221177 0 -0.17519745401808179 -0.33814225560617162 0 -0.1562220225934601 -0.35985472972221177 0 -0.1663441030446621 -0.37717300760659073 0 -0.17697510949039719 -0.35596577996135209 0 -0.1562220225934601 -0.35985472972221177 0 -0.1663441030446621 -0.37717300760659073 0 -0.1854961134254472 -0.37120813041460421 0 -0.17697510949039719 -0.35596577996135209 0 -0.19236830561379509 -0.34938181171492771 0 -0.1854961134254472 -0.37120813041460421 0 -0.17697510949039719 -0.35596577996135209 0 -0.17697510949039719 -0.35596577996135209 0 -0.17519745401808179 -0.33814225560617162 0 -0.18622265824693729 -0.34003474470360739 0 -0.19236830561379509 -0.34938181171492771 0 -0.17697510949039719 -0.35596577996135209 0 -0.18622265824693729 -0.34003474470360739 0 -0.19214051361034601 -0.33054181938157612 0 -0.17519745401808179 -0.33814225560617162 0 -0.18622265824693729 -0.34003474470360739 0 -0.19214051361034601 -0.33054181938157612 0 -0.17519745401808179 -0.33814225560617162 0 -0.17075841890319021 -0.32267991232295651 0 -0.19214051361034601 -0.33054181938157612 0 -0.1814567810706762 -0.3106659979112194 0 -0.17075841890319021 -0.32267991232295651 0 -0.1814567810706762 -0.3106659979112194 0 -0.1521471234576928 -0.30622570102712859 0 -0.17075841890319021 -0.32267991232295651 0 -0.1521471234576928 -0.30622570102712859 0 -0.17075841890319021 -0.32267991232295651 0 -0.15536928910057479 -0.31799335959440589 0 -0.17075841890319021 -0.32267991232295651 0 -0.15536928910057479 -0.31799335959440589 0 -0.15041885550205389 -0.32708722206771829 0 -0.17519745401808179 -0.33814225560617162 0 -0.17075841890319021 -0.32267991232295651 0 -0.1532624182972378 -0.33871633494107939 0 -0.17075841890319021 -0.32267991232295651 0 -0.1532624182972378 -0.33871633494107939 0 -0.15041885550205389 -0.32708722206771829 0 -0.1532624182972378 -0.33871633494107939 0 -0.15041885550205389 -0.32708722206771829 0 -0.13403844172661231 -0.33095488736429202 0 -0.15041885550205389 -0.32708722206771829 0 -0.14028103823900179 -0.32077908792264309 0 -0.13403844172661231 -0.33095488736429202 0 -0.15536928910057479 -0.31799335959440589 0 -0.15041885550205389 -0.32708722206771829 0 -0.1481744133336001 -0.31559103279323952 0 -0.1521471234576928 -0.30622570102712859 0 -0.15536928910057479 -0.31799335959440589 0 -0.1481744133336001 -0.31559103279323952 0 -0.15041885550205389 -0.32708722206771829 0 -0.1481744133336001 -0.31559103279323952 0 -0.14028103823900179 -0.32077908792264309 0 -0.13676428411235661 -0.311985534419285 0 -0.1481744133336001 -0.31559103279323952 0 -0.14028103823900179 -0.32077908792264309 0 -0.13676428411235661 -0.311985534419285 0 -0.14028103823900179 -0.32077908792264309 0 -0.12839564496088529 -0.32005881249807028 0 -0.14028103823900179 -0.32077908792264309 0 -0.12839564496088529 -0.32005881249807028 0 -0.13403844172661231 -0.33095488736429202 0 -0.12839564496088529 -0.32005881249807028 0 -0.13403844172661231 -0.33095488736429202 0 -0.1231279148664025 -0.32697127933959502 0 -0.13676428411235661 -0.311985534419285 0 -0.12839564496088529 -0.32005881249807028 0 -0.12202825811921469 -0.30947938976295097 0 -0.13403844172661231 -0.33095488736429202 0 -0.13290241802702499 -0.35265178330474523 0 -0.1166361947753133 -0.33638206822001748 0 -0.1532624182972378 -0.33871633494107939 0 -0.13403844172661231 -0.33095488736429202 0 -0.13290241802702499 -0.35265178330474523 0 -0.1532624182972378 -0.33871633494107939 0 -0.13290241802702499 -0.35265178330474523 0 -0.1562220225934601 -0.35985472972221177 0 -0.13724659116883831 -0.38156720383825199 0 -0.13290241802702499 -0.35265178330474523 0 -0.1562220225934601 -0.35985472972221177 0 -0.13724659116883831 -0.38156720383825199 0 -0.1663441030446621 -0.37717300760659073 0 -0.1562220225934601 -0.35985472972221177 0 -0.13724659116883831 -0.38156720383825199 0 -0.1562220225934601 -0.35985472972221177 0 -0.13724659116883831 -0.38156720383825199 0 -0.13290241802702499 -0.35265178330474523 0 -0.1192781490478088 -0.36668410834504778 0 -0.1192781490478088 -0.36668410834504778 0 -0.1016352808315869 -0.36700177770792092 0 -0.11220573075163159 -0.38220411347121069 0 -0.1192781490478088 -0.36668410834504778 0 -0.1016352808315869 -0.36700177770792092 0 -0.1099844304083452 -0.35257743562026572 0 -0.1016352808315869 -0.36700177770792092 0 -0.091783481537845241 -0.36974840743822202 0 -0.093334558199797538 -0.36412034719781128 0 -0.1016352808315869 -0.36700177770792092 0 -0.094364811557621053 -0.35389299716276579 0 -0.093334558199797538 -0.36412034719781128 0 -0.1016352808315869 -0.36700177770792092 0 -0.091783481537845241 -0.36974840743822202 0 -0.093814789784828018 -0.38091150164421111 0 -0.094364811557621053 -0.35389299716276579 0 -0.1099844304083452 -0.35257743562026572 0 -0.096042697554356071 -0.3397062417384924 0 -0.1016352808315869 -0.36700177770792092 0 -0.094364811557621053 -0.35389299716276579 0 -0.1099844304083452 -0.35257743562026572 0 -0.13290241802702499 -0.35265178330474523 0 -0.1099844304083452 -0.35257743562026572 0 -0.1166361947753133 -0.33638206822001748 0 -0.13290241802702499 -0.35265178330474523 0 -0.1192781490478088 -0.36668410834504778 0 -0.1099844304083452 -0.35257743562026572 0 -0.13403844172661231 -0.33095488736429202 0 -0.1166361947753133 -0.33638206822001748 0 -0.1231279148664025 -0.32697127933959502 0 -0.1166361947753133 -0.33638206822001748 0 -0.1152881905332649 -0.31967160768574748 0 -0.098893476597157901 -0.32632392269665411 0 -0.1166361947753133 -0.33638206822001748 0 -0.1231279148664025 -0.32697127933959502 0 -0.1152881905332649 -0.31967160768574748 0 -0.12839564496088529 -0.32005881249807028 0 -0.1152881905332649 -0.31967160768574748 0 -0.12202825811921469 -0.30947938976295097 0 -0.12839564496088529 -0.32005881249807028 0 -0.1231279148664025 -0.32697127933959502 0 -0.1152881905332649 -0.31967160768574748 0 -0.1152881905332649 -0.31967160768574748 0 -0.11397155121489801 -0.30848478901155318 0 -0.10823649018657309 -0.3106210867482716 0 -0.1152881905332649 -0.31967160768574748 0 -0.12202825811921469 -0.30947938976295097 0 -0.11397155121489801 -0.30848478901155318 0 -0.1152881905332649 -0.31967160768574748 0 -0.098893476597157901 -0.32632392269665411 0 -0.10823649018657309 -0.3106210867482716 0 -0.1166361947753133 -0.33638206822001748 0 -0.098893476597157901 -0.32632392269665411 0 -0.096042697554356071 -0.3397062417384924 0 -0.1099844304083452 -0.35257743562026572 0 -0.1166361947753133 -0.33638206822001748 0 -0.096042697554356071 -0.3397062417384924 0 -0.081273045807338212 -0.32012122354728773 0 -0.072383893537199012 -0.33396092306611819 0 -0.082523744249277803 -0.34494336359321798 0 -0.081273045807338212 -0.32012122354728773 0 -0.082523744249277803 -0.34494336359321798 0 -0.096042697554356071 -0.3397062417384924 0 -0.081273045807338212 -0.32012122354728773 0 -0.082523744249277803 -0.34494336359321798 0 -0.098893476597157901 -0.32632392269665411 0 -0.096042697554356071 -0.3397062417384924 0 -0.081273045807338212 -0.32012122354728773 0 -0.098893476597157901 -0.32632392269665411 0 -0.081273045807338212 -0.32012122354728773 0 -0.088490963390462057 -0.3073149594937738 0 -0.081273045807338212 -0.32012122354728773 0 -0.06349485352407537 -0.31994243130957151 0 -0.072383893537199012 -0.33396092306611819 0 -0.081273045807338212 -0.32012122354728773 0 -0.06349485352407537 -0.31994243130957151 0 -0.071882199735688629 -0.30989172464331072 0 -0.06349485352407537 -0.31994243130957151 0 -0.072383893537199012 -0.33396092306611819 0 -0.062587044379988993 -0.33886333000968721 0 -0.072383893537199012 -0.33396092306611819 0 -0.072040779725314613 -0.34593426687082662 0 -0.082523744249277803 -0.34494336359321798 0 -0.072383893537199012 -0.33396092306611819 0 -0.062587044379988993 -0.33886333000968721 0 -0.072040779725314613 -0.34593426687082662 0 -0.062587044379988993 -0.33886333000968721 0 -0.072040779725314613 -0.34593426687082662 0 -0.05778126825204781 -0.35817517109810632 0 -0.081484465201393491 -0.35485127927681481 0 -0.05778126825204781 -0.35817517109810632 0 -0.072289445743601369 -0.36429171085611578 0 -0.081484465201393491 -0.35485127927681481 0 -0.05778126825204781 -0.35817517109810632 0 -0.072040779725314613 -0.34593426687082662 0 -0.081484465201393491 -0.35485127927681481 0 -0.05778126825204781 -0.35817517109810632 0 -0.066117606829746781 -0.37437488941039382 0 -0.072289445743601369 -0.36429171085611578 0 -0.05778126825204781 -0.35817517109810632 0 -0.066117606829746781 -0.37437488941039382 0 -0.072289445743601369 -0.36429171085611578 0 -0.083774442691217046 -0.36976550363914829 0 -0.072289445743601369 -0.36429171085611578 0 -0.083774442691217046 -0.36976550363914829 0 -0.081484465201393491 -0.35485127927681481 0 -0.085554658872136979 -0.36583820648233678 0 -0.083774442691217046 -0.36976550363914829 0 -0.082523744249277803 -0.34494336359321798 0 -0.085554658872136979 -0.36583820648233678 0 -0.083774442691217046 -0.36976550363914829 0 -0.083774442691217046 -0.36976550363914829 0 -0.091783481537845241 -0.36974840743822202 0 -0.093814789784828018 -0.38091150164421111 0 -0.085554658872136979 -0.36583820648233678 0 -0.083774442691217046 -0.36976550363914829 0 -0.091783481537845241 -0.36974840743822202 0 -0.094364811557621053 -0.35389299716276579 0 -0.085554658872136979 -0.36583820648233678 0 -0.093334558199797538 -0.36412034719781128 0 -0.085554658872136979 -0.36583820648233678 0 -0.091783481537845241 -0.36974840743822202 0 -0.093334558199797538 -0.36412034719781128 0 -0.094364811557621053 -0.35389299716276579 0 -0.085554658872136979 -0.36583820648233678 0 -0.082523744249277803 -0.34494336359321798 0 -0.083774442691217046 -0.36976550363914829 0 -0.082523744249277803 -0.34494336359321798 0 -0.083774442691217046 -0.36976550363914829 0 -0.082523744249277803 -0.34494336359321798 0 -0.081484465201393491 -0.35485127927681481 0 -0.094364811557621053 -0.35389299716276579 0 -0.096042697554356071 -0.3397062417384924 0 -0.082523744249277803 -0.34494336359321798 0 -0.072040779725314613 -0.34593426687082662 0 -0.082523744249277803 -0.34494336359321798 0 -0.081484465201393491 -0.35485127927681481 0 -0.101475907254733 -0.26829823342826459 0 -0.093680051977193257 -0.25300014610948141 0 -0.1025516661405015 -0.24412656761791199 0 -0.1097432552782682 -0.2572086698476283 0 -0.101475907254733 -0.26829823342826459 0 -0.1025516661405015 -0.24412656761791199 0 -0.101475907254733 -0.26829823342826459 0 -0.1025516661405015 -0.24412656761791199 0 -0.101475907254733 -0.26829823342826459 0 -0.092490388530258719 -0.26367462890309928 0 -0.093680051977193257 -0.25300014610948141 0 -0.1097432552782682 -0.2572086698476283 0 -0.11415052326640381 -0.26847741843797612 0 -0.101475907254733 -0.26829823342826459 0 -0.1097432552782682 -0.2572086698476283 0 -0.1183855941197941 -0.25651062511641259 0 -0.1121525856099083 -0.24863050463757599 0 -0.1283361407779757 -0.25159171728621699 0 -0.1183855941197941 -0.25651062511641259 0 -0.11992695639240671 -0.24305274461581289 0 -0.1259380663168852 -0.26705754103126977 0 -0.1183855941197941 -0.25651062511641259 0 -0.11415052326640381 -0.26847741843797612 0 -0.1259380663168852 -0.26705754103126977 0 -0.1283361407779757 -0.25159171728621699 0 -0.1183855941197941 -0.25651062511641259 0 -0.1097432552782682 -0.2572086698476283 0 -0.1183855941197941 -0.25651062511641259 0 -0.11415052326640381 -0.26847741843797612 0 -0.1259380663168852 -0.26705754103126977 0 -0.11415052326640381 -0.26847741843797612 0 -0.121176560474238 -0.27855216134530347 0 -0.11415052326640381 -0.26847741843797612 0 -0.121176560474238 -0.27855216134530347 0 -0.112272911659429 -0.28340806039222649 0 -0.101475907254733 -0.26829823342826459 0 -0.1004001483689636 -0.29246989923861699 0 -0.089806853404465051 -0.2713401455271785 0 -0.101475907254733 -0.26829823342826459 0 -0.1004001483689636 -0.29246989923861699 0 -0.11415052326640381 -0.26847741843797612 0 -0.101475907254733 -0.26829823342826459 0 -0.112272911659429 -0.28340806039222649 0 -0.101475907254733 -0.26829823342826459 0 -0.089806853404465051 -0.2713401455271785 0 -0.092490388530258719 -0.26367462890309928 0 -0.1004001483689636 -0.29246989923861699 0 -0.112272911659429 -0.28340806039222649 0 -0.11289062726590229 -0.30027849754824781 0 -0.101475907254733 -0.26829823342826459 0 -0.1004001483689636 -0.29246989923861699 0 -0.112272911659429 -0.28340806039222649 0 -0.1004001483689636 -0.29246989923861699 0 -0.10013860532164209 -0.29834661679915908 0 -0.1004001483689636 -0.29246989923861699 0 -0.11289062726590229 -0.30027849754824781 0 -0.112272911659429 -0.28340806039222649 0 -0.12354370332633501 -0.29237215235494779 0 -0.11289062726590229 -0.30027849754824781 0 -0.121176560474238 -0.27855216134530347 0 -0.112272911659429 -0.28340806039222649 0 -0.12354370332633501 -0.29237215235494779 0 -0.13137693926794269 -0.30307910049847142 0 -0.11289062726590229 -0.30027849754824781 0 -0.13137693926794269 -0.30307910049847142 0 -0.11289062726590229 -0.30027849754824781 0 -0.12202825811921469 -0.30947938976295097 0 -0.13137693926794269 -0.30307910049847142 0 -0.12354370332633501 -0.29237215235494779 0 -0.11289062726590229 -0.30027849754824781 0 -0.11289062726590229 -0.30027849754824781 0 -0.11397155121489801 -0.30848478901155318 0 -0.10823649018657309 -0.3106210867482716 0 -0.11289062726590229 -0.30027849754824781 0 -0.12202825811921469 -0.30947938976295097 0 -0.11397155121489801 -0.30848478901155318 0 -0.098893476597157901 -0.32632392269665411 0 -0.10013860532164209 -0.29834661679915908 0 -0.098893476597157901 -0.32632392269665411 0 -0.10013860532164209 -0.29834661679915908 0 -0.088490963390462057 -0.3073149594937738 0 -0.098893476597157901 -0.32632392269665411 0 -0.10823649018657309 -0.3106210867482716 0 -0.10013860532164209 -0.29834661679915908 0 -0.11289062726590229 -0.30027849754824781 0 -0.10013860532164209 -0.29834661679915908 0 -0.1004001483689636 -0.29246989923861699 0 -0.11289062726590229 -0.30027849754824781 0 -0.10013860532164209 -0.29834661679915908 0 -0.11289062726590229 -0.30027849754824781 0 -0.10823649018657309 -0.3106210867482716 0 -0.10013860532164209 -0.29834661679915908 0 -0.081273045807338212 -0.32012122354728773 0 -0.075730545320634307 -0.30237183499028841 0 -0.080022347365398816 -0.29529908350135742 0 -0.081273045807338212 -0.32012122354728773 0 -0.088490963390462057 -0.3073149594937738 0 -0.080022347365398816 -0.29529908350135742 0 -0.10013860532164209 -0.29834661679915908 0 -0.088490963390462057 -0.3073149594937738 0 -0.080022347365398816 -0.29529908350135742 0 -0.081273045807338212 -0.32012122354728773 0 -0.080022347365398816 -0.29529908350135742 0 -0.06349485352407537 -0.31994243130957151 0 -0.067929239438661637 -0.29744245220773302 0 -0.06349485352407537 -0.31994243130957151 0 -0.067929239438661637 -0.29744245220773302 0 -0.05709164511789562 -0.30596989755068921 0 -0.081273045807338212 -0.32012122354728773 0 -0.071882199735688629 -0.30989172464331072 0 -0.075730545320634307 -0.30237183499028841 0 -0.06349485352407537 -0.31994243130957151 0 -0.071882199735688629 -0.30989172464331072 0 -0.067929239438661637 -0.29744245220773302 0 -0.067929239438661637 -0.29744245220773302 0 -0.075730545320634307 -0.30237183499028841 0 -0.074800211398343183 -0.29676828128919502 0 -0.071882199735688629 -0.30989172464331072 0 -0.067929239438661637 -0.29744245220773302 0 -0.075730545320634307 -0.30237183499028841 0 -0.075730545320634307 -0.30237183499028841 0 -0.074800211398343183 -0.29676828128919502 0 -0.080022347365398816 -0.29529908350135742 0 -0.067929239438661637 -0.29744245220773302 0 -0.072363625353247057 -0.27494247310589431 0 -0.074800211398343183 -0.29676828128919502 0 -0.075988861669628593 -0.29203098004520328 0 -0.080022347365398816 -0.29529908350135742 0 -0.067929239438661637 -0.29744245220773302 0 -0.063481929201992804 -0.28659419931659808 0 -0.072363625353247057 -0.27494247310589431 0 -0.067929239438661637 -0.29744245220773302 0 -0.075162920182542767 -0.28731555611229459 0 -0.072363625353247057 -0.27494247310589431 0 -0.075988861669628593 -0.29203098004520328 0 -0.075162920182542767 -0.28731555611229459 0 -0.080022347365398816 -0.29529908350135742 0 -0.067929239438661637 -0.29744245220773302 0 -0.075988861669628593 -0.29203098004520328 0 -0.075162920182542767 -0.28731555611229459 0 -0.067929239438661637 -0.29744245220773302 0 -0.074800211398343183 -0.29676828128919502 0 -0.075988861669628593 -0.29203098004520328 0 -0.067929239438661637 -0.29744245220773302 0 -0.063481929201992804 -0.28659419931659808 0 -0.057157199652218327 -0.29433345841048941 0 -0.1004001483689636 -0.29246989923861699 0 -0.079212385277153408 -0.27922407156230239 0 -0.10013860532164209 -0.29834661679915908 0 -0.080022347365398816 -0.29529908350135742 0 -0.075162920182542767 -0.28731555611229459 0 -0.080022347365398816 -0.29529908350135742 0 -0.079212385277153408 -0.27922407156230239 0 -0.1004001483689636 -0.29246989923861699 0 -0.080022347365398816 -0.29529908350135742 0 -0.079212385277153408 -0.27922407156230239 0 -0.1004001483689636 -0.29246989923861699 0 -0.10013860532164209 -0.29834661679915908 0 -0.080022347365398816 -0.29529908350135742 0 -0.080022347365398816 -0.29529908350135742 0 -0.079212385277153408 -0.27922407156230239 0 -0.1004001483689636 -0.29246989923861699 0 -0.089806853404465051 -0.2713401455271785 0 -0.079212385277153408 -0.27922407156230239 0 -0.089806853404465051 -0.2713401455271785 0 -0.084998741484643592 -0.26205999054747281 0 -0.092490388530258719 -0.26367462890309928 0 -0.089806853404465051 -0.2713401455271785 0 -0.078429256909339093 -0.26368161834739218 0 -0.084998741484643592 -0.26205999054747281 0 -0.079212385277153408 -0.27922407156230239 0 -0.078429256909339093 -0.26368161834739218 0 -0.089806853404465051 -0.2713401455271785 0 -0.079212385277153408 -0.27922407156230239 0 -0.078429256909339093 -0.26368161834739218 0 -0.075162920182542767 -0.28731555611229459 0 -0.079212385277153408 -0.27922407156230239 0 -0.072363625353247057 -0.27494247310589431 0 -0.072363625353247057 -0.27494247310589431 0 -0.052651973256824323 -0.26261945695013877 0 -0.072363625353247057 -0.27494247310589431 0 -0.065594040539757301 -0.27326720108960889 0 -0.052651973256824323 -0.26261945695013877 0 -0.079212385277153408 -0.27922407156230239 0 -0.072363625353247057 -0.27494247310589431 0 -0.072363625353247057 -0.27494247310589431 0 -0.065594040539757301 -0.27326720108960889 0 -0.061663959528748452 -0.27997783588547598 0 -0.063481929201992804 -0.28659419931659808 0 -0.072363625353247057 -0.27494247310589431 0 -0.061663959528748452 -0.27997783588547598 0 -0.079212385277153408 -0.27922407156230239 0 -0.072363625353247057 -0.27494247310589431 0 -0.078429256909339093 -0.26368161834739218 0 -0.072363625353247057 -0.27494247310589431 0 -0.077646128541525 -0.24813916513248199 0 -0.072363625353247057 -0.27494247310589431 0 -0.078429256909339093 -0.26368161834739218 0 -0.077646128541525 -0.24813916513248199 0 -0.072363625353247057 -0.27494247310589431 0 -0.052651973256824323 -0.26261945695013877 0 -0.077646128541525 -0.24813916513248199 0 -0.078429256909339093 -0.26368161834739218 0 -0.077646128541525 -0.24813916513248199 0 -0.084998741484643592 -0.26205999054747281 0 -0.088104632666654803 -0.24175912157342011 0 -0.084998741484643592 -0.26205999054747281 0 -0.093680051977193257 -0.25300014610948141 0 -0.088104632666654803 -0.24175912157342011 0 -0.084998741484643592 -0.26205999054747281 0 -0.088104632666654803 -0.24175912157342011 0 -0.077646128541525 -0.24813916513248199 0 -0.078429256909339093 -0.26368161834739218 0 -0.084998741484643592 -0.26205999054747281 0 -0.077646128541525 -0.24813916513248199 0 -0.084998741484643592 -0.26205999054747281 0 -0.092490388530258719 -0.26367462890309928 0 -0.093680051977193257 -0.25300014610948141 0 -0.032940321160402269 -0.25029644079438251 0 -0.052651973256824323 -0.26261945695013877 0 -0.050902643065861071 -0.24349095896983161 0 -0.032940321160402269 -0.25029644079438251 0 -0.052651973256824323 -0.26261945695013877 0 -0.030801127425925001 -0.25680016795848581 0 -0.032940321160402269 -0.25029644079438251 0 -0.052651973256824323 -0.26261945695013877 0 -0.052651973256824323 -0.26261945695013877 0 -0.048838748996681343 -0.27669498093657302 0 -0.030801127425925001 -0.25680016795848581 0 -0.032940321160402269 -0.25029644079438251 0 -0.030801127425925001 -0.25680016795848581 0 -0.052651973256824323 -0.26261945695013877 0 -0.050902643065861071 -0.24349095896983161 0 -0.077646128541525 -0.24813916513248199 0 -0.065594040539757301 -0.27326720108960889 0 -0.048838748996681343 -0.27669498093657302 0 -0.065594040539757301 -0.27326720108960889 0 -0.052651973256824323 -0.26261945695013877 0 -0.048838748996681343 -0.27669498093657302 0 -0.065594040539757301 -0.27326720108960889 0 -0.061663959528748452 -0.27997783588547598 0 -0.048838748996681343 -0.27669498093657302 0 -0.061663959528748452 -0.27997783588547598 0 -0.048838748996681343 -0.27669498093657302 0 -0.054451087829631463 -0.28288517796522222 0 -0.048838748996681343 -0.27669498093657302 0 -0.054451087829631463 -0.28288517796522222 0 -0.048838748996681343 -0.27669498093657302 0 -0.030801127425925001 -0.25680016795848581 0 -0.048838748996681343 -0.27669498093657302 0 -0.02248395618448398 -0.28208661661419232 0 -0.030801127425925001 -0.25680016795848581 0 -0.048838748996681343 -0.27669498093657302 0 -0.02248395618448398 -0.28208661661419232 0 -0.048838748996681343 -0.27669498093657302 0 -0.041077846387481028 -0.28937070966441081 0 -0.02248395618448398 -0.28208661661419232 0 -0.041077846387481028 -0.28937070966441081 0 -0.037109865356421391 -0.29952186761000271 0 -0.029468436869721851 -0.29252598106650862 0 -0.041077846387481028 -0.28937070966441081 0 -0.04975385330497957 -0.2890306135367654 0 -0.047244383658885593 -0.30186874070713182 0 -0.048838748996681343 -0.27669498093657302 0 -0.041077846387481028 -0.28937070966441081 0 -0.04975385330497957 -0.2890306135367654 0 -0.048838748996681343 -0.27669498093657302 0 -0.04975385330497957 -0.2890306135367654 0 -0.054451087829631463 -0.28288517796522222 0 -0.04975385330497957 -0.2890306135367654 0 -0.054451087829631463 -0.28288517796522222 0 -0.057157199652218327 -0.29433345841048941 0 -0.063481929201992804 -0.28659419931659808 0 -0.054451087829631463 -0.28288517796522222 0 -0.057157199652218327 -0.29433345841048941 0 -0.063481929201992804 -0.28659419931659808 0 -0.061663959528748452 -0.27997783588547598 0 -0.054451087829631463 -0.28288517796522222 0 -0.04975385330497957 -0.2890306135367654 0 -0.057157199652218327 -0.29433345841048941 0 -0.047244383658885593 -0.30186874070713182 0 -0.057157199652218327 -0.29433345841048941 0 -0.047244383658885593 -0.30186874070713182 0 -0.05709164511789562 -0.30596989755068921 0 -0.067929239438661637 -0.29744245220773302 0 -0.057157199652218327 -0.29433345841048941 0 -0.05709164511789562 -0.30596989755068921 0 -0.047244383658885593 -0.30186874070713182 0 -0.05709164511789562 -0.30596989755068921 0 -0.049632549315637188 -0.31626240511852 0 -0.047244383658885593 -0.30186874070713182 0 -0.049632549315637188 -0.31626240511852 0 -0.036505516356473318 -0.31400569198040618 0 -0.047244383658885593 -0.30186874070713182 0 -0.037109865356421391 -0.29952186761000271 0 -0.036505516356473318 -0.31400569198040618 0 -0.041077846387481028 -0.28937070966441081 0 -0.047244383658885593 -0.30186874070713182 0 -0.037109865356421391 -0.29952186761000271 0 -0.037109865356421391 -0.29952186761000271 0 -0.02678144107749017 -0.30078470409936309 0 -0.036505516356473318 -0.31400569198040618 0 -0.02678144107749017 -0.30078470409936309 0 -0.021312585502779081 -0.32213078764647213 0 -0.02678144107749017 -0.30078470409936309 0 -0.036505516356473318 -0.31400569198040618 0 -0.021312585502779081 -0.32213078764647213 0 -0.02678144107749017 -0.30078470409936309 0 -0.01630762940426286 -0.3038502133106713 0 -0.021312585502779081 -0.32213078764647213 0 -0.037109865356421391 -0.29952186761000271 0 -0.02678144107749017 -0.30078470409936309 0 -0.029468436869721851 -0.29252598106650862 0 -0.02678144107749017 -0.30078470409936309 0 -0.01630762940426286 -0.3038502133106713 0 -0.01957434403417008 -0.29093262400193609 0 -0.0063780240591087903 -0.31078717533589839 0 -0.0074917523477661804 -0.29461577546968681 0 0.013051880611257029 -0.30817184754300292 0 -0.01630762940426286 -0.3038502133106713 0 -0.0063780240591087903 -0.31078717533589839 0 -0.021312585502779081 -0.32213078764647213 0 -0.01630762940426286 -0.3038502133106713 0 -0.0063780240591087903 -0.31078717533589839 0 -0.0074917523477661804 -0.29461577546968681 0 -0.02248395618448398 -0.28208661661419232 0 0.0027723556212477219 -0.28725352620772771 0 -0.01075429771457371 -0.28163518560512563 0 -0.02248395618448398 -0.28208661661419232 0 0.0027723556212477219 -0.28725352620772771 0 -0.0074917523477661804 -0.29461577546968681 0 -0.02248395618448398 -0.28208661661419232 0 0.0027723556212477219 -0.28725352620772771 0 -0.01630762940426286 -0.3038502133106713 0 -0.0074917523477661804 -0.29461577546968681 0 -0.01957434403417008 -0.29093262400193609 0 -0.01075429771457371 -0.28163518560512563 0 -0.0017476628817073611 -0.27805551369469472 0 0.0027723556212477219 -0.28725352620772771 0 -0.041077846387481028 -0.28937070966441081 0 -0.02248395618448398 -0.28208661661419232 0 -0.029468436869721851 -0.29252598106650862 0 -0.02248395618448398 -0.28208661661419232 0 -0.01957434403417008 -0.29093262400193609 0 -0.0074917523477661804 -0.29461577546968681 0 -0.02248395618448398 -0.28208661661419232 0 -0.01957434403417008 -0.29093262400193609 0 -0.02678144107749017 -0.30078470409936309 0 -0.01957434403417008 -0.29093262400193609 0 -0.029468436869721851 -0.29252598106650862 0 -0.02248395618448398 -0.28208661661419232 0 -0.01957434403417008 -0.29093262400193609 0 -0.029468436869721851 -0.29252598106650862 0 -0.02248395618448398 -0.28208661661419232 0 -0.030801127425925001 -0.25680016795848581 0 -0.02248395618448398 -0.28208661661419232 0 -0.01520552987642871 -0.27187005660595642 0 -0.030801127425925001 -0.25680016795848581 0 -0.01075429771457371 -0.28163518560512563 0 -0.02248395618448398 -0.28208661661419232 0 -0.01520552987642871 -0.27187005660595642 0 -0.0017476628817073611 -0.27805551369469472 0 -0.01024060517545407 -0.26077279915728391 0 0.0057386521092319797 -0.26220041049146298 0 -0.0017476628817073611 -0.27805551369469472 0 -0.01520552987642871 -0.27187005660595642 0 -0.01024060517545407 -0.26077279915728391 0 -0.0017476628817073611 -0.27805551369469472 0 -0.01024060517545407 -0.26077279915728391 0 -0.01075429771457371 -0.28163518560512563 0 -0.0017476628817073611 -0.27805551369469472 0 -0.01520552987642871 -0.27187005660595642 0 -0.01075429771457371 -0.28163518560512563 0 -0.0017476628817073611 -0.27805551369469472 0 -0.01024060517545407 -0.26077279915728391 0 0.0057386521092319797 -0.26220041049146298 0 0.0025328853753160741 -0.24958102673793139 0 -0.01024060517545407 -0.26077279915728391 0 -0.018733547469201091 -0.24349008461987329 0 -0.01024060517545407 -0.26077279915728391 0 -0.018733547469201091 -0.24349008461987329 0 0.0025328853753160741 -0.24958102673793139 0 -0.01024060517545407 -0.26077279915728391 0 -0.030801127425925001 -0.25680016795848581 0 -0.018733547469201091 -0.24349008461987329 0 -0.01520552987642871 -0.27187005660595642 0 -0.01024060517545407 -0.26077279915728391 0 -0.030801127425925001 -0.25680016795848581 0 -0.032940321160402269 -0.25029644079438251 0 -0.030801127425925001 -0.25680016795848581 0 -0.026871719323301121 -0.24650256912316601 0 -0.030801127425925001 -0.25680016795848581 0 -0.018733547469201091 -0.24349008461987329 0 -0.034078071302702163 -0.36149906291939787 0 -0.05778126825204781 -0.35817517109810632 0 -0.044598414929564491 -0.33459332569111688 0 -0.034078071302702163 -0.36149906291939787 0 -0.044598414929564491 -0.33459332569111688 0 -0.02963630761074966 -0.34409655343526241 0 -0.034078071302702163 -0.36149906291939787 0 -0.05778126825204781 -0.35817517109810632 0 -0.034078071302702163 -0.36149906291939787 0 -0.031733352269984409 -0.37630872523495079 0 -0.04671422923235316 -0.37926911911211442 0 -0.034078071302702163 -0.36149906291939787 0 -0.05778126825204781 -0.35817517109810632 0 -0.04671422923235316 -0.37926911911211442 0 -0.066117606829746781 -0.37437488941039382 0 -0.05778126825204781 -0.35817517109810632 0 -0.04671422923235316 -0.37926911911211442 0 -0.062587044379988993 -0.33886333000968721 0 -0.05778126825204781 -0.35817517109810632 0 -0.044598414929564491 -0.33459332569111688 0 -0.06349485352407537 -0.31994243130957151 0 -0.062587044379988993 -0.33886333000968721 0 -0.044598414929564491 -0.33459332569111688 0 -0.06349485352407537 -0.31994243130957151 0 -0.049632549315637188 -0.31626240511852 0 -0.044598414929564491 -0.33459332569111688 0 -0.06349485352407537 -0.31994243130957151 0 -0.05709164511789562 -0.30596989755068921 0 -0.049632549315637188 -0.31626240511852 0 -0.049632549315637188 -0.31626240511852 0 -0.036505516356473318 -0.31400569198040618 0 -0.044598414929564491 -0.33459332569111688 0 -0.036505516356473318 -0.31400569198040618 0 -0.044598414929564491 -0.33459332569111688 0 -0.021312585502779081 -0.32213078764647213 0 -0.044598414929564491 -0.33459332569111688 0 -0.021312585502779081 -0.32213078764647213 0 -0.02963630761074966 -0.34409655343526241 0 -0.015843729928067991 -0.34347687119358122 0 -0.021312585502779081 -0.32213078764647213 0 -0.02963630761074966 -0.34409655343526241 0 -0.015843729928067991 -0.34347687119358122 0 -0.021312585502779081 -0.32213078764647213 0 -0.0063780240591087903 -0.31078717533589839 0 -0.021312585502779081 -0.32213078764647213 0 3.5896068887442723e-05 -0.32803491845883598 0 -0.015843729928067991 -0.34347687119358122 0 -0.00014080085946228561 -0.35082738964002957 0 3.5896068887442723e-05 -0.32803491845883598 0 -0.015843729928067991 -0.34347687119358122 0 -0.021312585502779081 -0.32213078764647213 0 3.5896068887442723e-05 -0.32803491845883598 0 -0.015843729928067991 -0.34347687119358122 0 -0.00014080085946228561 -0.35082738964002957 0 -0.01037487435335663 -0.3648229547406901 0 -0.015843729928067991 -0.34347687119358122 0 -0.01037487435335663 -0.3648229547406901 0 -0.015843729928067991 -0.34347687119358122 0 -0.02275820373048933 -0.35362182208710219 0 -0.02963630761074966 -0.34409655343526241 0 -0.015843729928067991 -0.34347687119358122 0 -0.02275820373048933 -0.35362182208710219 0 -0.01037487435335663 -0.3648229547406901 0 -0.034078071302702163 -0.36149906291939787 0 -0.02275820373048933 -0.35362182208710219 0 -0.02963630761074966 -0.34409655343526241 0 -0.034078071302702163 -0.36149906291939787 0 -0.02215424893162643 -0.37111505202744122 0 -0.01037487435335663 -0.3648229547406901 0 -0.034078071302702163 -0.36149906291939787 0 -0.01037487435335663 -0.3648229547406901 0 -0.034078071302702163 -0.36149906291939787 0 -0.02275820373048933 -0.35362182208710219 0 -0.01037487435335663 -0.3648229547406901 0 -0.034078071302702163 -0.36149906291939787 0 -0.02215424893162643 -0.37111505202744122 0 -0.031733352269984409 -0.37630872523495079 0 -0.02215424893162643 -0.37111505202744122 0 -0.016772253886492949 -0.37410089839641808 0 -0.01404568160319189 -0.3712617873641948 0 -0.01404568160319189 -0.3712617873641948 0 -0.0094265442937821464 -0.37378457166277412 0 -0.01319259440905524 -0.37623554315916408 0 -0.0078283346885702904 -0.37476262999778609 0 -0.0094265442937821464 -0.37378457166277412 0 -0.01037487435335663 -0.3648229547406901 0 -0.02215424893162643 -0.37111505202744122 0 -0.01404568160319189 -0.3712617873641948 0 -0.01037487435335663 -0.3648229547406901 0 -0.01037487435335663 -0.3648229547406901 0 0.0058490520874761691 -0.36709803082098191 0 -0.016772253886492949 -0.37410089839641808 0 -0.01404568160319189 -0.3712617873641948 0 -0.01319259440905524 -0.37623554315916408 0 -0.00014080085946228561 -0.35082738964002957 0 -0.01037487435335663 -0.3648229547406901 0 0.0058490520874761691 -0.36709803082098191 0 -0.0078283346885702904 -0.37476262999778609 0 -0.01037487435335663 -0.3648229547406901 0 0.0058490520874761691 -0.36709803082098191 0 -0.0078283346885702904 -0.37476262999778609 0 -0.01037487435335663 -0.3648229547406901 0 -0.01404568160319189 -0.3712617873641948 0 -0.0094265442937821464 -0.37378457166277412 0 -0.01037487435335663 -0.3648229547406901 0 -0.0078283346885702904 -0.37476262999778609 0 -0.0094265442937821464 -0.37378457166277412 0 -0.0078283346885702904 -0.37476262999778609 0 -0.0023576536845698339 -0.39611583857600319 0 -0.0078283346885702904 -0.37476262999778609 0 -0.011142097151610131 -0.38172381805447092 0 -0.0023576536845698339 -0.39611583857600319 0 -0.011142097151610131 -0.38172381805447092 0 -0.0023576536845698339 -0.39611583857600319 0 -0.01587325479487519 -0.38723674351337972 0 -0.011142097151610131 -0.38172381805447092 0 -0.01610234460482865 -0.37998891207167063 0 -0.01587325479487519 -0.38723674351337972 0 -0.01319259440905524 -0.37623554315916408 0 -0.011142097151610131 -0.38172381805447092 0 -0.01610234460482865 -0.37998891207167063 0 -0.016772253886492949 -0.37410089839641808 0 -0.01319259440905524 -0.37623554315916408 0 -0.01610234460482865 -0.37998891207167063 0 -0.01319259440905524 -0.37623554315916408 0 -0.010397392635754449 -0.37662664071854879 0 -0.011142097151610131 -0.38172381805447092 0 -0.0078283346885702904 -0.37476262999778609 0 -0.010397392635754449 -0.37662664071854879 0 -0.011142097151610131 -0.38172381805447092 0 -0.0094265442937821464 -0.37378457166277412 0 -0.01319259440905524 -0.37623554315916408 0 -0.010397392635754449 -0.37662664071854879 0 -0.0078283346885702904 -0.37476262999778609 0 -0.0094265442937821464 -0.37378457166277412 0 -0.010397392635754449 -0.37662664071854879 0 -0.0023576536845698339 -0.39611583857600319 0 -0.016854849126784088 -0.39742738565483049 0 -0.01587325479487519 -0.38723674351337972 0 -0.0023576536845698339 -0.39611583857600319 0 -0.016854849126784088 -0.39742738565483049 0 -0.0081630895937607941 -0.41129335178386173 0 -0.016854849126784088 -0.39742738565483049 0 -0.023392714889338931 -0.39064901327928331 0 -0.029305467632274609 -0.40049385546170407 0 -0.016854849126784088 -0.39742738565483049 0 -0.023392714889338931 -0.39064901327928331 0 -0.01587325479487519 -0.38723674351337972 0 -0.023392714889338931 -0.39064901327928331 0 -0.029305467632274609 -0.40049385546170407 0 -0.032188689101130562 -0.38901283488088068 0 -0.02215424893162643 -0.37111505202744122 0 -0.016772253886492949 -0.37410089839641808 0 -0.02353152278210973 -0.38064755723492022 0 -0.016772253886492949 -0.37410089839641808 0 -0.01610234460482865 -0.37998891207167063 0 -0.02353152278210973 -0.38064755723492022 0 -0.01610234460482865 -0.37998891207167063 0 -0.01587325479487519 -0.38723674351337972 0 -0.02353152278210973 -0.38064755723492022 0 -0.023392714889338931 -0.39064901327928331 0 -0.01587325479487519 -0.38723674351337972 0 -0.02353152278210973 -0.38064755723492022 0 -0.023392714889338931 -0.39064901327928331 0 -0.02353152278210973 -0.38064755723492022 0 -0.032188689101130562 -0.38901283488088068 0 -0.02353152278210973 -0.38064755723492022 0 -0.031733352269984409 -0.37630872523495079 0 -0.032188689101130562 -0.38901283488088068 0 -0.02215424893162643 -0.37111505202744122 0 -0.02353152278210973 -0.38064755723492022 0 -0.031733352269984409 -0.37630872523495079 0 -0.031733352269984409 -0.37630872523495079 0 -0.04671422923235316 -0.37926911911211442 0 -0.032188689101130562 -0.38901283488088068 0 -0.04671422923235316 -0.37926911911211442 0 -0.032188689101130562 -0.38901283488088068 0 -0.044289202763444772 -0.39135289085216762 0 -0.032188689101130562 -0.38901283488088068 0 -0.041257957344308177 -0.40487627914437913 0 -0.044289202763444772 -0.39135289085216762 0 -0.029305467632274609 -0.40049385546170407 0 -0.032188689101130562 -0.38901283488088068 0 -0.041257957344308177 -0.40487627914437913 0 -0.056230819367541693 -0.39440183914975269 0 -0.051493530029743613 -0.41277891791385168 0 -0.065747409502729032 -0.40953455918739179 0 -0.041257957344308177 -0.40487627914437913 0 -0.056230819367541693 -0.39440183914975269 0 -0.051493530029743613 -0.41277891791385168 0 -0.041257957344308177 -0.40487627914437913 0 -0.044289202763444772 -0.39135289085216762 0 -0.056230819367541693 -0.39440183914975269 0 -0.056230819367541693 -0.39440183914975269 0 -0.065747409502729032 -0.40953455918739179 0 -0.066117606829746781 -0.37437488941039382 0 -0.04671422923235316 -0.37926911911211442 0 -0.056230819367541693 -0.39440183914975269 0 -0.04671422923235316 -0.37926911911211442 0 -0.044289202763444772 -0.39135289085216762 0 -0.056230819367541693 -0.39440183914975269 0 -0.04671422923235316 -0.37926911911211442 0 -0.056230819367541693 -0.39440183914975269 0 -0.057674512383022389 -0.42734400629007657 0 -0.049601615263317987 -0.44515345339276252 0 -0.057674512383022389 -0.42734400629007657 0 -0.051493530029743613 -0.41277891791385168 0 -0.065747409502729032 -0.40953455918739179 0 -0.057674512383022389 -0.42734400629007657 0 -0.065747409502729032 -0.40953455918739179 0 -0.057674512383022389 -0.42734400629007657 0 -0.051493530029743613 -0.41277891791385168 0 -0.03322823219505102 -0.42129041952379648 0 -0.029305467632274609 -0.40049385546170407 0 -0.041257957344308177 -0.40487627914437913 0 -0.03322823219505102 -0.42129041952379648 0 -0.041257957344308177 -0.40487627914437913 0 -0.051493530029743613 -0.41277891791385168 0 -0.03322823219505102 -0.42129041952379648 0 -0.03322823219505102 -0.42129041952379648 0 -0.02439234541253921 -0.43490569650885758 0 -0.049601615263317987 -0.44515345339276252 0 -0.03322823219505102 -0.42129041952379648 0 -0.049601615263317987 -0.44515345339276252 0 -0.057674512383022389 -0.42734400629007657 0 -0.03322823219505102 -0.42129041952379648 0 -0.049601615263317987 -0.44515345339276252 0 -0.03322823219505102 -0.42129041952379648 0 -0.02439234541253921 -0.43490569650885758 0 -0.010818991714530671 -0.42579448288144173 0 -0.016854849126784088 -0.39742738565483049 0 -0.03322823219505102 -0.42129041952379648 0 -0.03322823219505102 -0.42129041952379648 0 -0.0081630895937607941 -0.41129335178386173 0 -0.010818991714530671 -0.42579448288144173 0 -0.016854849126784088 -0.39742738565483049 0 -0.029305467632274609 -0.40049385546170407 0 -0.03322823219505102 -0.42129041952379648 0 -0.016854849126784088 -0.39742738565483049 0 -0.03322823219505102 -0.42129041952379648 0 -0.0081630895937607941 -0.41129335178386173 0 -0.0081630895937607941 -0.41129335178386173 0 -0.010818991714530671 -0.42579448288144173 0 0.0026957591361241309 -0.41958824334712869 0 -0.02439234541253921 -0.43490569650885758 0 -0.010818991714530671 -0.42579448288144173 0 -0.01027783979290609 -0.4450418277695869 0 -0.010818991714530671 -0.42579448288144173 0 -0.01027783979290609 -0.4450418277695869 0 0.003851027954898749 -0.43172418954792041 0 -0.010818991714530671 -0.42579448288144173 0 0.0026957591361241309 -0.41958824334712869 0 0.003851027954898749 -0.43172418954792041 0 -0.01027783979290609 -0.4450418277695869 0 -0.011038280792740629 -0.46258843223684681 0 0.0031349746952128348 -0.45732154608844711 0 -0.01027783979290609 -0.4450418277695869 0 -0.011038280792740629 -0.46258843223684681 0 -0.02289260566061898 -0.45897742689034388 0 -0.011038280792740629 -0.46258843223684681 0 -0.00094907817261298132 -0.47112804672216879 0 0.0031349746952128348 -0.45732154608844711 0 -0.02289260566061898 -0.45897742689034388 0 -0.029356635895327849 -0.44930438287917762 0 -0.040413005672661102 -0.46542425011239508 0 -0.02289260566061898 -0.45897742689034388 0 -0.023377266149459251 -0.47252824145371342 0 -0.040413005672661102 -0.46542425011239508 0 -0.011038280792740629 -0.46258843223684681 0 -0.02289260566061898 -0.45897742689034388 0 -0.023377266149459251 -0.47252824145371342 0 -0.02439234541253921 -0.43490569650885758 0 -0.01027783979290609 -0.4450418277695869 0 -0.029356635895327849 -0.44930438287917762 0 -0.01027783979290609 -0.4450418277695869 0 -0.02289260566061898 -0.45897742689034388 0 -0.029356635895327849 -0.44930438287917762 0 -0.0023310323066341181 -0.5 0 -0.0043793089323552817 -0.49170101865338262 0 -0.02815109917196898 -0.49861636840837392 0 -0.0043793089323552817 -0.49170101865338262 0 -0.0043176495648967151 -0.48070428616945038 0 0.0053352152350804568 -0.4807791696356124 0 -0.0043793089323552817 -0.49170101865338262 0 -0.0106231170010091 -0.48419136288379427 0 -0.0043176495648967151 -0.48070428616945038 0 -0.0043793089323552817 -0.49170101865338262 0 -0.0106231170010091 -0.48419136288379427 0 -0.017950876149337221 -0.4893641285520216 0 -0.0106231170010091 -0.48419136288379427 0 -0.01097195895358667 -0.47572183295229409 0 -0.019957514846631629 -0.48311391022826639 0 -0.0106231170010091 -0.48419136288379427 0 -0.0043176495648967151 -0.48070428616945038 0 -0.01097195895358667 -0.47572183295229409 0 -0.011038280792740629 -0.46258843223684681 0 -0.00094907817261298132 -0.47112804672216879 0 -0.01097195895358667 -0.47572183295229409 0 -0.0043176495648967151 -0.48070428616945038 0 -0.00094907817261298132 -0.47112804672216879 0 -0.01097195895358667 -0.47572183295229409 0 -0.011038280792740629 -0.46258843223684681 0 -0.01097195895358667 -0.47572183295229409 0 -0.023377266149459251 -0.47252824145371342 0 -0.023377266149459251 -0.47252824145371342 0 -0.019957514846631629 -0.48311391022826639 0 -0.031224396082004221 -0.48569504683202769 0 -0.01097195895358667 -0.47572183295229409 0 -0.023377266149459251 -0.47252824145371342 0 -0.019957514846631629 -0.48311391022826639 0 -0.0023310323066341181 -0.5 0 -0.02815109917196898 -0.49861636840837392 0 -0.031360818006208928 -0.5 0 -0.0043793089323552817 -0.49170101865338262 0 -0.017950876149337221 -0.4893641285520216 0 -0.02815109917196898 -0.49861636840837392 0 -0.0043793089323552817 -0.49170101865338262 0 -0.02815109917196898 -0.49861636840837392 0 -0.0106231170010091 -0.48419136288379427 0 -0.019957514846631629 -0.48311391022826639 0 -0.017950876149337221 -0.4893641285520216 0 -0.019957514846631629 -0.48311391022826639 0 -0.017950876149337221 -0.4893641285520216 0 -0.025597474744393309 -0.49118284869574791 0 -0.019957514846631629 -0.48311391022826639 0 -0.031224396082004221 -0.48569504683202769 0 -0.025597474744393309 -0.49118284869574791 0 -0.025597474744393309 -0.49118284869574791 0 -0.02815109917196898 -0.49861636840837392 0 -0.031360818006208928 -0.5 0 -0.031224396082004221 -0.48569504683202769 0 -0.025597474744393309 -0.49118284869574791 0 -0.031360818006208928 -0.5 0 -0.017950876149337221 -0.4893641285520216 0 -0.025597474744393309 -0.49118284869574791 0 -0.02815109917196898 -0.49861636840837392 0 -0.031360818006208928 -0.5 0 -0.048343055904351132 -0.4819359294639956 0 -0.060390603705783863 -0.5 0 -0.031224396082004221 -0.48569504683202769 0 -0.031360818006208928 -0.5 0 -0.048343055904351132 -0.4819359294639956 0 -0.031224396082004221 -0.48569504683202769 0 -0.040413005672661102 -0.46542425011239508 0 -0.031224396082004221 -0.48569504683202769 0 -0.048343055904351132 -0.4819359294639956 0 -0.040413005672661102 -0.46542425011239508 0 -0.023377266149459251 -0.47252824145371342 0 -0.031224396082004221 -0.48569504683202769 0 -0.040413005672661102 -0.46542425011239508 0 -0.048343055904351132 -0.4819359294639956 0 -0.040413005672661102 -0.46542425011239508 0 -0.061868527913120197 -0.46303160055449383 0 -0.048343055904351132 -0.4819359294639956 0 -0.061868527913120197 -0.46303160055449383 0 -0.067715258758524743 -0.48343239441089819 0 -0.048343055904351132 -0.4819359294639956 0 -0.060390603705783863 -0.5 0 -0.067715258758524743 -0.48343239441089819 0 -0.02439234541253921 -0.43490569650885758 0 -0.029356635895327849 -0.44930438287917762 0 -0.049601615263317987 -0.44515345339276252 0 -0.029356635895327849 -0.44930438287917762 0 -0.040413005672661102 -0.46542425011239508 0 -0.049601615263317987 -0.44515345339276252 0 -0.040413005672661102 -0.46542425011239508 0 -0.049601615263317987 -0.44515345339276252 0 -0.040413005672661102 -0.46542425011239508 0 -0.061868527913120197 -0.46303160055449383 0 -0.049601615263317987 -0.44515345339276252 0 -0.061868527913120197 -0.46303160055449383 0 -0.049601615263317987 -0.44515345339276252 0 -0.057674512383022389 -0.42734400629007657 0 -0.049601615263317987 -0.44515345339276252 0 -0.067687044322660692 -0.44438888407200389 0 -0.061868527913120197 -0.46303160055449383 0 -0.049601615263317987 -0.44515345339276252 0 -0.067687044322660692 -0.44438888407200389 0 -0.067687044322660692 -0.44438888407200389 0 -0.087522951364224152 -0.44416074083195012 0 -0.076635180433477057 -0.42684765000967062 0 -0.067687044322660692 -0.44438888407200389 0 -0.078553716864009776 -0.47219444203600192 0 -0.067687044322660692 -0.44438888407200389 0 -0.080483752515153384 -0.45444307226959779 0 -0.078553716864009776 -0.47219444203600192 0 -0.061868527913120197 -0.46303160055449383 0 -0.067687044322660692 -0.44438888407200389 0 -0.078553716864009776 -0.47219444203600192 0 -0.088171297509719124 -0.45702822213843508 0 -0.078553716864009776 -0.47219444203600192 0 -0.094850460920166413 -0.46755552228499719 0 -0.080483752515153384 -0.45444307226959779 0 -0.088171297509719124 -0.45702822213843508 0 -0.078553716864009776 -0.47219444203600192 0 -0.088171297509719124 -0.45702822213843508 0 -0.092026296169145899 -0.451321693988255 0 -0.09646742034415963 -0.45806785732742278 0 -0.088171297509719124 -0.45702822213843508 0 -0.09646742034415963 -0.45806785732742278 0 -0.094850460920166413 -0.46755552228499719 0 -0.067687044322660692 -0.44438888407200389 0 -0.080483752515153384 -0.45444307226959779 0 -0.087522951364224152 -0.44416074083195012 0 -0.088171297509719124 -0.45702822213843508 0 -0.087522951364224152 -0.44416074083195012 0 -0.088171297509719124 -0.45702822213843508 0 -0.092026296169145899 -0.451321693988255 0 -0.087522951364224152 -0.44416074083195012 0 -0.092026296169145899 -0.451321693988255 0 -0.087522951364224152 -0.44416074083195012 0 -0.080483752515153384 -0.45444307226959779 0 -0.088171297509719124 -0.45702822213843508 0 -0.087522951364224152 -0.44416074083195012 0 -0.060390603705783863 -0.5 0 -0.067715258758524743 -0.48343239441089819 0 -0.089420389405358791 -0.49999999999999978 0 -0.061868527913120197 -0.46303160055449383 0 -0.067715258758524743 -0.48343239441089819 0 -0.078553716864009776 -0.47219444203600192 0 -0.078553716864009776 -0.47219444203600192 0 -0.098208235557426499 -0.48290520710575457 0 -0.094850460920166413 -0.46755552228499719 0 -0.067715258758524743 -0.48343239441089819 0 -0.078553716864009776 -0.47219444203600192 0 -0.089420389405358791 -0.49999999999999978 0 -0.078553716864009776 -0.47219444203600192 0 -0.089420389405358791 -0.49999999999999978 0 -0.078553716864009776 -0.47219444203600192 0 -0.089420389405358791 -0.49999999999999978 0 -0.098208235557426499 -0.48290520710575457 0 -0.098208235557426499 -0.48290520710575457 0 -0.1125398430852395 -0.48112820013538338 0 -0.1148616459058424 -0.5 0 -0.089420389405358791 -0.49999999999999978 0 -0.098208235557426499 -0.48290520710575457 0 -0.1148616459058424 -0.5 0 -0.098208235557426499 -0.48290520710575457 0 -0.1051850434628086 -0.47275710198064308 0 -0.1125398430852395 -0.48112820013538338 0 -0.098208235557426499 -0.48290520710575457 0 -0.1051850434628086 -0.47275710198064308 0 -0.094850460920166413 -0.46755552228499719 0 -0.12704973474613379 -0.46277216333596533 0 -0.13010403334985379 -0.48000251283874379 0 -0.1157083509407465 -0.46985326695645979 0 -0.13010403334985379 -0.48000251283874379 0 -0.1157083509407465 -0.46985326695645979 0 -0.1125398430852395 -0.48112820013538338 0 -0.1051850434628086 -0.47275710198064308 0 -0.1157083509407465 -0.46985326695645979 0 -0.1125398430852395 -0.48112820013538338 0 -0.13010403334985379 -0.48000251283874379 0 -0.1125398430852395 -0.48112820013538338 0 -0.1148616459058424 -0.5 0 -0.10267072031130239 -0.4520905348048061 0 -0.102335674083258 -0.43919792399196639 0 -0.11570487117906469 -0.45324354028800051 0 -0.092026296169145899 -0.451321693988255 0 -0.087522951364224152 -0.44416074083195012 0 -0.102335674083258 -0.43919792399196639 0 -0.092026296169145899 -0.451321693988255 0 -0.10267072031130239 -0.4520905348048061 0 -0.102335674083258 -0.43919792399196639 0 -0.10267072031130239 -0.4520905348048061 0 -0.09646742034415963 -0.45806785732742278 0 -0.1046183268104643 -0.46234331342062063 0 -0.092026296169145899 -0.451321693988255 0 -0.10267072031130239 -0.4520905348048061 0 -0.09646742034415963 -0.45806785732742278 0 -0.1051850434628086 -0.47275710198064308 0 -0.094850460920166413 -0.46755552228499719 0 -0.1046183268104643 -0.46234331342062063 0 -0.09646742034415963 -0.45806785732742278 0 -0.094850460920166413 -0.46755552228499719 0 -0.1046183268104643 -0.46234331342062063 0 -0.1051850434628086 -0.47275710198064308 0 -0.1157083509407465 -0.46985326695645979 0 -0.1046183268104643 -0.46234331342062063 0 -0.10267072031130239 -0.4520905348048061 0 -0.1046183268104643 -0.46234331342062063 0 -0.11570487117906469 -0.45324354028800051 0 -0.12704973474613379 -0.46277216333596533 0 -0.1157083509407465 -0.46985326695645979 0 -0.11570487117906469 -0.45324354028800051 0 -0.1157083509407465 -0.46985326695645979 0 -0.1046183268104643 -0.46234331342062063 0 -0.11570487117906469 -0.45324354028800051 0 -0.13093011984253891 -0.44972195681556543 0 -0.12704973474613379 -0.46277216333596533 0 -0.11570487117906469 -0.45324354028800051 0 -0.13093011984253891 -0.44972195681556543 0 -0.11570487117906469 -0.45324354028800051 0 -0.123519809913229 -0.43733662075251151 0 -0.102335674083258 -0.43919792399196639 0 -0.11570487117906469 -0.45324354028800051 0 -0.123519809913229 -0.43733662075251151 0 -0.102335674083258 -0.43919792399196639 0 -0.123519809913229 -0.43733662075251151 0 -0.1073839645685936 -0.41867419567875119 0 -0.12597911368703019 -0.41952469120143437 0 -0.123519809913229 -0.43733662075251151 0 -0.1073839645685936 -0.41867419567875119 0 -0.102335674083258 -0.43919792399196639 0 -0.1073839645685936 -0.41867419567875119 0 -0.086273448473222103 -0.4193623284343494 0 -0.1073839645685936 -0.41867419567875119 0 -0.1004955064841186 -0.39983262220326049 0 -0.086273448473222103 -0.4193623284343494 0 -0.1073839645685936 -0.41867419567875119 0 -0.11827115974421661 -0.40327967795429231 0 -0.1004955064841186 -0.39983262220326049 0 -0.12597911368703019 -0.41952469120143437 0 -0.1073839645685936 -0.41867419567875119 0 -0.11827115974421661 -0.40327967795429231 0 -0.11827115974421661 -0.40327967795429231 0 -0.11220573075163159 -0.38220411347121069 0 -0.1004955064841186 -0.39983262220326049 0 -0.13724659116883831 -0.38156720383825199 0 -0.1192781490478088 -0.36668410834504778 0 -0.11220573075163159 -0.38220411347121069 0 -0.13724659116883831 -0.38156720383825199 0 -0.11827115974421661 -0.40327967795429231 0 -0.11220573075163159 -0.38220411347121069 0 -0.11220573075163159 -0.38220411347121069 0 -0.093814789784828018 -0.38091150164421111 0 -0.1004955064841186 -0.39983262220326049 0 -0.1016352808315869 -0.36700177770792092 0 -0.11220573075163159 -0.38220411347121069 0 -0.093814789784828018 -0.38091150164421111 0 -0.093814789784828018 -0.38091150164421111 0 -0.1004955064841186 -0.39983262220326049 0 -0.085023945582219762 -0.39456391603674879 0 -0.085023945582219762 -0.39456391603674879 0 -0.074760926096971728 -0.38965003141326948 0 -0.077688182017724178 -0.40799169701628579 0 -0.1004955064841186 -0.39983262220326049 0 -0.085023945582219762 -0.39456391603674879 0 -0.086273448473222103 -0.4193623284343494 0 -0.083774442691217046 -0.36976550363914829 0 -0.093814789784828018 -0.38091150164421111 0 -0.085023945582219762 -0.39456391603674879 0 -0.083774442691217046 -0.36976550363914829 0 -0.085023945582219762 -0.39456391603674879 0 -0.074760926096971728 -0.38965003141326948 0 -0.083774442691217046 -0.36976550363914829 0 -0.085023945582219762 -0.39456391603674879 0 -0.083774442691217046 -0.36976550363914829 0 -0.074760926096971728 -0.38965003141326948 0 -0.066117606829746781 -0.37437488941039382 0 -0.083774442691217046 -0.36976550363914829 0 -0.074760926096971728 -0.38965003141326948 0 -0.066117606829746781 -0.37437488941039382 0 -0.056230819367541693 -0.39440183914975269 0 -0.074760926096971728 -0.38965003141326948 0 -0.074760926096971728 -0.38965003141326948 0 -0.065747409502729032 -0.40953455918739179 0 -0.056230819367541693 -0.39440183914975269 0 -0.074760926096971728 -0.38965003141326948 0 -0.065747409502729032 -0.40953455918739179 0 -0.074760926096971728 -0.38965003141326948 0 -0.077688182017724178 -0.40799169701628579 0 -0.065747409502729032 -0.40953455918739179 0 -0.057674512383022389 -0.42734400629007657 0 -0.065747409502729032 -0.40953455918739179 0 -0.076635180433477057 -0.42684765000967062 0 -0.065747409502729032 -0.40953455918739179 0 -0.076635180433477057 -0.42684765000967062 0 -0.077688182017724178 -0.40799169701628579 0 -0.065747409502729032 -0.40953455918739179 0 -0.076635180433477057 -0.42684765000967062 0 -0.057674512383022389 -0.42734400629007657 0 -0.067687044322660692 -0.44438888407200389 0 -0.076635180433477057 -0.42684765000967062 0 -0.087522951364224152 -0.44416074083195012 0 -0.102335674083258 -0.43919792399196639 0 -0.086273448473222103 -0.4193623284343494 0 -0.087522951364224152 -0.44416074083195012 0 -0.076635180433477057 -0.42684765000967062 0 -0.087522951364224152 -0.44416074083195012 0 -0.086273448473222103 -0.4193623284343494 0 -0.087522951364224152 -0.44416074083195012 0 -0.076635180433477057 -0.42684765000967062 0 -0.086273448473222103 -0.4193623284343494 0 -0.077688182017724178 -0.40799169701628579 0 -0.076635180433477057 -0.42684765000967062 0 -0.086273448473222103 -0.4193623284343494 0 -0.085023945582219762 -0.39456391603674879 0 -0.086273448473222103 -0.4193623284343494 0 -0.085023945582219762 -0.39456391603674879 0 -0.077688182017724178 -0.40799169701628579 0 -0.086273448473222103 -0.4193623284343494 0 -0.088492877882569029 -0.082108210476901852 0 -0.076927128592812144 -0.088910799915979499 0 -0.09750588448509391 -0.094492999713411269 0 -0.088492877882569029 -0.082108210476901852 0 -0.079577064860946206 -0.073577453582062496 0 -0.076927128592812144 -0.088910799915979499 0 -0.079577064860946206 -0.073577453582062496 0 -0.0985919344824224 -0.072778756797164931 0 -0.087769009107716192 -0.046193724725750278 0 -0.088492877882569029 -0.082108210476901852 0 -0.079577064860946206 -0.073577453582062496 0 -0.0985919344824224 -0.072778756797164931 0 -0.079577064860946206 -0.073577453582062496 0 -0.068797467898171552 -0.064113028811232264 0 -0.064240921843242857 -0.078969573753286809 0 -0.068797467898171552 -0.064113028811232264 0 -0.064240921843242857 -0.078969573753286809 0 -0.05461803829180413 -0.069755112608578862 0 -0.064240921843242857 -0.078969573753286809 0 -0.065719917437320752 -0.085301382988547655 0 -0.071622236241637716 -0.082994103557465768 0 -0.079577064860946206 -0.073577453582062496 0 -0.064240921843242857 -0.078969573753286809 0 -0.071622236241637716 -0.082994103557465768 0 -0.079577064860946206 -0.073577453582062496 0 -0.071622236241637716 -0.082994103557465768 0 -0.076927128592812144 -0.088910799915979499 0 -0.076927128592812144 -0.088910799915979499 0 -0.070013937980536456 -0.090181036700446429 0 -0.073360588416105155 -0.101926594449817 0 -0.071622236241637716 -0.082994103557465768 0 -0.076927128592812144 -0.088910799915979499 0 -0.070013937980536456 -0.090181036700446429 0 -0.065719917437320752 -0.085301382988547655 0 -0.070013937980536456 -0.090181036700446429 0 -0.057002573683865979 -0.089060817942991616 0 -0.065719917437320752 -0.085301382988547655 0 -0.071622236241637716 -0.082994103557465768 0 -0.070013937980536456 -0.090181036700446429 0 -0.073360588416105155 -0.101926594449817 0 -0.064648045787775776 -0.1114736180136202 0 -0.083029262804162729 -0.11173362360677321 0 -0.076927128592812144 -0.088910799915979499 0 -0.073360588416105155 -0.101926594449817 0 -0.083029262804162729 -0.11173362360677321 0 -0.070013937980536456 -0.090181036700446429 0 -0.064167586873575405 -0.098824988458513688 0 -0.073360588416105155 -0.101926594449817 0 -0.064167586873575405 -0.098824988458513688 0 -0.073360588416105155 -0.101926594449817 0 -0.064648045787775776 -0.1114736180136202 0 -0.064648045787775776 -0.1114736180136202 0 -0.083029262804162729 -0.11173362360677321 0 -0.072915517223638954 -0.12670463451369329 0 -0.064648045787775776 -0.1114736180136202 0 -0.060928146748241367 -0.123537549367131 0 -0.072915517223638954 -0.12670463451369329 0 -0.083029262804162729 -0.11173362360677321 0 -0.089131397015513494 -0.13455644729756691 0 -0.072915517223638954 -0.12670463451369329 0 -0.083029262804162729 -0.11173362360677321 0 -0.089131397015513494 -0.13455644729756691 0 -0.083029262804162729 -0.11173362360677321 0 -0.099989791654964619 -0.11261170107408 0 -0.089131397015513494 -0.13455644729756691 0 -0.076927128592812144 -0.088910799915979499 0 -0.083029262804162729 -0.11173362360677321 0 -0.076927128592812144 -0.088910799915979499 0 -0.083029262804162729 -0.11173362360677321 0 -0.09750588448509391 -0.094492999713411269 0 -0.083029262804162729 -0.11173362360677321 0 -0.09750588448509391 -0.094492999713411269 0 -0.099989791654964619 -0.11261170107408 0 -0.09750588448509391 -0.094492999713411269 0 -0.099989791654964619 -0.11261170107408 0 -0.11605893441195141 -0.10185107539240761 0 -0.099989791654964619 -0.11261170107408 0 -0.11422347955810171 -0.1204243593602408 0 -0.089131397015513494 -0.13455644729756691 0 -0.11422347955810171 -0.1204243593602408 0 -0.11605893441195141 -0.10185107539240761 0 -0.13931556210068971 -0.10629227142291391 0 -0.099989791654964619 -0.11261170107408 0 -0.11422347955810171 -0.1204243593602408 0 -0.11605893441195141 -0.10185107539240761 0 -0.09750588448509391 -0.094492999713411269 0 -0.11605893441195141 -0.10185107539240761 0 -0.121811479392537 -0.084095963505499416 0 -0.09750588448509391 -0.094492999713411269 0 -0.121811479392537 -0.084095963505499416 0 -0.0985919344824224 -0.072778756797164931 0 -0.088492877882569029 -0.082108210476901852 0 -0.09750588448509391 -0.094492999713411269 0 -0.0985919344824224 -0.072778756797164931 0 -0.121811479392537 -0.084095963505499416 0 -0.0985919344824224 -0.072778756797164931 0 -0.12197003300458489 -0.067133964797042034 0 -0.0985919344824224 -0.072778756797164931 0 -0.12197003300458489 -0.067133964797042034 0 -0.11173313641422659 -0.051099137712197359 0 -0.12197003300458489 -0.067133964797042034 0 -0.11173313641422659 -0.051099137712197359 0 -0.13241258759658719 -0.044529255409706578 0 -0.11719553878173181 -0.037741673539740471 0 -0.12411398995058071 -0.026208981462584841 0 -0.13241258759658719 -0.044529255409706578 0 -0.11173313641422659 -0.051099137712197359 0 -0.11719553878173181 -0.037741673539740471 0 -0.13241258759658719 -0.044529255409706578 0 -0.11719553878173181 -0.037741673539740471 0 -0.1033935341420949 -0.036608907929656417 0 -0.1118019010511415 -0.027957019938586129 0 -0.11173313641422659 -0.051099137712197359 0 -0.11719553878173181 -0.037741673539740471 0 -0.1033935341420949 -0.036608907929656417 0 -0.11173313641422659 -0.051099137712197359 0 -0.1033935341420949 -0.036608907929656417 0 -0.087769009107716192 -0.046193724725750278 0 -0.1033935341420949 -0.036608907929656417 0 -0.091700817231413184 -0.028161456197506499 0 -0.087769009107716192 -0.046193724725750278 0 -0.0985919344824224 -0.072778756797164931 0 -0.11173313641422659 -0.051099137712197359 0 -0.087769009107716192 -0.046193724725750278 0 -0.1152652699767374 -0.0044733142422073097 0 -0.1278640484455188 -0.012334690821253821 0 -0.1273771369441013 0.0023450629401116992 0 -0.1152652699767374 -0.0044733142422073097 0 -0.11303603589243651 -0.016818202060669259 0 -0.1278640484455188 -0.012334690821253821 0 -0.1152652699767374 -0.0044733142422073097 0 -0.11303603589243651 -0.016818202060669259 0 -0.1012139958851531 -0.0082010901258140791 0 -0.11303603589243651 -0.016818202060669259 0 -0.12411398995058071 -0.026208981462584841 0 -0.1278640484455188 -0.012334690821253821 0 -0.11719553878173181 -0.037741673539740471 0 -0.12411398995058071 -0.026208981462584841 0 -0.1118019010511415 -0.027957019938586129 0 -0.11303603589243651 -0.016818202060669259 0 -0.12411398995058071 -0.026208981462584841 0 -0.1118019010511415 -0.027957019938586129 0 -0.1033935341420949 -0.036608907929656417 0 -0.1118019010511415 -0.027957019938586129 0 -0.10074487633177411 -0.021927112774035699 0 -0.1033935341420949 -0.036608907929656417 0 -0.10074487633177411 -0.021927112774035699 0 -0.091700817231413184 -0.028161456197506499 0 -0.10074487633177411 -0.021927112774035699 0 -0.089359217900845153 -0.01537750648633354 0 -0.091700817231413184 -0.028161456197506499 0 -0.11303603589243651 -0.016818202060669259 0 -0.10074487633177411 -0.021927112774035699 0 -0.1012139958851531 -0.0082010901258140791 0 -0.11303603589243651 -0.016818202060669259 0 -0.1118019010511415 -0.027957019938586129 0 -0.10074487633177411 -0.021927112774035699 0 -0.10074487633177411 -0.021927112774035699 0 -0.1012139958851531 -0.0082010901258140791 0 -0.089359217900845153 -0.01537750648633354 0 -0.1012139958851531 -0.0082010901258140791 0 -0.089124004628701792 -0.0040277377021705899 0 -0.097507665945787692 0.0040820149966005574 0 -0.1012139958851531 -0.0082010901258140791 0 -0.097507665945787692 0.0040820149966005574 0 -0.1058521268010089 0.00073384547527136773 0 -0.1152652699767374 -0.0044733142422073097 0 -0.1012139958851531 -0.0082010901258140791 0 -0.1058521268010089 0.00073384547527136773 0 -0.079764572027605563 -0.001208843295517239 0 -0.089124004628701792 -0.0040277377021705899 0 -0.080379206648835008 -0.009775819102595687 0 -0.089124004628701792 -0.0040277377021705899 0 -0.089359217900845153 -0.01537750648633354 0 -0.080379206648835008 -0.009775819102595687 0 -0.1012139958851531 -0.0082010901258140791 0 -0.089124004628701792 -0.0040277377021705899 0 -0.089359217900845153 -0.01537750648633354 0 -0.089359217900845153 -0.01537750648633354 0 -0.080379206648835008 -0.009775819102595687 0 -0.076946083733010012 -0.019608692654335649 0 -0.089359217900845153 -0.01537750648633354 0 -0.091700817231413184 -0.028161456197506499 0 -0.076946083733010012 -0.019608692654335649 0 -0.066439508831189667 -0.02875513821822643 0 -0.076946083733010012 -0.019608692654335649 0 -0.073396792324475907 -0.036549185213838799 0 -0.066439508831189667 -0.02875513821822643 0 -0.068530762808199294 -0.019938962024248611 0 -0.056338296441182101 -0.027044179732367449 0 -0.066439508831189667 -0.02875513821822643 0 -0.068530762808199294 -0.019938962024248611 0 -0.076946083733010012 -0.019608692654335649 0 -0.080379206648835008 -0.009775819102595687 0 -0.076946083733010012 -0.019608692654335649 0 -0.066123158358303874 0.0069763394170788487 0 -0.079764572027605563 -0.001208843295517239 0 -0.080379206648835008 -0.009775819102595687 0 -0.066123158358303874 0.0069763394170788487 0 -0.076946083733010012 -0.019608692654335649 0 -0.059664616745900671 -0.0040500510012267867 0 -0.066123158358303874 0.0069763394170788487 0 -0.068530762808199294 -0.019938962024248611 0 -0.059664616745900671 -0.0040500510012267867 0 -0.068530762808199294 -0.019938962024248611 0 -0.076946083733010012 -0.019608692654335649 0 -0.059664616745900671 -0.0040500510012267867 0 -0.076946083733010012 -0.019608692654335649 0 -0.066123158358303874 0.0069763394170788487 0 -0.079577064860946206 -0.073577453582062496 0 -0.068797467898171552 -0.064113028811232264 0 -0.087769009107716192 -0.046193724725750278 0 -0.0985919344824224 -0.072778756797164931 0 -0.087769009107716192 -0.046193724725750278 0 -0.076946083733010012 -0.019608692654335649 0 -0.087769009107716192 -0.046193724725750278 0 -0.073396792324475907 -0.036549185213838799 0 -0.091700817231413184 -0.028161456197506499 0 -0.076946083733010012 -0.019608692654335649 0 -0.087769009107716192 -0.046193724725750278 0 -0.076946083733010012 -0.019608692654335649 0 -0.087769009107716192 -0.046193724725750278 0 -0.073396792324475907 -0.036549185213838799 0 -0.062271996897588083 -0.052791321925605532 0 -0.056985608849081007 -0.04063467146634165 0 -0.087769009107716192 -0.046193724725750278 0 -0.073396792324475907 -0.036549185213838799 0 -0.062271996897588083 -0.052791321925605532 0 -0.066439508831189667 -0.02875513821822643 0 -0.073396792324475907 -0.036549185213838799 0 -0.056985608849081007 -0.04063467146634165 0 -0.068797467898171552 -0.064113028811232264 0 -0.087769009107716192 -0.046193724725750278 0 -0.062271996897588083 -0.052791321925605532 0 -0.050876123791686781 -0.0557005837010279 0 -0.062271996897588083 -0.052791321925605532 0 -0.05461803829180413 -0.069755112608578862 0 -0.068797467898171552 -0.064113028811232264 0 -0.062271996897588083 -0.052791321925605532 0 -0.05461803829180413 -0.069755112608578862 0 -0.050876123791686781 -0.0557005837010279 0 -0.04125611079489349 -0.061033813963863537 0 -0.05461803829180413 -0.069755112608578862 0 -0.050876123791686781 -0.0557005837010279 0 -0.056985608849081007 -0.04063467146634165 0 -0.043217803893324663 -0.046983348469378128 0 -0.050876123791686781 -0.0557005837010279 0 -0.062271996897588083 -0.052791321925605532 0 -0.056985608849081007 -0.04063467146634165 0 -0.066439508831189667 -0.02875513821822643 0 -0.056985608849081007 -0.04063467146634165 0 -0.056338296441182101 -0.027044179732367449 0 -0.056985608849081007 -0.04063467146634165 0 -0.048013312662868769 -0.034084565957593307 0 -0.056338296441182101 -0.027044179732367449 0 -0.056985608849081007 -0.04063467146634165 0 -0.048013312662868769 -0.034084565957593307 0 -0.043217803893324663 -0.046983348469378128 0 -0.034747022969916552 -0.036023397885302497 0 -0.03178279228815796 -0.053256275703554248 0 -0.043217803893324663 -0.046983348469378128 0 -0.048013312662868769 -0.034084565957593307 0 -0.034747022969916552 -0.036023397885302497 0 -0.043217803893324663 -0.046983348469378128 0 -0.03178279228815796 -0.053256275703554248 0 -0.04125611079489349 -0.061033813963863537 0 -0.027189616291661511 -0.068956488044421491 0 -0.03178279228815796 -0.053256275703554248 0 -0.04125611079489349 -0.061033813963863537 0 -0.043217803893324663 -0.046983348469378128 0 -0.050876123791686781 -0.0557005837010279 0 -0.04125611079489349 -0.061033813963863537 0 -0.043217803893324663 -0.046983348469378128 0 -0.068530762808199294 -0.019938962024248611 0 -0.059664616745900671 -0.0040500510012267867 0 -0.057625718948113309 -0.01560592069947127 0 -0.047617207273071643 -0.0035118018543059538 0 -0.059664616745900671 -0.0040500510012267867 0 -0.057625718948113309 -0.01560592069947127 0 -0.047617207273071643 -0.0035118018543059538 0 -0.057625718948113309 -0.01560592069947127 0 -0.044435943862541481 -0.018862463730406901 0 -0.057625718948113309 -0.01560592069947127 0 -0.056338296441182101 -0.027044179732367449 0 -0.044435943862541481 -0.018862463730406901 0 -0.068530762808199294 -0.019938962024248611 0 -0.057625718948113309 -0.01560592069947127 0 -0.056338296441182101 -0.027044179732367449 0 -0.048013312662868769 -0.034084565957593307 0 -0.056338296441182101 -0.027044179732367449 0 -0.044435943862541481 -0.018862463730406901 0 -0.048013312662868769 -0.034084565957593307 0 -0.034747022969916552 -0.036023397885302497 0 -0.044435943862541481 -0.018862463730406901 0 -0.034747022969916552 -0.036023397885302497 0 -0.044435943862541481 -0.018862463730406901 0 -0.029096019340949839 -0.020089153358083849 0 -0.044435943862541481 -0.018862463730406901 0 -0.037331614038931003 -0.0090830911405071785 0 -0.029096019340949839 -0.020089153358083849 0 -0.047617207273071643 -0.0035118018543059538 0 -0.044435943862541481 -0.018862463730406901 0 -0.037331614038931003 -0.0090830911405071785 0 -0.047617207273071643 -0.0035118018543059538 0 -0.044435943862541481 -0.018862463730406901 0 -0.037331614038931003 -0.0090830911405071785 0 -0.025670282478897081 -0.0054027298625421993 0 -0.03671052455766443 0.0037031618858211421 0 -0.047617207273071643 -0.0035118018543059538 0 -0.037331614038931003 -0.0090830911405071785 0 -0.03671052455766443 0.0037031618858211421 0 -0.025670282478897081 -0.0054027298625421993 0 -0.029096019340949839 -0.020089153358083849 0 -0.01201491237982177 -0.012697106039732861 0 -0.025670282478897081 -0.0054027298625421993 0 -0.01201491237982177 -0.012697106039732861 0 -0.010105069976996849 0.0023765649732562961 0 -0.037331614038931003 -0.0090830911405071785 0 -0.025670282478897081 -0.0054027298625421993 0 -0.029096019340949839 -0.020089153358083849 0 -0.034747022969916552 -0.036023397885302497 0 -0.029096019340949839 -0.020089153358083849 0 -0.01621539074153976 -0.030149579770640821 0 -0.029096019340949839 -0.020089153358083849 0 -0.01621539074153976 -0.030149579770640821 0 -0.01201491237982177 -0.012697106039732861 0 -0.01621539074153976 -0.030149579770640821 0 0.0026421611525163911 -0.019923693291100199 0 0.001114662024295677 -0.034644724797188199 0 -0.01621539074153976 -0.030149579770640821 0 -0.01201491237982177 -0.012697106039732861 0 0.0026421611525163911 -0.019923693291100199 0 -0.01201491237982177 -0.012697106039732861 0 0.0047038114401232534 -0.001040937293712483 0 0.0026421611525163911 -0.019923693291100199 0 -0.01201491237982177 -0.012697106039732861 0 -0.010105069976996849 0.0023765649732562961 0 0.0047038114401232534 -0.001040937293712483 0 -0.03178279228815796 -0.053256275703554248 0 -0.015718878272565229 -0.058792224196781109 0 -0.02130541942185268 -0.044498810144407437 0 -0.03178279228815796 -0.053256275703554248 0 -0.015718878272565229 -0.058792224196781109 0 -0.027189616291661511 -0.068956488044421491 0 -0.034747022969916552 -0.036023397885302497 0 -0.01621539074153976 -0.030149579770640821 0 -0.02130541942185268 -0.044498810144407437 0 -0.034747022969916552 -0.036023397885302497 0 -0.03178279228815796 -0.053256275703554248 0 -0.02130541942185268 -0.044498810144407437 0 -0.01621539074153976 -0.030149579770640821 0 -0.0092606153764647689 -0.044492254616565037 0 0.001114662024295677 -0.034644724797188199 0 -0.0092606153764647689 -0.044492254616565037 0 0.001114662024295677 -0.034644724797188199 0 0.003426744450576454 -0.054815297075420773 0 -0.01621539074153976 -0.030149579770640821 0 -0.02130541942185268 -0.044498810144407437 0 -0.0092606153764647689 -0.044492254616565037 0 -0.015718878272565229 -0.058792224196781109 0 -0.0092606153764647689 -0.044492254616565037 0 0.003426744450576454 -0.054815297075420773 0 -0.015718878272565229 -0.058792224196781109 0 -0.0072319765520409062 -0.068818796064575097 0 0.003426744450576454 -0.054815297075420773 0 -0.015718878272565229 -0.058792224196781109 0 -0.02130541942185268 -0.044498810144407437 0 -0.0092606153764647689 -0.044492254616565037 0 -0.0072319765520409062 -0.068818796064575097 0 -0.0056293594721457006 -0.082036805430144924 0 0.0054575408194632406 -0.073720759659108445 0 -0.0072319765520409062 -0.068818796064575097 0 -0.016531268938654212 -0.068489504758274394 0 -0.015984604638349179 -0.077390510727319894 0 -0.0072319765520409062 -0.068818796064575097 0 -0.0056293594721457006 -0.082036805430144924 0 -0.015984604638349179 -0.077390510727319894 0 -0.015718878272565229 -0.058792224196781109 0 -0.0072319765520409062 -0.068818796064575097 0 -0.016531268938654212 -0.068489504758274394 0 -0.0075898384642912086 -0.092772169897659226 0 -0.0056293594721457006 -0.082036805430144924 0 0.0072012692200917657 -0.09144049599341271 0 -0.0056293594721457006 -0.082036805430144924 0 -0.01562854721774792 -0.088078100238794171 0 -0.015984604638349179 -0.077390510727319894 0 -0.0075898384642912086 -0.092772169897659226 0 -0.0056293594721457006 -0.082036805430144924 0 -0.01562854721774792 -0.088078100238794171 0 -0.0075898384642912086 -0.092772169897659226 0 -0.01562854721774792 -0.088078100238794171 0 -0.015839401072447711 -0.097831294581907868 0 -0.01562854721774792 -0.088078100238794171 0 -0.02305577581672685 -0.083163458542690943 0 -0.024670005891415589 -0.092262667611894875 0 -0.01562854721774792 -0.088078100238794171 0 -0.024670005891415589 -0.092262667611894875 0 -0.015839401072447711 -0.097831294581907868 0 -0.01562854721774792 -0.088078100238794171 0 -0.02305577581672685 -0.083163458542690943 0 -0.015984604638349179 -0.077390510727319894 0 -0.02305577581672685 -0.083163458542690943 0 -0.024670005891415589 -0.092262667611894875 0 -0.031754510724464793 -0.081253108138323094 0 -0.024670005891415589 -0.092262667611894875 0 -0.031754510724464793 -0.081253108138323094 0 -0.03344051123233422 -0.092098432850847969 0 -0.015718878272565229 -0.058792224196781109 0 -0.016531268938654212 -0.068489504758274394 0 -0.027189616291661511 -0.068956488044421491 0 -0.016531268938654212 -0.068489504758274394 0 -0.015984604638349179 -0.077390510727319894 0 -0.027189616291661511 -0.068956488044421491 0 -0.02305577581672685 -0.083163458542690943 0 -0.015984604638349179 -0.077390510727319894 0 -0.027189616291661511 -0.068956488044421491 0 -0.02305577581672685 -0.083163458542690943 0 -0.027189616291661511 -0.068956488044421491 0 -0.031754510724464793 -0.081253108138323094 0 -0.04125611079489349 -0.061033813963863537 0 -0.027189616291661511 -0.068956488044421491 0 -0.04053175759116228 -0.071452392996033218 0 -0.04125611079489349 -0.061033813963863537 0 -0.04053175759116228 -0.071452392996033218 0 -0.05461803829180413 -0.069755112608578862 0 -0.04053175759116228 -0.071452392996033218 0 -0.04331800788480706 -0.080321541169751709 0 -0.05461803829180413 -0.069755112608578862 0 -0.027189616291661511 -0.068956488044421491 0 -0.04053175759116228 -0.071452392996033218 0 -0.031754510724464793 -0.081253108138323094 0 -0.04053175759116228 -0.071452392996033218 0 -0.031754510724464793 -0.081253108138323094 0 -0.04331800788480706 -0.080321541169751709 0 -0.031754510724464793 -0.081253108138323094 0 -0.037920360895102763 -0.086728863392239786 0 -0.04331800788480706 -0.080321541169751709 0 -0.031754510724464793 -0.081253108138323094 0 -0.03344051123233422 -0.092098432850847969 0 -0.037920360895102763 -0.086728863392239786 0 -0.03344051123233422 -0.092098432850847969 0 -0.037920360895102763 -0.086728863392239786 0 -0.039477100495342581 -0.093081883261144749 0 -0.043535591074226332 -0.088659540190963698 0 -0.052607434978589038 -0.084605160310905272 0 -0.044151246104392423 -0.095288874830203096 0 -0.039477100495342581 -0.093081883261144749 0 -0.043535591074226332 -0.088659540190963698 0 -0.044151246104392423 -0.095288874830203096 0 -0.037920360895102763 -0.086728863392239786 0 -0.039477100495342581 -0.093081883261144749 0 -0.043535591074226332 -0.088659540190963698 0 -0.043535591074226332 -0.088659540190963698 0 -0.044151246104392423 -0.095288874830203096 0 -0.037920360895102763 -0.086728863392239786 0 -0.043535591074226332 -0.088659540190963698 0 -0.04331800788480706 -0.080321541169751709 0 -0.043535591074226332 -0.088659540190963698 0 -0.04331800788480706 -0.080321541169751709 0 -0.052607434978589038 -0.084605160310905272 0 -0.04331800788480706 -0.080321541169751709 0 -0.052607434978589038 -0.084605160310905272 0 -0.05461803829180413 -0.069755112608578862 0 -0.070013937980536456 -0.090181036700446429 0 -0.057002573683865979 -0.089060817942991616 0 -0.04460455598339258 -0.10017008709341529 0 -0.052607434978589038 -0.084605160310905272 0 -0.044151246104392423 -0.095288874830203096 0 -0.052607434978589038 -0.084605160310905272 0 -0.057002573683865979 -0.089060817942991616 0 -0.044151246104392423 -0.095288874830203096 0 -0.064240921843242857 -0.078969573753286809 0 -0.065719917437320752 -0.085301382988547655 0 -0.057002573683865979 -0.089060817942991616 0 -0.064240921843242857 -0.078969573753286809 0 -0.052607434978589038 -0.084605160310905272 0 -0.057002573683865979 -0.089060817942991616 0 -0.064240921843242857 -0.078969573753286809 0 -0.052607434978589038 -0.084605160310905272 0 -0.05461803829180413 -0.069755112608578862 0 -0.064648045787775776 -0.1114736180136202 0 -0.054889055151619223 -0.1064960745062641 0 -0.046573596299020338 -0.1213725893565638 0 -0.064648045787775776 -0.1114736180136202 0 -0.060928146748241367 -0.123537549367131 0 -0.046573596299020338 -0.1213725893565638 0 -0.064167586873575405 -0.098824988458513688 0 -0.054889055151619223 -0.1064960745062641 0 -0.04460455598339258 -0.10017008709341529 0 -0.054889055151619223 -0.1064960745062641 0 -0.04460455598339258 -0.10017008709341529 0 -0.046573596299020338 -0.1213725893565638 0 -0.070013937980536456 -0.090181036700446429 0 -0.04460455598339258 -0.10017008709341529 0 -0.070013937980536456 -0.090181036700446429 0 -0.064167586873575405 -0.098824988458513688 0 -0.04460455598339258 -0.10017008709341529 0 -0.064167586873575405 -0.098824988458513688 0 -0.064648045787775776 -0.1114736180136202 0 -0.054889055151619223 -0.1064960745062641 0 -0.057002573683865979 -0.089060817942991616 0 -0.044151246104392423 -0.095288874830203096 0 -0.04460455598339258 -0.10017008709341529 0 -0.04460455598339258 -0.10017008709341529 0 -0.038337793170655582 -0.1026337050414691 0 -0.046573596299020338 -0.1213725893565638 0 -0.039477100495342581 -0.093081883261144749 0 -0.044151246104392423 -0.095288874830203096 0 -0.038337793170655582 -0.1026337050414691 0 -0.044151246104392423 -0.095288874830203096 0 -0.04460455598339258 -0.10017008709341529 0 -0.044151246104392423 -0.095288874830203096 0 -0.038337793170655582 -0.1026337050414691 0 -0.04460455598339258 -0.10017008709341529 0 -0.038337793170655582 -0.1026337050414691 0 -0.044151246104392423 -0.095288874830203096 0 -0.04460455598339258 -0.10017008709341529 0 -0.038337793170655582 -0.1026337050414691 0 -0.03344051123233422 -0.092098432850847969 0 -0.039477100495342581 -0.093081883261144749 0 -0.038337793170655582 -0.1026337050414691 0 -0.03344051123233422 -0.092098432850847969 0 -0.038337793170655582 -0.1026337050414691 0 -0.030143021990877521 -0.097413384547063803 0 -0.038337793170655582 -0.1026337050414691 0 -0.046573596299020338 -0.1213725893565638 0 -0.032898799107638058 -0.1301455039054305 0 -0.04460455598339258 -0.10017008709341529 0 -0.046573596299020338 -0.1213725893565638 0 -0.038337793170655582 -0.1026337050414691 0 -0.02075820173733281 -0.1248441049076035 0 -0.038337793170655582 -0.1026337050414691 0 -0.02075820173733281 -0.1248441049076035 0 -0.032898799107638058 -0.1301455039054305 0 -0.038337793170655582 -0.1026337050414691 0 -0.02075820173733281 -0.1248441049076035 0 -0.013304609286582791 -0.1124748627422944 0 -0.038337793170655582 -0.1026337050414691 0 -0.013304609286582791 -0.1124748627422944 0 -0.038337793170655582 -0.1026337050414691 0 -0.024123777669104458 -0.10265873268404301 0 -0.013304609286582791 -0.1124748627422944 0 -0.038337793170655582 -0.1026337050414691 0 -0.030143021990877521 -0.097413384547063803 0 -0.024123777669104458 -0.10265873268404301 0 -0.024670005891415589 -0.092262667611894875 0 -0.030143021990877521 -0.097413384547063803 0 -0.024123777669104458 -0.10265873268404301 0 -0.024670005891415589 -0.092262667611894875 0 -0.03344051123233422 -0.092098432850847969 0 -0.030143021990877521 -0.097413384547063803 0 -0.024123777669104458 -0.10265873268404301 0 -0.015994782990863529 -0.1079378035875192 0 -0.013304609286582791 -0.1124748627422944 0 -0.024123777669104458 -0.10265873268404301 0 -0.015994782990863529 -0.1079378035875192 0 -0.015839401072447711 -0.097831294581907868 0 -0.024670005891415589 -0.092262667611894875 0 -0.024123777669104458 -0.10265873268404301 0 -0.015839401072447711 -0.097831294581907868 0 -0.0070294542012635762 -0.10327829347153671 0 -0.013304609286582791 -0.1124748627422944 0 0.0046245275045138064 -0.1076828264142336 0 -0.0075898384642912086 -0.092772169897659226 0 -0.015839401072447711 -0.097831294581907868 0 -0.0070294542012635762 -0.10327829347153671 0 -0.015994782990863529 -0.1079378035875192 0 -0.015839401072447711 -0.097831294581907868 0 -0.0070294542012635762 -0.10327829347153671 0 -0.015994782990863529 -0.1079378035875192 0 -0.0070294542012635762 -0.10327829347153671 0 -0.013304609286582791 -0.1124748627422944 0 -0.0075898384642912086 -0.092772169897659226 0 -0.0070294542012635762 -0.10327829347153671 0 0.0072012692200917657 -0.09144049599341271 0 -0.02075820173733281 -0.1248441049076035 0 -0.013304609286582791 -0.1124748627422944 0 -0.00221818493688669 -0.13117245205018849 0 -0.013304609286582791 -0.1124748627422944 0 -0.00221818493688669 -0.13117245205018849 0 0.014197789575412951 -0.12328672932727321 0 -0.013304609286582791 -0.1124748627422944 0 -0.00221818493688669 -0.13117245205018849 0 -0.015994782990863529 -0.1079378035875192 0 -0.013304609286582791 -0.1124748627422944 0 -0.02075820173733281 -0.1248441049076035 0 -0.0137133242766358 -0.14598078836242959 0 -0.0031786103040098569 -0.14705450477373769 0 -0.02075820173733281 -0.1248441049076035 0 -0.0031786103040098569 -0.14705450477373769 0 -0.02075820173733281 -0.1248441049076035 0 -0.00221818493688669 -0.13117245205018849 0 -0.0031786103040098569 -0.14705450477373769 0 -0.02075820173733281 -0.1248441049076035 0 -0.02657462786173766 -0.13400490724319661 0 -0.021326083532184278 -0.14069250208886769 0 -0.02075820173733281 -0.1248441049076035 0 -0.021326083532184278 -0.14069250208886769 0 -0.0137133242766358 -0.14598078836242959 0 -0.02657462786173766 -0.13400490724319661 0 -0.032898799107638058 -0.1301455039054305 0 -0.031315427069795509 -0.14033751807088471 0 -0.02657462786173766 -0.13400490724319661 0 -0.021326083532184278 -0.14069250208886769 0 -0.031315427069795509 -0.14033751807088471 0 -0.02075820173733281 -0.1248441049076035 0 -0.02657462786173766 -0.13400490724319661 0 -0.032898799107638058 -0.1301455039054305 0 -0.026655807174363451 -0.14845120392719069 0 -0.02210874630731275 -0.1561964137015745 0 -0.031495029160766817 -0.15509855920566379 0 -0.026655807174363451 -0.14845120392719069 0 -0.03449156258747036 -0.148917707105098 0 -0.031495029160766817 -0.15509855920566379 0 -0.026655807174363451 -0.14845120392719069 0 -0.021326083532184278 -0.14069250208886769 0 -0.031315427069795509 -0.14033751807088471 0 -0.026655807174363451 -0.14845120392719069 0 -0.031315427069795509 -0.14033751807088471 0 -0.03449156258747036 -0.148917707105098 0 -0.021326083532184278 -0.14069250208886769 0 -0.019449426413567759 -0.15004718796545319 0 -0.0137133242766358 -0.14598078836242959 0 -0.026655807174363451 -0.14845120392719069 0 -0.021326083532184278 -0.14069250208886769 0 -0.019449426413567759 -0.15004718796545319 0 -0.019449426413567759 -0.15004718796545319 0 -0.01542317820397726 -0.15505006264073101 0 -0.0137133242766358 -0.14598078836242959 0 -0.026655807174363451 -0.14845120392719069 0 -0.019449426413567759 -0.15004718796545319 0 -0.02210874630731275 -0.1561964137015745 0 -0.019449426413567759 -0.15004718796545319 0 -0.02210874630731275 -0.1561964137015745 0 -0.01542317820397726 -0.15505006264073101 0 -0.0137133242766358 -0.14598078836242959 0 -0.0031786103040098569 -0.14705450477373769 0 -0.0072073677341612146 -0.1544888065361133 0 -0.01542317820397726 -0.15505006264073101 0 -0.0137133242766358 -0.14598078836242959 0 -0.0072073677341612146 -0.1544888065361133 0 -0.0031786103040098569 -0.14705450477373769 0 -0.0072073677341612146 -0.1544888065361133 0 -0.0025999653858941639 -0.16131422913783491 0 -0.01542317820397726 -0.15505006264073101 0 -0.0084927016390539001 -0.17431231470194719 0 -0.01542317820397726 -0.15505006264073101 0 -0.0025999653858941639 -0.16131422913783491 0 -0.0084927016390539001 -0.17431231470194719 0 -0.01542317820397726 -0.15505006264073101 0 -0.0084927016390539001 -0.17431231470194719 0 -0.018600123305710169 -0.16452936741983731 0 -0.0025999653858941639 -0.16131422913783491 0 -0.0084927016390539001 -0.17431231470194719 0 0.0067086063528142403 -0.16809244781376179 0 -0.0084927016390539001 -0.17431231470194719 0 -0.019446339186483811 -0.17229591455881449 0 -0.018600123305710169 -0.16452936741983731 0 -0.01542317820397726 -0.15505006264073101 0 -0.0072073677341612146 -0.1544888065361133 0 -0.0025999653858941639 -0.16131422913783491 0 -0.0084927016390539001 -0.17431231470194719 0 -0.0015622250741301779 -0.1935745667631632 0 -0.01452589755716127 -0.18854972137590889 0 -0.0084927016390539001 -0.17431231470194719 0 -0.0015622250741301779 -0.1935745667631632 0 -0.0084927016390539001 -0.17431231470194719 0 -0.0015622250741301779 -0.1935745667631632 0 0.0091962193441852118 -0.18107109871456811 0 -0.0084927016390539001 -0.17431231470194719 0 -0.019789997202817391 -0.17944929683230451 0 -0.01452589755716127 -0.18854972137590889 0 -0.019789997202817391 -0.17944929683230451 0 -0.01452589755716127 -0.18854972137590889 0 -0.02459459850908961 -0.18853055632871979 0 -0.0084927016390539001 -0.17431231470194719 0 -0.019789997202817391 -0.17944929683230451 0 -0.019446339186483811 -0.17229591455881449 0 -0.019789997202817391 -0.17944929683230451 0 -0.019446339186483811 -0.17229591455881449 0 -0.025875972540285681 -0.17494695229964419 0 -0.019789997202817391 -0.17944929683230451 0 -0.025875972540285681 -0.17494695229964419 0 -0.028761852805915141 -0.18157091371807699 0 -0.025875972540285681 -0.17494695229964419 0 -0.032240004386850082 -0.17024588421870079 0 -0.032480769472988377 -0.1765838753595764 0 -0.025875972540285681 -0.17494695229964419 0 -0.028761852805915141 -0.18157091371807699 0 -0.032480769472988377 -0.1765838753595764 0 -0.028761852805915141 -0.18157091371807699 0 -0.032920373861235572 -0.18696580359983689 0 -0.02459459850908961 -0.18853055632871979 0 -0.019789997202817391 -0.17944929683230451 0 -0.028761852805915141 -0.18157091371807699 0 -0.02459459850908961 -0.18853055632871979 0 -0.02210874630731275 -0.1561964137015745 0 -0.02334206205745518 -0.16321350683772101 0 -0.018600123305710169 -0.16452936741983731 0 -0.02210874630731275 -0.1561964137015745 0 -0.01542317820397726 -0.15505006264073101 0 -0.018600123305710169 -0.16452936741983731 0 -0.019446339186483811 -0.17229591455881449 0 -0.018600123305710169 -0.16452936741983731 0 -0.024472901244551901 -0.1682416415403396 0 -0.019446339186483811 -0.17229591455881449 0 -0.025875972540285681 -0.17494695229964419 0 -0.024472901244551901 -0.1682416415403396 0 -0.02334206205745518 -0.16321350683772101 0 -0.018600123305710169 -0.16452936741983731 0 -0.024472901244551901 -0.1682416415403396 0 -0.02334206205745518 -0.16321350683772101 0 -0.024472901244551901 -0.1682416415403396 0 -0.028186477372245909 -0.16388660468913291 0 -0.025875972540285681 -0.17494695229964419 0 -0.024472901244551901 -0.1682416415403396 0 -0.032240004386850082 -0.17024588421870079 0 -0.024472901244551901 -0.1682416415403396 0 -0.028186477372245909 -0.16388660468913291 0 -0.032240004386850082 -0.17024588421870079 0 -0.02210874630731275 -0.1561964137015745 0 -0.036601677587355427 -0.1631254910080501 0 -0.02210874630731275 -0.1561964137015745 0 -0.028186477372245909 -0.16388660468913291 0 -0.036601677587355427 -0.1631254910080501 0 -0.02210874630731275 -0.1561964137015745 0 -0.036601677587355427 -0.1631254910080501 0 -0.031495029160766817 -0.15509855920566379 0 -0.02210874630731275 -0.1561964137015745 0 -0.02334206205745518 -0.16321350683772101 0 -0.028186477372245909 -0.16388660468913291 0 -0.036601677587355427 -0.1631254910080501 0 -0.031495029160766817 -0.15509855920566379 0 -0.03757233301838208 -0.1561293615731485 0 -0.036601677587355427 -0.1631254910080501 0 -0.042683024331232992 -0.16071659108817879 0 -0.03757233301838208 -0.1561293615731485 0 -0.036601677587355427 -0.1631254910080501 0 -0.032240004386850082 -0.17024588421870079 0 -0.040990311010288182 -0.1707810542940659 0 -0.028186477372245909 -0.16388660468913291 0 -0.036601677587355427 -0.1631254910080501 0 -0.032240004386850082 -0.17024588421870079 0 -0.036601677587355427 -0.1631254910080501 0 -0.040990311010288182 -0.1707810542940659 0 -0.051094608867397598 -0.17005456831452659 0 -0.036601677587355427 -0.1631254910080501 0 -0.042683024331232992 -0.16071659108817879 0 -0.051094608867397598 -0.17005456831452659 0 -0.036601677587355427 -0.1631254910080501 0 -0.051094608867397598 -0.17005456831452659 0 -0.042683024331232992 -0.16071659108817879 0 -0.03757233301838208 -0.1561293615731485 0 -0.042590371425084809 -0.152788459458752 0 -0.042683024331232992 -0.16071659108817879 0 -0.049852416986034973 -0.1566787242717059 0 -0.042590371425084809 -0.152788459458752 0 -0.042683024331232992 -0.16071659108817879 0 -0.049852416986034973 -0.1566787242717059 0 -0.032920373861235572 -0.18696580359983689 0 -0.035662893679222471 -0.1808176818492459 0 -0.039648887306358682 -0.18457447877016059 0 -0.028761852805915141 -0.18157091371807699 0 -0.032920373861235572 -0.18696580359983689 0 -0.035662893679222471 -0.1808176818492459 0 -0.032240004386850082 -0.17024588421870079 0 -0.040990311010288182 -0.1707810542940659 0 -0.038331319031698619 -0.1753090981098179 0 -0.035662893679222471 -0.1808176818492459 0 -0.038331319031698619 -0.1753090981098179 0 -0.042134054383572032 -0.1794085226548284 0 -0.035662893679222471 -0.1808176818492459 0 -0.032480769472988377 -0.1765838753595764 0 -0.038331319031698619 -0.1753090981098179 0 -0.028761852805915141 -0.18157091371807699 0 -0.035662893679222471 -0.1808176818492459 0 -0.032480769472988377 -0.1765838753595764 0 -0.032240004386850082 -0.17024588421870079 0 -0.032480769472988377 -0.1765838753595764 0 -0.038331319031698619 -0.1753090981098179 0 -0.040990311010288182 -0.1707810542940659 0 -0.045496547127059937 -0.17528527585558801 0 -0.051094608867397598 -0.17005456831452659 0 -0.040990311010288182 -0.1707810542940659 0 -0.038331319031698619 -0.1753090981098179 0 -0.045496547127059937 -0.17528527585558801 0 -0.045496547127059937 -0.17528527585558801 0 -0.042134054383572032 -0.1794085226548284 0 -0.049232931697160941 -0.18142535687920061 0 -0.038331319031698619 -0.1753090981098179 0 -0.045496547127059937 -0.17528527585558801 0 -0.042134054383572032 -0.1794085226548284 0 -0.042134054383572032 -0.1794085226548284 0 -0.039648887306358682 -0.18457447877016059 0 -0.049232931697160941 -0.18142535687920061 0 -0.039648887306358682 -0.18457447877016059 0 -0.049232931697160941 -0.18142535687920061 0 -0.037513132105194948 -0.19164621715467339 0 -0.035662893679222471 -0.1808176818492459 0 -0.042134054383572032 -0.1794085226548284 0 -0.039648887306358682 -0.18457447877016059 0 -0.052530262953744307 -0.18551360121156771 0 -0.064566778430722005 -0.1899668467895553 0 -0.070259181001566293 -0.17921715932508539 0 -0.052530262953744307 -0.18551360121156771 0 -0.051094608867397598 -0.17005456831452659 0 -0.070259181001566293 -0.17921715932508539 0 -0.051094608867397598 -0.17005456831452659 0 -0.070259181001566293 -0.17921715932508539 0 -0.052530262953744307 -0.18551360121156771 0 -0.049232931697160941 -0.18142535687920061 0 -0.051094608867397598 -0.17005456831452659 0 -0.052530262953744307 -0.18551360121156771 0 -0.051094608867397598 -0.17005456831452659 0 -0.045496547127059937 -0.17528527585558801 0 -0.049232931697160941 -0.18142535687920061 0 -0.051094608867397598 -0.17005456831452659 0 -0.051094608867397598 -0.17005456831452659 0 -0.061817946007188637 -0.1647032604190713 0 -0.070259181001566293 -0.17921715932508539 0 -0.049852416986034973 -0.1566787242717059 0 -0.051094608867397598 -0.17005456831452659 0 -0.061817946007188637 -0.1647032604190713 0 -0.042683024331232992 -0.16071659108817879 0 -0.049852416986034973 -0.1566787242717059 0 -0.051094608867397598 -0.17005456831452659 0 -0.049852416986034973 -0.1566787242717059 0 -0.051094608867397598 -0.17005456831452659 0 -0.049852416986034973 -0.1566787242717059 0 -0.061817946007188637 -0.1647032604190713 0 -0.059473492795946999 -0.1512600473178678 0 -0.049852416986034973 -0.1566787242717059 0 -0.059473492795946999 -0.1512600473178678 0 -0.049852416986034973 -0.1566787242717059 0 -0.048542636614648908 -0.14257509161971199 0 -0.042590371425084809 -0.152788459458752 0 -0.049852416986034973 -0.1566787242717059 0 -0.059473492795946999 -0.1512600473178678 0 -0.048542636614648908 -0.14257509161971199 0 -0.049852416986034973 -0.1566787242717059 0 -0.048542636614648908 -0.14257509161971199 0 -0.059473492795946999 -0.1512600473178678 0 -0.048542636614648908 -0.14257509161971199 0 -0.059473492795946999 -0.1512600473178678 0 -0.048542636614648908 -0.14257509161971199 0 -0.061100100412547438 -0.13647315015658409 0 -0.046573596299020338 -0.1213725893565638 0 -0.048542636614648908 -0.14257509161971199 0 -0.061100100412547438 -0.13647315015658409 0 -0.046573596299020338 -0.1213725893565638 0 -0.048542636614648908 -0.14257509161971199 0 -0.060928146748241367 -0.123537549367131 0 -0.046573596299020338 -0.1213725893565638 0 -0.061100100412547438 -0.13647315015658409 0 -0.046573596299020338 -0.1213725893565638 0 -0.048542636614648908 -0.14257509161971199 0 -0.032898799107638058 -0.1301455039054305 0 -0.048542636614648908 -0.14257509161971199 0 -0.032898799107638058 -0.1301455039054305 0 -0.031315427069795509 -0.14033751807088471 0 -0.048542636614648908 -0.14257509161971199 0 -0.032898799107638058 -0.1301455039054305 0 -0.048542636614648908 -0.14257509161971199 0 -0.031315427069795509 -0.14033751807088471 0 -0.03449156258747036 -0.148917707105098 0 -0.03449156258747036 -0.148917707105098 0 -0.03757233301838208 -0.1561293615731485 0 -0.042590371425084809 -0.152788459458752 0 -0.03449156258747036 -0.148917707105098 0 -0.031495029160766817 -0.15509855920566379 0 -0.03757233301838208 -0.1561293615731485 0 -0.048542636614648908 -0.14257509161971199 0 -0.03449156258747036 -0.148917707105098 0 -0.042590371425084809 -0.152788459458752 0 -0.030801127425925001 -0.25680016795848581 0 -0.026871719323301121 -0.24650256912316601 0 -0.018733547469201091 -0.24349008461987329 0 -0.032940321160402269 -0.25029644079438251 0 -0.026871719323301121 -0.24650256912316601 0 -0.030857658388656541 -0.2362056796655021 0 -0.032940321160402269 -0.25029644079438251 0 -0.026871719323301121 -0.24650256912316601 0 -0.026871719323301121 -0.24650256912316601 0 -0.030857658388656541 -0.2362056796655021 0 -0.018733547469201091 -0.24349008461987329 0 -0.018733547469201091 -0.24349008461987329 0 0.0010854142569982001 -0.23807309260292489 0 0.0025328853753160741 -0.24958102673793139 0 -0.018733547469201091 -0.24349008461987329 0 -0.0061584899570064598 -0.22962027277065361 0 0.0010854142569982001 -0.23807309260292489 0 -0.018733547469201091 -0.24349008461987329 0 -0.0061584899570064598 -0.22962027277065361 0 -0.018733547469201091 -0.24349008461987329 0 -0.0061584899570064598 -0.22962027277065361 0 -0.014959502272226489 -0.22084886391346231 0 -0.0061584899570064598 -0.22962027277065361 0 -0.0054289760133702037 -0.21457987404047249 0 0.0064165675551885711 -0.21575046092143421 0 -0.0061584899570064598 -0.22962027277065361 0 -0.014959502272226489 -0.22084886391346231 0 -0.0054289760133702037 -0.21457987404047249 0 -0.018733547469201091 -0.24349008461987329 0 -0.02919644603132129 -0.2221986071991269 0 -0.02714058579554627 -0.22330174697438809 0 -0.018733547469201091 -0.24349008461987329 0 -0.02919644603132129 -0.2221986071991269 0 -0.018733547469201091 -0.24349008461987329 0 -0.014959502272226489 -0.22084886391346231 0 -0.02714058579554627 -0.22330174697438809 0 -0.030857658388656541 -0.2362056796655021 0 -0.018733547469201091 -0.24349008461987329 0 -0.02919644603132129 -0.2221986071991269 0 -0.02919644603132129 -0.2221986071991269 0 -0.02714058579554627 -0.22330174697438809 0 -0.023298310508535151 -0.21367384618425 0 -0.02883797433537726 -0.20835292232393379 0 -0.020914866328615171 -0.2008213059726579 0 -0.039659344593441261 -0.20090712977838049 0 -0.02919644603132129 -0.2221986071991269 0 -0.02883797433537726 -0.20835292232393379 0 -0.023298310508535151 -0.21367384618425 0 -0.02883797433537726 -0.20835292232393379 0 -0.023298310508535151 -0.21367384618425 0 -0.020914866328615171 -0.2008213059726579 0 -0.023298310508535151 -0.21367384618425 0 -0.014351405434837939 -0.2084381568687759 0 -0.020914866328615171 -0.2008213059726579 0 -0.02714058579554627 -0.22330174697438809 0 -0.014351405434837939 -0.2084381568687759 0 -0.014959502272226489 -0.22084886391346231 0 -0.02714058579554627 -0.22330174697438809 0 -0.014351405434837939 -0.2084381568687759 0 -0.02714058579554627 -0.22330174697438809 0 -0.023298310508535151 -0.21367384618425 0 -0.014351405434837939 -0.2084381568687759 0 -0.014959502272226489 -0.22084886391346231 0 -0.0054289760133702037 -0.21457987404047249 0 -0.014351405434837939 -0.2084381568687759 0 -0.0054289760133702037 -0.21457987404047249 0 -0.014351405434837939 -0.2084381568687759 0 -0.0015622250741301779 -0.1935745667631632 0 -0.0054289760133702037 -0.21457987404047249 0 -0.0015622250741301779 -0.1935745667631632 0 0.0064165675551885711 -0.21575046092143421 0 -0.014351405434837939 -0.2084381568687759 0 -0.0015622250741301779 -0.1935745667631632 0 -0.014351405434837939 -0.2084381568687759 0 -0.01223217889679739 -0.19705511845509929 0 -0.0015622250741301779 -0.1935745667631632 0 -0.01223217889679739 -0.19705511845509929 0 -0.0015622250741301779 -0.1935745667631632 0 -0.01452589755716127 -0.18854972137590889 0 -0.020914866328615171 -0.2008213059726579 0 -0.039659344593441261 -0.20090712977838049 0 -0.01452589755716127 -0.18854972137590889 0 -0.020914866328615171 -0.2008213059726579 0 -0.02459459850908961 -0.18853055632871979 0 -0.020914866328615171 -0.2008213059726579 0 -0.030654603298793132 -0.19382629647353339 0 -0.039659344593441261 -0.20090712977838049 0 -0.014351405434837939 -0.2084381568687759 0 -0.01223217889679739 -0.19705511845509929 0 -0.020914866328615171 -0.2008213059726579 0 -0.01223217889679739 -0.19705511845509929 0 -0.01452589755716127 -0.18854972137590889 0 -0.020914866328615171 -0.2008213059726579 0 -0.020914866328615171 -0.2008213059726579 0 -0.030654603298793132 -0.19382629647353339 0 -0.02459459850908961 -0.18853055632871979 0 -0.032920373861235572 -0.18696580359983689 0 -0.030654603298793132 -0.19382629647353339 0 -0.02459459850908961 -0.18853055632871979 0 -0.049232931697160941 -0.18142535687920061 0 -0.037513132105194948 -0.19164621715467339 0 -0.039659344593441261 -0.20090712977838049 0 -0.049232931697160941 -0.18142535687920061 0 -0.039659344593441261 -0.20090712977838049 0 -0.032920373861235572 -0.18696580359983689 0 -0.039648887306358682 -0.18457447877016059 0 -0.037513132105194948 -0.19164621715467339 0 -0.032920373861235572 -0.18696580359983689 0 -0.030654603298793132 -0.19382629647353339 0 -0.037513132105194948 -0.19164621715467339 0 -0.030654603298793132 -0.19382629647353339 0 -0.037513132105194948 -0.19164621715467339 0 -0.039659344593441261 -0.20090712977838049 0 -0.039659344593441261 -0.20090712977838049 0 -0.049171036143441697 -0.20095068018059209 0 -0.052530262953744307 -0.18551360121156771 0 -0.053965917040092279 -0.20097263410860849 0 -0.052530262953744307 -0.18551360121156771 0 -0.049232931697160941 -0.18142535687920061 0 -0.039659344593441261 -0.20090712977838049 0 -0.052530262953744307 -0.18551360121156771 0 -0.053965917040092279 -0.20097263410860849 0 -0.064566778430722005 -0.1899668467895553 0 -0.052530262953744307 -0.18551360121156771 0 -0.039659344593441261 -0.20090712977838049 0 -0.049171036143441697 -0.20095068018059209 0 -0.053965917040092279 -0.20097263410860849 0 -0.049171036143441697 -0.20095068018059209 0 -0.052530262953744307 -0.18551360121156771 0 -0.053965917040092279 -0.20097263410860849 0 -0.049171036143441697 -0.20095068018059209 0 -0.049171036143441697 -0.20095068018059209 0 -0.054685660498906767 -0.208722786400212 0 -0.041055678651922348 -0.2256235604874875 0 -0.053965917040092279 -0.20097263410860849 0 -0.054685660498906767 -0.208722786400212 0 -0.075274492420391248 -0.20107019793555661 0 -0.054685660498906767 -0.208722786400212 0 -0.058782723788501128 -0.22597342721149569 0 -0.066300796797188796 -0.21509277327032089 0 -0.053965917040092279 -0.20097263410860849 0 -0.049171036143441697 -0.20095068018059209 0 -0.054685660498906767 -0.208722786400212 0 -0.053965917040092279 -0.20097263410860849 0 -0.054685660498906767 -0.208722786400212 0 -0.049171036143441697 -0.20095068018059209 0 -0.041055678651922348 -0.2256235604874875 0 -0.02919644603132129 -0.2221986071991269 0 -0.039659344593441261 -0.20090712977838049 0 -0.02919644603132129 -0.2221986071991269 0 -0.02883797433537726 -0.20835292232393379 0 -0.039659344593441261 -0.20090712977838049 0 -0.039659344593441261 -0.20090712977838049 0 -0.049171036143441697 -0.20095068018059209 0 -0.041055678651922348 -0.2256235604874875 0 -0.02919644603132129 -0.2221986071991269 0 -0.039659344593441261 -0.20090712977838049 0 -0.041055678651922348 -0.2256235604874875 0 -0.030857658388656541 -0.2362056796655021 0 -0.02919644603132129 -0.2221986071991269 0 -0.041055678651922348 -0.2256235604874875 0 -0.041055678651922348 -0.2256235604874875 0 -0.058782723788501128 -0.22597342721149569 0 -0.050902643065861071 -0.24349095896983161 0 -0.054685660498906767 -0.208722786400212 0 -0.041055678651922348 -0.2256235604874875 0 -0.058782723788501128 -0.22597342721149569 0 -0.058782723788501128 -0.22597342721149569 0 -0.050902643065861071 -0.24349095896983161 0 -0.077646128541525 -0.24813916513248199 0 -0.032940321160402269 -0.25029644079438251 0 -0.041055678651922348 -0.2256235604874875 0 -0.050902643065861071 -0.24349095896983161 0 -0.032940321160402269 -0.25029644079438251 0 -0.030857658388656541 -0.2362056796655021 0 -0.041055678651922348 -0.2256235604874875 0 -0.032940321160402269 -0.25029644079438251 0 -0.041055678651922348 -0.2256235604874875 0 -0.077646128541525 -0.24813916513248199 0 -0.082279147983734507 -0.22463132376819159 0 -0.088104632666654803 -0.24175912157342011 0 -0.077646128541525 -0.24813916513248199 0 -0.082279147983734507 -0.22463132376819159 0 -0.077646128541525 -0.24813916513248199 0 -0.076460310480956056 -0.22460468153401941 0 -0.058782723788501128 -0.22597342721149569 0 -0.077646128541525 -0.24813916513248199 0 -0.076460310480956056 -0.22460468153401941 0 -0.058782723788501128 -0.22597342721149569 0 -0.076460310480956056 -0.22460468153401941 0 -0.066300796797188796 -0.21509277327032089 0 -0.077646128541525 -0.24813916513248199 0 -0.076460310480956056 -0.22460468153401941 0 -0.082279147983734507 -0.22463132376819159 0 -0.088104632666654803 -0.24175912157342011 0 -0.091210523848666042 -0.22145825259936749 0 -0.096373561920523113 -0.2318247108995648 0 -0.088104632666654803 -0.24175912157342011 0 -0.082279147983734507 -0.22463132376819159 0 -0.091210523848666042 -0.22145825259936749 0 -0.088104632666654803 -0.24175912157342011 0 -0.091210523848666042 -0.22145825259936749 0 -0.082279147983734507 -0.22463132376819159 0 -0.075274492420391248 -0.20107019793555661 0 -0.086912167425944153 -0.20112348240390099 0 -0.082279147983734507 -0.22463132376819159 0 -0.091210523848666042 -0.22145825259936749 0 -0.086912167425944153 -0.20112348240390099 0 -0.091210523848666042 -0.22145825259936749 0 -0.094316415030678002 -0.20115738362531499 0 -0.091210523848666042 -0.22145825259936749 0 -0.086912167425944153 -0.20112348240390099 0 -0.094316415030678002 -0.20115738362531499 0 -0.082279147983734507 -0.22463132376819159 0 -0.086912167425944153 -0.20112348240390099 0 -0.076460310480956056 -0.22460468153401941 0 -0.066300796797188796 -0.21509277327032089 0 -0.075274492420391248 -0.20107019793555661 0 -0.054685660498906767 -0.208722786400212 0 -0.066300796797188796 -0.21509277327032089 0 -0.075274492420391248 -0.20107019793555661 0 -0.076460310480956056 -0.22460468153401941 0 -0.082279147983734507 -0.22463132376819159 0 -0.075274492420391248 -0.20107019793555661 0 -0.076460310480956056 -0.22460468153401941 0 -0.075274492420391248 -0.20107019793555661 0 -0.053965917040092279 -0.20097263410860849 0 -0.075274492420391248 -0.20107019793555661 0 -0.070100108945259781 -0.19629415080948229 0 -0.053965917040092279 -0.20097263410860849 0 -0.070100108945259781 -0.19629415080948229 0 -0.064566778430722005 -0.1899668467895553 0 -0.053965917040092279 -0.20097263410860849 0 -0.075274492420391248 -0.20107019793555661 0 -0.075274492420391248 -0.20107019793555661 0 -0.075113373652805612 -0.19571605274700751 0 -0.079733979793737045 -0.19605477611637959 0 -0.075274492420391248 -0.20107019793555661 0 -0.075113373652805612 -0.19571605274700751 0 -0.070100108945259781 -0.19629415080948229 0 -0.070100108945259781 -0.19629415080948229 0 -0.064566778430722005 -0.1899668467895553 0 -0.075377056328755521 -0.19008301367616509 0 -0.075113373652805612 -0.19571605274700751 0 -0.070100108945259781 -0.19629415080948229 0 -0.075377056328755521 -0.19008301367616509 0 -0.075113373652805612 -0.19571605274700751 0 -0.075377056328755521 -0.19008301367616509 0 -0.079733979793737045 -0.19605477611637959 0 -0.075377056328755521 -0.19008301367616509 0 -0.079733979793737045 -0.19605477611637959 0 -0.089423753135733974 -0.18837975033564619 0 -0.079733979793737045 -0.19605477611637959 0 -0.086912167425944153 -0.20112348240390099 0 -0.089423753135733974 -0.18837975033564619 0 -0.075274492420391248 -0.20107019793555661 0 -0.086912167425944153 -0.20112348240390099 0 -0.075274492420391248 -0.20107019793555661 0 -0.079733979793737045 -0.19605477611637959 0 -0.086912167425944153 -0.20112348240390099 0 -0.086912167425944153 -0.20112348240390099 0 -0.095804572093432044 -0.1914304229002349 0 -0.094316415030678002 -0.20115738362531499 0 -0.086912167425944153 -0.20112348240390099 0 -0.094316415030678002 -0.20115738362531499 0 -0.086912167425944153 -0.20112348240390099 0 -0.089423753135733974 -0.18837975033564619 0 -0.086912167425944153 -0.20112348240390099 0 -0.089423753135733974 -0.18837975033564619 0 -0.095804572093432044 -0.1914304229002349 0 -0.089423753135733974 -0.18837975033564619 0 -0.095804572093432044 -0.1914304229002349 0 -0.090500110278716836 -0.18291833725845449 0 -0.089423753135733974 -0.18837975033564619 0 -0.095804572093432044 -0.1914304229002349 0 -0.095804572093432044 -0.1914304229002349 0 -0.1055884512206339 -0.19610810014299959 0 -0.099028938128851704 -0.1826882615985625 0 -0.095804572093432044 -0.1914304229002349 0 -0.1055884512206339 -0.19610810014299959 0 -0.095804572093432044 -0.1914304229002349 0 -0.099726318276372988 -0.19712665769699661 0 -0.1055884512206339 -0.19610810014299959 0 -0.094316415030678002 -0.20115738362531499 0 -0.099726318276372988 -0.19712665769699661 0 -0.1069539478940484 -0.20121524606085259 0 -0.095804572093432044 -0.1914304229002349 0 -0.094316415030678002 -0.20115738362531499 0 -0.095804572093432044 -0.1914304229002349 0 -0.094316415030678002 -0.20115738362531499 0 -0.099726318276372988 -0.19712665769699661 0 -0.094316415030678002 -0.20115738362531499 0 -0.1069539478940484 -0.20121524606085259 0 -0.1006154135170836 -0.20550376286944089 0 -0.094316415030678002 -0.20115738362531499 0 -0.1069539478940484 -0.20121524606085259 0 -0.099726318276372988 -0.19712665769699661 0 -0.1069539478940484 -0.20121524606085259 0 -0.1055884512206339 -0.19610810014299959 0 -0.1069539478940484 -0.20121524606085259 0 -0.1055884512206339 -0.19610810014299959 0 -0.1143022105317214 -0.19176920984990589 0 -0.1234142843990034 -0.20129061165398179 0 -0.118443644943155 -0.18313735869921541 0 -0.1234142843990034 -0.20129061165398179 0 -0.118443644943155 -0.18313735869921541 0 -0.12836978379805469 -0.19505845874684749 0 -0.1055884512206339 -0.19610810014299959 0 -0.1143022105317214 -0.19176920984990589 0 -0.1095912747331507 -0.1796343382558257 0 -0.1234142843990034 -0.20129061165398179 0 -0.118443644943155 -0.18313735869921541 0 -0.1234142843990034 -0.20129061165398179 0 -0.11636069704563699 -0.20125831597190941 0 -0.12446659453658469 -0.2051337493999616 0 -0.1143022105317214 -0.19176920984990589 0 -0.1234142843990034 -0.20129061165398179 0 -0.11636069704563699 -0.20125831597190941 0 -0.1234142843990034 -0.20129061165398179 0 -0.11636069704563699 -0.20125831597190941 0 -0.1055884512206339 -0.19610810014299959 0 -0.1143022105317214 -0.19176920984990589 0 -0.11636069704563699 -0.20125831597190941 0 -0.1055884512206339 -0.19610810014299959 0 -0.11636069704563699 -0.20125831597190941 0 -0.1069539478940484 -0.20121524606085259 0 -0.11636069704563699 -0.20125831597190941 0 -0.116503442890511 -0.20615462214379501 0 -0.1069539478940484 -0.20121524606085259 0 -0.1055884512206339 -0.19610810014299959 0 -0.11636069704563699 -0.20125831597190941 0 -0.1069539478940484 -0.20121524606085259 0 -0.11636069704563699 -0.20125831597190941 0 -0.1069539478940484 -0.20121524606085259 0 -0.1182325320857732 -0.21701117714245771 0 -0.1146322195844853 -0.229933041338924 0 -0.1069539478940484 -0.20121524606085259 0 -0.1146322195844853 -0.229933041338924 0 -0.12446659453658469 -0.2051337493999616 0 -0.1182325320857732 -0.21701117714245771 0 -0.12964778408632779 -0.2240559515308029 0 -0.1069539478940484 -0.20121524606085259 0 -0.116503442890511 -0.20615462214379501 0 -0.1182325320857732 -0.21701117714245771 0 -0.116503442890511 -0.20615462214379501 0 -0.12446659453658469 -0.2051337493999616 0 -0.1182325320857732 -0.21701117714245771 0 -0.11636069704563699 -0.20125831597190941 0 -0.116503442890511 -0.20615462214379501 0 -0.12446659453658469 -0.2051337493999616 0 -0.11636069704563699 -0.20125831597190941 0 -0.12446659453658469 -0.2051337493999616 0 -0.1234142843990034 -0.20129061165398179 0 -0.12446659453658469 -0.2051337493999616 0 -0.1069539478940484 -0.20121524606085259 0 -0.1039432587622498 -0.21234961129803451 0 -0.1146322195844853 -0.229933041338924 0 -0.091210523848666042 -0.22145825259936749 0 -0.094316415030678002 -0.20115738362531499 0 -0.098742607236989521 -0.21208478243994361 0 -0.1039432587622498 -0.21234961129803451 0 -0.098742607236989521 -0.21208478243994361 0 -0.10362742502627011 -0.2199549018075595 0 -0.1069539478940484 -0.20121524606085259 0 -0.1039432587622498 -0.21234961129803451 0 -0.1006154135170836 -0.20550376286944089 0 -0.1039432587622498 -0.21234961129803451 0 -0.1006154135170836 -0.20550376286944089 0 -0.098742607236989521 -0.21208478243994361 0 -0.094316415030678002 -0.20115738362531499 0 -0.1006154135170836 -0.20550376286944089 0 -0.098742607236989521 -0.21208478243994361 0 -0.091210523848666042 -0.22145825259936749 0 -0.098742607236989521 -0.21208478243994361 0 -0.10362742502627011 -0.2199549018075595 0 -0.096373561920523113 -0.2318247108995648 0 -0.10362742502627011 -0.2199549018075595 0 -0.1025516661405015 -0.24412656761791199 0 -0.1039432587622498 -0.21234961129803451 0 -0.10362742502627011 -0.2199549018075595 0 -0.1146322195844853 -0.229933041338924 0 -0.10362742502627011 -0.2199549018075595 0 -0.1025516661405015 -0.24412656761791199 0 -0.10362742502627011 -0.2199549018075595 0 -0.11057817055071439 -0.23713955200355691 0 -0.1025516661405015 -0.24412656761791199 0 -0.091210523848666042 -0.22145825259936749 0 -0.096373561920523113 -0.2318247108995648 0 -0.10362742502627011 -0.2199549018075595 0 -0.10362742502627011 -0.2199549018075595 0 -0.1146322195844853 -0.229933041338924 0 -0.11057817055071439 -0.23713955200355691 0 -0.1182325320857732 -0.21701117714245771 0 -0.1146322195844853 -0.229933041338924 0 -0.12964778408632779 -0.2240559515308029 0 -0.1146322195844853 -0.229933041338924 0 -0.12594535918601221 -0.23537450645762351 0 -0.12964778408632779 -0.2240559515308029 0 -0.1146322195844853 -0.229933041338924 0 -0.11057817055071439 -0.23713955200355691 0 -0.11992695639240671 -0.24305274461581289 0 -0.1146322195844853 -0.229933041338924 0 -0.11992695639240671 -0.24305274461581289 0 -0.12594535918601221 -0.23537450645762351 0 -0.11992695639240671 -0.24305274461581289 0 -0.12594535918601221 -0.23537450645762351 0 -0.1270777831465402 -0.24161244513161839 0 -0.11057817055071439 -0.23713955200355691 0 -0.11992695639240671 -0.24305274461581289 0 -0.1121525856099083 -0.24863050463757599 0 -0.1183855941197941 -0.25651062511641259 0 -0.11992695639240671 -0.24305274461581289 0 -0.1121525856099083 -0.24863050463757599 0 -0.1097432552782682 -0.2572086698476283 0 -0.1121525856099083 -0.24863050463757599 0 -0.1025516661405015 -0.24412656761791199 0 -0.11057817055071439 -0.23713955200355691 0 -0.1121525856099083 -0.24863050463757599 0 -0.1025516661405015 -0.24412656761791199 0 -0.088104632666654803 -0.24175912157342011 0 -0.096373561920523113 -0.2318247108995648 0 -0.1025516661405015 -0.24412656761791199 0 -0.093680051977193257 -0.25300014610948141 0 -0.088104632666654803 -0.24175912157342011 0 -0.1025516661405015 -0.24412656761791199 0 -0.091208904987890735 -0.14232661368977559 0 -0.087323419063827665 -0.1566704494577609 0 -0.098398678104261977 -0.16921735691638781 0 -0.081276062778159672 -0.14883202435870879 0 -0.08710950077230438 -0.14178266396580899 0 -0.074302444905730333 -0.14290824730771751 0 -0.081276062778159672 -0.14883202435870879 0 -0.091208904987890735 -0.14232661368977559 0 -0.087323419063827665 -0.1566704494577609 0 -0.081276062778159672 -0.14883202435870879 0 -0.08710950077230438 -0.14178266396580899 0 -0.091208904987890735 -0.14232661368977559 0 -0.08710950077230438 -0.14178266396580899 0 -0.091208904987890735 -0.14232661368977559 0 -0.091208904987890735 -0.14232661368977559 0 -0.089131397015513494 -0.13455644729756691 0 -0.089131397015513494 -0.13455644729756691 0 -0.072915517223638954 -0.12670463451369329 0 -0.074302444905730333 -0.14290824730771751 0 -0.08710950077230438 -0.14178266396580899 0 -0.091208904987890735 -0.14232661368977559 0 -0.089131397015513494 -0.13455644729756691 0 -0.08710950077230438 -0.14178266396580899 0 -0.089131397015513494 -0.13455644729756691 0 -0.074302444905730333 -0.14290824730771751 0 -0.089131397015513494 -0.13455644729756691 0 -0.074302444905730333 -0.14290824730771751 0 -0.061100100412547438 -0.13647315015658409 0 -0.072915517223638954 -0.12670463451369329 0 -0.074302444905730333 -0.14290824730771751 0 -0.060928146748241367 -0.123537549367131 0 -0.061100100412547438 -0.13647315015658409 0 -0.072915517223638954 -0.12670463451369329 0 -0.059473492795946999 -0.1512600473178678 0 -0.081276062778159672 -0.14883202435870879 0 -0.074302444905730333 -0.14290824730771751 0 -0.059473492795946999 -0.1512600473178678 0 -0.081276062778159672 -0.14883202435870879 0 -0.078410030384998497 -0.16630580286617139 0 -0.059473492795946999 -0.1512600473178678 0 -0.074302444905730333 -0.14290824730771751 0 -0.059473492795946999 -0.1512600473178678 0 -0.061100100412547438 -0.13647315015658409 0 -0.074302444905730333 -0.14290824730771751 0 -0.061817946007188637 -0.1647032604190713 0 -0.070259181001566293 -0.17921715932508539 0 -0.078410030384998497 -0.16630580286617139 0 -0.059473492795946999 -0.1512600473178678 0 -0.078410030384998497 -0.16630580286617139 0 -0.061817946007188637 -0.1647032604190713 0 -0.059473492795946999 -0.1512600473178678 0 -0.078410030384998497 -0.16630580286617139 0 -0.064566778430722005 -0.1899668467895553 0 -0.075377056328755521 -0.19008301367616509 0 -0.070259181001566293 -0.17921715932508539 0 -0.070259181001566293 -0.17921715932508539 0 -0.08402443889557612 -0.1788939005998389 0 -0.078410030384998497 -0.16630580286617139 0 -0.089423753135733974 -0.18837975033564619 0 -0.070259181001566293 -0.17921715932508539 0 -0.075377056328755521 -0.19008301367616509 0 -0.089423753135733974 -0.18837975033564619 0 -0.070259181001566293 -0.17921715932508539 0 -0.078410030384998497 -0.16630580286617139 0 -0.098398678104261977 -0.16921735691638781 0 -0.097346567974052028 -0.18135155841447259 0 -0.078410030384998497 -0.16630580286617139 0 -0.097346567974052028 -0.18135155841447259 0 -0.08402443889557612 -0.1788939005998389 0 -0.078410030384998497 -0.16630580286617139 0 -0.097346567974052028 -0.18135155841447259 0 -0.089423753135733974 -0.18837975033564619 0 -0.070259181001566293 -0.17921715932508539 0 -0.08402443889557612 -0.1788939005998389 0 -0.089423753135733974 -0.18837975033564619 0 -0.08402443889557612 -0.1788939005998389 0 -0.090500110278716836 -0.18291833725845449 0 -0.08402443889557612 -0.1788939005998389 0 -0.090500110278716836 -0.18291833725845449 0 -0.097346567974052028 -0.18135155841447259 0 -0.089423753135733974 -0.18837975033564619 0 -0.090500110278716836 -0.18291833725845449 0 -0.081276062778159672 -0.14883202435870879 0 -0.078410030384998497 -0.16630580286617139 0 -0.087323419063827665 -0.1566704494577609 0 -0.078410030384998497 -0.16630580286617139 0 -0.087323419063827665 -0.1566704494577609 0 -0.098398678104261977 -0.16921735691638781 0 -0.098398678104261977 -0.16921735691638781 0 -0.1095912747331507 -0.1796343382558257 0 -0.1134730054873082 -0.16498410574444861 0 -0.098398678104261977 -0.16921735691638781 0 -0.1134730054873082 -0.16498410574444861 0 -0.1057127461594554 -0.15566112818699529 0 -0.1055884512206339 -0.19610810014299959 0 -0.098398678104261977 -0.16921735691638781 0 -0.099028938128851704 -0.1826882615985625 0 -0.1055884512206339 -0.19610810014299959 0 -0.098398678104261977 -0.16921735691638781 0 -0.1055884512206339 -0.19610810014299959 0 -0.098398678104261977 -0.16921735691638781 0 -0.1095912747331507 -0.1796343382558257 0 -0.095804572093432044 -0.1914304229002349 0 -0.097346567974052028 -0.18135155841447259 0 -0.099028938128851704 -0.1826882615985625 0 -0.095804572093432044 -0.1914304229002349 0 -0.090500110278716836 -0.18291833725845449 0 -0.097346567974052028 -0.18135155841447259 0 -0.095804572093432044 -0.1914304229002349 0 -0.097346567974052028 -0.18135155841447259 0 -0.097346567974052028 -0.18135155841447259 0 -0.099028938128851704 -0.1826882615985625 0 -0.098398678104261977 -0.16921735691638781 0 -0.097346567974052028 -0.18135155841447259 0 -0.099028938128851704 -0.1826882615985625 0 -0.118443644943155 -0.18313735869921541 0 -0.1134730054873082 -0.16498410574444861 0 -0.1288769000074067 -0.1787922372229141 0 -0.118443644943155 -0.18313735869921541 0 -0.1134730054873082 -0.16498410574444861 0 -0.1095912747331507 -0.1796343382558257 0 -0.118443644943155 -0.18313735869921541 0 -0.1134730054873082 -0.16498410574444861 0 -0.1143022105317214 -0.19176920984990589 0 -0.1095912747331507 -0.1796343382558257 0 -0.118443644943155 -0.18313735869921541 0 -0.1134730054873082 -0.16498410574444861 0 -0.1197703960583608 -0.14611643639736929 0 -0.1290470673658046 -0.1573335562640088 0 -0.1134730054873082 -0.16498410574444861 0 -0.1197703960583608 -0.14611643639736929 0 -0.1057127461594554 -0.15566112818699529 0 -0.091208904987890735 -0.14232661368977559 0 -0.1197703960583608 -0.14611643639736929 0 -0.1055319536065798 -0.13433424813048789 0 -0.091208904987890735 -0.14232661368977559 0 -0.1197703960583608 -0.14611643639736929 0 -0.091208904987890735 -0.14232661368977559 0 -0.098398678104261977 -0.16921735691638781 0 -0.091208904987890735 -0.14232661368977559 0 -0.1197703960583608 -0.14611643639736929 0 -0.1057127461594554 -0.15566112818699529 0 -0.091208904987890735 -0.14232661368977559 0 -0.098398678104261977 -0.16921735691638781 0 -0.1057127461594554 -0.15566112818699529 0 -0.11422347955810171 -0.1204243593602408 0 -0.089131397015513494 -0.13455644729756691 0 -0.1055319536065798 -0.13433424813048789 0 -0.091208904987890735 -0.14232661368977559 0 -0.089131397015513494 -0.13455644729756691 0 -0.1055319536065798 -0.13433424813048789 0 -0.11422347955810171 -0.1204243593602408 0 -0.089131397015513494 -0.13455644729756691 0 -0.11422347955810171 -0.1204243593602408 0 -0.1197703960583608 -0.14611643639736929 0 -0.13445671698849809 -0.1291024538471422 0 -0.11422347955810171 -0.1204243593602408 0 -0.1197703960583608 -0.14611643639736929 0 -0.1055319536065798 -0.13433424813048789 0 -0.1483318871288308 -0.14990625910496369 0 -0.16449988742022109 -0.13664022397910389 0 -0.1531014227808439 -0.1221458571451004 0 -0.13445671698849809 -0.1291024538471422 0 -0.1483318871288308 -0.14990625910496369 0 -0.1531014227808439 -0.1221458571451004 0 -0.1197703960583608 -0.14611643639736929 0 -0.1483318871288308 -0.14990625910496369 0 -0.1197703960583608 -0.14611643639736929 0 -0.13445671698849809 -0.1291024538471422 0 -0.1483318871288308 -0.14990625910496369 0 -0.1197703960583608 -0.14611643639736929 0 -0.1483318871288308 -0.14990625910496369 0 -0.1290470673658046 -0.1573335562640088 0 -0.1134730054873082 -0.16498410574444861 0 -0.13461298078871861 -0.16832742380925381 0 -0.1288769000074067 -0.1787922372229141 0 -0.1134730054873082 -0.16498410574444861 0 -0.1290470673658046 -0.1573335562640088 0 -0.13461298078871861 -0.16832742380925381 0 -0.1483318871288308 -0.14990625910496369 0 -0.1290470673658046 -0.1573335562640088 0 -0.13461298078871861 -0.16832742380925381 0 -0.1288769000074067 -0.1787922372229141 0 -0.13667151748925299 -0.18732448341615179 0 -0.12964513627792831 -0.18854704193980709 0 -0.118443644943155 -0.18313735869921541 0 -0.1288769000074067 -0.1787922372229141 0 -0.12964513627792831 -0.18854704193980709 0 -0.13461298078871861 -0.16832742380925381 0 -0.1288769000074067 -0.1787922372229141 0 -0.13971937495991149 -0.1792470101286355 0 -0.13971937495991149 -0.1792470101286355 0 -0.13667151748925299 -0.18732448341615179 0 -0.14496415935730611 -0.1865433765957375 0 -0.1288769000074067 -0.1787922372229141 0 -0.13971937495991149 -0.1792470101286355 0 -0.13667151748925299 -0.18732448341615179 0 -0.13461298078871861 -0.16832742380925381 0 -0.13971937495991149 -0.1792470101286355 0 -0.15185728900885839 -0.17281716391360821 0 -0.13971937495991149 -0.1792470101286355 0 -0.14496415935730611 -0.1865433765957375 0 -0.15185728900885839 -0.17281716391360821 0 -0.14496415935730611 -0.1865433765957375 0 -0.15185728900885839 -0.17281716391360821 0 -0.15433817598466459 -0.18776234762491931 0 -0.1483318871288308 -0.14990625910496369 0 -0.13461298078871861 -0.16832742380925381 0 -0.15185728900885839 -0.17281716391360821 0 -0.1483318871288308 -0.14990625910496369 0 -0.15185728900885839 -0.17281716391360821 0 -0.1768933781993007 -0.15369608181255809 0 -0.15185728900885839 -0.17281716391360821 0 -0.16517877359736971 -0.18077311964873491 0 -0.1768933781993007 -0.15369608181255809 0 -0.16517877359736971 -0.18077311964873491 0 -0.15433817598466459 -0.18776234762491931 0 -0.16707343948115469 -0.19329854854562631 0 -0.15185728900885839 -0.17281716391360821 0 -0.16517877359736971 -0.18077311964873491 0 -0.15433817598466459 -0.18776234762491931 0 -0.16517877359736971 -0.18077311964873491 0 -0.17993745220376059 -0.17895489523397801 0 -0.16707343948115469 -0.19329854854562631 0 -0.16517877359736971 -0.18077311964873491 0 -0.17993745220376059 -0.17895489523397801 0 -0.1768933781993007 -0.15369608181255809 0 -0.17993745220376059 -0.17895489523397801 0 -0.1768933781993007 -0.15369608181255809 0 -0.19905977422349169 -0.1755558360643551 0 -0.1768933781993007 -0.15369608181255809 0 -0.17856324423929071 -0.13411692648003359 0 -0.16449988742022109 -0.13664022397910389 0 -0.1768933781993007 -0.15369608181255809 0 -0.17856324423929071 -0.13411692648003359 0 -0.1900158864605431 -0.1418606691544825 0 -0.17856324423929071 -0.13411692648003359 0 -0.1912596026832544 -0.12883579632457359 0 -0.1900158864605431 -0.1418606691544825 0 -0.17856324423929071 -0.13411692648003359 0 -0.1912596026832544 -0.12883579632457359 0 -0.18212358698306741 -0.12142770117184561 0 -0.17856324423929071 -0.13411692648003359 0 -0.18212358698306741 -0.12142770117184561 0 -0.16904936396502779 -0.1225698900008125 0 -0.16449988742022109 -0.13664022397910389 0 -0.16904936396502779 -0.1225698900008125 0 -0.1531014227808439 -0.1221458571451004 0 -0.17856324423929071 -0.13411692648003359 0 -0.16449988742022109 -0.13664022397910389 0 -0.16904936396502779 -0.1225698900008125 0 -0.1483318871288308 -0.14990625910496369 0 -0.1768933781993007 -0.15369608181255809 0 -0.1483318871288308 -0.14990625910496369 0 -0.1768933781993007 -0.15369608181255809 0 -0.16449988742022109 -0.13664022397910389 0 -0.15566934165753701 -0.24482136105764621 0 -0.13482897363606841 -0.24297815366164491 0 -0.14564999181442231 -0.22989611270817639 0 -0.15566934165753701 -0.24482136105764621 0 -0.14564999181442231 -0.22989611270817639 0 -0.16429012863802009 -0.23491512272004891 0 -0.15821309250511281 -0.26118480488572993 0 -0.15566934165753701 -0.24482136105764621 0 -0.13482897363606841 -0.24297815366164491 0 -0.1283361407779757 -0.25159171728621699 0 -0.13482897363606841 -0.24297815366164491 0 -0.1310987251445577 -0.2446583467236331 0 -0.1283361407779757 -0.25159171728621699 0 -0.1310987251445577 -0.2446583467236331 0 -0.1270777831465402 -0.24161244513161839 0 -0.1283361407779757 -0.25159171728621699 0 -0.11992695639240671 -0.24305274461581289 0 -0.1270777831465402 -0.24161244513161839 0 -0.13482897363606841 -0.24297815366164491 0 -0.1310987251445577 -0.2446583467236331 0 -0.1270777831465402 -0.24161244513161839 0 -0.13482897363606841 -0.24297815366164491 0 -0.12594535918601221 -0.23537450645762351 0 -0.1270777831465402 -0.24161244513161839 0 -0.13482897363606841 -0.24297815366164491 0 -0.12964778408632779 -0.2240559515308029 0 -0.14564999181442231 -0.22989611270817639 0 -0.13482897363606841 -0.24297815366164491 0 -0.12594535918601221 -0.23537450645762351 0 -0.12964778408632779 -0.2240559515308029 0 -0.13482897363606841 -0.24297815366164491 0 -0.12964778408632779 -0.2240559515308029 0 -0.12964778408632779 -0.2240559515308029 0 -0.14564999181442231 -0.22989611270817639 0 -0.13906082520362789 -0.21424948005767519 0 -0.14564999181442231 -0.22989611270817639 0 -0.1532157355819776 -0.21469763412746851 0 -0.16429012863802009 -0.23491512272004891 0 -0.14564999181442231 -0.22989611270817639 0 -0.1532157355819776 -0.21469763412746851 0 -0.13906082520362789 -0.21424948005767519 0 -0.1532157355819776 -0.21469763412746851 0 -0.1421413425259351 -0.1944801455348881 0 -0.14344356041104711 -0.20138231805780499 0 -0.1532157355819776 -0.21469763412746851 0 -0.1421413425259351 -0.1944801455348881 0 -0.1532157355819776 -0.21469763412746851 0 -0.13906082520362789 -0.21424948005767519 0 -0.14344356041104711 -0.20138231805780499 0 -0.12964778408632779 -0.2240559515308029 0 -0.13906082520362789 -0.21424948005767519 0 -0.12775347419704111 -0.20670520812175669 0 -0.12446659453658469 -0.2051337493999616 0 -0.12964778408632779 -0.2240559515308029 0 -0.12775347419704111 -0.20670520812175669 0 -0.12446659453658469 -0.2051337493999616 0 -0.12964778408632779 -0.2240559515308029 0 -0.1234142843990034 -0.20129061165398179 0 -0.12775347419704111 -0.20670520812175669 0 -0.1342433848347403 -0.2059710501757869 0 -0.1234142843990034 -0.20129061165398179 0 -0.12446659453658469 -0.2051337493999616 0 -0.12775347419704111 -0.20670520812175669 0 -0.12446659453658469 -0.2051337493999616 0 -0.12775347419704111 -0.20670520812175669 0 -0.13906082520362789 -0.21424948005767519 0 -0.12775347419704111 -0.20670520812175669 0 -0.1342433848347403 -0.2059710501757869 0 -0.13906082520362789 -0.21424948005767519 0 -0.1342433848347403 -0.2059710501757869 0 -0.14344356041104711 -0.20138231805780499 0 -0.13448747671815081 -0.19705371152474219 0 -0.1421413425259351 -0.1944801455348881 0 -0.14344356041104711 -0.20138231805780499 0 -0.1234142843990034 -0.20129061165398179 0 -0.1342433848347403 -0.2059710501757869 0 -0.14344356041104711 -0.20138231805780499 0 -0.1234142843990034 -0.20129061165398179 0 -0.13448747671815081 -0.19705371152474219 0 -0.14344356041104711 -0.20138231805780499 0 -0.1234142843990034 -0.20129061165398179 0 -0.14344356041104711 -0.20138231805780499 0 -0.1234142843990034 -0.20129061165398179 0 -0.13448747671815081 -0.19705371152474219 0 -0.12836978379805469 -0.19505845874684749 0 -0.118443644943155 -0.18313735869921541 0 -0.12836978379805469 -0.19505845874684749 0 -0.12964513627792831 -0.18854704193980709 0 -0.12836978379805469 -0.19505845874684749 0 -0.12964513627792831 -0.18854704193980709 0 -0.1350684124567138 -0.19305702363018909 0 -0.13448747671815081 -0.19705371152474219 0 -0.12836978379805469 -0.19505845874684749 0 -0.1350684124567138 -0.19305702363018909 0 -0.13667151748925299 -0.18732448341615179 0 -0.12964513627792831 -0.18854704193980709 0 -0.1350684124567138 -0.19305702363018909 0 -0.13448747671815081 -0.19705371152474219 0 -0.1350684124567138 -0.19305702363018909 0 -0.1421413425259351 -0.1944801455348881 0 -0.13667151748925299 -0.18732448341615179 0 -0.1350684124567138 -0.19305702363018909 0 -0.1421413425259351 -0.1944801455348881 0 -0.1532157355819776 -0.21469763412746851 0 -0.1421413425259351 -0.1944801455348881 0 -0.15666351948114629 -0.1995899832452937 0 -0.13667151748925299 -0.18732448341615179 0 -0.14496415935730611 -0.1865433765957375 0 -0.1421413425259351 -0.1944801455348881 0 -0.14496415935730611 -0.1865433765957375 0 -0.1421413425259351 -0.1944801455348881 0 -0.15433817598466459 -0.18776234762491931 0 -0.1421413425259351 -0.1944801455348881 0 -0.15433817598466459 -0.18776234762491931 0 -0.15666351948114629 -0.1995899832452937 0 -0.15433817598466459 -0.18776234762491931 0 -0.15666351948114629 -0.1995899832452937 0 -0.16707343948115469 -0.19329854854562631 0 -0.15666351948114629 -0.1995899832452937 0 -0.16707343948115469 -0.19329854854562631 0 -0.16732224548458891 -0.20842311436722119 0 -0.16707343948115469 -0.19329854854562631 0 -0.17975878066101059 -0.20042989322362739 0 -0.16732224548458891 -0.20842311436722119 0 -0.17993745220376059 -0.17895489523397801 0 -0.17975878066101059 -0.20042989322362739 0 -0.19266467917721081 -0.1936257676085566 0 -0.17993745220376059 -0.17895489523397801 0 -0.16707343948115469 -0.19329854854562631 0 -0.17975878066101059 -0.20042989322362739 0 -0.17975878066101059 -0.20042989322362739 0 -0.18070391625864071 -0.21863984915545301 0 -0.19253239785726259 -0.2093467412910768 0 -0.17975878066101059 -0.20042989322362739 0 -0.18070391625864071 -0.21863984915545301 0 -0.16732224548458891 -0.20842311436722119 0 -0.1532157355819776 -0.21469763412746851 0 -0.15666351948114629 -0.1995899832452937 0 -0.16732224548458891 -0.20842311436722119 0 -0.1532157355819776 -0.21469763412746851 0 -0.16732224548458891 -0.20842311436722119 0 -0.16429012863802009 -0.23491512272004891 0 -0.1532157355819776 -0.21469763412746851 0 -0.16429012863802009 -0.23491512272004891 0 -0.18070391625864071 -0.21863984915545301 0 -0.16732224548458891 -0.20842311436722119 0 -0.16429012863802009 -0.23491512272004891 0 -0.18070391625864071 -0.21863984915545301 0 -0.18601458812680871 -0.23629827425452701 0 -0.16429012863802009 -0.23491512272004891 0 -0.18070391625864071 -0.21863984915545301 0 -0.18601458812680871 -0.23629827425452701 0 -0.19270158591305361 -0.22296204550849591 0 -0.17536452169406261 -0.25513261131262932 0 -0.18601458812680871 -0.23629827425452701 0 -0.1971211098569064 -0.2485562144643311 0 -0.17536452169406261 -0.25513261131262932 0 -0.18601458812680871 -0.23629827425452701 0 -0.16429012863802009 -0.23491512272004891 0 -0.17536452169406261 -0.25513261131262932 0 -0.16429012863802009 -0.23491512272004891 0 -0.17536452169406261 -0.25513261131262932 0 -0.15566934165753701 -0.24482136105764621 0 -0.16429012863802009 -0.23491512272004891 0 -0.2040044810152343 -0.23377727090047351 0 -0.22181314593257209 -0.22697511150882529 0 -0.22025275826160279 -0.2471257797298928 0 -0.1971211098569064 -0.2485562144643311 0 -0.2040044810152343 -0.23377727090047351 0 -0.22025275826160279 -0.2471257797298928 0 -0.18601458812680871 -0.23629827425452701 0 -0.1971211098569064 -0.2485562144643311 0 -0.2040044810152343 -0.23377727090047351 0 -0.18601458812680871 -0.23629827425452701 0 -0.19270158591305361 -0.22296204550849591 0 -0.2040044810152343 -0.23377727090047351 0 -0.19270158591305361 -0.22296204550849591 0 -0.20646661184779291 -0.2209366033754204 0 -0.2040044810152343 -0.23377727090047351 0 -0.20646661184779291 -0.2209366033754204 0 -0.2040044810152343 -0.23377727090047351 0 -0.22181314593257209 -0.22697511150882529 0 -0.20646661184779291 -0.2209366033754204 0 -0.22181314593257209 -0.22697511150882529 0 -0.20646661184779291 -0.2209366033754204 0 -0.21966781828876961 -0.21222017746694699 0 -0.22181314593257209 -0.22697511150882529 0 -0.20646661184779291 -0.2209366033754204 0 -0.20611948272011121 -0.20304611138236681 0 -0.21966781828876961 -0.21222017746694699 0 -0.20611948272011121 -0.20304611138236681 0 -0.21897926871800019 -0.19669337567287831 0 -0.21966781828876961 -0.21222017746694699 0 -0.20646661184779291 -0.2209366033754204 0 -0.19253239785726259 -0.2093467412910768 0 -0.20611948272011121 -0.20304611138236681 0 -0.19270158591305361 -0.22296204550849591 0 -0.20646661184779291 -0.2209366033754204 0 -0.19253239785726259 -0.2093467412910768 0 -0.18070391625864071 -0.21863984915545301 0 -0.19270158591305361 -0.22296204550849591 0 -0.19253239785726259 -0.2093467412910768 0 -0.19266467917721081 -0.1936257676085566 0 -0.20611948272011121 -0.20304611138236681 0 -0.2083219237785757 -0.1873320277690235 0 -0.17975878066101059 -0.20042989322362739 0 -0.19253239785726259 -0.2093467412910768 0 -0.19266467917721081 -0.1936257676085566 0 -0.19253239785726259 -0.2093467412910768 0 -0.19266467917721081 -0.1936257676085566 0 -0.20611948272011121 -0.20304611138236681 0 -0.20611948272011121 -0.20304611138236681 0 -0.21897926871800019 -0.19669337567287831 0 -0.2083219237785757 -0.1873320277690235 0 -0.21897926871800019 -0.19669337567287831 0 -0.23230424975577199 -0.20503470769258789 0 -0.23313215691775949 -0.18450877018534409 0 -0.2448317244682672 -0.19494017856122331 0 -0.23230424975577199 -0.20503470769258789 0 -0.23313215691775949 -0.18450877018534409 0 -0.2448317244682672 -0.19494017856122331 0 -0.24405101732391901 -0.2151790953022156 0 -0.23230424975577199 -0.20503470769258789 0 -0.2448317244682672 -0.19494017856122331 0 -0.24405101732391901 -0.2151790953022156 0 -0.24405101732391901 -0.2151790953022156 0 -0.23230424975577199 -0.20503470769258789 0 -0.23232415075836929 -0.22063515516960361 0 -0.23230424975577199 -0.20503470769258789 0 -0.21966781828876961 -0.21222017746694699 0 -0.23232415075836929 -0.22063515516960361 0 -0.21897926871800019 -0.19669337567287831 0 -0.23230424975577199 -0.20503470769258789 0 -0.21966781828876961 -0.21222017746694699 0 -0.21966781828876961 -0.21222017746694699 0 -0.22181314593257209 -0.22697511150882529 0 -0.23232415075836929 -0.22063515516960361 0 -0.22181314593257209 -0.22697511150882529 0 -0.23232415075836929 -0.22063515516960361 0 -0.2371596800173508 -0.23301361964223161 0 -0.22181314593257209 -0.22697511150882529 0 -0.2371596800173508 -0.23301361964223161 0 -0.24405101732391901 -0.2151790953022156 0 -0.24327031017957049 -0.23541801204320789 0 -0.24405101732391901 -0.2151790953022156 0 -0.24327031017957049 -0.23541801204320789 0 -0.25588924886857078 -0.22577026586403889 0 -0.24405101732391901 -0.2151790953022156 0 -0.23232415075836929 -0.22063515516960361 0 -0.23916826383476761 -0.23133706037317611 0 -0.24405101732391901 -0.2151790953022156 0 -0.23916826383476761 -0.23133706037317611 0 -0.24327031017957049 -0.23541801204320789 0 -0.23916826383476761 -0.23133706037317611 0 -0.2371596800173508 -0.23301361964223161 0 -0.24327031017957049 -0.23541801204320789 0 -0.2371596800173508 -0.23301361964223161 0 -0.24327031017957049 -0.23541801204320789 0 -0.23232415075836929 -0.22063515516960361 0 -0.23916826383476761 -0.23133706037317611 0 -0.2371596800173508 -0.23301361964223161 0 -0.23916826383476761 -0.23133706037317611 0 -0.2371596800173508 -0.23301361964223161 0 -0.24233717299785959 -0.25960849866204011 0 -0.24327031017957049 -0.23541801204320789 0 -0.23442911476228809 -0.24683612341654529 0 -0.24233717299785959 -0.25960849866204011 0 -0.24327031017957049 -0.23541801204320789 0 -0.25018128361314113 -0.24746468840205441 0 -0.2371596800173508 -0.23301361964223161 0 -0.24327031017957049 -0.23541801204320789 0 -0.23442911476228809 -0.24683612341654529 0 -0.24233717299785959 -0.25960849866204011 0 -0.24327031017957049 -0.23541801204320789 0 -0.2371596800173508 -0.23301361964223161 0 -0.22025275826160279 -0.2471257797298928 0 -0.2371596800173508 -0.23301361964223161 0 -0.23442911476228809 -0.24683612341654529 0 -0.22025275826160279 -0.2471257797298928 0 -0.22181314593257209 -0.22697511150882529 0 -0.2371596800173508 -0.23301361964223161 0 -0.22025275826160279 -0.2471257797298928 0 -0.21260261997950849 -0.1372892749024191 0 -0.20545486926977061 -0.1574859045201529 0 -0.21260261997950849 -0.1372892749024191 0 -0.20545486926977061 -0.1574859045201529 0 -0.22601880180638709 -0.14497793796819641 0 -0.21260261997950849 -0.1372892749024191 0 -0.20085213665154589 -0.13643960324073179 0 -0.20545486926977061 -0.1574859045201529 0 -0.21260261997950849 -0.1372892749024191 0 -0.2197503706892443 -0.1170926452846846 0 -0.20366324778073339 -0.1226314006036201 0 -0.21260261997950849 -0.1372892749024191 0 -0.2197503706892443 -0.1170926452846846 0 -0.21260261997950849 -0.1372892749024191 0 -0.20085213665154589 -0.13643960324073179 0 -0.20366324778073339 -0.1226314006036201 0 -0.20085213665154589 -0.13643960324073179 0 -0.1912596026832544 -0.12883579632457359 0 -0.20366324778073339 -0.1226314006036201 0 -0.20085213665154589 -0.13643960324073179 0 -0.1912596026832544 -0.12883579632457359 0 -0.1900158864605431 -0.1418606691544825 0 -0.1768933781993007 -0.15369608181255809 0 -0.1900158864605431 -0.1418606691544825 0 -0.20545486926977061 -0.1574859045201529 0 -0.1768933781993007 -0.15369608181255809 0 -0.20545486926977061 -0.1574859045201529 0 -0.20085213665154589 -0.13643960324073179 0 -0.1900158864605431 -0.1418606691544825 0 -0.20545486926977061 -0.1574859045201529 0 -0.1768933781993007 -0.15369608181255809 0 -0.19905977422349169 -0.1755558360643551 0 -0.20545486926977061 -0.1574859045201529 0 -0.19905977422349169 -0.1755558360643551 0 -0.20545486926977061 -0.1574859045201529 0 -0.19266467917721081 -0.1936257676085566 0 -0.19905977422349169 -0.1755558360643551 0 -0.19266467917721081 -0.1936257676085566 0 -0.19905977422349169 -0.1755558360643551 0 -0.2083219237785757 -0.1873320277690235 0 -0.17993745220376059 -0.17895489523397801 0 -0.19266467917721081 -0.1936257676085566 0 -0.19905977422349169 -0.1755558360643551 0 -0.21897926871800019 -0.19669337567287831 0 -0.2083219237785757 -0.1873320277690235 0 -0.21860002285518379 -0.17692462022396371 0 -0.19905977422349169 -0.1755558360643551 0 -0.2083219237785757 -0.1873320277690235 0 -0.21860002285518379 -0.17692462022396371 0 -0.19905977422349169 -0.1755558360643551 0 -0.21860002285518379 -0.17692462022396371 0 -0.20545486926977061 -0.1574859045201529 0 -0.21860002285518379 -0.17692462022396371 0 -0.20545486926977061 -0.1574859045201529 0 -0.2334194436613071 -0.16119652238585741 0 -0.20545486926977061 -0.1574859045201529 0 -0.2334194436613071 -0.16119652238585741 0 -0.21860002285518379 -0.17692462022396371 0 -0.2334194436613071 -0.16119652238585741 0 -0.23313215691775949 -0.18450877018534409 0 -0.21897926871800019 -0.19669337567287831 0 -0.21860002285518379 -0.17692462022396371 0 -0.23313215691775949 -0.18450877018534409 0 -0.2448317244682672 -0.19494017856122331 0 -0.24561243161261531 -0.1747012618202311 0 -0.2448317244682672 -0.19494017856122331 0 -0.23313215691775949 -0.18450877018534409 0 -0.24561243161261531 -0.1747012618202311 0 -0.2334194436613071 -0.16119652238585741 0 -0.23313215691775949 -0.18450877018534409 0 -0.24561243161261531 -0.1747012618202311 0 -0.2334194436613071 -0.16119652238585741 0 -0.24768759332024501 -0.15288591991307249 0 -0.26138401805284373 -0.16490714025156239 0 -0.2334194436613071 -0.16119652238585741 0 -0.24561243161261531 -0.1747012618202311 0 -0.26138401805284373 -0.16490714025156239 0 -0.2334194436613071 -0.16119652238585741 0 -0.26138401805284373 -0.16490714025156239 0 -0.24768759332024501 -0.15288591991307249 0 -0.24035206963199701 -0.13773520297616959 0 -0.25066558347885931 -0.13251764995053431 0 -0.23716828236838119 -0.14842713651880179 0 -0.22601880180638709 -0.14497793796819641 0 -0.24035206963199701 -0.13773520297616959 0 -0.24768759332024501 -0.15288591991307249 0 -0.23716828236838119 -0.14842713651880179 0 -0.24035206963199701 -0.13773520297616959 0 -0.2334194436613071 -0.16119652238585741 0 -0.24768759332024501 -0.15288591991307249 0 -0.23716828236838119 -0.14842713651880179 0 -0.20545486926977061 -0.1574859045201529 0 -0.2334194436613071 -0.16119652238585741 0 -0.22601880180638709 -0.14497793796819641 0 -0.2334194436613071 -0.16119652238585741 0 -0.23716828236838119 -0.14842713651880179 0 -0.22601880180638709 -0.14497793796819641 0 -0.21260261997950849 -0.1372892749024191 0 -0.22701037204806629 -0.12800517972509859 0 -0.2197503706892443 -0.1170926452846846 0 -0.22601880180638709 -0.14497793796819641 0 -0.22701037204806629 -0.12800517972509859 0 -0.24035206963199701 -0.13773520297616959 0 -0.21260261997950849 -0.1372892749024191 0 -0.22601880180638709 -0.14497793796819641 0 -0.22701037204806629 -0.12800517972509859 0 -0.22701037204806629 -0.12800517972509859 0 -0.23833475363582929 -0.12699719077821001 0 -0.24035206963199701 -0.13773520297616959 0 -0.23833475363582929 -0.12699719077821001 0 -0.24035206963199701 -0.13773520297616959 0 -0.25066558347885931 -0.13251764995053431 0 -0.23833475363582929 -0.12699719077821001 0 -0.2466021228926524 -0.1215603100838341 0 -0.25066558347885931 -0.13251764995053431 0 -0.2466021228926524 -0.1215603100838341 0 -0.23420880670407421 -0.115344861449812 0 -0.25028307647261949 -0.1119170655065333 0 -0.23833475363582929 -0.12699719077821001 0 -0.2466021228926524 -0.1215603100838341 0 -0.23420880670407421 -0.115344861449812 0 -0.23975108867161321 -0.096745383671773488 0 -0.23420880670407421 -0.115344861449812 0 -0.25028307647261949 -0.1119170655065333 0 -0.23975108867161321 -0.096745383671773488 0 -0.25028307647261949 -0.1119170655065333 0 -0.25454071313255938 -0.097810231909066098 0 -0.23975108867161321 -0.096745383671773488 0 -0.22550089202944229 -0.1008440162637169 0 -0.23125141336964011 -0.084595387242749231 0 -0.23975108867161321 -0.096745383671773488 0 -0.22550089202944229 -0.1008440162637169 0 -0.23420880670407421 -0.115344861449812 0 -0.22550089202944229 -0.1008440162637169 0 -0.23125141336964011 -0.084595387242749231 0 -0.20770402821161371 -0.098985744105056478 0 -0.22550089202944229 -0.1008440162637169 0 -0.2197503706892443 -0.1170926452846846 0 -0.22550089202944229 -0.1008440162637169 0 -0.2197503706892443 -0.1170926452846846 0 -0.23420880670407421 -0.115344861449812 0 -0.22701037204806629 -0.12800517972509859 0 -0.2197503706892443 -0.1170926452846846 0 -0.22701037204806629 -0.12800517972509859 0 -0.2197503706892443 -0.1170926452846846 0 -0.23420880670407421 -0.115344861449812 0 -0.22701037204806629 -0.12800517972509859 0 -0.23833475363582929 -0.12699719077821001 0 -0.23420880670407421 -0.115344861449812 0 -0.24621250417125429 -0.067242688607955695 0 -0.2359213828018043 -0.071399957410672343 0 -0.2460442741291925 -0.056732515276429897 0 -0.24101683233652779 -0.07862751170581421 0 -0.252754029676304 -0.071454636367457428 0 -0.24621250417125429 -0.067242688607955695 0 -0.24101683233652779 -0.07862751170581421 0 -0.252754029676304 -0.071454636367457428 0 -0.2359213828018043 -0.071399957410672343 0 -0.24101683233652779 -0.07862751170581421 0 -0.24621250417125429 -0.067242688607955695 0 -0.2359213828018043 -0.071399957410672343 0 -0.24101683233652779 -0.07862751170581421 0 -0.24101683233652779 -0.07862751170581421 0 -0.25454071313255938 -0.097810231909066098 0 -0.23975108867161321 -0.096745383671773488 0 -0.24101683233652779 -0.07862751170581421 0 -0.25454071313255938 -0.097810231909066098 0 -0.23975108867161321 -0.096745383671773488 0 -0.24101683233652779 -0.07862751170581421 0 -0.23125141336964011 -0.084595387242749231 0 -0.24101683233652779 -0.07862751170581421 0 -0.23125141336964011 -0.084595387242749231 0 -0.2359213828018043 -0.071399957410672343 0 -0.24101683233652779 -0.07862751170581421 0 -0.23125141336964011 -0.084595387242749231 0 -0.23125141336964011 -0.084595387242749231 0 -0.2244703125416819 -0.072794076224461268 0 -0.21310247649950159 -0.079773441579648038 0 -0.23125141336964011 -0.084595387242749231 0 -0.20770402821161371 -0.098985744105056478 0 -0.22550089202944229 -0.1008440162637169 0 -0.23125141336964011 -0.084595387242749231 0 -0.2359213828018043 -0.071399957410672343 0 -0.2235514570548072 -0.053854045248439182 0 -0.2244703125416819 -0.072794076224461268 0 -0.21482267827762841 -0.069082647852091478 0 -0.2235514570548072 -0.053854045248439182 0 -0.2359213828018043 -0.071399957410672343 0 -0.2244703125416819 -0.072794076224461268 0 -0.2235514570548072 -0.053854045248439182 0 -0.2359213828018043 -0.071399957410672343 0 -0.23125141336964011 -0.084595387242749231 0 -0.2244703125416819 -0.072794076224461268 0 -0.2359213828018043 -0.071399957410672343 0 -0.23125141336964011 -0.084595387242749231 0 -0.20472732395068391 -0.070425609547595483 0 -0.21310247649950159 -0.079773441579648038 0 -0.1942101978544846 -0.078703118630565005 0 -0.21482267827762841 -0.069082647852091478 0 -0.20472732395068391 -0.070425609547595483 0 -0.20783277774853701 -0.056374475910446593 0 -0.2244703125416819 -0.072794076224461268 0 -0.21482267827762841 -0.069082647852091478 0 -0.21310247649950159 -0.079773441579648038 0 -0.21482267827762841 -0.069082647852091478 0 -0.20472732395068391 -0.070425609547595483 0 -0.21310247649950159 -0.079773441579648038 0 -0.23125141336964011 -0.084595387242749231 0 -0.21310247649950159 -0.079773441579648038 0 -0.20770402821161371 -0.098985744105056478 0 -0.21310247649950159 -0.079773441579648038 0 -0.1942101978544846 -0.078703118630565005 0 -0.20770402821161371 -0.098985744105056478 0 -0.1942101978544846 -0.078703118630565005 0 -0.20770402821161371 -0.098985744105056478 0 -0.1942101978544846 -0.078703118630565005 0 -0.20770402821161371 -0.098985744105056478 0 -0.19331927689223261 -0.094690670375105077 0 -0.1942101978544846 -0.078703118630565005 0 -0.19331927689223261 -0.094690670375105077 0 -0.1804061946459036 -0.0975656506999769 0 -0.1942101978544846 -0.078703118630565005 0 -0.1807163674973549 -0.058420493156073998 0 -0.19569491766720151 -0.061370611856350392 0 -0.20472732395068391 -0.070425609547595483 0 -0.1942101978544846 -0.078703118630565005 0 -0.19569491766720151 -0.061370611856350392 0 -0.20472732395068391 -0.070425609547595483 0 -0.19569491766720151 -0.061370611856350392 0 -0.20783277774853701 -0.056374475910446593 0 -0.2197503706892443 -0.1170926452846846 0 -0.20366324778073339 -0.1226314006036201 0 -0.20770402821161371 -0.098985744105056478 0 -0.22550089202944229 -0.1008440162637169 0 -0.2197503706892443 -0.1170926452846846 0 -0.20770402821161371 -0.098985744105056478 0 -0.2197503706892443 -0.1170926452846846 0 -0.20770402821161371 -0.098985744105056478 0 -0.20770402821161371 -0.098985744105056478 0 -0.19331927689223261 -0.094690670375105077 0 -0.18400427859456039 -0.1134692144457318 0 -0.20770402821161371 -0.098985744105056478 0 -0.18400427859456039 -0.1134692144457318 0 -0.20770402821161371 -0.098985744105056478 0 -0.19170728544238649 -0.1194909919475228 0 -0.18400427859456039 -0.1134692144457318 0 -0.20366324778073339 -0.1226314006036201 0 -0.20770402821161371 -0.098985744105056478 0 -0.19170728544238649 -0.1194909919475228 0 -0.1912596026832544 -0.12883579632457359 0 -0.20366324778073339 -0.1226314006036201 0 -0.19170728544238649 -0.1194909919475228 0 -0.1912596026832544 -0.12883579632457359 0 -0.19170728544238649 -0.1194909919475228 0 -0.18212358698306741 -0.12142770117184561 0 -0.18212358698306741 -0.12142770117184561 0 -0.18400427859456039 -0.1134692144457318 0 -0.1804061946459036 -0.0975656506999769 0 -0.18212358698306741 -0.12142770117184561 0 -0.17231042801981861 -0.11010941660198729 0 -0.1804061946459036 -0.0975656506999769 0 -0.19170728544238649 -0.1194909919475228 0 -0.18212358698306741 -0.12142770117184561 0 -0.18400427859456039 -0.1134692144457318 0 -0.18212358698306741 -0.12142770117184561 0 -0.1804061946459036 -0.0975656506999769 0 -0.18212358698306741 -0.12142770117184561 0 -0.17231042801981861 -0.11010941660198729 0 -0.16904936396502779 -0.1225698900008125 0 -0.16904936396502779 -0.1225698900008125 0 -0.16303186383997401 -0.11054530689275879 0 -0.1531014227808439 -0.1221458571451004 0 -0.16303186383997401 -0.11054530689275879 0 -0.1531014227808439 -0.1221458571451004 0 -0.15302467802266631 -0.099964594768007481 0 -0.17231042801981861 -0.11010941660198729 0 -0.16904936396502779 -0.1225698900008125 0 -0.16303186383997401 -0.11054530689275879 0 -0.16694113066512001 -0.098438534244542714 0 -0.1583311292500037 -0.086155785580523059 0 -0.15302467802266631 -0.099964594768007481 0 -0.16303186383997401 -0.11054530689275879 0 -0.16694113066512001 -0.098438534244542714 0 -0.15302467802266631 -0.099964594768007481 0 -0.17231042801981861 -0.11010941660198729 0 -0.16303186383997401 -0.11054530689275879 0 -0.16694113066512001 -0.098438534244542714 0 -0.16694113066512001 -0.098438534244542714 0 -0.1804061946459036 -0.0975656506999769 0 -0.1699979234477183 -0.086164615643162509 0 -0.19331927689223261 -0.094690670375105077 0 -0.18400427859456039 -0.1134692144457318 0 -0.1804061946459036 -0.0975656506999769 0 -0.17231042801981861 -0.11010941660198729 0 -0.16694113066512001 -0.098438534244542714 0 -0.1804061946459036 -0.0975656506999769 0 -0.1942101978544846 -0.078703118630565005 0 -0.1804061946459036 -0.0975656506999769 0 -0.17868880230873979 -0.073703600228108263 0 -0.1804061946459036 -0.0975656506999769 0 -0.17868880230873979 -0.073703600228108263 0 -0.1804061946459036 -0.0975656506999769 0 -0.17868880230873979 -0.073703600228108263 0 -0.1699979234477183 -0.086164615643162509 0 -0.1942101978544846 -0.078703118630565005 0 -0.17868880230873979 -0.073703600228108263 0 -0.1807163674973549 -0.058420493156073998 0 -0.1942101978544846 -0.078703118630565005 0 -0.1807163674973549 -0.058420493156073998 0 -0.17868880230873979 -0.073703600228108263 0 -0.16456215259537851 -0.07423447470758808 0 -0.1687761726195266 -0.062055246708151823 0 -0.16456215259537851 -0.07423447470758808 0 -0.1601060057786266 -0.063048208625582775 0 -0.1687761726195266 -0.062055246708151823 0 -0.17868880230873979 -0.073703600228108263 0 -0.16456215259537851 -0.07423447470758808 0 -0.1699979234477183 -0.086164615643162509 0 -0.16456215259537851 -0.07423447470758808 0 -0.1601060057786266 -0.063048208625582775 0 -0.15147288216765581 -0.074279391460000108 0 -0.16694113066512001 -0.098438534244542714 0 -0.1699979234477183 -0.086164615643162509 0 -0.1583311292500037 -0.086155785580523059 0 -0.16456215259537851 -0.07423447470758808 0 -0.1699979234477183 -0.086164615643162509 0 -0.1583311292500037 -0.086155785580523059 0 -0.16456215259537851 -0.07423447470758808 0 -0.1583311292500037 -0.086155785580523059 0 -0.15147288216765581 -0.074279391460000108 0 -0.1583311292500037 -0.086155785580523059 0 -0.1406917504718985 -0.083199174386461974 0 -0.15147288216765581 -0.074279391460000108 0 -0.1583311292500037 -0.086155785580523059 0 -0.1406917504718985 -0.083199174386461974 0 -0.15302467802266631 -0.099964594768007481 0 -0.1601060057786266 -0.063048208625582775 0 -0.15147288216765581 -0.074279391460000108 0 -0.14916280428309589 -0.053864076679432472 0 -0.15147288216765581 -0.074279391460000108 0 -0.13891648936515211 -0.064472249171247775 0 -0.14916280428309589 -0.053864076679432472 0 -0.1406917504718985 -0.083199174386461974 0 -0.15147288216765581 -0.074279391460000108 0 -0.13891648936515211 -0.064472249171247775 0 -0.12197003300458489 -0.067133964797042034 0 -0.1406917504718985 -0.083199174386461974 0 -0.13891648936515211 -0.064472249171247775 0 -0.121811479392537 -0.084095963505499416 0 -0.12197003300458489 -0.067133964797042034 0 -0.1406917504718985 -0.083199174386461974 0 -0.121811479392537 -0.084095963505499416 0 -0.1406917504718985 -0.083199174386461974 0 -0.13931556210068971 -0.10629227142291391 0 -0.11605893441195141 -0.10185107539240761 0 -0.121811479392537 -0.084095963505499416 0 -0.13931556210068971 -0.10629227142291391 0 -0.11422347955810171 -0.1204243593602408 0 -0.13931556210068971 -0.10629227142291391 0 -0.11422347955810171 -0.1204243593602408 0 -0.13445671698849809 -0.1291024538471422 0 -0.13931556210068971 -0.10629227142291391 0 -0.13445671698849809 -0.1291024538471422 0 -0.13931556210068971 -0.10629227142291391 0 -0.1531014227808439 -0.1221458571451004 0 -0.13931556210068971 -0.10629227142291391 0 -0.1531014227808439 -0.1221458571451004 0 -0.15302467802266631 -0.099964594768007481 0 -0.1406917504718985 -0.083199174386461974 0 -0.13931556210068971 -0.10629227142291391 0 -0.15302467802266631 -0.099964594768007481 0 -0.14079925107272581 -0.02334449083682992 0 -0.15349169287978739 -0.035208883327978051 0 -0.15939520176274349 -0.015620398581745401 0 -0.14079925107272581 -0.02334449083682992 0 -0.14275634286812811 -0.006203461430080404 0 -0.15939520176274349 -0.015620398581745401 0 -0.14275634286812811 -0.006203461430080404 0 -0.15939520176274349 -0.015620398581745401 0 -0.15796117991031841 -0.00029962151665172479 0 -0.14079925107272581 -0.02334449083682992 0 -0.14275634286812811 -0.006203461430080404 0 -0.1278640484455188 -0.012334690821253821 0 -0.14275634286812811 -0.006203461430080404 0 -0.1278640484455188 -0.012334690821253821 0 -0.1273771369441013 0.0023450629401116992 0 -0.12411398995058071 -0.026208981462584841 0 -0.14079925107272581 -0.02334449083682992 0 -0.1278640484455188 -0.012334690821253821 0 -0.12411398995058071 -0.026208981462584841 0 -0.14079925107272581 -0.02334449083682992 0 -0.13241258759658719 -0.044529255409706578 0 -0.13891648936515211 -0.064472249171247775 0 -0.13241258759658719 -0.044529255409706578 0 -0.14916280428309589 -0.053864076679432472 0 -0.12197003300458489 -0.067133964797042034 0 -0.13891648936515211 -0.064472249171247775 0 -0.13241258759658719 -0.044529255409706578 0 -0.14079925107272581 -0.02334449083682992 0 -0.13241258759658719 -0.044529255409706578 0 -0.15349169287978739 -0.035208883327978051 0 -0.14916280428309589 -0.053864076679432472 0 -0.15349169287978739 -0.035208883327978051 0 -0.16249228466986629 -0.048723367468166891 0 -0.13241258759658719 -0.044529255409706578 0 -0.14916280428309589 -0.053864076679432472 0 -0.15349169287978739 -0.035208883327978051 0 -0.15349169287978739 -0.035208883327978051 0 -0.16249228466986629 -0.048723367468166891 0 -0.17525401763441231 -0.025979499284370731 0 -0.16249228466986629 -0.048723367468166891 0 -0.17697140997157609 -0.049841549756239563 0 -0.17525401763441231 -0.025979499284370731 0 -0.1601060057786266 -0.063048208625582775 0 -0.14916280428309589 -0.053864076679432472 0 -0.16249228466986629 -0.048723367468166891 0 -0.1601060057786266 -0.063048208625582775 0 -0.16249228466986629 -0.048723367468166891 0 -0.1687761726195266 -0.062055246708151823 0 -0.16249228466986629 -0.048723367468166891 0 -0.1687761726195266 -0.062055246708151823 0 -0.17697140997157609 -0.049841549756239563 0 -0.17868880230873979 -0.073703600228108263 0 -0.17697140997157609 -0.049841549756239563 0 -0.17868880230873979 -0.073703600228108263 0 -0.17697140997157609 -0.049841549756239563 0 -0.1807163674973549 -0.058420493156073998 0 -0.17868880230873979 -0.073703600228108263 0 -0.1687761726195266 -0.062055246708151823 0 -0.17697140997157609 -0.049841549756239563 0 -0.17697140997157609 -0.049841549756239563 0 -0.187061179232277 -0.050545000195171969 0 -0.1807163674973549 -0.058420493156073998 0 -0.17697140997157609 -0.049841549756239563 0 -0.17525401763441231 -0.025979499284370731 0 -0.17697140997157609 -0.049841549756239563 0 -0.1844822702309237 -0.037308153316215523 0 -0.17525401763441231 -0.025979499284370731 0 -0.17697140997157609 -0.049841549756239563 0 -0.187061179232277 -0.050545000195171969 0 -0.1844822702309237 -0.037308153316215523 0 -0.1844822702309237 -0.037308153316215523 0 -0.17525401763441231 -0.025979499284370731 0 -0.19881160556081021 -0.01876222092397466 0 -0.17525401763441231 -0.025979499284370731 0 -0.17967452986780849 -0.0030086181600807401 0 -0.19881160556081021 -0.01876222092397466 0 -0.15349169287978739 -0.035208883327978051 0 -0.17525401763441231 -0.025979499284370731 0 -0.15939520176274349 -0.015620398581745401 0 -0.17525401763441231 -0.025979499284370731 0 -0.15939520176274349 -0.015620398581745401 0 -0.17967452986780849 -0.0030086181600807401 0 -0.15939520176274349 -0.015620398581745401 0 -0.15796117991031841 -0.00029962151665172479 0 -0.17967452986780849 -0.0030086181600807401 0 -0.17967452986780849 -0.0030086181600807401 0 -0.19881160556081021 -0.01876222092397466 0 -0.20680301002479959 -0.0020434230711429339 0 -0.1844822702309237 -0.037308153316215523 0 -0.19881160556081021 -0.01876222092397466 0 -0.19797908447346779 -0.034540675054344362 0 -0.19881160556081021 -0.01876222092397466 0 -0.19797908447346779 -0.034540675054344362 0 -0.2111815313078087 -0.036308133086206937 0 -0.19881160556081021 -0.01876222092397466 0 -0.2111815313078087 -0.036308133086206937 0 -0.19881160556081021 -0.01876222092397466 0 -0.2111815313078087 -0.036308133086206937 0 -0.21993326537292579 -0.016570742696256829 0 -0.19881160556081021 -0.01876222092397466 0 -0.20680301002479959 -0.0020434230711429339 0 -0.21993326537292579 -0.016570742696256829 0 -0.20680301002479959 -0.0020434230711429339 0 -0.21993326537292579 -0.016570742696256829 0 -0.22850437187820721 0.00061554774341724197 0 -0.187061179232277 -0.050545000195171969 0 -0.1807163674973549 -0.058420493156073998 0 -0.19569491766720151 -0.061370611856350392 0 -0.187061179232277 -0.050545000195171969 0 -0.19569491766720151 -0.061370611856350392 0 -0.1974409307943287 -0.045784192890980333 0 -0.19569491766720151 -0.061370611856350392 0 -0.1974409307943287 -0.045784192890980333 0 -0.20783277774853701 -0.056374475910446593 0 -0.187061179232277 -0.050545000195171969 0 -0.1844822702309237 -0.037308153316215523 0 -0.1974409307943287 -0.045784192890980333 0 -0.1844822702309237 -0.037308153316215523 0 -0.1974409307943287 -0.045784192890980333 0 -0.19797908447346779 -0.034540675054344362 0 -0.1974409307943287 -0.045784192890980333 0 -0.19797908447346779 -0.034540675054344362 0 -0.2111815313078087 -0.036308133086206937 0 -0.1974409307943287 -0.045784192890980333 0 -0.2111815313078087 -0.036308133086206937 0 -0.20783277774853701 -0.056374475910446593 0 -0.2111815313078087 -0.036308133086206937 0 -0.2235514570548072 -0.053854045248439182 0 -0.21482267827762841 -0.069082647852091478 0 -0.20783277774853701 -0.056374475910446593 0 -0.2235514570548072 -0.053854045248439182 0 -0.2111815313078087 -0.036308133086206937 0 -0.20783277774853701 -0.056374475910446593 0 -0.2235514570548072 -0.053854045248439182 0 -0.2359213828018043 -0.071399957410672343 0 -0.2235514570548072 -0.053854045248439182 0 -0.23385975453729951 -0.05448316257834377 0 -0.2235514570548072 -0.053854045248439182 0 -0.23385975453729951 -0.05448316257834377 0 -0.23195090370150159 -0.044148728843497582 0 -0.2111815313078087 -0.036308133086206937 0 -0.23195090370150159 -0.044148728843497582 0 -0.2330954250503823 -0.030605580137893669 0 -0.2111815313078087 -0.036308133086206937 0 -0.2235514570548072 -0.053854045248439182 0 -0.23195090370150159 -0.044148728843497582 0 -0.2440152745910836 -0.048529918810766987 0 -0.25210916638036568 -0.025659880210862549 0 -0.23195090370150159 -0.044148728843497582 0 -0.2440152745910836 -0.048529918810766987 0 -0.2330954250503823 -0.030605580137893669 0 -0.2440152745910836 -0.048529918810766987 0 -0.2330954250503823 -0.030605580137893669 0 -0.25210916638036568 -0.025659880210862549 0 -0.2359213828018043 -0.071399957410672343 0 -0.2440152745910836 -0.048529918810766987 0 -0.2460442741291925 -0.056732515276429897 0 -0.2359213828018043 -0.071399957410672343 0 -0.2440152745910836 -0.048529918810766987 0 -0.2359213828018043 -0.071399957410672343 0 -0.23385975453729951 -0.05448316257834377 0 -0.2440152745910836 -0.048529918810766987 0 -0.23385975453729951 -0.05448316257834377 0 -0.23195090370150159 -0.044148728843497582 0 -0.2440152745910836 -0.048529918810766987 0 -0.2440152745910836 -0.048529918810766987 0 -0.2460442741291925 -0.056732515276429897 0 -0.25586239660102372 -0.042106716883949957 0 -0.21993326537292579 -0.016570742696256829 0 -0.2409228609234593 -0.01213331886889705 0 -0.22850437187820721 0.00061554774341724197 0 -0.21993326537292579 -0.016570742696256829 0 -0.2330954250503823 -0.030605580137893669 0 -0.2409228609234593 -0.01213331886889705 0 -0.2111815313078087 -0.036308133086206937 0 -0.21993326537292579 -0.016570742696256829 0 -0.2330954250503823 -0.030605580137893669 0 -0.2330954250503823 -0.030605580137893669 0 -0.2409228609234593 -0.01213331886889705 0 -0.25210916638036568 -0.025659880210862549 0 -0.2409228609234593 -0.01213331886889705 0 -0.25132042997239518 0.0027134119798401068 0 -0.22850437187820721 0.00061554774341724197 0 -0.2409228609234593 -0.01213331886889705 0 -0.26431478179583978 -0.01186883573312463 0 -0.25132042997239518 0.0027134119798401068 0 -0.2409228609234593 -0.01213331886889705 0 -0.26431478179583978 -0.01186883573312463 0 -0.25210916638036568 -0.025659880210862549 0 -0.26431478179583978 -0.01186883573312463 0 -0.25210916638036568 -0.025659880210862549 0 -0.26885463380623098 -0.032431385670777198 0 -0.26431478179583978 -0.01186883573312463 0 -0.28272693982295583 -0.022072801118422261 0 -0.26885463380623098 -0.032431385670777198 0 -0.26431478179583978 -0.01186883573312463 0 -0.2820771903446922 -0.0013122005201030101 0 -0.28272693982295583 -0.022072801118422261 0 -0.26431478179583978 -0.01186883573312463 0 -0.2820771903446922 -0.0013122005201030101 0 -0.26646431581863778 0.01029557754540468 0 -0.2820771903446922 -0.0013122005201030101 0 -0.29531588189047731 -0.01459302740547606 0 -0.28272693982295583 -0.022072801118422261 0 -0.2820771903446922 -0.0013122005201030101 0 -0.29531588189047731 -0.01459302740547606 0 -0.30047775033007851 -0.00039401612408775783 0 -0.28272693982295583 -0.022072801118422261 0 -0.29548818451705972 -0.026431314805352931 0 -0.29006158744840338 -0.043009214960059237 0 -0.29531588189047731 -0.01459302740547606 0 -0.28272693982295583 -0.022072801118422261 0 -0.29548818451705972 -0.026431314805352931 0 -0.30546101391149699 -0.021623392358951481 0 -0.31536924438116293 -0.015921951660718081 0 -0.31269309410946189 -0.035953378537937578 0 -0.29531588189047731 -0.01459302740547606 0 -0.29548818451705972 -0.026431314805352931 0 -0.30546101391149699 -0.021623392358951481 0 -0.29548818451705972 -0.026431314805352931 0 -0.30546101391149699 -0.021623392358951481 0 -0.30306546886548719 -0.032455918975325043 0 -0.30546101391149699 -0.021623392358951481 0 -0.31269309410946189 -0.035953378537937578 0 -0.30546101391149699 -0.021623392358951481 0 -0.30306546886548719 -0.032455918975325043 0 -0.31269309410946189 -0.035953378537937578 0 -0.30546101391149699 -0.021623392358951481 0 -0.30702321298661528 -0.0098616365840560535 0 -0.31536924438116293 -0.015921951660718081 0 -0.30702321298661528 -0.0098616365840560535 0 -0.30047775033007851 -0.00039401612408775783 0 -0.31849217441985911 0.0032242046289520012 0 -0.29531588189047731 -0.01459302740547606 0 -0.30702321298661528 -0.0098616365840560535 0 -0.30047775033007851 -0.00039401612408775783 0 -0.29531588189047731 -0.01459302740547606 0 -0.30546101391149699 -0.021623392358951481 0 -0.30702321298661528 -0.0098616365840560535 0 -0.30785263576887473 -0.062005008750064983 0 -0.31269309410946189 -0.035953378537937578 0 -0.30785263576887473 -0.062005008750064983 0 -0.29006158744840338 -0.043009214960059237 0 -0.31269309410946189 -0.035953378537937578 0 -0.30306546886548719 -0.032455918975325043 0 -0.29006158744840338 -0.043009214960059237 0 -0.31269309410946189 -0.035953378537937578 0 -0.29006158744840338 -0.043009214960059237 0 -0.31269309410946189 -0.035953378537937578 0 -0.29548818451705972 -0.026431314805352931 0 -0.30306546886548719 -0.032455918975325043 0 -0.29006158744840338 -0.043009214960059237 0 -0.30785263576887473 -0.062005008750064983 0 -0.29006158744840338 -0.043009214960059237 0 -0.29043964680931811 -0.063340758069959313 0 -0.29006158744840338 -0.043009214960059237 0 -0.27571433008302992 -0.061323808156972907 0 -0.29043964680931811 -0.063340758069959313 0 -0.27571433008302992 -0.061323808156972907 0 -0.26805293078879788 -0.049870865118244581 0 -0.25908974683711639 -0.062912752445689821 0 -0.29006158744840338 -0.043009214960059237 0 -0.27571433008302992 -0.061323808156972907 0 -0.26805293078879788 -0.049870865118244581 0 -0.28272693982295583 -0.022072801118422261 0 -0.29006158744840338 -0.043009214960059237 0 -0.26885463380623098 -0.032431385670777198 0 -0.29006158744840338 -0.043009214960059237 0 -0.26805293078879788 -0.049870865118244581 0 -0.29006158744840338 -0.043009214960059237 0 -0.26805293078879788 -0.049870865118244581 0 -0.26885463380623098 -0.032431385670777198 0 -0.2440152745910836 -0.048529918810766987 0 -0.25210916638036568 -0.025659880210862549 0 -0.25586239660102372 -0.042106716883949957 0 -0.26805293078879788 -0.049870865118244581 0 -0.26885463380623098 -0.032431385670777198 0 -0.25586239660102372 -0.042106716883949957 0 -0.25210916638036568 -0.025659880210862549 0 -0.26885463380623098 -0.032431385670777198 0 -0.25586239660102372 -0.042106716883949957 0 -0.2460442741291925 -0.056732515276429897 0 -0.26805293078879788 -0.049870865118244581 0 -0.2460442741291925 -0.056732515276429897 0 -0.26805293078879788 -0.049870865118244581 0 -0.25908974683711639 -0.062912752445689821 0 -0.2460442741291925 -0.056732515276429897 0 -0.26805293078879788 -0.049870865118244581 0 -0.25586239660102372 -0.042106716883949957 0 -0.24621250417125429 -0.067242688607955695 0 -0.2460442741291925 -0.056732515276429897 0 -0.25908974683711639 -0.062912752445689821 0 -0.24621250417125429 -0.067242688607955695 0 -0.25908974683711639 -0.062912752445689821 0 -0.252754029676304 -0.071454636367457428 0 -0.24101683233652779 -0.07862751170581421 0 -0.252754029676304 -0.071454636367457428 0 -0.26402766811367417 -0.083484384069295273 0 -0.25908974683711639 -0.062912752445689821 0 -0.252754029676304 -0.071454636367457428 0 -0.26621243399467659 -0.070844567870559746 0 -0.252754029676304 -0.071454636367457428 0 -0.26402766811367417 -0.083484384069295273 0 -0.26621243399467659 -0.070844567870559746 0 -0.24101683233652779 -0.07862751170581421 0 -0.26402766811367417 -0.083484384069295273 0 -0.25454071313255938 -0.097810231909066098 0 -0.26402766811367417 -0.083484384069295273 0 -0.27094601368544552 -0.10060299140421709 0 -0.28369928052750421 -0.089996057638050242 0 -0.26402766811367417 -0.083484384069295273 0 -0.27947639526325851 -0.075047258313383283 0 -0.28369928052750421 -0.089996057638050242 0 -0.27571433008302992 -0.061323808156972907 0 -0.25908974683711639 -0.062912752445689821 0 -0.26621243399467659 -0.070844567870559746 0 -0.27571433008302992 -0.061323808156972907 0 -0.27947639526325851 -0.075047258313383283 0 -0.26621243399467659 -0.070844567870559746 0 -0.26402766811367417 -0.083484384069295273 0 -0.27947639526325851 -0.075047258313383283 0 -0.26621243399467659 -0.070844567870559746 0 -0.25700205454408459 -0.1228995308742117 0 -0.25028307647261949 -0.1119170655065333 0 -0.26806459392859111 -0.11699295211231781 0 -0.25700205454408459 -0.1228995308742117 0 -0.26806459392859111 -0.11699295211231781 0 -0.26633673802341562 -0.13121143084146969 0 -0.2466021228926524 -0.1215603100838341 0 -0.25700205454408459 -0.1228995308742117 0 -0.25028307647261949 -0.1119170655065333 0 -0.25454071313255938 -0.097810231909066098 0 -0.27094601368544552 -0.10060299140421709 0 -0.26806459392859111 -0.11699295211231781 0 -0.25028307647261949 -0.1119170655065333 0 -0.25454071313255938 -0.097810231909066098 0 -0.26806459392859111 -0.11699295211231781 0 -0.25454071313255938 -0.097810231909066098 0 -0.26806459392859111 -0.11699295211231781 0 -0.26402766811367417 -0.083484384069295273 0 -0.25454071313255938 -0.097810231909066098 0 -0.27094601368544552 -0.10060299140421709 0 -0.27094601368544552 -0.10060299140421709 0 -0.28498588272658609 -0.10953694176986691 0 -0.28369928052750421 -0.089996057638050242 0 -0.27094601368544552 -0.10060299140421709 0 -0.26806459392859111 -0.11699295211231781 0 -0.28498588272658609 -0.10953694176986691 0 -0.26806459392859111 -0.11699295211231781 0 -0.28498588272658609 -0.10953694176986691 0 -0.26633673802341562 -0.13121143084146969 0 -0.28498588272658609 -0.10953694176986691 0 -0.26633673802341562 -0.13121143084146969 0 -0.28390483366507108 -0.12795146285425149 0 -0.28498588272658609 -0.10953694176986691 0 -0.26633673802341562 -0.13121143084146969 0 -0.28498588272658609 -0.10953694176986691 0 -0.29939047470698632 -0.1138850881088251 0 -0.28390483366507108 -0.12795146285425149 0 -0.28498588272658609 -0.10953694176986691 0 -0.29939047470698632 -0.1138850881088251 0 -0.30363502742975002 -0.087862452698258112 0 -0.28498588272658609 -0.10953694176986691 0 -0.28369928052750421 -0.089996057638050242 0 -0.30363502742975002 -0.087862452698258112 0 -0.28498588272658609 -0.10953694176986691 0 -0.30363502742975002 -0.087862452698258112 0 -0.31112038415555038 -0.105912916312301 0 -0.30363502742975002 -0.087862452698258112 0 -0.31872509099925939 -0.09489525911115787 0 -0.29939047470698632 -0.1138850881088251 0 -0.30363502742975002 -0.087862452698258112 0 -0.31112038415555038 -0.105912916312301 0 -0.29939047470698632 -0.1138850881088251 0 -0.30363502742975002 -0.087862452698258112 0 -0.31112038415555038 -0.105912916312301 0 -0.29939047470698632 -0.1138850881088251 0 -0.3108150907057583 -0.123289039988229 0 -0.27571433008302992 -0.061323808156972907 0 -0.27947639526325851 -0.075047258313383283 0 -0.29043964680931811 -0.063340758069959313 0 -0.27947639526325851 -0.075047258313383283 0 -0.29326350469267087 -0.075637034816957854 0 -0.29043964680931811 -0.063340758069959313 0 -0.27947639526325851 -0.075047258313383283 0 -0.29326350469267087 -0.075637034816957854 0 -0.28369928052750421 -0.089996057638050242 0 -0.29326350469267087 -0.075637034816957854 0 -0.28369928052750421 -0.089996057638050242 0 -0.30363502742975002 -0.087862452698258112 0 -0.30363502742975002 -0.087862452698258112 0 -0.3147457864693044 -0.074949258596716542 0 -0.31872509099925939 -0.09489525911115787 0 -0.30363502742975002 -0.087862452698258112 0 -0.3147457864693044 -0.074949258596716542 0 -0.30785263576887473 -0.062005008750064983 0 -0.29326350469267087 -0.075637034816957854 0 -0.30363502742975002 -0.087862452698258112 0 -0.30785263576887473 -0.062005008750064983 0 -0.30363502742975002 -0.087862452698258112 0 -0.3147457864693044 -0.074949258596716542 0 -0.30785263576887473 -0.062005008750064983 0 -0.29326350469267087 -0.075637034816957854 0 -0.29043964680931811 -0.063340758069959313 0 -0.30785263576887473 -0.062005008750064983 0 -0.30363502742975002 -0.087862452698258112 0 -0.3147457864693044 -0.074949258596716542 0 -0.3258565455088529 -0.062036064495169851 0 -0.3147457864693044 -0.074949258596716542 0 -0.33306166037992252 -0.0763126202985034 0 -0.3258565455088529 -0.062036064495169851 0 -0.30785263576887473 -0.062005008750064983 0 -0.3147457864693044 -0.074949258596716542 0 -0.3258565455088529 -0.062036064495169851 0 -0.3147457864693044 -0.074949258596716542 0 -0.32890001459834822 -0.087516828956376788 0 -0.31872509099925939 -0.09489525911115787 0 -0.3147457864693044 -0.074949258596716542 0 -0.32890001459834822 -0.087516828956376788 0 -0.33306166037992252 -0.0763126202985034 0 -0.32890001459834822 -0.087516828956376788 0 -0.34026677525099192 -0.090589176101837157 0 -0.33306166037992252 -0.0763126202985034 0 -0.34026677525099192 -0.090589176101837157 0 -0.33306166037992252 -0.0763126202985034 0 -0.34026677525099192 -0.090589176101837157 0 -0.33306166037992252 -0.0763126202985034 0 -0.34512097989852569 -0.077376017677512551 0 -0.3363426704622316 -0.065040097883454634 0 -0.33306166037992252 -0.0763126202985034 0 -0.34512097989852569 -0.077376017677512551 0 -0.3363426704622316 -0.065040097883454634 0 -0.34775082305034588 -0.06364522302323769 0 -0.34512097989852569 -0.077376017677512551 0 -0.33306166037992252 -0.0763126202985034 0 -0.3258565455088529 -0.062036064495169851 0 -0.3363426704622316 -0.065040097883454634 0 -0.33306166037992252 -0.0763126202985034 0 -0.3258565455088529 -0.062036064495169851 0 -0.31112038415555038 -0.105912916312301 0 -0.3108150907057583 -0.123289039988229 0 -0.32269556115348802 -0.1134475374517785 0 -0.32269556115348802 -0.1134475374517785 0 -0.33213803149032362 -0.1206207689722909 0 -0.32288905220234743 -0.1288405143651869 0 -0.3108150907057583 -0.123289039988229 0 -0.32269556115348802 -0.1134475374517785 0 -0.32288905220234743 -0.1288405143651869 0 -0.32269556115348802 -0.1134475374517785 0 -0.31872509099925939 -0.09489525911115787 0 -0.33360553934550968 -0.1041906416325506 0 -0.31112038415555038 -0.105912916312301 0 -0.32269556115348802 -0.1134475374517785 0 -0.31872509099925939 -0.09489525911115787 0 -0.32890001459834822 -0.087516828956376788 0 -0.31872509099925939 -0.09489525911115787 0 -0.33360553934550968 -0.1041906416325506 0 -0.3434725512788051 -0.1026137903417853 0 -0.33360553934550968 -0.1041906416325506 0 -0.3466874303271234 -0.11958926053505441 0 -0.32890001459834822 -0.087516828956376788 0 -0.34026677525099192 -0.090589176101837157 0 -0.33360553934550968 -0.1041906416325506 0 -0.34026677525099192 -0.090589176101837157 0 -0.3434725512788051 -0.1026137903417853 0 -0.33360553934550968 -0.1041906416325506 0 -0.33360553934550968 -0.1041906416325506 0 -0.33213803149032362 -0.1206207689722909 0 -0.3466874303271234 -0.11958926053505441 0 -0.32269556115348802 -0.1134475374517785 0 -0.33360553934550968 -0.1041906416325506 0 -0.33213803149032362 -0.1206207689722909 0 -0.3466874303271234 -0.11958926053505441 0 -0.36980343247362518 -0.1100922289949047 0 -0.35999293180258313 -0.1258522389537349 0 -0.3466874303271234 -0.11958926053505441 0 -0.35333046019159542 -0.096086083097699004 0 -0.36980343247362518 -0.1100922289949047 0 -0.3434725512788051 -0.1026137903417853 0 -0.3466874303271234 -0.11958926053505441 0 -0.35333046019159542 -0.096086083097699004 0 -0.3466874303271234 -0.11958926053505441 0 -0.35333046019159542 -0.096086083097699004 0 -0.34026677525099192 -0.090589176101837157 0 -0.3434725512788051 -0.1026137903417853 0 -0.35333046019159542 -0.096086083097699004 0 -0.35333046019159542 -0.096086083097699004 0 -0.36980343247362518 -0.1100922289949047 0 -0.37347114863240299 -0.089088331268139143 0 -0.36980343247362518 -0.1100922289949047 0 -0.35999293180258313 -0.1258522389537349 0 -0.37152802352755399 -0.13164580699010159 0 -0.36980343247362518 -0.1100922289949047 0 -0.37152802352755399 -0.13164580699010159 0 -0.38235470820745771 -0.123978498660336 0 -0.34775082305034588 -0.06364522302323769 0 -0.35997349005606738 -0.07258290566034345 0 -0.36099236519079719 -0.058965157594587259 0 -0.34775082305034588 -0.06364522302323769 0 -0.34512097989852569 -0.077376017677512551 0 -0.35997349005606738 -0.07258290566034345 0 -0.35333046019159542 -0.096086083097699004 0 -0.35997349005606738 -0.07258290566034345 0 -0.35333046019159542 -0.096086083097699004 0 -0.34512097989852569 -0.077376017677512551 0 -0.35997349005606738 -0.07258290566034345 0 -0.34026677525099192 -0.090589176101837157 0 -0.35333046019159542 -0.096086083097699004 0 -0.34512097989852569 -0.077376017677512551 0 -0.35333046019159542 -0.096086083097699004 0 -0.37347114863240299 -0.089088331268139143 0 -0.35997349005606738 -0.07258290566034345 0 -0.37347114863240299 -0.089088331268139143 0 -0.35997349005606738 -0.07258290566034345 0 -0.37513495807632252 -0.068027960422620465 0 -0.35997349005606738 -0.07258290566034345 0 -0.36099236519079719 -0.058965157594587259 0 -0.37513495807632252 -0.068027960422620465 0 -0.37357085562444819 -0.050327950541553881 0 -0.36099236519079719 -0.058965157594587259 0 -0.37513495807632252 -0.068027960422620465 0 -0.37357085562444819 -0.050327950541553881 0 -0.36080282922430701 -0.047544586661118063 0 -0.36099236519079719 -0.058965157594587259 0 -0.34775082305034588 -0.06364522302323769 0 -0.36099236519079719 -0.058965157594587259 0 -0.34872123511329239 -0.051662319258650009 0 -0.36080282922430701 -0.047544586661118063 0 -0.36099236519079719 -0.058965157594587259 0 -0.34872123511329239 -0.051662319258650009 0 -0.34775082305034588 -0.06364522302323769 0 -0.34872123511329239 -0.051662319258650009 0 -0.33906118872719399 -0.055758100993783748 0 -0.35023980363822049 -0.040197400203048239 0 -0.3638826905141766 -0.035463803005797899 0 -0.34258176142245139 -0.029723406047678591 0 -0.35023980363822049 -0.040197400203048239 0 -0.34258176142245139 -0.029723406047678591 0 -0.35023980363822049 -0.040197400203048239 0 -0.34258176142245139 -0.029723406047678591 0 -0.33960488145915169 -0.038902248398748569 0 -0.34872123511329239 -0.051662319258650009 0 -0.35023980363822049 -0.040197400203048239 0 -0.33950963895876157 -0.046563850177851397 0 -0.36080282922430701 -0.047544586661118063 0 -0.35023980363822049 -0.040197400203048239 0 -0.3638826905141766 -0.035463803005797899 0 -0.36080282922430701 -0.047544586661118063 0 -0.34872123511329239 -0.051662319258650009 0 -0.35023980363822049 -0.040197400203048239 0 -0.37357085562444819 -0.050327950541553881 0 -0.3638826905141766 -0.035463803005797899 0 -0.38712728366555788 -0.02974425569958293 0 -0.37357085562444819 -0.050327950541553881 0 -0.36080282922430701 -0.047544586661118063 0 -0.3638826905141766 -0.035463803005797899 0 -0.3638826905141766 -0.035463803005797899 0 -0.36897360951007507 -0.015245218881805699 0 -0.38712728366555788 -0.02974425569958293 0 -0.36897360951007507 -0.015245218881805699 0 -0.38465333842141641 -0.0066435457767305304 0 -0.36979036210562988 0.0025511841975563729 0 -0.36897360951007507 -0.015245218881805699 0 -0.35319748844548088 -0.0026450940697062141 0 -0.36979036210562988 0.0025511841975563729 0 -0.36897360951007507 -0.015245218881805699 0 -0.35319748844548088 -0.0026450940697062141 0 -0.36897360951007507 -0.015245218881805699 0 -0.35319748844548088 -0.0026450940697062141 0 -0.34557514790129729 -0.01385186480739395 0 -0.35319748844548088 -0.0026450940697062141 0 -0.34557514790129729 -0.01385186480739395 0 -0.33742136738088668 0.0099550307423931228 0 -0.36897360951007507 -0.015245218881805699 0 -0.34557514790129729 -0.01385186480739395 0 -0.34258176142245139 -0.029723406047678591 0 -0.3638826905141766 -0.035463803005797899 0 -0.36897360951007507 -0.015245218881805699 0 -0.34258176142245139 -0.029723406047678591 0 -0.36897360951007507 -0.015245218881805699 0 -0.34258176142245139 -0.029723406047678591 0 -0.34258176142245139 -0.029723406047678591 0 -0.33053696792115572 -0.013249600709362951 0 -0.34557514790129729 -0.01385186480739395 0 -0.34258176142245139 -0.029723406047678591 0 -0.33053696792115572 -0.013249600709362951 0 -0.34258176142245139 -0.029723406047678591 0 -0.33123792958382192 -0.02655418191443467 0 -0.33053696792115572 -0.013249600709362951 0 -0.33123792958382192 -0.02655418191443467 0 -0.33053696792115572 -0.013249600709362951 0 -0.32518110448499649 -0.02265309324021984 0 -0.33123792958382192 -0.02655418191443467 0 -0.32494971957893121 -0.032132124138264453 0 -0.33294009451157502 -0.035012685436647553 0 -0.34258176142245139 -0.029723406047678591 0 -0.33123792958382192 -0.02655418191443467 0 -0.33294009451157502 -0.035012685436647553 0 -0.33053696792115572 -0.013249600709362951 0 -0.31849217441985911 0.0032242046289520012 0 -0.33742136738088668 0.0099550307423931228 0 -0.34557514790129729 -0.01385186480739395 0 -0.33053696792115572 -0.013249600709362951 0 -0.33742136738088668 0.0099550307423931228 0 -0.30702321298661528 -0.0098616365840560535 0 -0.31536924438116293 -0.015921951660718081 0 -0.31849217441985911 0.0032242046289520012 0 -0.31536924438116293 -0.015921951660718081 0 -0.31849217441985911 0.0032242046289520012 0 -0.33053696792115572 -0.013249600709362951 0 -0.31849217441985911 0.0032242046289520012 0 -0.33053696792115572 -0.013249600709362951 0 -0.31536924438116293 -0.015921951660718081 0 -0.31849217441985911 0.0032242046289520012 0 -0.31536924438116293 -0.015921951660718081 0 -0.31269309410946189 -0.035953378537937578 0 -0.31536924438116293 -0.015921951660718081 0 -0.3196636581113782 -0.026330909640423061 0 -0.31269309410946189 -0.035953378537937578 0 -0.33123792958382192 -0.02655418191443467 0 -0.32518110448499649 -0.02265309324021984 0 -0.32494971957893121 -0.032132124138264453 0 -0.32518110448499649 -0.02265309324021984 0 -0.3196636581113782 -0.026330909640423061 0 -0.32494971957893121 -0.032132124138264453 0 -0.33053696792115572 -0.013249600709362951 0 -0.32518110448499649 -0.02265309324021984 0 -0.31536924438116293 -0.015921951660718081 0 -0.32518110448499649 -0.02265309324021984 0 -0.31536924438116293 -0.015921951660718081 0 -0.3196636581113782 -0.026330909640423061 0 -0.31269309410946189 -0.035953378537937578 0 -0.32494971957893121 -0.032132124138264453 0 -0.3196636581113782 -0.026330909640423061 0 -0.31269309410946189 -0.035953378537937578 0 -0.32494971957893121 -0.032132124138264453 0 -0.32589239144387999 -0.038804272667940308 0 -0.32494971957893121 -0.032132124138264453 0 -0.33294009451157502 -0.035012685436647553 0 -0.31269309410946189 -0.035953378537937578 0 -0.32589239144387999 -0.038804272667940308 0 -0.32494971957893121 -0.032132124138264453 0 -0.31269309410946189 -0.035953378537937578 0 -0.32589239144387999 -0.038804272667940308 0 -0.32612594025468172 -0.0479092750983348 0 -0.31269309410946189 -0.035953378537937578 0 -0.3258565455088529 -0.062036064495169851 0 -0.32612594025468172 -0.0479092750983348 0 -0.30785263576887473 -0.062005008750064983 0 -0.31269309410946189 -0.035953378537937578 0 -0.3258565455088529 -0.062036064495169851 0 -0.31269309410946189 -0.035953378537937578 0 -0.3258565455088529 -0.062036064495169851 0 -0.3258565455088529 -0.062036064495169851 0 -0.32612594025468172 -0.0479092750983348 0 -0.32948021068586231 -0.057824552786275359 0 -0.3258565455088529 -0.062036064495169851 0 -0.32948021068586231 -0.057824552786275359 0 -0.33273312926745618 -0.050000536382928867 0 -0.32948021068586231 -0.057824552786275359 0 -0.33906118872719399 -0.055758100993783748 0 -0.32612594025468172 -0.0479092750983348 0 -0.33273312926745618 -0.050000536382928867 0 -0.32948021068586231 -0.057824552786275359 0 -0.32612594025468172 -0.0479092750983348 0 -0.33273312926745618 -0.050000536382928867 0 -0.33275310876475001 -0.043013900128517107 0 -0.3363426704622316 -0.065040097883454634 0 -0.32948021068586231 -0.057824552786275359 0 -0.33906118872719399 -0.055758100993783748 0 -0.3363426704622316 -0.065040097883454634 0 -0.3258565455088529 -0.062036064495169851 0 -0.32948021068586231 -0.057824552786275359 0 -0.3363426704622316 -0.065040097883454634 0 -0.34775082305034588 -0.06364522302323769 0 -0.33906118872719399 -0.055758100993783748 0 -0.34872123511329239 -0.051662319258650009 0 -0.33906118872719399 -0.055758100993783748 0 -0.33950963895876157 -0.046563850177851397 0 -0.33273312926745618 -0.050000536382928867 0 -0.33906118872719399 -0.055758100993783748 0 -0.33950963895876157 -0.046563850177851397 0 -0.35023980363822049 -0.040197400203048239 0 -0.33950963895876157 -0.046563850177851397 0 -0.33960488145915169 -0.038902248398748569 0 -0.33950963895876157 -0.046563850177851397 0 -0.33960488145915169 -0.038902248398748569 0 -0.33275310876475001 -0.043013900128517107 0 -0.34258176142245139 -0.029723406047678591 0 -0.33294009451157502 -0.035012685436647553 0 -0.34258176142245139 -0.029723406047678591 0 -0.33960488145915169 -0.038902248398748569 0 -0.33294009451157502 -0.035012685436647553 0 -0.32589239144387999 -0.038804272667940308 0 -0.33294009451157502 -0.035012685436647553 0 -0.33275310876475001 -0.043013900128517107 0 -0.33960488145915169 -0.038902248398748569 0 -0.33294009451157502 -0.035012685436647553 0 -0.33275310876475001 -0.043013900128517107 0 -0.32589239144387999 -0.038804272667940308 0 -0.32612594025468172 -0.0479092750983348 0 -0.33275310876475001 -0.043013900128517107 0 -0.33273312926745618 -0.050000536382928867 0 -0.33950963895876157 -0.046563850177851397 0 -0.33275310876475001 -0.043013900128517107 0 -0.3072444938386063 -0.24298546540808871 0 -0.29465074886808879 -0.2402547820199166 0 -0.31547147842988582 -0.2330670094454039 0 -0.29465074886808879 -0.2402547820199166 0 -0.31547147842988582 -0.2330670094454039 0 -0.31283906540333922 -0.25031215033235238 0 -0.3072444938386063 -0.24298546540808871 0 -0.31547147842988582 -0.2330670094454039 0 -0.29948497002523827 -0.2483657822867901 0 -0.3072444938386063 -0.24298546540808871 0 -0.29465074886808879 -0.2402547820199166 0 -0.29948497002523827 -0.2483657822867901 0 -0.3072444938386063 -0.24298546540808871 0 -0.30623861516307299 -0.24935013043731349 0 -0.31283906540333922 -0.25031215033235238 0 -0.3072444938386063 -0.24298546540808871 0 -0.30623861516307299 -0.24935013043731349 0 -0.30340245666429422 -0.2199120115188499 0 -0.29465074886808879 -0.2402547820199166 0 -0.31547147842988582 -0.2330670094454039 0 -0.30340245666429422 -0.2199120115188499 0 -0.31790591229007997 -0.21133065133653661 0 -0.31547147842988582 -0.2330670094454039 0 -0.30340245666429422 -0.2199120115188499 0 -0.29465074886808879 -0.2402547820199166 0 -0.28241226381596191 -0.21797562975109799 0 -0.29465074886808879 -0.2402547820199166 0 -0.27816771109320582 -0.2439982651616662 0 -0.28241226381596191 -0.21797562975109799 0 -0.29465074886808879 -0.2402547820199166 0 -0.27383001930629169 -0.24744255459442921 0 -0.28942662192718172 -0.25357945894426132 0 -0.29465074886808879 -0.2402547820199166 0 -0.27383001930629169 -0.24744255459442921 0 -0.29465074886808879 -0.2402547820199166 0 -0.27816771109320582 -0.2439982651616662 0 -0.27383001930629169 -0.24744255459442921 0 -0.28942662192718172 -0.25357945894426132 0 -0.29948497002523827 -0.2483657822867901 0 -0.29465074886808879 -0.2402547820199166 0 -0.27816771109320582 -0.2439982651616662 0 -0.27383001930629169 -0.24744255459442921 0 -0.26926560585898118 -0.2360615599669478 0 -0.27383001930629169 -0.24744255459442921 0 -0.26926560585898118 -0.2360615599669478 0 -0.25855016474293108 -0.24143028331881861 0 -0.27383001930629169 -0.24744255459442921 0 -0.25855016474293108 -0.24143028331881861 0 -0.2565674865322034 -0.25340195958415102 0 -0.27383001930629169 -0.24744255459442921 0 -0.25855016474293108 -0.24143028331881861 0 -0.26926560585898118 -0.2360615599669478 0 -0.25855016474293108 -0.24143028331881861 0 -0.25588924886857078 -0.22577026586403889 0 -0.24327031017957049 -0.23541801204320789 0 -0.25855016474293108 -0.24143028331881861 0 -0.24327031017957049 -0.23541801204320789 0 -0.25855016474293108 -0.24143028331881861 0 -0.25018128361314113 -0.24746468840205441 0 -0.2565674865322034 -0.25340195958415102 0 -0.25855016474293108 -0.24143028331881861 0 -0.25018128361314113 -0.24746468840205441 0 -0.24327031017957049 -0.23541801204320789 0 -0.25855016474293108 -0.24143028331881861 0 -0.25588924886857078 -0.22577026586403889 0 -0.26926560585898118 -0.2360615599669478 0 -0.25588924886857078 -0.22577026586403889 0 -0.26783798195298542 -0.22189041659364681 0 -0.27816771109320582 -0.2439982651616662 0 -0.26926560585898118 -0.2360615599669478 0 -0.28241226381596191 -0.21797562975109799 0 -0.26926560585898118 -0.2360615599669478 0 -0.26783798195298542 -0.22189041659364681 0 -0.28241226381596191 -0.21797562975109799 0 -0.27816771109320582 -0.2439982651616662 0 -0.28241226381596191 -0.21797562975109799 0 -0.26378480926842768 -0.2077542107925027 0 -0.286656816538718 -0.19195299434052959 0 -0.28241226381596191 -0.21797562975109799 0 -0.26783798195298542 -0.22189041659364681 0 -0.26378480926842768 -0.2077542107925027 0 -0.28241226381596191 -0.21797562975109799 0 -0.25588924886857078 -0.22577026586403889 0 -0.26783798195298542 -0.22189041659364681 0 -0.26378480926842768 -0.2077542107925027 0 -0.2448317244682672 -0.19494017856122331 0 -0.24405101732391901 -0.2151790953022156 0 -0.26378480926842768 -0.2077542107925027 0 -0.24405101732391901 -0.2151790953022156 0 -0.25588924886857078 -0.22577026586403889 0 -0.26378480926842768 -0.2077542107925027 0 -0.2448317244682672 -0.19494017856122331 0 -0.26378480926842768 -0.2077542107925027 0 -0.26312512204060101 -0.18530650416748581 0 -0.26378480926842768 -0.2077542107925027 0 -0.286656816538718 -0.19195299434052959 0 -0.26312512204060101 -0.18530650416748581 0 -0.286656816538718 -0.19195299434052959 0 -0.28241226381596191 -0.21797562975109799 0 -0.30591086076688379 -0.19847336016990141 0 -0.286656816538718 -0.19195299434052959 0 -0.28241226381596191 -0.21797562975109799 0 -0.30340245666429422 -0.2199120115188499 0 -0.28241226381596191 -0.21797562975109799 0 -0.30591086076688379 -0.19847336016990141 0 -0.30340245666429422 -0.2199120115188499 0 -0.30591086076688379 -0.19847336016990141 0 -0.31790591229007997 -0.21133065133653661 0 -0.286656816538718 -0.19195299434052959 0 -0.30591086076688379 -0.19847336016990141 0 -0.31180552805921091 -0.17430838359622669 0 -0.31180552805921091 -0.17430838359622669 0 -0.29090136926147409 -0.16593035892996141 0 -0.30878195228896921 -0.15303576335633209 0 -0.286656816538718 -0.19195299434052959 0 -0.29090136926147409 -0.16593035892996141 0 -0.286656816538718 -0.19195299434052959 0 -0.31180552805921091 -0.17430838359622669 0 -0.29090136926147409 -0.16593035892996141 0 -0.286656816538718 -0.19195299434052959 0 -0.29090136926147409 -0.16593035892996141 0 -0.27584707269233227 -0.1739466899300364 0 -0.27584707269233227 -0.1739466899300364 0 -0.26312512204060101 -0.18530650416748581 0 -0.26138401805284373 -0.16490714025156239 0 -0.286656816538718 -0.19195299434052959 0 -0.27584707269233227 -0.1739466899300364 0 -0.26312512204060101 -0.18530650416748581 0 -0.2448317244682672 -0.19494017856122331 0 -0.24561243161261531 -0.1747012618202311 0 -0.26312512204060101 -0.18530650416748581 0 -0.24561243161261531 -0.1747012618202311 0 -0.26312512204060101 -0.18530650416748581 0 -0.26138401805284373 -0.16490714025156239 0 -0.27584707269233227 -0.1739466899300364 0 -0.26138401805284373 -0.16490714025156239 0 -0.27641132505293098 -0.14990407015019561 0 -0.29090136926147409 -0.16593035892996141 0 -0.27584707269233227 -0.1739466899300364 0 -0.27641132505293098 -0.14990407015019561 0 -0.27641132505293098 -0.14990407015019561 0 -0.26295491861235881 -0.14972714028907499 0 -0.26633673802341562 -0.13121143084146969 0 -0.26138401805284373 -0.16490714025156239 0 -0.27641132505293098 -0.14990407015019561 0 -0.26295491861235881 -0.14972714028907499 0 -0.24768759332024501 -0.15288591991307249 0 -0.26633673802341562 -0.13121143084146969 0 -0.24768759332024501 -0.15288591991307249 0 -0.26295491861235881 -0.14972714028907499 0 -0.26633673802341562 -0.13121143084146969 0 -0.24768759332024501 -0.15288591991307249 0 -0.26138401805284373 -0.16490714025156239 0 -0.26295491861235881 -0.14972714028907499 0 -0.25700205454408459 -0.1228995308742117 0 -0.25066558347885931 -0.13251764995053431 0 -0.26633673802341562 -0.13121143084146969 0 -0.24768759332024501 -0.15288591991307249 0 -0.25066558347885931 -0.13251764995053431 0 -0.26633673802341562 -0.13121143084146969 0 -0.2466021228926524 -0.1215603100838341 0 -0.25700205454408459 -0.1228995308742117 0 -0.25066558347885931 -0.13251764995053431 0 -0.27641132505293098 -0.14990407015019561 0 -0.26633673802341562 -0.13121143084146969 0 -0.28390483366507108 -0.12795146285425149 0 -0.27641132505293098 -0.14990407015019561 0 -0.29514592198423018 -0.13990772351939329 0 -0.28390483366507108 -0.12795146285425149 0 -0.29939047470698632 -0.1138850881088251 0 -0.29514592198423018 -0.13990772351939329 0 -0.28390483366507108 -0.12795146285425149 0 -0.29090136926147409 -0.16593035892996141 0 -0.27641132505293098 -0.14990407015019561 0 -0.29514592198423018 -0.13990772351939329 0 -0.29090136926147409 -0.16593035892996141 0 -0.29514592198423018 -0.13990772351939329 0 -0.29514592198423018 -0.13990772351939329 0 -0.30878195228896921 -0.15303576335633209 0 -0.31204687939749698 -0.1371714365216575 0 -0.29090136926147409 -0.16593035892996141 0 -0.29514592198423018 -0.13990772351939329 0 -0.30878195228896921 -0.15303576335633209 0 -0.3108150907057583 -0.123289039988229 0 -0.29514592198423018 -0.13990772351939329 0 -0.31204687939749698 -0.1371714365216575 0 -0.29939047470698632 -0.1138850881088251 0 -0.3108150907057583 -0.123289039988229 0 -0.29514592198423018 -0.13990772351939329 0 -0.29939047470698632 -0.1138850881088251 0 -0.29514592198423018 -0.13990772351939329 0 -0.32288905220234743 -0.1288405143651869 0 -0.32258299715563782 -0.14068177926995709 0 -0.33321030378869931 -0.13646686722665249 0 -0.3108150907057583 -0.123289039988229 0 -0.31204687939749698 -0.1371714365216575 0 -0.32288905220234743 -0.1288405143651869 0 -0.31204687939749698 -0.1371714365216575 0 -0.32288905220234743 -0.1288405143651869 0 -0.32258299715563782 -0.14068177926995709 0 -0.30878195228896921 -0.15303576335633209 0 -0.32482557091518699 -0.15217937608711771 0 -0.32258299715563782 -0.14068177926995709 0 -0.30878195228896921 -0.15303576335633209 0 -0.31204687939749698 -0.1371714365216575 0 -0.32258299715563782 -0.14068177926995709 0 -0.32482557091518699 -0.15217937608711771 0 -0.32258299715563782 -0.14068177926995709 0 -0.33321030378869931 -0.13646686722665249 0 -0.32482557091518699 -0.15217937608711771 0 -0.34004440046265172 -0.14309243797241011 0 -0.33321030378869931 -0.13646686722665249 0 -0.34004440046265172 -0.14309243797241011 0 -0.35498504575946821 -0.15757720561970059 0 -0.3332048416520596 -0.1672909388971599 0 -0.34004440046265172 -0.14309243797241011 0 -0.3332048416520596 -0.1672909388971599 0 -0.32482557091518699 -0.15217937608711771 0 -0.34004440046265172 -0.14309243797241011 0 -0.3332048416520596 -0.1672909388971599 0 -0.3466874303271234 -0.11958926053505441 0 -0.34004440046265172 -0.14309243797241011 0 -0.33213803149032362 -0.1206207689722909 0 -0.32288905220234743 -0.1288405143651869 0 -0.33321030378869931 -0.13646686722665249 0 -0.33213803149032362 -0.1206207689722909 0 -0.3466874303271234 -0.11958926053505441 0 -0.33321030378869931 -0.13646686722665249 0 -0.3466874303271234 -0.11958926053505441 0 -0.34004440046265172 -0.14309243797241011 0 -0.33321030378869931 -0.13646686722665249 0 -0.34004440046265172 -0.14309243797241011 0 -0.33321030378869931 -0.13646686722665249 0 -0.3466874303271234 -0.11958926053505441 0 -0.35676717686891291 -0.14006723761877321 0 -0.35999293180258313 -0.1258522389537349 0 -0.3466874303271234 -0.11958926053505441 0 -0.34004440046265172 -0.14309243797241011 0 -0.35676717686891291 -0.14006723761877321 0 -0.35676717686891291 -0.14006723761877321 0 -0.37152802352755399 -0.13164580699010159 0 -0.37069541475874412 -0.1487336244607225 0 -0.35676717686891291 -0.14006723761877321 0 -0.35999293180258313 -0.1258522389537349 0 -0.37152802352755399 -0.13164580699010159 0 -0.35676717686891291 -0.14006723761877321 0 -0.37069541475874412 -0.1487336244607225 0 -0.35498504575946821 -0.15757720561970059 0 -0.37069541475874412 -0.1487336244607225 0 -0.35498504575946821 -0.15757720561970059 0 -0.37692746124962329 -0.16011968929401549 0 -0.37152802352755399 -0.13164580699010159 0 -0.37069541475874412 -0.1487336244607225 0 -0.38190833683646341 -0.1417380771930716 0 -0.34004440046265172 -0.14309243797241011 0 -0.35676717686891291 -0.14006723761877321 0 -0.35498504575946821 -0.15757720561970059 0 -0.34004440046265172 -0.14309243797241011 0 -0.35498504575946821 -0.15757720561970059 0 -0.35102499454429859 -0.17065527247529391 0 -0.35498504575946821 -0.15757720561970059 0 -0.36992569105628492 -0.1720619732669908 0 -0.35102499454429859 -0.17065527247529391 0 -0.35498504575946821 -0.15757720561970059 0 -0.3332048416520596 -0.1672909388971599 0 -0.35498504575946821 -0.15757720561970059 0 -0.36992569105628492 -0.1720619732669908 0 -0.37692746124962329 -0.16011968929401549 0 -0.35498504575946821 -0.15757720561970059 0 -0.36992569105628492 -0.1720619732669908 0 -0.36802329911298681 -0.18587483615006681 0 -0.36992569105628492 -0.1720619732669908 0 -0.38452179946839471 -0.1862127167391712 0 -0.36802329911298681 -0.18587483615006681 0 -0.36992569105628492 -0.1720619732669908 0 -0.34598439970938172 -0.18569097211732419 0 -0.35102499454429859 -0.17065527247529391 0 -0.36992569105628492 -0.1720619732669908 0 -0.34598439970938172 -0.18569097211732419 0 -0.36992569105628492 -0.1720619732669908 0 -0.34598439970938172 -0.18569097211732419 0 -0.35102499454429859 -0.17065527247529391 0 -0.34598439970938172 -0.18569097211732419 0 -0.3332048416520596 -0.1672909388971599 0 -0.34598439970938172 -0.18569097211732419 0 -0.3332048416520596 -0.1672909388971599 0 -0.32636528284146782 -0.19148943982190991 0 -0.3332048416520596 -0.1672909388971599 0 -0.32636528284146782 -0.19148943982190991 0 -0.31180552805921091 -0.17430838359622669 0 -0.32482557091518699 -0.15217937608711771 0 -0.3332048416520596 -0.1672909388971599 0 -0.31180552805921091 -0.17430838359622669 0 -0.30878195228896921 -0.15303576335633209 0 -0.32482557091518699 -0.15217937608711771 0 -0.31180552805921091 -0.17430838359622669 0 -0.3332048416520596 -0.1672909388971599 0 -0.32636528284146782 -0.19148943982190991 0 -0.30591086076688379 -0.19847336016990141 0 -0.32636528284146782 -0.19148943982190991 0 -0.31790591229007997 -0.21133065133653661 0 -0.30591086076688379 -0.19847336016990141 0 -0.31180552805921091 -0.17430838359622669 0 -0.32636528284146782 -0.19148943982190991 0 -0.32636528284146782 -0.19148943982190991 0 -0.31790591229007997 -0.21133065133653661 0 -0.33039187961118982 -0.20742389982875531 0 -0.31790591229007997 -0.21133065133653661 0 -0.33039187961118982 -0.20742389982875531 0 -0.32870803705144969 -0.21844997174213321 0 -0.33039187961118982 -0.20742389982875531 0 -0.32870803705144969 -0.21844997174213321 0 -0.33850246058748812 -0.21389845468103499 0 -0.32870803705144969 -0.21844997174213321 0 -0.33850246058748812 -0.21389845468103499 0 -0.33596699493009807 -0.21993263715474329 0 -0.33850246058748812 -0.21389845468103499 0 -0.34687159193856038 -0.2183762197826761 0 -0.3403652740897718 -0.22150288532491411 0 -0.33850246058748812 -0.21389845468103499 0 -0.3403652740897718 -0.22150288532491411 0 -0.33596699493009807 -0.21993263715474329 0 -0.33039187961118982 -0.20742389982875531 0 -0.33850246058748812 -0.21389845468103499 0 -0.34047770528546362 -0.2019509815621614 0 -0.33850246058748812 -0.21389845468103499 0 -0.34047770528546362 -0.2019509815621614 0 -0.34737571748628571 -0.2101963969508848 0 -0.34598439970938172 -0.18569097211732419 0 -0.32636528284146782 -0.19148943982190991 0 -0.34047770528546362 -0.2019509815621614 0 -0.32636528284146782 -0.19148943982190991 0 -0.33039187961118982 -0.20742389982875531 0 -0.34047770528546362 -0.2019509815621614 0 -0.34598439970938172 -0.18569097211732419 0 -0.35303310702934909 -0.20231631441727971 0 -0.36343771537771569 -0.19566750525459251 0 -0.34598439970938172 -0.18569097211732419 0 -0.34047770528546362 -0.2019509815621614 0 -0.35303310702934909 -0.20231631441727971 0 -0.36802329911298681 -0.18587483615006681 0 -0.34598439970938172 -0.18569097211732419 0 -0.36343771537771569 -0.19566750525459251 0 -0.35303310702934909 -0.20231631441727971 0 -0.36343771537771569 -0.19566750525459251 0 -0.36388592792924168 -0.20758305467352059 0 -0.36343771537771569 -0.19566750525459251 0 -0.37301156641091737 -0.20337184000283479 0 -0.36388592792924168 -0.20758305467352059 0 -0.36343771537771569 -0.19566750525459251 0 -0.37438048369549509 -0.19384422148204511 0 -0.37301156641091737 -0.20337184000283479 0 -0.36802329911298681 -0.18587483615006681 0 -0.36343771537771569 -0.19566750525459251 0 -0.37438048369549509 -0.19384422148204511 0 -0.37273312771996808 -0.21396345107145709 0 -0.37301156641091737 -0.20337184000283479 0 -0.36388592792924168 -0.20758305467352059 0 -0.37273312771996808 -0.21396345107145709 0 -0.36388592792924168 -0.20758305467352059 0 -0.36460053442081081 -0.21946742083422599 0 -0.36388592792924168 -0.20758305467352059 0 -0.35626724818121019 -0.21440977701126371 0 -0.36460053442081081 -0.21946742083422599 0 -0.35626724818121019 -0.21440977701126371 0 -0.34687159193856038 -0.2183762197826761 0 -0.35361393690670712 -0.22275298964725909 0 -0.35303310702934909 -0.20231631441727971 0 -0.36388592792924168 -0.20758305467352059 0 -0.35626724818121019 -0.21440977701126371 0 -0.35303310702934909 -0.20231631441727971 0 -0.35626724818121019 -0.21440977701126371 0 -0.34737571748628571 -0.2101963969508848 0 -0.34047770528546362 -0.2019509815621614 0 -0.35303310702934909 -0.20231631441727971 0 -0.34737571748628571 -0.2101963969508848 0 -0.33850246058748812 -0.21389845468103499 0 -0.34737571748628571 -0.2101963969508848 0 -0.34687159193856038 -0.2183762197826761 0 -0.35626724818121019 -0.21440977701126371 0 -0.34737571748628571 -0.2101963969508848 0 -0.34687159193856038 -0.2183762197826761 0 -0.34687159193856038 -0.2183762197826761 0 -0.3448729074691318 -0.22568858673477191 0 -0.3403652740897718 -0.22150288532491411 0 -0.34687159193856038 -0.2183762197826761 0 -0.3448729074691318 -0.22568858673477191 0 -0.35361393690670712 -0.22275298964725909 0 -0.3448729074691318 -0.22568858673477191 0 -0.35311939258201253 -0.23120947699362049 0 -0.35361393690670712 -0.22275298964725909 0 -0.3448729074691318 -0.22568858673477191 0 -0.35311939258201253 -0.23120947699362049 0 -0.3466300329275056 -0.23782645962689411 0 -0.35311939258201253 -0.23120947699362049 0 -0.35361393690670712 -0.22275298964725909 0 -0.36278739720748587 -0.22937453583313699 0 -0.35311939258201253 -0.23120947699362049 0 -0.36278739720748587 -0.22937453583313699 0 -0.35743223323550471 -0.2390192939344549 0 -0.35626724818121019 -0.21440977701126371 0 -0.35361393690670712 -0.22275298964725909 0 -0.36460053442081081 -0.21946742083422599 0 -0.36460053442081081 -0.21946742083422599 0 -0.36278739720748587 -0.22937453583313699 0 -0.37306962678156358 -0.22430756502184571 0 -0.35361393690670712 -0.22275298964725909 0 -0.36460053442081081 -0.21946742083422599 0 -0.36278739720748587 -0.22937453583313699 0 -0.36278739720748587 -0.22937453583313699 0 -0.37393716339703942 -0.23401667981853819 0 -0.37306962678156358 -0.22430756502184571 0 -0.36278739720748587 -0.22937453583313699 0 -0.37393716339703942 -0.23401667981853819 0 -0.36594725961251939 -0.23889039006825119 0 -0.37273312771996808 -0.21396345107145709 0 -0.36460053442081081 -0.21946742083422599 0 -0.37306962678156358 -0.22430756502184571 0 -0.37393540655460039 -0.25504906339868932 0 -0.37362469669529808 -0.24416340610428999 0 -0.363557814049559 -0.2486896754833777 0 -0.37362469669529808 -0.24416340610428999 0 -0.36594725961251939 -0.23889039006825119 0 -0.363557814049559 -0.2486896754833777 0 -0.37393716339703942 -0.23401667981853819 0 -0.37362469669529808 -0.24416340610428999 0 -0.36594725961251939 -0.23889039006825119 0 -0.36278739720748587 -0.22937453583313699 0 -0.36594725961251939 -0.23889039006825119 0 -0.35743223323550471 -0.2390192939344549 0 -0.36594725961251939 -0.23889039006825119 0 -0.363557814049559 -0.2486896754833777 0 -0.35743223323550471 -0.2390192939344549 0 -0.363557814049559 -0.2486896754833777 0 -0.35255150303394622 -0.24812522560144931 0 -0.35743223323550471 -0.2390192939344549 0 -0.35311939258201253 -0.23120947699362049 0 -0.35743223323550471 -0.2390192939344549 0 -0.3466300329275056 -0.23782645962689411 0 -0.35255150303394622 -0.24812522560144931 0 -0.35743223323550471 -0.2390192939344549 0 -0.3466300329275056 -0.23782645962689411 0 -0.35255150303394622 -0.24812522560144931 0 -0.3466300329275056 -0.23782645962689411 0 -0.3420777495351906 -0.24844208584564559 0 -0.33131030172746923 -0.25321851497678438 0 -0.33373364759712132 -0.2373308373461466 0 -0.32202724095639168 -0.2495658441092535 0 -0.33131030172746923 -0.25321851497678438 0 -0.33373364759712132 -0.2373308373461466 0 -0.33131030172746923 -0.25321851497678438 0 -0.3420777495351906 -0.24844208584564559 0 -0.33373364759712132 -0.2373308373461466 0 -0.3466300329275056 -0.23782645962689411 0 -0.3420777495351906 -0.24844208584564559 0 -0.33373364759712132 -0.2373308373461466 0 -0.3448729074691318 -0.22568858673477191 0 -0.33373364759712132 -0.2373308373461466 0 -0.33513500532203722 -0.22814340766163391 0 -0.3448729074691318 -0.22568858673477191 0 -0.33373364759712132 -0.2373308373461466 0 -0.3448729074691318 -0.22568858673477191 0 -0.3466300329275056 -0.23782645962689411 0 -0.33373364759712132 -0.2373308373461466 0 -0.3362922079916828 -0.22587923687089109 0 -0.33513500532203722 -0.22814340766163391 0 -0.31547147842988582 -0.2330670094454039 0 -0.3448729074691318 -0.22568858673477191 0 -0.3362922079916828 -0.22587923687089109 0 -0.33513500532203722 -0.22814340766163391 0 -0.3448729074691318 -0.22568858673477191 0 -0.3403652740897718 -0.22150288532491411 0 -0.3362922079916828 -0.22587923687089109 0 -0.3403652740897718 -0.22150288532491411 0 -0.3362922079916828 -0.22587923687089109 0 -0.33596699493009807 -0.21993263715474329 0 -0.32870803705144969 -0.21844997174213321 0 -0.3362922079916828 -0.22587923687089109 0 -0.33596699493009807 -0.21993263715474329 0 -0.33373364759712132 -0.2373308373461466 0 -0.33513500532203722 -0.22814340766163391 0 -0.31790591229007997 -0.21133065133653661 0 -0.32870803705144969 -0.21844997174213321 0 -0.31547147842988582 -0.2330670094454039 0 -0.3362922079916828 -0.22587923687089109 0 -0.31547147842988582 -0.2330670094454039 0 -0.32870803705144969 -0.21844997174213321 0 -0.3362922079916828 -0.22587923687089109 0 -0.31547147842988582 -0.2330670094454039 0 -0.33373364759712132 -0.2373308373461466 0 -0.33513500532203722 -0.22814340766163391 0 -0.31547147842988582 -0.2330670094454039 0 -0.33373364759712132 -0.2373308373461466 0 -0.31547147842988582 -0.2330670094454039 0 -0.32202724095639168 -0.2495658441092535 0 -0.31283906540333922 -0.25031215033235238 0 -0.31547147842988582 -0.2330670094454039 0 -0.32202724095639168 -0.2495658441092535 0 -0.33373364759712132 -0.2373308373461466 0 -0.32202724095639168 -0.2495658441092535 0 -0.42931567121415071 -0.25028064732030619 0 -0.41974440223132548 -0.2277223948390894 0 -0.42931567121415071 -0.25028064732030619 0 -0.43665732485841618 -0.24137016429136929 0 -0.41974440223132548 -0.2277223948390894 0 -0.43487007995442373 -0.25384069753834382 0 -0.42931567121415071 -0.25028064732030619 0 -0.43665732485841618 -0.24137016429136929 0 -0.43665732485841618 -0.24137016429136929 0 -0.41974440223132548 -0.2277223948390894 0 -0.44277641758923081 -0.23102430468348881 0 -0.43377720402095787 -0.21991138490827611 0 -0.41974440223132548 -0.2277223948390894 0 -0.44277641758923081 -0.23102430468348881 0 -0.43377720402095787 -0.21991138490827611 0 -0.41974440223132548 -0.2277223948390894 0 -0.42075205755079043 -0.21398522646416529 0 -0.41974440223132548 -0.2277223948390894 0 -0.40847937369743209 -0.24258689873782929 0 -0.40379864078896821 -0.22147517947459039 0 -0.42931567121415071 -0.25028064732030619 0 -0.41974440223132548 -0.2277223948390894 0 -0.40847937369743209 -0.24258689873782929 0 -0.3945867816951415 -0.25828321704239809 0 -0.40847937369743209 -0.24258689873782929 0 -0.3933004523496676 -0.24484402304582939 0 -0.40847937369743209 -0.24258689873782929 0 -0.3933004523496676 -0.24484402304582939 0 -0.39478669289115392 -0.23309544567896751 0 -0.3933004523496676 -0.24484402304582939 0 -0.38349803953804651 -0.2389949919606586 0 -0.38258347849844832 -0.24967798674395081 0 -0.3933004523496676 -0.24484402304582939 0 -0.38349803953804651 -0.2389949919606586 0 -0.39478669289115392 -0.23309544567896751 0 -0.37393716339703942 -0.23401667981853819 0 -0.37362469669529808 -0.24416340610428999 0 -0.38349803953804651 -0.2389949919606586 0 -0.37393540655460039 -0.25504906339868932 0 -0.37362469669529808 -0.24416340610428999 0 -0.38258347849844832 -0.24967798674395081 0 -0.37362469669529808 -0.24416340610428999 0 -0.38349803953804651 -0.2389949919606586 0 -0.38258347849844832 -0.24967798674395081 0 -0.37306962678156358 -0.22430756502184571 0 -0.38469596054732291 -0.22836918992304631 0 -0.38295547739377761 -0.21861943378263729 0 -0.37273312771996808 -0.21396345107145709 0 -0.37306962678156358 -0.22430756502184571 0 -0.38295547739377761 -0.21861943378263729 0 -0.37393716339703942 -0.23401667981853819 0 -0.38349803953804651 -0.2389949919606586 0 -0.38469596054732291 -0.22836918992304631 0 -0.37393716339703942 -0.23401667981853819 0 -0.37306962678156358 -0.22430756502184571 0 -0.38469596054732291 -0.22836918992304631 0 -0.38349803953804651 -0.2389949919606586 0 -0.38469596054732291 -0.22836918992304631 0 -0.39478669289115392 -0.23309544567896751 0 -0.38469596054732291 -0.22836918992304631 0 -0.39264909581396568 -0.2229573829789786 0 -0.38295547739377761 -0.21861943378263729 0 -0.39264909581396568 -0.2229573829789786 0 -0.39478669289115392 -0.23309544567896751 0 -0.40379864078896821 -0.22147517947459039 0 -0.40847937369743209 -0.24258689873782929 0 -0.39478669289115392 -0.23309544567896751 0 -0.40379864078896821 -0.22147517947459039 0 -0.40847937369743209 -0.24258689873782929 0 -0.40379864078896821 -0.22147517947459039 0 -0.39264909581396568 -0.2229573829789786 0 -0.40379864078896821 -0.22147517947459039 0 -0.39247153470499518 -0.2129117927155128 0 -0.38469596054732291 -0.22836918992304631 0 -0.39264909581396568 -0.2229573829789786 0 -0.39478669289115392 -0.23309544567896751 0 -0.40379864078896821 -0.22147517947459039 0 -0.39911790788050461 -0.2003634602113514 0 -0.40379864078896821 -0.22147517947459039 0 -0.39247153470499518 -0.2129117927155128 0 -0.39911790788050461 -0.2003634602113514 0 -0.40379864078896821 -0.22147517947459039 0 -0.40520524043689871 -0.20626505254016059 0 -0.39911790788050461 -0.2003634602113514 0 -0.40520524043689871 -0.20626505254016059 0 -0.39911790788050461 -0.2003634602113514 0 -0.41017313324850019 -0.2051641423578727 0 -0.40520524043689871 -0.20626505254016059 0 -0.39911790788050461 -0.2003634602113514 0 -0.39247153470499518 -0.2129117927155128 0 -0.38971867217429529 -0.20303686442097379 0 -0.39911790788050461 -0.2003634602113514 0 -0.39247153470499518 -0.2129117927155128 0 -0.38295547739377761 -0.21861943378263729 0 -0.38211351879485039 -0.2092072209849834 0 -0.39264909581396568 -0.2229573829789786 0 -0.39247153470499518 -0.2129117927155128 0 -0.38295547739377761 -0.21861943378263729 0 -0.38211351879485039 -0.2092072209849834 0 -0.38151862494823319 -0.19996558655041019 0 -0.38971867217429529 -0.20303686442097379 0 -0.39247153470499518 -0.2129117927155128 0 -0.38211351879485039 -0.2092072209849834 0 -0.38971867217429529 -0.20303686442097379 0 -0.37273312771996808 -0.21396345107145709 0 -0.37301156641091737 -0.20337184000283479 0 -0.38211351879485039 -0.2092072209849834 0 -0.37301156641091737 -0.20337184000283479 0 -0.38211351879485039 -0.2092072209849834 0 -0.38151862494823319 -0.19996558655041019 0 -0.37273312771996808 -0.21396345107145709 0 -0.38295547739377761 -0.21861943378263729 0 -0.38211351879485039 -0.2092072209849834 0 -0.36802329911298681 -0.18587483615006681 0 -0.37438048369549509 -0.19384422148204511 0 -0.38452179946839471 -0.1862127167391712 0 -0.38151862494823319 -0.19996558655041019 0 -0.38971867217429529 -0.20303686442097379 0 -0.38452179946839471 -0.1862127167391712 0 -0.37438048369549509 -0.19384422148204511 0 -0.38151862494823319 -0.19996558655041019 0 -0.38452179946839471 -0.1862127167391712 0 -0.37438048369549509 -0.19384422148204511 0 -0.37301156641091737 -0.20337184000283479 0 -0.38151862494823319 -0.19996558655041019 0 -0.39911790788050461 -0.2003634602113514 0 -0.39550730918059213 -0.18407841519480589 0 -0.38452179946839471 -0.1862127167391712 0 -0.39911790788050461 -0.2003634602113514 0 -0.40135005364381798 -0.19305297691017151 0 -0.39550730918059213 -0.18407841519480589 0 -0.39911790788050461 -0.2003634602113514 0 -0.39550730918059213 -0.18407841519480589 0 -0.38971867217429529 -0.20303686442097379 0 -0.39911790788050461 -0.2003634602113514 0 -0.38452179946839471 -0.1862127167391712 0 -0.41017313324850019 -0.2051641423578727 0 -0.40060186426567512 -0.18260588987665591 0 -0.40135005364381798 -0.19305297691017151 0 -0.41017313324850019 -0.2051641423578727 0 -0.40060186426567512 -0.18260588987665591 0 -0.39911790788050461 -0.2003634602113514 0 -0.38452179946839471 -0.1862127167391712 0 -0.39911790788050461 -0.2003634602113514 0 -0.40135005364381798 -0.19305297691017151 0 -0.41017313324850019 -0.2051641423578727 0 -0.40882722491020068 -0.19324634934951379 0 -0.40670914653930851 -0.1871811045826946 0 -0.40060186426567512 -0.18260588987665591 0 -0.40882722491020068 -0.19324634934951379 0 -0.41182634361573828 -0.18846823012601879 0 -0.40670914653930851 -0.1871811045826946 0 -0.40882722491020068 -0.19324634934951379 0 -0.41017313324850019 -0.2051641423578727 0 -0.40060186426567512 -0.18260588987665591 0 -0.40882722491020068 -0.19324634934951379 0 -0.41332632127240471 -0.19520135196246871 0 -0.41182634361573828 -0.18846823012601879 0 -0.41182634361573828 -0.18846823012601879 0 -0.42015528071935893 -0.19373976728588371 0 -0.42086010939994178 -0.18624419393877539 0 -0.41332632127240471 -0.19520135196246871 0 -0.41182634361573828 -0.18846823012601879 0 -0.42015528071935893 -0.19373976728588371 0 -0.42015528071935893 -0.19373976728588371 0 -0.41596892406105851 -0.2005599774501266 0 -0.4250272884910265 -0.2012921483654643 0 -0.41596892406105851 -0.2005599774501266 0 -0.41798035083784391 -0.20525037365940721 0 -0.4250272884910265 -0.2012921483654643 0 -0.41332632127240471 -0.19520135196246871 0 -0.42015528071935893 -0.19373976728588371 0 -0.41596892406105851 -0.2005599774501266 0 -0.41596892406105851 -0.2005599774501266 0 -0.41190905555667651 -0.19876129696974801 0 -0.41017313324850019 -0.2051641423578727 0 -0.40882722491020068 -0.19324634934951379 0 -0.41190905555667651 -0.19876129696974801 0 -0.41017313324850019 -0.2051641423578727 0 -0.40882722491020068 -0.19324634934951379 0 -0.41332632127240471 -0.19520135196246871 0 -0.41190905555667651 -0.19876129696974801 0 -0.41332632127240471 -0.19520135196246871 0 -0.41596892406105851 -0.2005599774501266 0 -0.41190905555667651 -0.19876129696974801 0 -0.41974440223132548 -0.2277223948390894 0 -0.40379864078896821 -0.22147517947459039 0 -0.41017313324850019 -0.2051641423578727 0 -0.41974440223132548 -0.2277223948390894 0 -0.41017313324850019 -0.2051641423578727 0 -0.42075205755079043 -0.21398522646416529 0 -0.40379864078896821 -0.22147517947459039 0 -0.40520524043689871 -0.20626505254016059 0 -0.41017313324850019 -0.2051641423578727 0 -0.41974440223132548 -0.2277223948390894 0 -0.41017313324850019 -0.2051641423578727 0 -0.41017313324850019 -0.2051641423578727 0 -0.42075205755079043 -0.21398522646416529 0 -0.41798035083784391 -0.20525037365940721 0 -0.42075205755079043 -0.21398522646416529 0 -0.41798035083784391 -0.20525037365940721 0 -0.4250272884910265 -0.2012921483654643 0 -0.41596892406105851 -0.2005599774501266 0 -0.41017313324850019 -0.2051641423578727 0 -0.41798035083784391 -0.20525037365940721 0 -0.42075205755079043 -0.21398522646416529 0 -0.43601245252430942 -0.20793643678791121 0 -0.4250272884910265 -0.2012921483654643 0 -0.43377720402095787 -0.21991138490827611 0 -0.42075205755079043 -0.21398522646416529 0 -0.43601245252430942 -0.20793643678791121 0 -0.42704416580793209 -0.1915833167308334 0 -0.4250272884910265 -0.2012921483654643 0 -0.43829012180726529 -0.19322062900912909 0 -0.43601245252430942 -0.20793643678791121 0 -0.4250272884910265 -0.2012921483654643 0 -0.43829012180726529 -0.19322062900912909 0 -0.42704416580793209 -0.1915833167308334 0 -0.43088802862206788 -0.18341984505491449 0 -0.43829012180726529 -0.19322062900912909 0 -0.42015528071935893 -0.19373976728588371 0 -0.42704416580793209 -0.1915833167308334 0 -0.42086010939994178 -0.18624419393877539 0 -0.42015528071935893 -0.19373976728588371 0 -0.42704416580793209 -0.1915833167308334 0 -0.4250272884910265 -0.2012921483654643 0 -0.4285734277027195 -0.1734756855885477 0 -0.43088802862206788 -0.18341984505491449 0 -0.41995474680429618 -0.17713819565942951 0 -0.42704416580793209 -0.1915833167308334 0 -0.43088802862206788 -0.18341984505491449 0 -0.42086010939994178 -0.18624419393877539 0 -0.43088802862206788 -0.18341984505491449 0 -0.41995474680429618 -0.17713819565942951 0 -0.42086010939994178 -0.18624419393877539 0 -0.43088802862206788 -0.18341984505491449 0 -0.44104422433457419 -0.1777922577957152 0 -0.43829012180726529 -0.19322062900912909 0 -0.4285734277027195 -0.1734756855885477 0 -0.43088802862206788 -0.18341984505491449 0 -0.44104422433457419 -0.1777922577957152 0 -0.4285734277027195 -0.1734756855885477 0 -0.4344270590450659 -0.1609053943072484 0 -0.44104422433457419 -0.1777922577957152 0 -0.4285734277027195 -0.1734756855885477 0 -0.4344270590450659 -0.1609053943072484 0 -0.4151480566294905 -0.1680004084026471 0 -0.4151480566294905 -0.1680004084026471 0 -0.40323096316088519 -0.16793215078578741 0 -0.41306883257355248 -0.1475019853524365 0 -0.4344270590450659 -0.1609053943072484 0 -0.4151480566294905 -0.1680004084026471 0 -0.41306883257355248 -0.1475019853524365 0 -0.4151480566294905 -0.1680004084026471 0 -0.40690801218449152 -0.1762036959065488 0 -0.40323096316088519 -0.16793215078578741 0 -0.4151480566294905 -0.1680004084026471 0 -0.40690801218449152 -0.1762036959065488 0 -0.4136865446123984 -0.1757543503219206 0 -0.40690801218449152 -0.1762036959065488 0 -0.4136865446123984 -0.1757543503219206 0 -0.41273536283131562 -0.1816751013190569 0 -0.4151480566294905 -0.1680004084026471 0 -0.4136865446123984 -0.1757543503219206 0 -0.41995474680429618 -0.17713819565942951 0 -0.4285734277027195 -0.1734756855885477 0 -0.4151480566294905 -0.1680004084026471 0 -0.41995474680429618 -0.17713819565942951 0 -0.4136865446123984 -0.1757543503219206 0 -0.41995474680429618 -0.17713819565942951 0 -0.41273536283131562 -0.1816751013190569 0 -0.41995474680429618 -0.17713819565942951 0 -0.42086010939994178 -0.18624419393877539 0 -0.41273536283131562 -0.1816751013190569 0 -0.41182634361573828 -0.18846823012601879 0 -0.42086010939994178 -0.18624419393877539 0 -0.41273536283131562 -0.1816751013190569 0 -0.41182634361573828 -0.18846823012601879 0 -0.41273536283131562 -0.1816751013190569 0 -0.4077561458873058 -0.18322680436219499 0 -0.40690801218449152 -0.1762036959065488 0 -0.41273536283131562 -0.1816751013190569 0 -0.4077561458873058 -0.18322680436219499 0 -0.41182634361573828 -0.18846823012601879 0 -0.4077561458873058 -0.18322680436219499 0 -0.40670914653930851 -0.1871811045826946 0 -0.39550730918059213 -0.18407841519480589 0 -0.38736231178750308 -0.177259124355894 0 -0.39189671048067998 -0.1677933701782604 0 -0.40135005364381798 -0.19305297691017151 0 -0.40060186426567512 -0.18260588987665591 0 -0.39550730918059213 -0.18407841519480589 0 -0.4077561458873058 -0.18322680436219499 0 -0.40670914653930851 -0.1871811045826946 0 -0.40060186426567512 -0.18260588987665591 0 -0.39550730918059213 -0.18407841519480589 0 -0.39189671048067998 -0.1677933701782604 0 -0.40060186426567512 -0.18260588987665591 0 -0.39550730918059213 -0.18407841519480589 0 -0.39189671048067998 -0.1677933701782604 0 -0.40690801218449152 -0.1762036959065488 0 -0.4077561458873058 -0.18322680436219499 0 -0.40060186426567512 -0.18260588987665591 0 -0.40690801218449152 -0.1762036959065488 0 -0.40060186426567512 -0.18260588987665591 0 -0.40323096316088519 -0.16793215078578741 0 -0.36992569105628492 -0.1720619732669908 0 -0.38736231178750308 -0.177259124355894 0 -0.39189671048067998 -0.1677933701782604 0 -0.36992569105628492 -0.1720619732669908 0 -0.38452179946839471 -0.1862127167391712 0 -0.38736231178750308 -0.177259124355894 0 -0.39550730918059213 -0.18407841519480589 0 -0.38452179946839471 -0.1862127167391712 0 -0.38736231178750308 -0.177259124355894 0 -0.36992569105628492 -0.1720619732669908 0 -0.38452179946839471 -0.1862127167391712 0 -0.36992569105628492 -0.1720619732669908 0 -0.37692746124962329 -0.16011968929401549 0 -0.39103059528285172 -0.16004763739543851 0 -0.36992569105628492 -0.1720619732669908 0 -0.39189671048067998 -0.1677933701782604 0 -0.39103059528285172 -0.16004763739543851 0 -0.36992569105628492 -0.1720619732669908 0 -0.39103059528285172 -0.16004763739543851 0 -0.37692746124962329 -0.16011968929401549 0 -0.39103059528285172 -0.16004763739543851 0 -0.38828980922767731 -0.15358795645443499 0 -0.39103059528285172 -0.16004763739543851 0 -0.38828980922767731 -0.15358795645443499 0 -0.40060186426567512 -0.18260588987665591 0 -0.39103059528285172 -0.16004763739543851 0 -0.40323096316088519 -0.16793215078578741 0 -0.40060186426567512 -0.18260588987665591 0 -0.39189671048067998 -0.1677933701782604 0 -0.39103059528285172 -0.16004763739543851 0 -0.40060186426567512 -0.18260588987665591 0 -0.39103059528285172 -0.16004763739543851 0 -0.39103059528285172 -0.16004763739543851 0 -0.40323096316088519 -0.16793215078578741 0 -0.41306883257355248 -0.1475019853524365 0 -0.39103059528285172 -0.16004763739543851 0 -0.39795981207507403 -0.14502431583870179 0 -0.41306883257355248 -0.1475019853524365 0 -0.39795981207507403 -0.14502431583870179 0 -0.40633267592073652 -0.13102661860532899 0 -0.41306883257355248 -0.1475019853524365 0 -0.39103059528285172 -0.16004763739543851 0 -0.41306883257355248 -0.1475019853524365 0 -0.39103059528285172 -0.16004763739543851 0 -0.39795981207507403 -0.14502431583870179 0 -0.38828980922767731 -0.15358795645443499 0 -0.39795981207507403 -0.14502431583870179 0 -0.38828980922767731 -0.15358795645443499 0 -0.38190833683646341 -0.1417380771930716 0 -0.38828980922767731 -0.15358795645443499 0 -0.38190833683646341 -0.1417380771930716 0 -0.37945525551812698 -0.15104483685056111 0 -0.37069541475874412 -0.1487336244607225 0 -0.38190833683646341 -0.1417380771930716 0 -0.37945525551812698 -0.15104483685056111 0 -0.37692746124962329 -0.16011968929401549 0 -0.38828980922767731 -0.15358795645443499 0 -0.37945525551812698 -0.15104483685056111 0 -0.37069541475874412 -0.1487336244607225 0 -0.37692746124962329 -0.16011968929401549 0 -0.37945525551812698 -0.15104483685056111 0 -0.37152802352755399 -0.13164580699010159 0 -0.38190833683646341 -0.1417380771930716 0 -0.38235470820745771 -0.123978498660336 0 -0.38190833683646341 -0.1417380771930716 0 -0.39228294530364349 -0.13316426080004001 0 -0.38235470820745771 -0.123978498660336 0 -0.39228294530364349 -0.13316426080004001 0 -0.40633267592073652 -0.13102661860532899 0 -0.39306930808202878 -0.1142539450673672 0 -0.39795981207507403 -0.14502431583870179 0 -0.38190833683646341 -0.1417380771930716 0 -0.39228294530364349 -0.13316426080004001 0 -0.39795981207507403 -0.14502431583870179 0 -0.39228294530364349 -0.13316426080004001 0 -0.40633267592073652 -0.13102661860532899 0 -0.40633267592073652 -0.13102661860532899 0 -0.42371591628165239 -0.12841039464220819 0 -0.41294233195137359 -0.116724400289887 0 -0.40633267592073652 -0.13102661860532899 0 -0.41306883257355248 -0.1475019853524365 0 -0.42371591628165239 -0.12841039464220819 0 -0.4344270590450659 -0.1609053943072484 0 -0.41306883257355248 -0.1475019853524365 0 -0.43782831476482847 -0.1415704877041897 0 -0.41306883257355248 -0.1475019853524365 0 -0.42371591628165239 -0.12841039464220819 0 -0.43782831476482847 -0.1415704877041897 0 -0.42371591628165239 -0.12841039464220819 0 -0.43782831476482847 -0.1415704877041897 0 -0.44295770465017009 -0.12292285668534771 0 -0.43782831476482847 -0.1415704877041897 0 -0.45407528277834919 -0.1346042898317954 0 -0.44295770465017009 -0.12292285668534771 0 -0.43782831476482847 -0.1415704877041897 0 -0.45305184803309972 -0.15210272433296521 0 -0.45407528277834919 -0.1346042898317954 0 -0.4344270590450659 -0.1609053943072484 0 -0.43782831476482847 -0.1415704877041897 0 -0.45305184803309972 -0.15210272433296521 0 -0.45305184803309972 -0.15210272433296521 0 -0.45407528277834919 -0.1346042898317954 0 -0.47213782278640881 -0.13623393318828281 0 -0.45305184803309972 -0.15210272433296521 0 -0.47213782278640881 -0.13623393318828281 0 -0.46702369577757719 -0.16066454859793791 0 -0.45407528277834919 -0.1346042898317954 0 -0.47213782278640881 -0.13623393318828281 0 -0.46296805171726468 -0.11640170438458371 0 -0.47213782278640881 -0.13623393318828281 0 -0.5 -0.14556247672259531 0 -0.48245330698995931 -0.121898764666846 0 -0.5 -0.14556247672259531 0 -0.48245330698995931 -0.121898764666846 0 -0.50000000000000089 -0.1198938119733675 0 -0.47213782278640881 -0.13623393318828281 0 -0.5 -0.14556247672259531 0 -0.48142521519093828 -0.15645589086587239 0 -0.47213782278640881 -0.13623393318828281 0 -0.48142521519093828 -0.15645589086587239 0 -0.47213782278640881 -0.13623393318828281 0 -0.48142521519093828 -0.15645589086587239 0 -0.46702369577757719 -0.16066454859793791 0 -0.48142521519093828 -0.15645589086587239 0 -0.47632052375980027 -0.17461649056753861 0 -0.46702369577757719 -0.16066454859793791 0 -0.48142521519093828 -0.15645589086587239 0 -0.49071260759546798 -0.17667784854346191 0 -0.47632052375980027 -0.17461649056753861 0 -0.47632052375980027 -0.17461649056753861 0 -0.46570520523623959 -0.1757931846103527 0 -0.46702369577757719 -0.16066454859793791 0 -0.48142521519093828 -0.15645589086587239 0 -0.49071260759546798 -0.17667784854346191 0 -0.5 -0.14556247672259531 0 -0.48142521519093828 -0.15645589086587239 0 -0.5 -0.17123114147182319 0 -0.48142521519093828 -0.15645589086587239 0 -0.5 -0.17123114147182319 0 -0.49071260759546798 -0.17667784854346191 0 -0.49071260759546798 -0.17667784854346191 0 -0.49999999999999861 -0.19689980622105099 0 -0.5 -0.17123114147182319 0 -0.49071260759546798 -0.17667784854346191 0 -0.49999999999999861 -0.19689980622105099 0 -0.49071260759546798 -0.17667784854346191 0 -0.47632052375980027 -0.17461649056753861 0 -0.47993034859498662 -0.18922987045237161 0 -0.47632052375980027 -0.17461649056753861 0 -0.46763136520864318 -0.18653340036078911 0 -0.46570520523623959 -0.1757931846103527 0 -0.47632052375980027 -0.17461649056753861 0 -0.46763136520864318 -0.18653340036078911 0 -0.47993034859498662 -0.18922987045237161 0 -0.46570520523623959 -0.1757931846103527 0 -0.45350155965897682 -0.1687850680226157 0 -0.45596312027128949 -0.18794868189772959 0 -0.46763136520864318 -0.18653340036078911 0 -0.46570520523623959 -0.1757931846103527 0 -0.45596312027128949 -0.18794868189772959 0 -0.45305184803309972 -0.15210272433296521 0 -0.46702369577757719 -0.16066454859793791 0 -0.45350155965897682 -0.1687850680226157 0 -0.46570520523623959 -0.1757931846103527 0 -0.46702369577757719 -0.16066454859793791 0 -0.45350155965897682 -0.1687850680226157 0 -0.4344270590450659 -0.1609053943072484 0 -0.45305184803309972 -0.15210272433296521 0 -0.45350155965897682 -0.1687850680226157 0 -0.4344270590450659 -0.1609053943072484 0 -0.45350155965897682 -0.1687850680226157 0 -0.44104422433457419 -0.1777922577957152 0 -0.45350155965897682 -0.1687850680226157 0 -0.44104422433457419 -0.1777922577957152 0 -0.45596312027128949 -0.18794868189772959 0 -0.44104422433457419 -0.1777922577957152 0 -0.43829012180726529 -0.19322062900912909 0 -0.45596312027128949 -0.18794868189772959 0 -0.45013906333809789 -0.2009404811944836 0 -0.43829012180726529 -0.19322062900912909 0 -0.45596312027128949 -0.18794868189772959 0 -0.43601245252430942 -0.20793643678791121 0 -0.45013906333809789 -0.2009404811944836 0 -0.43829012180726529 -0.19322062900912909 0 -0.43377720402095787 -0.21991138490827611 0 -0.43601245252430942 -0.20793643678791121 0 -0.45297794936819918 -0.2159919965998246 0 -0.43601245252430942 -0.20793643678791121 0 -0.45013906333809789 -0.2009404811944836 0 -0.45297794936819918 -0.2159919965998246 0 -0.45013906333809789 -0.2009404811944836 0 -0.45297794936819918 -0.2159919965998246 0 -0.46745167271942573 -0.1996046616778234 0 -0.45297794936819918 -0.2159919965998246 0 -0.46745167271942573 -0.1996046616778234 0 -0.46956062781061803 -0.21704188818370149 0 -0.45013906333809789 -0.2009404811944836 0 -0.46745167271942573 -0.1996046616778234 0 -0.45596312027128949 -0.18794868189772959 0 -0.46763136520864318 -0.18653340036078911 0 -0.46745167271942573 -0.1996046616778234 0 -0.45596312027128949 -0.18794868189772959 0 -0.46745167271942573 -0.1996046616778234 0 -0.47993034859498662 -0.18922987045237161 0 -0.48475058775642699 -0.21058337118561141 0 -0.46763136520864318 -0.18653340036078911 0 -0.46745167271942573 -0.1996046616778234 0 -0.47993034859498662 -0.18922987045237161 0 -0.47993034859498662 -0.18922987045237161 0 -0.49999999999999861 -0.19689980622105099 0 -0.48475058775642699 -0.21058337118561141 0 -0.49071260759546798 -0.17667784854346191 0 -0.47993034859498662 -0.18922987045237161 0 -0.49999999999999861 -0.19689980622105099 0 -0.49999999999999861 -0.19689980622105099 0 -0.48475058775642699 -0.21058337118561141 0 -0.50000000000000355 -0.22426693615016591 0 -0.46745167271942573 -0.1996046616778234 0 -0.48475058775642699 -0.21058337118561141 0 -0.46956062781061803 -0.21704188818370149 0 -0.46956062781061803 -0.21704188818370149 0 -0.47829002665147741 -0.2341248566128927 0 -0.46279731583591321 -0.22891002208815581 0 -0.48475058775642699 -0.21058337118561141 0 -0.46956062781061803 -0.21704188818370149 0 -0.47829002665147741 -0.2341248566128927 0 -0.47829002665147741 -0.2341248566128927 0 -0.49757451855253881 -0.23053548086278239 0 -0.50000000000000355 -0.22426693615016591 0 -0.48475058775642699 -0.21058337118561141 0 -0.47829002665147741 -0.2341248566128927 0 -0.50000000000000355 -0.22426693615016591 0 -0.47829002665147741 -0.2341248566128927 0 -0.50000000000000355 -0.22426693615016591 0 -0.47829002665147741 -0.2341248566128927 0 -0.49757451855253881 -0.23053548086278239 0 -0.47793059070477772 -0.24540990329775009 0 -0.5 -0.25006354863638108 0 -0.49757451855253881 -0.23053548086278239 0 -0.49068252501969761 -0.24549971615663649 0 -0.49757451855253881 -0.23053548086278239 0 -0.49068252501969761 -0.24549971615663649 0 -0.47793059070477772 -0.24540990329775009 0 -0.49757451855253881 -0.23053548086278239 0 -0.47793059070477772 -0.24540990329775009 0 -0.5 -0.25006354863638108 0 -0.49757451855253881 -0.23053548086278239 0 -0.50000000000000355 -0.22426693615016591 0 -0.4872249908214738 -0.25598993182963242 0 -0.49068252501969761 -0.24549971615663649 0 -0.47793059070477772 -0.24540990329775009 0 -0.47829002665147741 -0.2341248566128927 0 -0.47793059070477772 -0.24540990329775009 0 -0.45658005330295048 -0.2439827770756183 0 -0.45658005330295048 -0.2439827770756183 0 -0.46279731583591321 -0.22891002208815581 0 -0.44277641758923081 -0.23102430468348881 0 -0.47829002665147741 -0.2341248566128927 0 -0.45658005330295048 -0.2439827770756183 0 -0.45828666285701658 -0.26028432573271792 0 -0.47793059070477772 -0.24540990329775009 0 -0.45658005330295048 -0.2439827770756183 0 -0.47829002665147741 -0.2341248566128927 0 -0.45658005330295048 -0.2439827770756183 0 -0.46279731583591321 -0.22891002208815581 0 -0.45297794936819918 -0.2159919965998246 0 -0.46956062781061803 -0.21704188818370149 0 -0.46279731583591321 -0.22891002208815581 0 -0.45297794936819918 -0.2159919965998246 0 -0.46279731583591321 -0.22891002208815581 0 -0.44277641758923081 -0.23102430468348881 0 -0.43377720402095787 -0.21991138490827611 0 -0.45297794936819918 -0.2159919965998246 0 -0.44277641758923081 -0.23102430468348881 0 -0.43487007995442373 -0.25384069753834382 0 -0.45658005330295048 -0.2439827770756183 0 -0.43487007995442373 -0.25384069753834382 0 -0.43665732485841618 -0.24137016429136929 0 -0.45658005330295048 -0.2439827770756183 0 -0.43665732485841618 -0.24137016429136929 0 -0.45658005330295048 -0.2439827770756183 0 -0.44277641758923081 -0.23102430468348881 0 -0.42837915354319411 -0.040827216461995969 0 -0.4199205163048339 -0.024265820886729 0 -0.40528095782104068 -0.044243292517360297 0 -0.42343463197652342 -0.05874232933513765 0 -0.42837915354319411 -0.040827216461995969 0 -0.40528095782104068 -0.044243292517360297 0 -0.42343463197652342 -0.05874232933513765 0 -0.40528095782104068 -0.044243292517360297 0 -0.42343463197652342 -0.05874232933513765 0 -0.40528095782104068 -0.044243292517360297 0 -0.40670414160736479 -0.063195666982337848 0 -0.42343463197652342 -0.05874232933513765 0 -0.42837915354319411 -0.040827216461995969 0 -0.44094154444346079 -0.04995238034171972 0 -0.42343463197652342 -0.05874232933513765 0 -0.44158830613200611 -0.073241366152915127 0 -0.44094154444346079 -0.04995238034171972 0 -0.42837915354319411 -0.040827216461995969 0 -0.4342900889778567 -0.026770694848987801 0 -0.4453801544960031 -0.037531923181514312 0 -0.4342900889778567 -0.026770694848987801 0 -0.43033724725149269 -0.0037964727450953309 0 -0.4199205163048339 -0.024265820886729 0 -0.4342900889778567 -0.026770694848987801 0 -0.43033724725149269 -0.0037964727450953309 0 -0.44743337329375982 -0.027432040969604381 0 -0.42837915354319411 -0.040827216461995969 0 -0.4342900889778567 -0.026770694848987801 0 -0.4199205163048339 -0.024265820886729 0 -0.43033724725149269 -0.0037964727450953309 0 -0.4131572459017161 -0.004875649818797438 0 -0.4199205163048339 -0.024265820886729 0 -0.4131572459017161 -0.004875649818797438 0 -0.4199205163048339 -0.024265820886729 0 -0.40195427741026962 -0.018113178269922089 0 -0.4199205163048339 -0.024265820886729 0 -0.40195427741026962 -0.018113178269922089 0 -0.40528095782104068 -0.044243292517360297 0 -0.40195427741026962 -0.018113178269922089 0 -0.38465333842141641 -0.0066435457767305304 0 -0.38712728366555788 -0.02974425569958293 0 -0.40195427741026962 -0.018113178269922089 0 -0.38712728366555788 -0.02974425569958293 0 -0.40528095782104068 -0.044243292517360297 0 -0.40195427741026962 -0.018113178269922089 0 -0.38465333842141641 -0.0066435457767305304 0 -0.40033306733275759 0.0019581273283447299 0 -0.4131572459017161 -0.004875649818797438 0 -0.40195427741026962 -0.018113178269922089 0 -0.40033306733275759 0.0019581273283447299 0 -0.38465333842141641 -0.0066435457767305304 0 -0.40033306733275759 0.0019581273283447299 0 -0.36897360951007507 -0.015245218881805699 0 -0.38465333842141641 -0.0066435457767305304 0 -0.36897360951007507 -0.015245218881805699 0 -0.38465333842141641 -0.0066435457767305304 0 -0.38712728366555788 -0.02974425569958293 0 -0.36897360951007507 -0.015245218881805699 0 -0.38712728366555788 -0.02974425569958293 0 -0.37357085562444819 -0.050327950541553881 0 -0.38712728366555788 -0.02974425569958293 0 -0.39147992867528753 -0.058279446621744307 0 -0.38712728366555788 -0.02974425569958293 0 -0.40528095782104068 -0.044243292517360297 0 -0.38712728366555788 -0.02974425569958293 0 -0.40528095782104068 -0.044243292517360297 0 -0.39147992867528753 -0.058279446621744307 0 -0.40528095782104068 -0.044243292517360297 0 -0.39147992867528753 -0.058279446621744307 0 -0.40670414160736479 -0.063195666982337848 0 -0.37357085562444819 -0.050327950541553881 0 -0.39147992867528753 -0.058279446621744307 0 -0.37513495807632252 -0.068027960422620465 0 -0.39147992867528753 -0.058279446621744307 0 -0.37513495807632252 -0.068027960422620465 0 -0.3944429598887787 -0.078419500118194568 0 -0.37347114863240299 -0.089088331268139143 0 -0.37513495807632252 -0.068027960422620465 0 -0.3944429598887787 -0.078419500118194568 0 -0.37347114863240299 -0.089088331268139143 0 -0.3944429598887787 -0.078419500118194568 0 -0.38844874713165228 -0.097169733216879689 0 -0.3944429598887787 -0.078419500118194568 0 -0.38844874713165228 -0.097169733216879689 0 -0.40907098738890341 -0.097978282768044114 0 -0.39147992867528753 -0.058279446621744307 0 -0.3944429598887787 -0.078419500118194568 0 -0.40670414160736479 -0.063195666982337848 0 -0.3944429598887787 -0.078419500118194568 0 -0.41749625226094061 -0.077358517460495352 0 -0.40670414160736479 -0.063195666982337848 0 -0.39228294530364349 -0.13316426080004001 0 -0.38235470820745771 -0.123978498660336 0 -0.39306930808202878 -0.1142539450673672 0 -0.36980343247362518 -0.1100922289949047 0 -0.38235470820745771 -0.123978498660336 0 -0.39306930808202878 -0.1142539450673672 0 -0.36980343247362518 -0.1100922289949047 0 -0.37347114863240299 -0.089088331268139143 0 -0.38844874713165228 -0.097169733216879689 0 -0.36980343247362518 -0.1100922289949047 0 -0.38844874713165228 -0.097169733216879689 0 -0.39306930808202878 -0.1142539450673672 0 -0.38844874713165228 -0.097169733216879689 0 -0.39306930808202878 -0.1142539450673672 0 -0.40907098738890341 -0.097978282768044114 0 -0.39306930808202878 -0.1142539450673672 0 -0.41294233195137359 -0.116724400289887 0 -0.40907098738890341 -0.097978282768044114 0 -0.40633267592073652 -0.13102661860532899 0 -0.39306930808202878 -0.1142539450673672 0 -0.41294233195137359 -0.116724400289887 0 -0.41294233195137359 -0.116724400289887 0 -0.40907098738890341 -0.097978282768044114 0 -0.42916563782925382 -0.1107160192160596 0 -0.42916563782925382 -0.1107160192160596 0 -0.42904349786494111 -0.093106334976964328 0 -0.44668080241849201 -0.10304266906569499 0 -0.40907098738890341 -0.097978282768044114 0 -0.42916563782925382 -0.1107160192160596 0 -0.42904349786494111 -0.093106334976964328 0 -0.42371591628165239 -0.12841039464220819 0 -0.42916563782925382 -0.1107160192160596 0 -0.44295770465017009 -0.12292285668534771 0 -0.42371591628165239 -0.12841039464220819 0 -0.41294233195137359 -0.116724400289887 0 -0.42916563782925382 -0.1107160192160596 0 -0.42343463197652342 -0.05874232933513765 0 -0.41749625226094061 -0.077358517460495352 0 -0.40670414160736479 -0.063195666982337848 0 -0.40907098738890341 -0.097978282768044114 0 -0.41749625226094061 -0.077358517460495352 0 -0.42904349786494111 -0.093106334976964328 0 -0.3944429598887787 -0.078419500118194568 0 -0.40907098738890341 -0.097978282768044114 0 -0.41749625226094061 -0.077358517460495352 0 -0.41749625226094061 -0.077358517460495352 0 -0.42904349786494111 -0.093106334976964328 0 -0.44158830613200611 -0.073241366152915127 0 -0.42904349786494111 -0.093106334976964328 0 -0.44158830613200611 -0.073241366152915127 0 -0.42343463197652342 -0.05874232933513765 0 -0.44158830613200611 -0.073241366152915127 0 -0.42343463197652342 -0.05874232933513765 0 -0.41749625226094061 -0.077358517460495352 0 -0.44158830613200611 -0.073241366152915127 0 -0.44158830613200611 -0.073241366152915127 0 -0.46118581313569179 -0.071431252447136412 0 -0.45067286806919349 -0.058855770468984832 0 -0.44158830613200611 -0.073241366152915127 0 -0.45067286806919349 -0.058855770468984832 0 -0.44158830613200611 -0.073241366152915127 0 -0.44459286929252761 -0.089545637905493386 0 -0.46105887075467122 -0.088792181426399025 0 -0.42904349786494111 -0.093106334976964328 0 -0.44158830613200611 -0.073241366152915127 0 -0.44459286929252761 -0.089545637905493386 0 -0.44158830613200611 -0.073241366152915127 0 -0.46105887075467122 -0.088792181426399025 0 -0.46105887075467122 -0.088792181426399025 0 -0.46118581313569179 -0.071431252447136412 0 -0.48115195350555812 -0.076249636056848105 0 -0.44158830613200611 -0.073241366152915127 0 -0.46105887075467122 -0.088792181426399025 0 -0.46118581313569179 -0.071431252447136412 0 -0.44295770465017009 -0.12292285668534771 0 -0.44668080241849201 -0.10304266906569499 0 -0.46296805171726468 -0.11640170438458371 0 -0.42916563782925382 -0.1107160192160596 0 -0.44295770465017009 -0.12292285668534771 0 -0.44668080241849201 -0.10304266906569499 0 -0.44459286929252761 -0.089545637905493386 0 -0.46105887075467122 -0.088792181426399025 0 -0.44668080241849201 -0.10304266906569499 0 -0.42904349786494111 -0.093106334976964328 0 -0.44459286929252761 -0.089545637905493386 0 -0.44668080241849201 -0.10304266906569499 0 -0.46105887075467122 -0.088792181426399025 0 -0.46296805171726468 -0.11640170438458371 0 -0.48052943537733628 -0.1043429966998831 0 -0.46105887075467122 -0.088792181426399025 0 -0.44668080241849201 -0.10304266906569499 0 -0.46296805171726468 -0.11640170438458371 0 -0.45407528277834919 -0.1346042898317954 0 -0.44295770465017009 -0.12292285668534771 0 -0.46296805171726468 -0.11640170438458371 0 -0.46296805171726468 -0.11640170438458371 0 -0.48245330698995931 -0.121898764666846 0 -0.48052943537733628 -0.1043429966998831 0 -0.47213782278640881 -0.13623393318828281 0 -0.46296805171726468 -0.11640170438458371 0 -0.48245330698995931 -0.121898764666846 0 -0.46105887075467122 -0.088792181426399025 0 -0.48052943537733628 -0.1043429966998831 0 -0.48052943537733628 -0.1043429966998831 0 -0.50000000000000089 -0.1198938119733675 0 -0.5 -0.090898883536528308 0 -0.48245330698995931 -0.121898764666846 0 -0.48052943537733628 -0.1043429966998831 0 -0.50000000000000089 -0.1198938119733675 0 -0.48052943537733628 -0.1043429966998831 0 -0.50000000000000089 -0.1198938119733675 0 -0.46118581313569179 -0.071431252447136412 0 -0.48115195350555812 -0.076249636056848105 0 -0.46833584839527592 -0.05632992550213807 0 -0.48115195350555812 -0.076249636056848105 0 -0.48490864188954641 -0.055044389119401932 0 -0.46833584839527592 -0.05632992550213807 0 -0.46105887075467122 -0.088792181426399025 0 -0.48052943537733628 -0.1043429966998831 0 -0.48115195350555812 -0.076249636056848105 0 -0.48052943537733628 -0.1043429966998831 0 -0.48115195350555812 -0.076249636056848105 0 -0.5 -0.090898883536528308 0 -0.48115195350555812 -0.076249636056848105 0 -0.5 -0.090898883536528308 0 -0.5 -0.061903955099689163 0 -0.48115195350555812 -0.076249636056848105 0 -0.5 -0.061903955099689163 0 -0.48490864188954641 -0.055044389119401932 0 -0.5 -0.061903955099689163 0 -0.48490864188954641 -0.055044389119401932 0 -0.5 -0.032909026662849998 0 -0.48490864188954641 -0.055044389119401932 0 -0.5 -0.032909026662849998 0 -0.47623700986288742 -0.042296174380792313 0 -0.47623700986288742 -0.042296174380792313 0 -0.45975743000638192 -0.044470174785055258 0 -0.47133789178420182 -0.026132268992706809 0 -0.5 -0.032909026662849998 0 -0.47623700986288742 -0.042296174380792313 0 -0.47133789178420182 -0.026132268992706809 0 -0.48490864188954641 -0.055044389119401932 0 -0.47623700986288742 -0.042296174380792313 0 -0.46833584839527592 -0.05632992550213807 0 -0.46118581313569179 -0.071431252447136412 0 -0.46833584839527592 -0.05632992550213807 0 -0.45067286806919349 -0.058855770468984832 0 -0.47623700986288742 -0.042296174380792313 0 -0.46833584839527592 -0.05632992550213807 0 -0.45975743000638192 -0.044470174785055258 0 -0.46833584839527592 -0.05632992550213807 0 -0.45975743000638192 -0.044470174785055258 0 -0.45067286806919349 -0.058855770468984832 0 -0.45975743000638192 -0.044470174785055258 0 -0.45067286806919349 -0.058855770468984832 0 -0.46833584839527592 -0.05632992550213807 0 -0.45975743000638192 -0.044470174785055258 0 -0.45964620516156041 -0.031574428691672249 0 -0.45975743000638192 -0.044470174785055258 0 -0.44743337329375982 -0.027432040969604381 0 -0.45975743000638192 -0.044470174785055258 0 -0.44743337329375982 -0.027432040969604381 0 -0.45975743000638192 -0.044470174785055258 0 -0.47133789178420182 -0.026132268992706809 0 -0.45964620516156041 -0.031574428691672249 0 -0.45975743000638192 -0.044470174785055258 0 -0.47133789178420182 -0.026132268992706809 0 -0.45975743000638192 -0.044470174785055258 0 -0.4453801544960031 -0.037531923181514312 0 -0.44743337329375982 -0.027432040969604381 0 -0.45975743000638192 -0.044470174785055258 0 -0.4453801544960031 -0.037531923181514312 0 -0.44094154444346079 -0.04995238034171972 0 -0.42837915354319411 -0.040827216461995969 0 -0.4453801544960031 -0.037531923181514312 0 -0.44094154444346079 -0.04995238034171972 0 -0.4453801544960031 -0.037531923181514312 0 -0.44743337329375982 -0.027432040969604381 0 -0.44158830613200611 -0.073241366152915127 0 -0.44094154444346079 -0.04995238034171972 0 -0.45067286806919349 -0.058855770468984832 0 -0.45975743000638192 -0.044470174785055258 0 -0.44094154444346079 -0.04995238034171972 0 -0.45067286806919349 -0.058855770468984832 0 -0.43033724725149269 -0.0037964727450953309 0 -0.45268467479845531 -0.00160063580491273 0 -0.44743337329375982 -0.027432040969604381 0 -0.45268467479845531 -0.00160063580491273 0 -0.44743337329375982 -0.027432040969604381 0 -0.43033724725149269 -0.0037964727450953309 0 -0.44743337329375982 -0.027432040969604381 0 -0.4342900889778567 -0.026770694848987801 0 -0.4453801544960031 -0.037531923181514312 0 -0.44743337329375982 -0.027432040969604381 0 -0.45964620516156041 -0.031574428691672249 0 -0.44743337329375982 -0.027432040969604381 0 -0.46065164258955998 -0.015998841515816709 0 -0.45964620516156041 -0.031574428691672249 0 -0.46065164258955998 -0.015998841515816709 0 -0.47133789178420182 -0.026132268992706809 0 -0.45268467479845531 -0.00160063580491273 0 -0.46065164258955998 -0.015998841515816709 0 -0.47044579822050858 0.003730308873902122 0 -0.45268467479845531 -0.00160063580491273 0 -0.44743337329375982 -0.027432040969604381 0 -0.46065164258955998 -0.015998841515816709 0 -0.46065164258955998 -0.015998841515816709 0 -0.48291835356202167 -0.0077943632003582772 0 -0.47044579822050858 0.003730308873902122 0 -0.46065164258955998 -0.015998841515816709 0 -0.48291835356202167 -0.0077943632003582772 0 -0.47133789178420182 -0.026132268992706809 0 -0.48291835356202167 -0.0077943632003582772 0 -0.47133789178420182 -0.026132268992706809 0 -0.5 -0.032909026662849998 0 -0.48291835356202167 -0.0077943632003582772 0 -0.47133789178420182 -0.026132268992706809 0 -0.5 -0.032909026662849998 0 -0.48291835356202167 -0.0077943632003582772 0 -0.5 -0.0039140982260107426 0 -0.48291835356202167 -0.0077943632003582772 0 -0.5 -0.0039140982260107426 0 -0.48656778433615411 0.0071434676601368312 0 -0.5 -0.0039140982260107426 0 -0.48656778433615411 0.0071434676601368312 0 -0.5 0.02508083021082835 0 -0.5 0.02508083021082835 0 -0.47947476989823978 0.0186146606423227 0 -0.48053744464613157 0.038241937480116027 0 -0.48656778433615411 0.0071434676601368312 0 -0.5 0.02508083021082835 0 -0.47947476989823978 0.0186146606423227 0 -0.47947476989823978 0.0186146606423227 0 -0.48053744464613157 0.038241937480116027 0 -0.45793597630314969 0.024230769359779091 0 -0.48656778433615411 0.0071434676601368312 0 -0.47947476989823978 0.0186146606423227 0 -0.47044579822050858 0.003730308873902122 0 -0.48291835356202167 -0.0077943632003582772 0 -0.48656778433615411 0.0071434676601368312 0 -0.47044579822050858 0.003730308873902122 0 -0.47947476989823978 0.0186146606423227 0 -0.47044579822050858 0.003730308873902122 0 -0.45793597630314969 0.024230769359779091 0 -0.5 0.05407575864766756 0 -0.48053744464613157 0.038241937480116027 0 -0.48160115767747708 0.06010989829645641 0 -0.5 0.02508083021082835 0 -0.5 0.05407575864766756 0 -0.48053744464613157 0.038241937480116027 0 -0.48053744464613157 0.038241937480116027 0 -0.48160115767747708 0.06010989829645641 0 -0.4631872778078443 0.050062174524471058 0 -0.48160115767747708 0.06010989829645641 0 -0.4631872778078443 0.050062174524471058 0 -0.46843857931253879 0.07589357968916309 0 -0.4631872778078443 0.050062174524471058 0 -0.4467001814262947 0.061097152827744368 0 -0.46843857931253879 0.07589357968916309 0 -0.48053744464613157 0.038241937480116027 0 -0.4631872778078443 0.050062174524471058 0 -0.45793597630314969 0.024230769359779091 0 -0.4631872778078443 0.050062174524471058 0 -0.45793597630314969 0.024230769359779091 0 -0.4631872778078443 0.050062174524471058 0 -0.44755765064800451 0.039790068000500847 0 -0.45793597630314969 0.024230769359779091 0 -0.44755765064800451 0.039790068000500847 0 -0.43523671041618939 0.023434885238954581 0 -0.43070758581248142 0.047053180835022322 0 -0.4631872778078443 0.050062174524471058 0 -0.44755765064800451 0.039790068000500847 0 -0.4467001814262947 0.061097152827744368 0 -0.44755765064800451 0.039790068000500847 0 -0.4467001814262947 0.061097152827744368 0 -0.43070758581248142 0.047053180835022322 0 -0.45268467479845531 -0.00160063580491273 0 -0.45793597630314969 0.024230769359779091 0 -0.45268467479845531 -0.00160063580491273 0 -0.47044579822050858 0.003730308873902122 0 -0.45793597630314969 0.024230769359779091 0 -0.44755765064800451 0.039790068000500847 0 -0.45793597630314969 0.024230769359779091 0 -0.43523671041618939 0.023434885238954581 0 -0.45268467479845531 -0.00160063580491273 0 -0.45793597630314969 0.024230769359779091 0 -0.43523671041618939 0.023434885238954581 0 -0.43033724725149269 -0.0037964727450953309 0 -0.45268467479845531 -0.00160063580491273 0 -0.43523671041618939 0.023434885238954581 0 -0.43033724725149269 -0.0037964727450953309 0 -0.41324112120922679 0.019839095479414509 0 -0.43523671041618939 0.023434885238954581 0 -0.4131572459017161 -0.004875649818797438 0 -0.41324112120922679 0.019839095479414509 0 -0.40033306733275759 0.0019581273283447299 0 -0.43033724725149269 -0.0037964727450953309 0 -0.4131572459017161 -0.004875649818797438 0 -0.41324112120922679 0.019839095479414509 0 -0.43033724725149269 -0.0037964727450953309 0 -0.41324112120922679 0.019839095479414509 0 -0.41324112120922679 0.019839095479414509 0 -0.43523671041618939 0.023434885238954581 0 -0.4159879611894004 0.038538653043845933 0 -0.43523671041618939 0.023434885238954581 0 -0.43070758581248142 0.047053180835022322 0 -0.4159879611894004 0.038538653043845933 0 -0.4467001814262947 0.061097152827744368 0 -0.43070758581248142 0.047053180835022322 0 -0.43187545736445182 0.065921103617004775 0 -0.43070758581248142 0.047053180835022322 0 -0.41322656597679058 0.058941655142102069 0 -0.43187545736445182 0.065921103617004775 0 -0.43070758581248142 0.047053180835022322 0 -0.41322656597679058 0.058941655142102069 0 -0.4159879611894004 0.038538653043845933 0 -0.41322656597679058 0.058941655142102069 0 -0.4159879611894004 0.038538653043845933 0 -0.39614499516696089 0.04347466370392436 0 -0.41324112120922679 0.019839095479414509 0 -0.4159879611894004 0.038538653043845933 0 -0.39614499516696089 0.04347466370392436 0 -0.41324112120922679 0.019839095479414509 0 -0.39614499516696089 0.04347466370392436 0 -0.39614499516696089 0.04347466370392436 0 -0.37904886912469499 0.067110231928434197 0 -0.39695674231957478 0.074929810419583368 0 -0.41322656597679058 0.058941655142102069 0 -0.39614499516696089 0.04347466370392436 0 -0.39695674231957478 0.074929810419583368 0 -0.39614499516696089 0.04347466370392436 0 -0.37904886912469499 0.067110231928434197 0 -0.39614499516696089 0.04347466370392436 0 -0.37830855690199738 0.048851891747440382 0 -0.37904886912469499 0.067110231928434197 0 -0.37830855690199738 0.048851891747440382 0 -0.37904886912469499 0.067110231928434197 0 -0.37119345183321822 0.058853827639881867 0 -0.39614499516696089 0.04347466370392436 0 -0.37753126207020948 0.034899308803226177 0 -0.39262774316901877 0.02112007510405265 0 -0.39614499516696089 0.04347466370392436 0 -0.37830855690199738 0.048851891747440382 0 -0.37753126207020948 0.034899308803226177 0 -0.38389636562500351 0.0078670615218947963 0 -0.39262774316901877 0.02112007510405265 0 -0.37274578052696178 0.01868977009819147 0 -0.37753126207020948 0.034899308803226177 0 -0.39262774316901877 0.02112007510405265 0 -0.37274578052696178 0.01868977009819147 0 -0.38465333842141641 -0.0066435457767305304 0 -0.38389636562500351 0.0078670615218947963 0 -0.40033306733275759 0.0019581273283447299 0 -0.38389636562500351 0.0078670615218947963 0 -0.37274578052696178 0.01868977009819147 0 -0.36979036210562988 0.0025511841975563729 0 -0.38465333842141641 -0.0066435457767305304 0 -0.38389636562500351 0.0078670615218947963 0 -0.36979036210562988 0.0025511841975563729 0 -0.38389636562500351 0.0078670615218947963 0 -0.40033306733275759 0.0019581273283447299 0 -0.39262774316901877 0.02112007510405265 0 -0.41324112120922679 0.019839095479414509 0 -0.40033306733275759 0.0019581273283447299 0 -0.39262774316901877 0.02112007510405265 0 -0.41324112120922679 0.019839095479414509 0 -0.39614499516696089 0.04347466370392436 0 -0.39262774316901877 0.02112007510405265 0 -0.38940712396436111 0.098535478259042519 0 -0.39976920250104669 0.086913075381088473 0 -0.40655062222011962 0.096340958868671334 0 -0.39063101314785642 0.1199442217017349 0 -0.40655062222011962 0.096340958868671334 0 -0.40795026737523371 0.1101441825861223 0 -0.39063101314785642 0.1199442217017349 0 -0.38940712396436111 0.098535478259042519 0 -0.40655062222011962 0.096340958868671334 0 -0.39063101314785642 0.1199442217017349 0 -0.40655062222011962 0.096340958868671334 0 -0.39063101314785642 0.1199442217017349 0 -0.40795026737523371 0.1101441825861223 0 -0.40406865080306442 0.1250183431131778 0 -0.39063101314785642 0.1199442217017349 0 -0.37896648635229202 0.10715504183998489 0 -0.36716541190589658 0.118616890008602 0 -0.39063101314785642 0.1199442217017349 0 -0.37896648635229202 0.10715504183998489 0 -0.38940712396436111 0.098535478259042519 0 -0.37896648635229202 0.10715504183998489 0 -0.38940712396436111 0.098535478259042519 0 -0.37643332436138899 0.09558572737664002 0 -0.38119130922167832 0.078766060501995444 0 -0.3856317933390121 0.08567132342606161 0 -0.39695674231957478 0.074929810419583368 0 -0.37643332436138899 0.09558572737664002 0 -0.3856317933390121 0.08567132342606161 0 -0.37016311523106599 0.083751267223082917 0 -0.38119130922167832 0.078766060501995444 0 -0.3856317933390121 0.08567132342606161 0 -0.37016311523106599 0.083751267223082917 0 -0.38940712396436111 0.098535478259042519 0 -0.37643332436138899 0.09558572737664002 0 -0.3856317933390121 0.08567132342606161 0 -0.39695674231957478 0.074929810419583368 0 -0.37201358599706058 0.070711840939253895 0 -0.38119130922167832 0.078766060501995444 0 -0.39695674231957478 0.074929810419583368 0 -0.37201358599706058 0.070711840939253895 0 -0.37904886912469499 0.067110231928434197 0 -0.39695674231957478 0.074929810419583368 0 -0.37201358599706058 0.070711840939253895 0 -0.39695674231957478 0.074929810419583368 0 -0.39976920250104669 0.086913075381088473 0 -0.42189989864208899 0.079147779899912826 0 -0.38940712396436111 0.098535478259042519 0 -0.3856317933390121 0.08567132342606161 0 -0.39976920250104669 0.086913075381088473 0 -0.3856317933390121 0.08567132342606161 0 -0.39695674231957478 0.074929810419583368 0 -0.39976920250104669 0.086913075381088473 0 -0.42189989864208899 0.079147779899912826 0 -0.41823283762125668 0.10021421029095 0 -0.40655062222011962 0.096340958868671334 0 -0.39976920250104669 0.086913075381088473 0 -0.42189989864208899 0.079147779899912826 0 -0.40655062222011962 0.096340958868671334 0 -0.39695674231957478 0.074929810419583368 0 -0.42189989864208899 0.079147779899912826 0 -0.41322656597679058 0.058941655142102069 0 -0.39695674231957478 0.074929810419583368 0 -0.42189989864208899 0.079147779899912826 0 -0.43187545736445182 0.065921103617004775 0 -0.42189989864208899 0.079147779899912826 0 -0.44684305496460319 0.083365749380242285 0 -0.41322656597679058 0.058941655142102069 0 -0.43187545736445182 0.065921103617004775 0 -0.42189989864208899 0.079147779899912826 0 -0.42189989864208899 0.079147779899912826 0 -0.43230900050581528 0.10074033507248679 0 -0.44684305496460319 0.083365749380242285 0 -0.42189989864208899 0.079147779899912826 0 -0.43230900050581528 0.10074033507248679 0 -0.41823283762125668 0.10021421029095 0 -0.42189989864208899 0.079147779899912826 0 -0.44684305496460319 0.083365749380242285 0 -0.43230900050581528 0.10074033507248679 0 -0.41823283762125668 0.10021421029095 0 -0.42245439936302609 0.1146977950275566 0 -0.41823283762125668 0.10021421029095 0 -0.40795026737523371 0.1101441825861223 0 -0.42245439936302609 0.1146977950275566 0 -0.41823283762125668 0.10021421029095 0 -0.40655062222011962 0.096340958868671334 0 -0.40795026737523371 0.1101441825861223 0 -0.40795026737523371 0.1101441825861223 0 -0.42245439936302609 0.1146977950275566 0 -0.41854804079657681 0.1335618185962307 0 -0.40795026737523371 0.1101441825861223 0 -0.41854804079657681 0.1335618185962307 0 -0.40795026737523371 0.1101441825861223 0 -0.41854804079657681 0.1335618185962307 0 -0.40406865080306442 0.1250183431131778 0 -0.4361514068569779 0.1212930370016405 0 -0.42245439936302609 0.1146977950275566 0 -0.41854804079657681 0.1335618185962307 0 -0.43230900050581528 0.10074033507248679 0 -0.4361514068569779 0.1212930370016405 0 -0.42245439936302609 0.1146977950275566 0 -0.4361514068569779 0.1212930370016405 0 -0.45131059104818438 0.10389771754541841 0 -0.45603072582896947 0.12415654782577901 0 -0.43230900050581528 0.10074033507248679 0 -0.4361514068569779 0.1212930370016405 0 -0.45131059104818438 0.10389771754541841 0 -0.43230900050581528 0.10074033507248679 0 -0.45131059104818438 0.10389771754541841 0 -0.44684305496460319 0.083365749380242285 0 -0.45131059104818438 0.10389771754541841 0 -0.46040635620489312 0.091287960740373597 0 -0.47503319949424611 0.10199479634667059 0 -0.45131059104818438 0.10389771754541841 0 -0.45603072582896947 0.12415654782577901 0 -0.47503319949424611 0.10199479634667059 0 -0.4467001814262947 0.061097152827744368 0 -0.43187545736445182 0.065921103617004775 0 -0.44684305496460319 0.083365749380242285 0 -0.45131059104818438 0.10389771754541841 0 -0.44684305496460319 0.083365749380242285 0 -0.46040635620489312 0.091287960740373597 0 -0.46040635620489312 0.091287960740373597 0 -0.46843857931253879 0.07589357968916309 0 -0.47503319949424611 0.10199479634667059 0 -0.44684305496460319 0.083365749380242285 0 -0.46040635620489312 0.091287960740373597 0 -0.46843857931253879 0.07589357968916309 0 -0.4631872778078443 0.050062174524471058 0 -0.46843857931253879 0.07589357968916309 0 -0.4467001814262947 0.061097152827744368 0 -0.44684305496460319 0.083365749380242285 0 -0.46843857931253879 0.07589357968916309 0 -0.48160115767747708 0.06010989829645641 0 -0.46843857931253879 0.07589357968916309 0 -0.5 0.083070687084506711 0 -0.46843857931253879 0.07589357968916309 0 -0.5 0.083070687084506711 0 -0.47503319949424611 0.10199479634667059 0 -0.5 0.05407575864766756 0 -0.48160115767747708 0.06010989829645641 0 -0.5 0.083070687084506711 0 -0.45603072582896947 0.12415654782577901 0 -0.47503319949424611 0.10199479634667059 0 -0.47840746745339868 0.1318715347448986 0 -0.5 0.083070687084506711 0 -0.47503319949424611 0.10199479634667059 0 -0.5 0.11206561552134579 0 -0.47503319949424611 0.10199479634667059 0 -0.5 0.11206561552134579 0 -0.47840746745339868 0.1318715347448986 0 -0.5 0.11206561552134579 0 -0.47840746745339868 0.1318715347448986 0 -0.5 0.14106054395818479 0 -0.47840746745339868 0.1318715347448986 0 -0.4813713775429343 0.15534342778339541 0 -0.45584990199199521 0.14839652371063539 0 -0.47840746745339868 0.1318715347448986 0 -0.4813713775429343 0.15534342778339541 0 -0.5 0.14106054395818479 0 -0.4813713775429343 0.15534342778339541 0 -0.5 0.14106054395818479 0 -0.5 0.17005547239502389 0 -0.4813713775429343 0.15534342778339541 0 -0.5 0.17005547239502389 0 -0.47888983910924399 0.1833910978263659 0 -0.5 0.17005547239502389 0 -0.47888983910924399 0.1833910978263659 0 -0.49999999999999639 0.19905040083186301 0 -0.4813713775429343 0.15534342778339541 0 -0.47888983910924399 0.1833910978263659 0 -0.46013732273498392 0.17116473448995881 0 -0.4813713775429343 0.15534342778339541 0 -0.47888983910924399 0.1833910978263659 0 -0.4813713775429343 0.15534342778339541 0 -0.46013732273498392 0.17116473448995881 0 -0.45584990199199521 0.14839652371063539 0 -0.47888983910924399 0.1833910978263659 0 -0.46013732273498392 0.17116473448995881 0 -0.4553652866229031 0.19812390853730849 0 -0.46013732273498392 0.17116473448995881 0 -0.43974358763926291 0.18039709061644729 0 -0.4553652866229031 0.19812390853730849 0 -0.46013732273498392 0.17116473448995881 0 -0.45584990199199521 0.14839652371063539 0 -0.42914581421791992 0.156979454606339 0 -0.46013732273498392 0.17116473448995881 0 -0.43974358763926291 0.18039709061644729 0 -0.42914581421791992 0.156979454606339 0 -0.43890233478009338 0.1378395493323826 0 -0.45584990199199521 0.14839652371063539 0 -0.42914581421791992 0.156979454606339 0 -0.4361514068569779 0.1212930370016405 0 -0.45603072582896947 0.12415654782577901 0 -0.43890233478009338 0.1378395493323826 0 -0.45603072582896947 0.12415654782577901 0 -0.43890233478009338 0.1378395493323826 0 -0.45584990199199521 0.14839652371063539 0 -0.45603072582896947 0.12415654782577901 0 -0.47840746745339868 0.1318715347448986 0 -0.45584990199199521 0.14839652371063539 0 -0.48510068849613291 0.2464952989699998 0 -0.5 0.22952651967534751 0 -0.5 0.27058277969487637 0 -0.48510068849613291 0.2464952989699998 0 -0.47450648191078398 0.23293413722231679 0 -0.4662317729600568 0.24711617116125539 0 -0.48510068849613291 0.2464952989699998 0 -0.5 0.22952651967534751 0 -0.47450648191078398 0.23293413722231679 0 -0.5 0.22952651967534751 0 -0.47450648191078398 0.23293413722231679 0 -0.47640830067555312 0.21143876786933641 0 -0.47450648191078398 0.23293413722231679 0 -0.47640830067555312 0.21143876786933641 0 -0.47640830067555312 0.21143876786933641 0 -0.49999999999999639 0.19905040083186301 0 -0.5 0.22952651967534751 0 -0.47640830067555312 0.21143876786933641 0 -0.49999999999999639 0.19905040083186301 0 -0.47888983910924399 0.1833910978263659 0 -0.47640830067555312 0.21143876786933641 0 -0.49999999999999639 0.19905040083186301 0 -0.47888983910924399 0.1833910978263659 0 -0.47640830067555312 0.21143876786933641 0 -0.47888983910924399 0.1833910978263659 0 -0.47640830067555312 0.21143876786933641 0 -0.4553652866229031 0.19812390853730849 0 -0.43974358763926291 0.18039709061644729 0 -0.4553652866229031 0.19812390853730849 0 -0.43067986422853077 0.20940139548392031 0 -0.4553652866229031 0.19812390853730849 0 -0.45283971357182312 0.22381499832142371 0 -0.43067986422853077 0.20940139548392031 0 -0.47640830067555312 0.21143876786933641 0 -0.4553652866229031 0.19812390853730849 0 -0.45283971357182312 0.22381499832142371 0 -0.47640830067555312 0.21143876786933641 0 -0.45283971357182312 0.22381499832142371 0 -0.47450648191078398 0.23293413722231679 0 -0.45283971357182312 0.22381499832142371 0 -0.45078000859246359 0.24156244513336969 0 -0.47450648191078398 0.23293413722231679 0 -0.47640830067555312 0.21143876786933641 0 -0.45283971357182312 0.22381499832142371 0 -0.45283971357182312 0.22381499832142371 0 -0.43294786837480398 0.2404538296894207 0 -0.42927112646809362 0.23619122877351181 0 -0.45283971357182312 0.22381499832142371 0 -0.42927112646809362 0.23619122877351181 0 -0.45283971357182312 0.22381499832142371 0 -0.42927112646809362 0.23619122877351181 0 -0.43067986422853077 0.20940139548392031 0 -0.45283971357182312 0.22381499832142371 0 -0.45078000859246359 0.24156244513336969 0 -0.43294786837480398 0.2404538296894207 0 -0.43294786837480398 0.2404538296894207 0 -0.44957601688056159 0.25938839971938082 0 -0.45078000859246359 0.24156244513336969 0 -0.43294786837480398 0.2404538296894207 0 -0.44957601688056159 0.25938839971938082 0 -0.45078000859246359 0.24156244513336969 0 -0.4662317729600568 0.24711617116125539 0 -0.44957601688056159 0.25938839971938082 0 -0.47450648191078398 0.23293413722231679 0 -0.45078000859246359 0.24156244513336969 0 -0.4662317729600568 0.24711617116125539 0 -0.42927112646809362 0.23619122877351181 0 -0.40439403923729561 0.237116777479636 0 -0.40570253936436479 0.24856745922560119 0 -0.42927112646809362 0.23619122877351181 0 -0.40570253936436479 0.24856745922560119 0 -0.43294786837480398 0.2404538296894207 0 -0.42927112646809362 0.23619122877351181 0 -0.40570253936436479 0.24856745922560119 0 -0.42927112646809362 0.23619122877351181 0 -0.41099867150134572 0.22378265931279079 0 -0.43067986422853077 0.20940139548392031 0 -0.42927112646809362 0.23619122877351181 0 -0.41099867150134572 0.22378265931279079 0 -0.40439403923729561 0.237116777479636 0 -0.40693149157881192 0.20854646138297669 0 -0.43067986422853077 0.20940139548392031 0 -0.41468845130467291 0.19268004053423909 0 -0.41099867150134572 0.22378265931279079 0 -0.40693149157881192 0.20854646138297669 0 -0.43067986422853077 0.20940139548392031 0 -0.43974358763926291 0.18039709061644729 0 -0.43067986422853077 0.20940139548392031 0 -0.41468845130467291 0.19268004053423909 0 -0.40693149157881192 0.20854646138297669 0 -0.41468845130467291 0.19268004053423909 0 -0.3971577940731173 0.19827573187671929 0 -0.41468845130467291 0.19268004053423909 0 -0.3971577940731173 0.19827573187671929 0 -0.39721082993519219 0.18448993107768991 0 -0.3971577940731173 0.19827573187671929 0 -0.38589476142810619 0.19424352100093389 0 -0.39721082993519219 0.18448993107768991 0 -0.38589476142810619 0.19424352100093389 0 -0.37633455857784293 0.18261391494179069 0 -0.37360736010814782 0.20134128663860251 0 -0.38589476142810619 0.19424352100093389 0 -0.388204088430469 0.2080493245121296 0 -0.37360736010814782 0.20134128663860251 0 -0.3971577940731173 0.19827573187671929 0 -0.38589476142810619 0.19424352100093389 0 -0.388204088430469 0.2080493245121296 0 -0.388204088430469 0.2080493245121296 0 -0.37752279527241261 0.21261086987475841 0 -0.37360736010814782 0.20134128663860251 0 -0.388204088430469 0.2080493245121296 0 -0.39698893960476778 0.22105750592270679 0 -0.38334950790794681 0.2216260941536595 0 -0.388204088430469 0.2080493245121296 0 -0.37752279527241261 0.21261086987475841 0 -0.38334950790794681 0.2216260941536595 0 -0.40693149157881192 0.20854646138297669 0 -0.3971577940731173 0.19827573187671929 0 -0.388204088430469 0.2080493245121296 0 -0.40693149157881192 0.20854646138297669 0 -0.388204088430469 0.2080493245121296 0 -0.39698893960476778 0.22105750592270679 0 -0.41099867150134572 0.22378265931279079 0 -0.40693149157881192 0.20854646138297669 0 -0.39698893960476778 0.22105750592270679 0 -0.41099867150134572 0.22378265931279079 0 -0.39817935363044121 0.2307605800777236 0 -0.39698893960476778 0.22105750592270679 0 -0.41099867150134572 0.22378265931279079 0 -0.39817935363044121 0.2307605800777236 0 -0.40439403923729561 0.237116777479636 0 -0.39817935363044121 0.2307605800777236 0 -0.39698893960476778 0.22105750592270679 0 -0.38938082192181989 0.23429513208400299 0 -0.39698893960476778 0.22105750592270679 0 -0.38334950790794681 0.2216260941536595 0 -0.38938082192181989 0.23429513208400299 0 -0.37752279527241261 0.21261086987475841 0 -0.38334950790794681 0.2216260941536595 0 -0.37349668708843092 0.2226496950895116 0 -0.38334950790794681 0.2216260941536595 0 -0.37780308712422273 0.23309721308500589 0 -0.37349668708843092 0.2226496950895116 0 -0.38334950790794681 0.2216260941536595 0 -0.37780308712422273 0.23309721308500589 0 -0.38938082192181989 0.23429513208400299 0 -0.37780308712422273 0.23309721308500589 0 -0.38938082192181989 0.23429513208400299 0 -0.38455494932564349 0.24416718140159829 0 -0.38938082192181989 0.23429513208400299 0 -0.38455494932564349 0.24416718140159829 0 -0.39556747567899392 0.24292135359640349 0 -0.37780308712422273 0.23309721308500589 0 -0.37552267705158737 0.2431978490864326 0 -0.38455494932564349 0.24416718140159829 0 -0.37552267705158737 0.2431978490864326 0 -0.38455494932564349 0.24416718140159829 0 -0.37675611103540763 0.25409865512553548 0 -0.38455494932564349 0.24416718140159829 0 -0.39556747567899392 0.24292135359640349 0 -0.38900306751682168 0.25733661077056619 0 -0.39556747567899392 0.24292135359640349 0 -0.40570253936436479 0.24856745922560119 0 -0.38900306751682168 0.25733661077056619 0 -0.39817935363044121 0.2307605800777236 0 -0.38938082192181989 0.23429513208400299 0 -0.39556747567899392 0.24292135359640349 0 -0.39817935363044121 0.2307605800777236 0 -0.39556747567899392 0.24292135359640349 0 -0.40439403923729561 0.237116777479636 0 -0.39556747567899392 0.24292135359640349 0 -0.40439403923729561 0.237116777479636 0 -0.40570253936436479 0.24856745922560119 0 -0.40439403923729561 0.237116777479636 0 -0.40570253936436479 0.24856745922560119 0 -0.41854804079657681 0.1335618185962307 0 -0.42914581421791992 0.156979454606339 0 -0.40043471814444209 0.15516303321545699 0 -0.41854804079657681 0.1335618185962307 0 -0.39914528189259102 0.13642314956862331 0 -0.40406865080306442 0.1250183431131778 0 -0.4361514068569779 0.1212930370016405 0 -0.43890233478009338 0.1378395493323826 0 -0.41854804079657681 0.1335618185962307 0 -0.41854804079657681 0.1335618185962307 0 -0.42914581421791992 0.156979454606339 0 -0.43890233478009338 0.1378395493323826 0 -0.41854804079657681 0.1335618185962307 0 -0.42914581421791992 0.156979454606339 0 -0.43974358763926291 0.18039709061644729 0 -0.42914581421791992 0.156979454606339 0 -0.43974358763926291 0.18039709061644729 0 -0.42914581421791992 0.156979454606339 0 -0.41320507520050959 0.17295104721716609 0 -0.43974358763926291 0.18039709061644729 0 -0.41468845130467291 0.19268004053423909 0 -0.41320507520050959 0.17295104721716609 0 -0.41468845130467291 0.19268004053423909 0 -0.41320507520050959 0.17295104721716609 0 -0.39721082993519219 0.18448993107768991 0 -0.42914581421791992 0.156979454606339 0 -0.41320507520050959 0.17295104721716609 0 -0.40043471814444209 0.15516303321545699 0 -0.41320507520050959 0.17295104721716609 0 -0.39020731289493082 0.17075062011690681 0 -0.40043471814444209 0.15516303321545699 0 -0.41320507520050959 0.17295104721716609 0 -0.39721082993519219 0.18448993107768991 0 -0.39020731289493082 0.17075062011690681 0 -0.38589476142810619 0.19424352100093389 0 -0.39721082993519219 0.18448993107768991 0 -0.37633455857784293 0.18261391494179069 0 -0.39721082993519219 0.18448993107768991 0 -0.37633455857784293 0.18261391494179069 0 -0.39020731289493082 0.17075062011690681 0 -0.37604315808934557 0.1616159605326225 0 -0.39020731289493082 0.17075062011690681 0 -0.40043471814444209 0.15516303321545699 0 -0.37633455857784293 0.18261391494179069 0 -0.37604315808934557 0.1616159605326225 0 -0.39020731289493082 0.17075062011690681 0 -0.37604315808934557 0.1616159605326225 0 -0.40043471814444209 0.15516303321545699 0 -0.37471140407559322 0.1435474845347986 0 -0.40043471814444209 0.15516303321545699 0 -0.39914528189259102 0.13642314956862331 0 -0.37471140407559322 0.1435474845347986 0 -0.41854804079657681 0.1335618185962307 0 -0.40043471814444209 0.15516303321545699 0 -0.39914528189259102 0.13642314956862331 0 -0.39063101314785642 0.1199442217017349 0 -0.39914528189259102 0.13642314956862331 0 -0.40406865080306442 0.1250183431131778 0 -0.39063101314785642 0.1199442217017349 0 -0.37471140407559322 0.1435474845347986 0 -0.39063101314785642 0.1199442217017349 0 -0.39914528189259102 0.13642314956862331 0 -0.37471140407559322 0.1435474845347986 0 -0.39063101314785642 0.1199442217017349 0 -0.37471140407559322 0.1435474845347986 0 -0.36716541190589658 0.118616890008602 0 -0.35994195951422209 0.1344452768815545 0 -0.37471140407559322 0.1435474845347986 0 -0.36716541190589658 0.118616890008602 0 -0.35994195951422209 0.1344452768815545 0 -0.36716541190589658 0.118616890008602 0 -0.35352278934268327 0.12307152153672141 0 -0.34641309729257957 0.13731862859844601 0 -0.34013489564456101 0.1359120708212119 0 -0.34492978578452338 0.1096826786703838 0 -0.35994195951422209 0.1344452768815545 0 -0.34641309729257957 0.13731862859844601 0 -0.35352278934268327 0.12307152153672141 0 -0.35994195951422209 0.1344452768815545 0 -0.34641309729257957 0.13731862859844601 0 -0.35789709495435779 0.14967185972920441 0 -0.34641309729257957 0.13731862859844601 0 -0.34789640880063583 0.16495457852650819 0 -0.34475730797662613 0.16425129963789131 0 -0.34641309729257957 0.13731862859844601 0 -0.34789640880063583 0.16495457852650819 0 -0.34641309729257957 0.13731862859844601 0 -0.35789709495435779 0.14967185972920441 0 -0.34789640880063583 0.16495457852650819 0 -0.34641309729257957 0.13731862859844601 0 -0.34475730797662613 0.16425129963789131 0 -0.34013489564456101 0.1359120708212119 0 -0.35994195951422209 0.1344452768815545 0 -0.35789709495435779 0.14967185972920441 0 -0.37471140407559322 0.1435474845347986 0 -0.37471140407559322 0.1435474845347986 0 -0.35879179500333003 0.16715074736786231 0 -0.35789709495435779 0.14967185972920441 0 -0.37471140407559322 0.1435474845347986 0 -0.35879179500333003 0.16715074736786231 0 -0.37604315808934557 0.1616159605326225 0 -0.37471140407559322 0.1435474845347986 0 -0.35879179500333003 0.16715074736786231 0 -0.37604315808934557 0.1616159605326225 0 -0.36770080355277779 0.17295393471821821 0 -0.35879179500333003 0.16715074736786231 0 -0.37633455857784293 0.18261391494179069 0 -0.37604315808934557 0.1616159605326225 0 -0.36770080355277779 0.17295393471821821 0 -0.37633455857784293 0.18261391494179069 0 -0.36024484160731629 0.17922248672973989 0 -0.36412185028301147 0.19234279238731111 0 -0.37633455857784293 0.18261391494179069 0 -0.36770080355277779 0.17295393471821821 0 -0.36024484160731629 0.17922248672973989 0 -0.36770080355277779 0.17295393471821821 0 -0.36024484160731629 0.17922248672973989 0 -0.35879179500333003 0.16715074736786231 0 -0.34475730797662613 0.16425129963789131 0 -0.34937972030869158 0.1925905284545705 0 -0.34475730797662613 0.16425129963789131 0 -0.33955964773429331 0.17429409395644799 0 -0.34937972030869158 0.1925905284545705 0 -0.34789640880063583 0.16495457852650819 0 -0.34937972030869158 0.1925905284545705 0 -0.36024484160731629 0.17922248672973989 0 -0.34789640880063583 0.16495457852650819 0 -0.34937972030869158 0.1925905284545705 0 -0.34789640880063583 0.16495457852650819 0 -0.34475730797662613 0.16425129963789131 0 -0.34937972030869158 0.1925905284545705 0 -0.35789709495435779 0.14967185972920441 0 -0.35879179500333003 0.16715074736786231 0 -0.34789640880063583 0.16495457852650819 0 -0.36024484160731629 0.17922248672973989 0 -0.35879179500333003 0.16715074736786231 0 -0.34789640880063583 0.16495457852650819 0 -0.34475730797662613 0.16425129963789131 0 -0.33718479128260948 0.15937809544746401 0 -0.33738994680948231 0.15124435901621999 0 -0.34475730797662613 0.16425129963789131 0 -0.33718479128260948 0.15937809544746401 0 -0.33813633189250208 0.16634522180797001 0 -0.34475730797662613 0.16425129963789131 0 -0.33813633189250208 0.16634522180797001 0 -0.33955964773429331 0.17429409395644799 0 -0.33813633189250208 0.16634522180797001 0 -0.33104358057647992 0.16745739819007679 0 -0.33955964773429331 0.17429409395644799 0 -0.33718479128260948 0.15937809544746401 0 -0.33813633189250208 0.16634522180797001 0 -0.33104358057647992 0.16745739819007679 0 -0.33718479128260948 0.15937809544746401 0 -0.33104358057647992 0.16745739819007679 0 -0.33026858376101731 0.15190637449176561 0 -0.33104358057647992 0.16745739819007679 0 -0.33403331992976748 0.18227938602527921 0 -0.31962491903722229 0.18594758427241961 0 -0.33955964773429331 0.17429409395644799 0 -0.33403331992976748 0.18227938602527921 0 -0.34937972030869158 0.1925905284545705 0 -0.33104358057647992 0.16745739819007679 0 -0.33955964773429331 0.17429409395644799 0 -0.33403331992976748 0.18227938602527921 0 -0.31962491903722229 0.18594758427241961 0 -0.31796283648197832 0.1633337389314328 0 -0.30596240671843039 0.18080678990447141 0 -0.31962491903722229 0.18594758427241961 0 -0.31796283648197832 0.1633337389314328 0 -0.33104358057647992 0.16745739819007679 0 -0.31962491903722229 0.18594758427241961 0 -0.31796283648197832 0.1633337389314328 0 -0.33104358057647992 0.16745739819007679 0 -0.31796283648197832 0.1633337389314328 0 -0.33026858376101731 0.15190637449176561 0 -0.31796283648197832 0.1633337389314328 0 -0.31630075392673418 0.14071989359044609 0 -0.31796283648197832 0.1633337389314328 0 -0.31630075392673418 0.14071989359044609 0 -0.33026858376101731 0.15190637449176561 0 -0.31630075392673418 0.14071989359044609 0 -0.32855297285770901 0.13997743418302819 0 -0.33026858376101731 0.15190637449176561 0 -0.31630075392673418 0.14071989359044609 0 -0.30835875028686138 0.12836861128214669 0 -0.32196666651361477 0.12487749701900901 0 -0.31630075392673418 0.14071989359044609 0 -0.32855297285770901 0.13997743418302819 0 -0.32196666651361477 0.12487749701900901 0 -0.32855297285770901 0.13997743418302819 0 -0.33106980320980312 0.1246503866679774 0 -0.32196666651361477 0.12487749701900901 0 -0.32855297285770901 0.13997743418302819 0 -0.34013489564456101 0.1359120708212119 0 -0.3346041553825978 0.14477395468276741 0 -0.32855297285770901 0.13997743418302819 0 -0.34013489564456101 0.1359120708212119 0 -0.33106980320980312 0.1246503866679774 0 -0.34475730797662613 0.16425129963789131 0 -0.34013489564456101 0.1359120708212119 0 -0.34013489564456101 0.1359120708212119 0 -0.33738994680948231 0.15124435901621999 0 -0.3346041553825978 0.14477395468276741 0 -0.34475730797662613 0.16425129963789131 0 -0.34013489564456101 0.1359120708212119 0 -0.33738994680948231 0.15124435901621999 0 -0.33718479128260948 0.15937809544746401 0 -0.33738994680948231 0.15124435901621999 0 -0.33026858376101731 0.15190637449176561 0 -0.33738994680948231 0.15124435901621999 0 -0.33026858376101731 0.15190637449176561 0 -0.3346041553825978 0.14477395468276741 0 -0.32855297285770901 0.13997743418302819 0 -0.33026858376101731 0.15190637449176561 0 -0.3346041553825978 0.14477395468276741 0 -0.35208907389890948 0.24306917690434299 0 -0.33787454055877381 0.24529314191448051 0 -0.34142207509263922 0.25572960106260723 0 -0.35208907389890948 0.24306917690434299 0 -0.34508884738596168 0.2342440782649087 0 -0.33787454055877381 0.24529314191448051 0 -0.35689366634974828 0.23865726176967661 0 -0.35926376548055328 0.2486735779402334 0 -0.35208907389890948 0.24306917690434299 0 -0.35926376548055328 0.2486735779402334 0 -0.36665925593476811 0.2402392529692276 0 -0.36723308052532222 0.25309369692869038 0 -0.35689366634974828 0.23865726176967661 0 -0.35926376548055328 0.2486735779402334 0 -0.36665925593476811 0.2402392529692276 0 -0.37552267705158737 0.2431978490864326 0 -0.36665925593476811 0.2402392529692276 0 -0.36723308052532222 0.25309369692869038 0 -0.37780308712422273 0.23309721308500589 0 -0.37552267705158737 0.2431978490864326 0 -0.36665925593476811 0.2402392529692276 0 -0.37780308712422273 0.23309721308500589 0 -0.36665925593476811 0.2402392529692276 0 -0.36843053074319038 0.2307028505946831 0 -0.3637449320256837 0.23462317477255459 0 -0.36665925593476811 0.2402392529692276 0 -0.36843053074319038 0.2307028505946831 0 -0.35689366634974828 0.23865726176967661 0 -0.3637449320256837 0.23462317477255459 0 -0.36304404037139409 0.23042929735762199 0 -0.35689366634974828 0.23865726176967661 0 -0.3637449320256837 0.23462317477255459 0 -0.36665925593476811 0.2402392529692276 0 -0.35689366634974828 0.23865726176967661 0 -0.36304404037139409 0.23042929735762199 0 -0.36041387714694573 0.22521835140317789 0 -0.36304404037139409 0.23042929735762199 0 -0.36843053074319038 0.2307028505946831 0 -0.36573719559140289 0.222944848248018 0 -0.3637449320256837 0.23462317477255459 0 -0.36304404037139409 0.23042929735762199 0 -0.36843053074319038 0.2307028505946831 0 -0.37780308712422273 0.23309721308500589 0 -0.36843053074319038 0.2307028505946831 0 -0.37349668708843092 0.2226496950895116 0 -0.36843053074319038 0.2307028505946831 0 -0.37349668708843092 0.2226496950895116 0 -0.36573719559140289 0.222944848248018 0 -0.37349668708843092 0.2226496950895116 0 -0.36573719559140289 0.222944848248018 0 -0.36813700589141007 0.21491629458094519 0 -0.36304404037139409 0.23042929735762199 0 -0.36573719559140289 0.222944848248018 0 -0.36041387714694573 0.22521835140317789 0 -0.36573719559140289 0.222944848248018 0 -0.36041387714694573 0.22521835140317789 0 -0.36096209089537368 0.21759825830877291 0 -0.36041387714694573 0.22521835140317789 0 -0.35785158193032179 0.22427444164843771 0 -0.36096209089537368 0.21759825830877291 0 -0.35689366634974828 0.23865726176967661 0 -0.35785158193032179 0.22427444164843771 0 -0.35313669332921982 0.21562389511212349 0 -0.35785158193032179 0.22427444164843771 0 -0.35313669332921982 0.21562389511212349 0 -0.36096209089537368 0.21759825830877291 0 -0.35689366634974828 0.23865726176967661 0 -0.35313669332921982 0.21562389511212349 0 -0.35208907389890948 0.24306917690434299 0 -0.34508884738596168 0.2342440782649087 0 -0.35073439710380072 0.2178298526794567 0 -0.34508884738596168 0.2342440782649087 0 -0.35073439710380072 0.2178298526794567 0 -0.33965737798236312 0.2307841415613546 0 -0.35208907389890948 0.24306917690434299 0 -0.35073439710380072 0.2178298526794567 0 -0.35689366634974828 0.23865726176967661 0 -0.35073439710380072 0.2178298526794567 0 -0.35313669332921982 0.21562389511212349 0 -0.35689366634974828 0.23865726176967661 0 -0.35208907389890948 0.24306917690434299 0 -0.35073439710380072 0.2178298526794567 0 -0.35689366634974828 0.23865726176967661 0 -0.36041387714694573 0.22521835140317789 0 -0.35785158193032179 0.22427444164843771 0 -0.35073439710380072 0.2178298526794567 0 -0.34937972030869158 0.1925905284545705 0 -0.35313669332921982 0.21562389511212349 0 -0.36104277081305908 0.20594574517185199 0 -0.34937972030869158 0.1925905284545705 0 -0.35073439710380072 0.2178298526794567 0 -0.35313669332921982 0.21562389511212349 0 -0.34937972030869158 0.1925905284545705 0 -0.35313669332921982 0.21562389511212349 0 -0.34937972030869158 0.1925905284545705 0 -0.35073439710380072 0.2178298526794567 0 -0.34937972030869158 0.1925905284545705 0 -0.34310613959102931 0.2055031457500841 0 -0.35073439710380072 0.2178298526794567 0 -0.34310613959102931 0.2055031457500841 0 -0.34102096872395049 0.21330790674795511 0 -0.35073439710380072 0.2178298526794567 0 -0.34102096872395049 0.21330790674795511 0 -0.34050958406480097 0.2204489809667724 0 -0.35313669332921982 0.21562389511212349 0 -0.36096209089537368 0.21759825830877291 0 -0.36104277081305908 0.20594574517185199 0 -0.36573719559140289 0.222944848248018 0 -0.36096209089537368 0.21759825830877291 0 -0.36813700589141007 0.21491629458094519 0 -0.36096209089537368 0.21759825830877291 0 -0.36813700589141007 0.21491629458094519 0 -0.36104277081305908 0.20594574517185199 0 -0.37752279527241261 0.21261086987475841 0 -0.37349668708843092 0.2226496950895116 0 -0.36813700589141007 0.21491629458094519 0 -0.37752279527241261 0.21261086987475841 0 -0.36813700589141007 0.21491629458094519 0 -0.37360736010814782 0.20134128663860251 0 -0.36813700589141007 0.21491629458094519 0 -0.36104277081305908 0.20594574517185199 0 -0.37360736010814782 0.20134128663860251 0 -0.37633455857784293 0.18261391494179069 0 -0.37360736010814782 0.20134128663860251 0 -0.36412185028301147 0.19234279238731111 0 -0.36104277081305908 0.20594574517185199 0 -0.37360736010814782 0.20134128663860251 0 -0.36412185028301147 0.19234279238731111 0 -0.36024484160731629 0.17922248672973989 0 -0.36412185028301147 0.19234279238731111 0 -0.34937972030869158 0.1925905284545705 0 -0.36104277081305908 0.20594574517185199 0 -0.36412185028301147 0.19234279238731111 0 -0.34937972030869158 0.1925905284545705 0 -0.33403331992976748 0.18227938602527921 0 -0.34937972030869158 0.1925905284545705 0 -0.33132558757267788 0.19645560619981381 0 -0.34937972030869158 0.1925905284545705 0 -0.33132558757267788 0.19645560619981381 0 -0.34310613959102931 0.2055031457500841 0 -0.33132558757267788 0.19645560619981381 0 -0.33206760714527173 0.20694684499318661 0 -0.34310613959102931 0.2055031457500841 0 -0.33403331992976748 0.18227938602527921 0 -0.31962491903722229 0.18594758427241961 0 -0.33132558757267788 0.19645560619981381 0 -0.31962491903722229 0.18594758427241961 0 -0.33132558757267788 0.19645560619981381 0 -0.32128700159246643 0.2085614296134064 0 -0.31962491903722229 0.18594758427241961 0 -0.32128700159246643 0.2085614296134064 0 -0.31094130810426679 0.20146887601233149 0 -0.31962491903722229 0.18594758427241961 0 -0.32128700159246643 0.2085614296134064 0 -0.32128700159246643 0.2085614296134064 0 -0.30991457648112369 0.2265504040794763 0 -0.30833129431909739 0.21334832502430981 0 -0.32128700159246643 0.2085614296134064 0 -0.30833129431909739 0.21334832502430981 0 -0.31094130810426679 0.20146887601233149 0 -0.32128700159246643 0.2085614296134064 0 -0.334517009846864 0.21514148884522391 0 -0.33414886994078158 0.22469785659874761 0 -0.334517009846864 0.21514148884522391 0 -0.33206760714527173 0.20694684499318661 0 -0.34102096872395049 0.21330790674795511 0 -0.33132558757267788 0.19645560619981381 0 -0.32128700159246643 0.2085614296134064 0 -0.33206760714527173 0.20694684499318661 0 -0.32128700159246643 0.2085614296134064 0 -0.334517009846864 0.21514148884522391 0 -0.33206760714527173 0.20694684499318661 0 -0.33206760714527173 0.20694684499318661 0 -0.34310613959102931 0.2055031457500841 0 -0.34102096872395049 0.21330790674795511 0 -0.334517009846864 0.21514148884522391 0 -0.34102096872395049 0.21330790674795511 0 -0.34050958406480097 0.2204489809667724 0 -0.33965737798236312 0.2307841415613546 0 -0.33414886994078158 0.22469785659874761 0 -0.32294908414771051 0.231175274954393 0 -0.34050958406480097 0.2204489809667724 0 -0.33965737798236312 0.2307841415613546 0 -0.33414886994078158 0.22469785659874761 0 -0.334517009846864 0.21514148884522391 0 -0.34050958406480097 0.2204489809667724 0 -0.33414886994078158 0.22469785659874761 0 -0.35073439710380072 0.2178298526794567 0 -0.34050958406480097 0.2204489809667724 0 -0.33965737798236312 0.2307841415613546 0 -0.32128700159246643 0.2085614296134064 0 -0.33414886994078158 0.22469785659874761 0 -0.32294908414771051 0.231175274954393 0 -0.32128700159246643 0.2085614296134064 0 -0.32294908414771051 0.231175274954393 0 -0.32128700159246643 0.2085614296134064 0 -0.32294908414771051 0.231175274954393 0 -0.30991457648112369 0.2265504040794763 0 -0.32294908414771051 0.231175274954393 0 -0.30659471691689572 0.242716670786389 0 -0.30991457648112369 0.2265504040794763 0 -0.32294908414771051 0.231175274954393 0 -0.30659471691689572 0.242716670786389 0 -0.32493898666941562 0.25370598596143412 0 -0.33965737798236312 0.2307841415613546 0 -0.32294908414771051 0.231175274954393 0 -0.33787454055877381 0.24529314191448051 0 -0.32294908414771051 0.231175274954393 0 -0.33787454055877381 0.24529314191448051 0 -0.32493898666941562 0.25370598596143412 0 -0.34508884738596168 0.2342440782649087 0 -0.33965737798236312 0.2307841415613546 0 -0.33787454055877381 0.24529314191448051 0 -0.28392805579818597 0.24584677119781029 0 -0.30659471691689572 0.242716670786389 0 -0.29475597619187288 0.23283261746471121 0 -0.28392805579818597 0.24584677119781029 0 -0.29475597619187288 0.23283261746471121 0 -0.28109078806307641 0.23123665432302171 0 -0.30991457648112369 0.2265504040794763 0 -0.2995127007984647 0.22240216811521779 0 -0.29475597619187288 0.23283261746471121 0 -0.30659471691689572 0.242716670786389 0 -0.30991457648112369 0.2265504040794763 0 -0.29475597619187288 0.23283261746471121 0 -0.30991457648112369 0.2265504040794763 0 -0.2995127007984647 0.22240216811521779 0 -0.30833129431909739 0.21334832502430981 0 -0.2995127007984647 0.22240216811521779 0 -0.29475597619187288 0.23283261746471121 0 -0.28658767146556752 0.2208426317688808 0 -0.29475597619187288 0.23283261746471121 0 -0.28658767146556752 0.2208426317688808 0 -0.28109078806307641 0.23123665432302171 0 -0.28658767146556752 0.2208426317688808 0 -0.28549164962408852 0.20589081089837991 0 -0.27599235506858921 0.213338138612501 0 -0.2995127007984647 0.22240216811521779 0 -0.28658767146556752 0.2208426317688808 0 -0.29782091388006071 0.2077851852193662 0 -0.28658767146556752 0.2208426317688808 0 -0.28549164962408852 0.20589081089837991 0 -0.29782091388006071 0.2077851852193662 0 -0.2995127007984647 0.22240216811521779 0 -0.30833129431909739 0.21334832502430981 0 -0.29782091388006071 0.2077851852193662 0 -0.30833129431909739 0.21334832502430981 0 -0.29782091388006071 0.2077851852193662 0 -0.31094130810426679 0.20146887601233149 0 -0.31094130810426679 0.20146887601233149 0 -0.28918285092023371 0.18809301854234381 0 -0.30596240671843039 0.18080678990447141 0 -0.31094130810426679 0.20146887601233149 0 -0.28918285092023371 0.18809301854234381 0 -0.31962491903722229 0.18594758427241961 0 -0.31094130810426679 0.20146887601233149 0 -0.30596240671843039 0.18080678990447141 0 -0.29782091388006071 0.2077851852193662 0 -0.31094130810426679 0.20146887601233149 0 -0.28918285092023371 0.18809301854234381 0 -0.28549164962408852 0.20589081089837991 0 -0.28918285092023371 0.18809301854234381 0 -0.27469451239495962 0.19856643751398209 0 -0.28549164962408852 0.20589081089837991 0 -0.29782091388006071 0.2077851852193662 0 -0.28918285092023371 0.18809301854234381 0 -0.27469451239495962 0.19856643751398209 0 -0.25846339158769432 0.19477026040294029 0 -0.26742439373620053 0.1747171610723561 0 -0.27469451239495962 0.19856643751398209 0 -0.25846339158769432 0.19477026040294029 0 -0.26373521695980739 0.20854805576629271 0 -0.25846339158769432 0.19477026040294029 0 -0.25264776582176801 0.2054066783297176 0 -0.24512564856919611 0.1966003761625241 0 -0.25846339158769432 0.19477026040294029 0 -0.26373521695980739 0.20854805576629271 0 -0.25264776582176801 0.2054066783297176 0 -0.26373521695980739 0.20854805576629271 0 -0.25264776582176801 0.2054066783297176 0 -0.25326648915379463 0.21765104414027969 0 -0.26373521695980739 0.20854805576629271 0 -0.25326648915379463 0.21765104414027969 0 -0.26696116117740232 0.2188897629996385 0 -0.26373521695980739 0.20854805576629271 0 -0.27599235506858921 0.213338138612501 0 -0.26696116117740232 0.2188897629996385 0 -0.27469451239495962 0.19856643751398209 0 -0.26373521695980739 0.20854805576629271 0 -0.27599235506858921 0.213338138612501 0 -0.28549164962408852 0.20589081089837991 0 -0.27469451239495962 0.19856643751398209 0 -0.27599235506858921 0.213338138612501 0 -0.28658767146556752 0.2208426317688808 0 -0.27599235506858921 0.213338138612501 0 -0.27366575233363138 0.22408994750137051 0 -0.28658767146556752 0.2208426317688808 0 -0.27366575233363138 0.22408994750137051 0 -0.28109078806307641 0.23123665432302171 0 -0.27366575233363138 0.22408994750137051 0 -0.28109078806307641 0.23123665432302171 0 -0.26613842301448931 0.22948780180005629 0 -0.27366575233363138 0.22408994750137051 0 -0.26613842301448931 0.22948780180005629 0 -0.27599235506858921 0.213338138612501 0 -0.27366575233363138 0.22408994750137051 0 -0.26696116117740232 0.2188897629996385 0 -0.27366575233363138 0.22408994750137051 0 -0.26613842301448931 0.22948780180005629 0 -0.26696116117740232 0.2188897629996385 0 -0.25326648915379463 0.21765104414027969 0 -0.26613842301448931 0.22948780180005629 0 -0.25326648915379463 0.21765104414027969 0 -0.26613842301448931 0.22948780180005629 0 -0.26696116117740232 0.2188897629996385 0 -0.26613842301448931 0.22948780180005629 0 -0.25250373055295899 0.22903132158689779 0 -0.2468893326351202 0.24329134098969171 0 -0.25326648915379463 0.21765104414027969 0 -0.26613842301448931 0.22948780180005629 0 -0.25250373055295899 0.22903132158689779 0 -0.26613842301448931 0.22948780180005629 0 -0.2468893326351202 0.24329134098969171 0 -0.26613842301448931 0.22948780180005629 0 -0.26514282027817931 0.24842266601513599 0 -0.2468893326351202 0.24329134098969171 0 -0.28392805579818597 0.24584677119781029 0 -0.26613842301448931 0.22948780180005629 0 -0.26514282027817931 0.24842266601513599 0 -0.28392805579818597 0.24584677119781029 0 -0.26613842301448931 0.22948780180005629 0 -0.28392805579818597 0.24584677119781029 0 -0.28109078806307641 0.23123665432302171 0 -0.26613842301448931 0.22948780180005629 0 -0.29674228528268098 0.14167201189203629 0 -0.29210011904845101 0.16519073176382951 0 -0.2788144627000812 0.14703818685698561 0 -0.29674228528268098 0.14167201189203629 0 -0.2788144627000812 0.14703818685698561 0 -0.2804226891664876 0.12940513594623221 0 -0.29674228528268098 0.14167201189203629 0 -0.2804226891664876 0.12940513594623221 0 -0.29563289833704792 0.1211109261551389 0 -0.29674228528268098 0.14167201189203629 0 -0.30835875028686138 0.12836861128214669 0 -0.29563289833704792 0.1211109261551389 0 -0.31630075392673418 0.14071989359044609 0 -0.29674228528268098 0.14167201189203629 0 -0.30835875028686138 0.12836861128214669 0 -0.31796283648197832 0.1633337389314328 0 -0.31630075392673418 0.14071989359044609 0 -0.29674228528268098 0.14167201189203629 0 -0.31796283648197832 0.1633337389314328 0 -0.30596240671843039 0.18080678990447141 0 -0.29210011904845101 0.16519073176382951 0 -0.31796283648197832 0.1633337389314328 0 -0.29674228528268098 0.14167201189203629 0 -0.29210011904845101 0.16519073176382951 0 -0.28918285092023371 0.18809301854234381 0 -0.30596240671843039 0.18080678990447141 0 -0.29210011904845101 0.16519073176382951 0 -0.28918285092023371 0.18809301854234381 0 -0.29210011904845101 0.16519073176382951 0 -0.26742439373620053 0.1747171610723561 0 -0.29210011904845101 0.16519073176382951 0 -0.26645859331151961 0.15770478106228089 0 -0.2788144627000812 0.14703818685698561 0 -0.29210011904845101 0.16519073176382951 0 -0.26645859331151961 0.15770478106228089 0 -0.26742439373620053 0.1747171610723561 0 -0.28918285092023371 0.18809301854234381 0 -0.27469451239495962 0.19856643751398209 0 -0.26742439373620053 0.1747171610723561 0 -0.28918285092023371 0.18809301854234381 0 -0.26742439373620053 0.1747171610723561 0 -0.25846339158769432 0.19477026040294029 0 -0.26742439373620053 0.1747171610723561 0 -0.2425545525554833 0.18325607046718431 0 -0.26742439373620053 0.1747171610723561 0 -0.24566593655216731 0.1613413036023684 0 -0.2425545525554833 0.18325607046718431 0 -0.26742439373620053 0.1747171610723561 0 -0.24566593655216731 0.1613413036023684 0 -0.26645859331151961 0.15770478106228089 0 -0.26742439373620053 0.1747171610723561 0 -0.24566593655216731 0.1613413036023684 0 -0.26645859331151961 0.15770478106228089 0 -0.26077588748637798 0.14053443996503889 0 -0.24566593655216731 0.1613413036023684 0 -0.26645859331151961 0.15770478106228089 0 -0.2788144627000812 0.14703818685698561 0 -0.26077588748637798 0.14053443996503889 0 -0.2788144627000812 0.14703818685698561 0 -0.2804226891664876 0.12940513594623221 0 -0.26077588748637798 0.14053443996503889 0 -0.2804226891664876 0.12940513594623221 0 -0.26077588748637798 0.14053443996503889 0 -0.26620622488190782 0.1187168322113534 0 -0.26077588748637798 0.14053443996503889 0 -0.25033803458298193 0.12914144363467839 0 -0.2394413917758374 0.14053574488666021 0 -0.26077588748637798 0.14053443996503889 0 -0.25033803458298193 0.12914144363467839 0 -0.26620622488190782 0.1187168322113534 0 -0.25033803458298193 0.12914144363467839 0 -0.25364395357421121 0.10678394025260531 0 -0.26620622488190782 0.1187168322113534 0 -0.25364395357421121 0.10678394025260531 0 -0.26910496068450029 0.10059928658519129 0 -0.26340159681891351 0.087305486383429762 0 -0.25364395357421121 0.10678394025260531 0 -0.26910496068450029 0.10059928658519129 0 -0.26620622488190782 0.1187168322113534 0 -0.26910496068450029 0.10059928658519129 0 -0.28436437631082973 0.10735841859683989 0 -0.28176033911896858 0.090840469038767704 0 -0.26910496068450029 0.10059928658519129 0 -0.26620622488190782 0.1187168322113534 0 -0.28436437631082973 0.10735841859683989 0 -0.2804226891664876 0.12940513594623221 0 -0.26620622488190782 0.1187168322113534 0 -0.28436437631082973 0.10735841859683989 0 -0.2804226891664876 0.12940513594623221 0 -0.29563289833704792 0.1211109261551389 0 -0.28436437631082973 0.10735841859683989 0 -0.29563289833704792 0.1211109261551389 0 -0.28436437631082973 0.10735841859683989 0 -0.30333203744139958 0.1018092028156232 0 -0.28436437631082973 0.10735841859683989 0 -0.30333203744139958 0.1018092028156232 0 -0.29505738772415852 0.092466809089677027 0 -0.28436437631082973 0.10735841859683989 0 -0.29505738772415852 0.092466809089677027 0 -0.28176033911896858 0.090840469038767704 0 -0.30333203744139958 0.1018092028156232 0 -0.31115114737422961 0.1134627277541034 0 -0.31621893882499519 0.096173217231134644 0 -0.29563289833704792 0.1211109261551389 0 -0.30333203744139958 0.1018092028156232 0 -0.31115114737422961 0.1134627277541034 0 -0.30835875028686138 0.12836861128214669 0 -0.29563289833704792 0.1211109261551389 0 -0.31115114737422961 0.1134627277541034 0 -0.2988364877494265 0.069896585727329402 0 -0.3095990562077543 0.082833834969606807 0 -0.31708477734686968 0.066938799678275263 0 -0.2988364877494265 0.069896585727329402 0 -0.30266664287706341 0.054708362279179482 0 -0.31708477734686968 0.066938799678275263 0 -0.2988364877494265 0.069896585727329402 0 -0.28935545939309398 0.062964548691125152 0 -0.30266664287706341 0.054708362279179482 0 -0.30333203744139958 0.1018092028156232 0 -0.3095990562077543 0.082833834969606807 0 -0.31621893882499519 0.096173217231134644 0 -0.30333203744139958 0.1018092028156232 0 -0.3095990562077543 0.082833834969606807 0 -0.29505738772415852 0.092466809089677027 0 -0.3095990562077543 0.082833834969606807 0 -0.29687345717375091 0.081902945336330912 0 -0.29505738772415852 0.092466809089677027 0 -0.2988364877494265 0.069896585727329402 0 -0.3095990562077543 0.082833834969606807 0 -0.29687345717375091 0.081902945336330912 0 -0.29687345717375091 0.081902945336330912 0 -0.28176033911896858 0.090840469038767704 0 -0.2804463735768567 0.075556206852953223 0 -0.29687345717375091 0.081902945336330912 0 -0.29505738772415852 0.092466809089677027 0 -0.28176033911896858 0.090840469038767704 0 -0.2988364877494265 0.069896585727329402 0 -0.28935545939309398 0.062964548691125152 0 -0.2804463735768567 0.075556206852953223 0 -0.2988364877494265 0.069896585727329402 0 -0.29687345717375091 0.081902945336330912 0 -0.2804463735768567 0.075556206852953223 0 -0.28935545939309398 0.062964548691125152 0 -0.28020443427428848 0.065937434716272045 0 -0.28232948387749679 0.060243429622273227 0 -0.28935545939309398 0.062964548691125152 0 -0.28020443427428848 0.065937434716272045 0 -0.2804463735768567 0.075556206852953223 0 -0.2804463735768567 0.075556206852953223 0 -0.26340159681891351 0.087305486383429762 0 -0.26195798501385009 0.070226375813507561 0 -0.28020443427428848 0.065937434716272045 0 -0.26195798501385009 0.070226375813507561 0 -0.2800946942601637 0.055740888585776333 0 -0.28020443427428848 0.065937434716272045 0 -0.2804463735768567 0.075556206852953223 0 -0.26195798501385009 0.070226375813507561 0 -0.26195798501385009 0.070226375813507561 0 -0.2800946942601637 0.055740888585776333 0 -0.26910496068450029 0.10059928658519129 0 -0.28176033911896858 0.090840469038767704 0 -0.26340159681891351 0.087305486383429762 0 -0.28176033911896858 0.090840469038767704 0 -0.2804463735768567 0.075556206852953223 0 -0.26340159681891351 0.087305486383429762 0 -0.26340159681891351 0.087305486383429762 0 -0.26195798501385009 0.070226375813507561 0 -0.24382127576753621 0.084711863041238192 0 -0.25364395357421121 0.10678394025260531 0 -0.26340159681891351 0.087305486383429762 0 -0.24382127576753621 0.084711863041238192 0 -0.26195798501385009 0.070226375813507561 0 -0.24382127576753621 0.084711863041238192 0 -0.26195798501385009 0.070226375813507561 0 -0.26253060434091768 0.04486583530805522 0 -0.24534917185526489 0.049526218608574313 0 -0.26253060434091768 0.04486583530805522 0 -0.25642639863326749 0.02710060176493858 0 -0.24534917185526489 0.049526218608574313 0 -0.26253060434091768 0.04486583530805522 0 -0.27431483662099609 0.037465275048419483 0 -0.25642639863326749 0.02710060176493858 0 -0.26253060434091768 0.04486583530805522 0 -0.27431483662099609 0.037465275048419483 0 -0.2800946942601637 0.055740888585776333 0 -0.26195798501385009 0.070226375813507561 0 -0.26253060434091768 0.04486583530805522 0 -0.2800946942601637 0.055740888585776333 0 -0.28020443427428848 0.065937434716272045 0 -0.2800946942601637 0.055740888585776333 0 -0.28232948387749679 0.060243429622273227 0 -0.26431478179583978 -0.01186883573312463 0 -0.25132042997239518 0.0027134119798401068 0 -0.26646431581863778 0.01029557754540468 0 -0.25132042997239518 0.0027134119798401068 0 -0.25642639863326749 0.02710060176493858 0 -0.26646431581863778 0.01029557754540468 0 -0.27431483662099609 0.037465275048419483 0 -0.25642639863326749 0.02710060176493858 0 -0.27962863155723588 0.021383722316491719 0 -0.25642639863326749 0.02710060176493858 0 -0.27962863155723588 0.021383722316491719 0 -0.26646431581863778 0.01029557754540468 0 -0.2820771903446922 -0.0013122005201030101 0 -0.27962863155723588 0.021383722316491719 0 -0.26646431581863778 0.01029557754540468 0 -0.2820771903446922 -0.0013122005201030101 0 -0.30047775033007851 -0.00039401612408775783 0 -0.29196914664965867 0.01010181790504874 0 -0.2820771903446922 -0.0013122005201030101 0 -0.27962863155723588 0.021383722316491719 0 -0.29196914664965867 0.01010181790504874 0 -0.27962863155723588 0.021383722316491719 0 -0.29196914664965867 0.01010181790504874 0 -0.3056930143666281 0.020729765947894 0 -0.27962863155723588 0.021383722316491719 0 -0.3056930143666281 0.020729765947894 0 -0.2928938543133956 0.038235327266834943 0 -0.3056930143666281 0.020729765947894 0 -0.2928938543133956 0.038235327266834943 0 -0.3056930143666281 0.020729765947894 0 -0.30086997028822832 0.039148022070134687 0 -0.32164524631629432 0.022555155554494829 0 -0.30086997028822832 0.039148022070134687 0 -0.32164524631629432 0.022555155554494829 0 -0.3056930143666281 0.020729765947894 0 -0.31849217441985911 0.0032242046289520012 0 -0.30047775033007851 -0.00039401612408775783 0 -0.3056930143666281 0.020729765947894 0 -0.31849217441985911 0.0032242046289520012 0 -0.30047775033007851 -0.00039401612408775783 0 -0.29196914664965867 0.01010181790504874 0 -0.3056930143666281 0.020729765947894 0 -0.2800946942601637 0.055740888585776333 0 -0.30086997028822832 0.039148022070134687 0 -0.28935545939309398 0.062964548691125152 0 -0.2800946942601637 0.055740888585776333 0 -0.30266664287706341 0.054708362279179482 0 -0.2800946942601637 0.055740888585776333 0 -0.2928938543133956 0.038235327266834943 0 -0.2800946942601637 0.055740888585776333 0 -0.30086997028822832 0.039148022070134687 0 -0.30266664287706341 0.054708362279179482 0 -0.28935545939309398 0.062964548691125152 0 -0.2800946942601637 0.055740888585776333 0 -0.28232948387749679 0.060243429622273227 0 -0.2800946942601637 0.055740888585776333 0 -0.2928938543133956 0.038235327266834943 0 -0.30086997028822832 0.039148022070134687 0 -0.27431483662099609 0.037465275048419483 0 -0.27962863155723588 0.021383722316491719 0 -0.2928938543133956 0.038235327266834943 0 -0.27431483662099609 0.037465275048419483 0 -0.2800946942601637 0.055740888585776333 0 -0.2928938543133956 0.038235327266834943 0 -0.3056930143666281 0.020729765947894 0 -0.2928938543133956 0.038235327266834943 0 -0.30086997028822832 0.039148022070134687 0 -0.30086997028822832 0.039148022070134687 0 -0.30266664287706341 0.054708362279179482 0 -0.3262676586483656 0.050894384371173287 0 -0.30266664287706341 0.054708362279179482 0 -0.3262676586483656 0.050894384371173287 0 -0.31708477734686968 0.066938799678275263 0 -0.3262676586483656 0.050894384371173287 0 -0.32164524631629432 0.022555155554494829 0 -0.30086997028822832 0.039148022070134687 0 -0.3262676586483656 0.050894384371173287 0 -0.32164524631629432 0.022555155554494829 0 -0.3262676586483656 0.050894384371173287 0 -0.32164524631629432 0.022555155554494829 0 -0.34047985126035502 0.026774828886197279 0 -0.3419631627684111 0.054410778814259472 0 -0.34047985126035502 0.026774828886197279 0 -0.3262676586483656 0.050894384371173287 0 -0.3419631627684111 0.054410778814259472 0 -0.34047985126035502 0.026774828886197279 0 -0.3262676586483656 0.050894384371173287 0 -0.3419631627684111 0.054410778814259472 0 -0.33089007098043072 0.079233613187852742 0 -0.3056930143666281 0.020729765947894 0 -0.31849217441985911 0.0032242046289520012 0 -0.32164524631629432 0.022555155554494829 0 -0.31849217441985911 0.0032242046289520012 0 -0.32164524631629432 0.022555155554494829 0 -0.33742136738088668 0.0099550307423931228 0 -0.31849217441985911 0.0032242046289520012 0 -0.32164524631629432 0.022555155554494829 0 -0.32164524631629432 0.022555155554494829 0 -0.33742136738088668 0.0099550307423931228 0 -0.32164524631629432 0.022555155554494829 0 -0.34047985126035502 0.026774828886197279 0 -0.33742136738088668 0.0099550307423931228 0 -0.35319748844548088 -0.0026450940697062141 0 -0.33742136738088668 0.0099550307423931228 0 -0.35319748844548088 -0.0026450940697062141 0 -0.33742136738088668 0.0099550307423931228 0 -0.35568472126330458 0.01398178967161531 0 -0.34047985126035502 0.026774828886197279 0 -0.35568472126330458 0.01398178967161531 0 -0.36050468596179641 0.029201478886372499 0 -0.34047985126035502 0.026774828886197279 0 -0.33742136738088668 0.0099550307423931228 0 -0.35568472126330458 0.01398178967161531 0 -0.35568472126330458 0.01398178967161531 0 -0.36050468596179641 0.029201478886372499 0 -0.37274578052696178 0.01868977009819147 0 -0.37753126207020948 0.034899308803226177 0 -0.36050468596179641 0.029201478886372499 0 -0.37274578052696178 0.01868977009819147 0 -0.35319748844548088 -0.0026450940697062141 0 -0.35568472126330458 0.01398178967161531 0 -0.36979036210562988 0.0025511841975563729 0 -0.35568472126330458 0.01398178967161531 0 -0.37274578052696178 0.01868977009819147 0 -0.36979036210562988 0.0025511841975563729 0 -0.35367539322405089 0.052192583201526178 0 -0.35229578078182711 0.042127528613546239 0 -0.36485581069452189 0.048057973279375742 0 -0.35367539322405089 0.052192583201526178 0 -0.36174043644781612 0.059537200304905107 0 -0.34707042967454638 0.066493871458924422 0 -0.3419631627684111 0.054410778814259472 0 -0.35367539322405089 0.052192583201526178 0 -0.34707042967454638 0.066493871458924422 0 -0.3419631627684111 0.054410778814259472 0 -0.35367539322405089 0.052192583201526178 0 -0.35229578078182711 0.042127528613546239 0 -0.34047985126035502 0.026774828886197279 0 -0.36050468596179641 0.029201478886372499 0 -0.35229578078182711 0.042127528613546239 0 -0.3419631627684111 0.054410778814259472 0 -0.34047985126035502 0.026774828886197279 0 -0.35229578078182711 0.042127528613546239 0 -0.36050468596179641 0.029201478886372499 0 -0.35229578078182711 0.042127528613546239 0 -0.36485581069452189 0.048057973279375742 0 -0.37753126207020948 0.034899308803226177 0 -0.36050468596179641 0.029201478886372499 0 -0.36485581069452189 0.048057973279375742 0 -0.37830855690199738 0.048851891747440382 0 -0.37753126207020948 0.034899308803226177 0 -0.36485581069452189 0.048057973279375742 0 -0.37830855690199738 0.048851891747440382 0 -0.36485581069452189 0.048057973279375742 0 -0.37119345183321822 0.058853827639881867 0 -0.35367539322405089 0.052192583201526178 0 -0.36485581069452189 0.048057973279375742 0 -0.36174043644781612 0.059537200304905107 0 -0.36485581069452189 0.048057973279375742 0 -0.36174043644781612 0.059537200304905107 0 -0.37119345183321822 0.058853827639881867 0 -0.37201358599706058 0.070711840939253895 0 -0.36026946930678239 0.075913175113325196 0 -0.34707042967454638 0.066493871458924422 0 -0.37904886912469499 0.067110231928434197 0 -0.37119345183321822 0.058853827639881867 0 -0.37201358599706058 0.070711840939253895 0 -0.37201358599706058 0.070711840939253895 0 -0.34707042967454638 0.066493871458924422 0 -0.36174043644781612 0.059537200304905107 0 -0.37119345183321822 0.058853827639881867 0 -0.37201358599706058 0.070711840939253895 0 -0.36174043644781612 0.059537200304905107 0 -0.37201358599706058 0.070711840939253895 0 -0.34707042967454638 0.066493871458924422 0 -0.37201358599706058 0.070711840939253895 0 -0.36026946930678239 0.075913175113325196 0 -0.37016311523106599 0.083751267223082917 0 -0.38119130922167832 0.078766060501995444 0 -0.37201358599706058 0.070711840939253895 0 -0.37016311523106599 0.083751267223082917 0 -0.3419631627684111 0.054410778814259472 0 -0.34707042967454638 0.066493871458924422 0 -0.34344647427646718 0.082046728742321648 0 -0.36026946930678239 0.075913175113325196 0 -0.35274187612612162 0.077211514003190262 0 -0.34707042967454638 0.066493871458924422 0 -0.35274187612612162 0.077211514003190262 0 -0.34707042967454638 0.066493871458924422 0 -0.34344647427646718 0.082046728742321648 0 -0.35295667425925747 0.085123838591775802 0 -0.35001973748798287 0.095551702326820934 0 -0.34344647427646718 0.082046728742321648 0 -0.35274187612612162 0.077211514003190262 0 -0.35295667425925747 0.085123838591775802 0 -0.34344647427646718 0.082046728742321648 0 -0.35274187612612162 0.077211514003190262 0 -0.35295667425925747 0.085123838591775802 0 -0.35935833950511731 0.08139738194217451 0 -0.35295667425925747 0.085123838591775802 0 -0.35935833950511731 0.08139738194217451 0 -0.35921694390059838 0.089411865944371699 0 -0.36026946930678239 0.075913175113325196 0 -0.35274187612612162 0.077211514003190262 0 -0.35935833950511731 0.08139738194217451 0 -0.35295667425925747 0.085123838591775802 0 -0.35921694390059838 0.089411865944371699 0 -0.35001973748798287 0.095551702326820934 0 -0.35921694390059838 0.089411865944371699 0 -0.37016311523106599 0.083751267223082917 0 -0.36611800641667808 0.094109198156665408 0 -0.36026946930678239 0.075913175113325196 0 -0.35935833950511731 0.08139738194217451 0 -0.37016311523106599 0.083751267223082917 0 -0.35935833950511731 0.08139738194217451 0 -0.35921694390059838 0.089411865944371699 0 -0.37016311523106599 0.083751267223082917 0 -0.37643332436138899 0.09558572737664002 0 -0.37016311523106599 0.083751267223082917 0 -0.36611800641667808 0.094109198156665408 0 -0.37643332436138899 0.09558572737664002 0 -0.36831342086492491 0.1042920553550029 0 -0.36611800641667808 0.094109198156665408 0 -0.37896648635229202 0.10715504183998489 0 -0.37643332436138899 0.09558572737664002 0 -0.36831342086492491 0.1042920553550029 0 -0.36831342086492491 0.1042920553550029 0 -0.35948680904503588 0.10793893666500461 0 -0.35938862515943509 0.099383552161339872 0 -0.35921694390059838 0.089411865944371699 0 -0.35938862515943509 0.099383552161339872 0 -0.36611800641667808 0.094109198156665408 0 -0.36831342086492491 0.1042920553550029 0 -0.35938862515943509 0.099383552161339872 0 -0.36611800641667808 0.094109198156665408 0 -0.37896648635229202 0.10715504183998489 0 -0.36831342086492491 0.1042920553550029 0 -0.36716541190589658 0.118616890008602 0 -0.36831342086492491 0.1042920553550029 0 -0.35948680904503588 0.10793893666500461 0 -0.36716541190589658 0.118616890008602 0 -0.35948680904503588 0.10793893666500461 0 -0.36716541190589658 0.118616890008602 0 -0.35375916145188291 0.11350041634001019 0 -0.34641309729257957 0.13731862859844601 0 -0.34492978578452338 0.1096826786703838 0 -0.34641309729257957 0.13731862859844601 0 -0.35352278934268327 0.12307152153672141 0 -0.34492978578452338 0.1096826786703838 0 -0.36716541190589658 0.118616890008602 0 -0.35352278934268327 0.12307152153672141 0 -0.35375916145188291 0.11350041634001019 0 -0.35375916145188291 0.11350041634001019 0 -0.34492978578452338 0.1096826786703838 0 -0.35317683324139082 0.10499755452017361 0 -0.35352278934268327 0.12307152153672141 0 -0.35375916145188291 0.11350041634001019 0 -0.34492978578452338 0.1096826786703838 0 -0.34492978578452338 0.1096826786703838 0 -0.35001973748798287 0.095551702326820934 0 -0.34344647427646718 0.082046728742321648 0 -0.34492978578452338 0.1096826786703838 0 -0.34344647427646718 0.082046728742321648 0 -0.35921694390059838 0.089411865944371699 0 -0.35938862515943509 0.099383552161339872 0 -0.35001973748798287 0.095551702326820934 0 -0.35938862515943509 0.099383552161339872 0 -0.35317683324139082 0.10499755452017361 0 -0.35001973748798287 0.095551702326820934 0 -0.35948680904503588 0.10793893666500461 0 -0.35938862515943509 0.099383552161339872 0 -0.35317683324139082 0.10499755452017361 0 -0.35948680904503588 0.10793893666500461 0 -0.35375916145188291 0.11350041634001019 0 -0.35317683324139082 0.10499755452017361 0 -0.34492978578452338 0.1096826786703838 0 -0.35317683324139082 0.10499755452017361 0 -0.35001973748798287 0.095551702326820934 0 -0.33551248331249578 0.10757284200453231 0 -0.32636827877939262 0.096437598311714251 0 -0.33089007098043072 0.079233613187852742 0 -0.34492978578452338 0.1096826786703838 0 -0.33551248331249578 0.10757284200453231 0 -0.34344647427646718 0.082046728742321648 0 -0.34013489564456101 0.1359120708212119 0 -0.33551248331249578 0.10757284200453231 0 -0.33106980320980312 0.1246503866679774 0 -0.33551248331249578 0.10757284200453231 0 -0.33106980320980312 0.1246503866679774 0 -0.3276422557938925 0.11637059862038419 0 -0.34013489564456101 0.1359120708212119 0 -0.33551248331249578 0.10757284200453231 0 -0.34013489564456101 0.1359120708212119 0 -0.34492978578452338 0.1096826786703838 0 -0.33551248331249578 0.10757284200453231 0 -0.33551248331249578 0.10757284200453231 0 -0.3276422557938925 0.11637059862038419 0 -0.32202007013965611 0.108381668790018 0 -0.31115114737422961 0.1134627277541034 0 -0.32196666651361477 0.12487749701900901 0 -0.32202007013965611 0.108381668790018 0 -0.32196666651361477 0.12487749701900901 0 -0.3276422557938925 0.11637059862038419 0 -0.32202007013965611 0.108381668790018 0 -0.33106980320980312 0.1246503866679774 0 -0.32196666651361477 0.12487749701900901 0 -0.3276422557938925 0.11637059862038419 0 -0.30835875028686138 0.12836861128214669 0 -0.31115114737422961 0.1134627277541034 0 -0.32196666651361477 0.12487749701900901 0 -0.31115114737422961 0.1134627277541034 0 -0.32202007013965611 0.108381668790018 0 -0.31621893882499519 0.096173217231134644 0 -0.32636827877939262 0.096437598311714251 0 -0.32202007013965611 0.108381668790018 0 -0.31621893882499519 0.096173217231134644 0 -0.33551248331249578 0.10757284200453231 0 -0.32636827877939262 0.096437598311714251 0 -0.32202007013965611 0.108381668790018 0 -0.32636827877939262 0.096437598311714251 0 -0.3206518095107353 0.086423961441370711 0 -0.33089007098043072 0.079233613187852742 0 -0.3095990562077543 0.082833834969606807 0 -0.31621893882499519 0.096173217231134644 0 -0.3206518095107353 0.086423961441370711 0 -0.32636827877939262 0.096437598311714251 0 -0.31621893882499519 0.096173217231134644 0 -0.3206518095107353 0.086423961441370711 0 -0.3206518095107353 0.086423961441370711 0 -0.3195564285114475 0.078857552319276381 0 -0.33089007098043072 0.079233613187852742 0 -0.3095990562077543 0.082833834969606807 0 -0.3206518095107353 0.086423961441370711 0 -0.3195564285114475 0.078857552319276381 0 -0.3095990562077543 0.082833834969606807 0 -0.3195564285114475 0.078857552319276381 0 -0.31708477734686968 0.066938799678275263 0 -0.3262676586483656 0.050894384371173287 0 -0.31708477734686968 0.066938799678275263 0 -0.33089007098043072 0.079233613187852742 0 -0.3195564285114475 0.078857552319276381 0 -0.31708477734686968 0.066938799678275263 0 -0.33089007098043072 0.079233613187852742 0 -0.3262676586483656 0.050894384371173287 0 -0.33089007098043072 0.079233613187852742 0 -0.3419631627684111 0.054410778814259472 0 -0.34344647427646718 0.082046728742321648 0 -0.3419631627684111 0.054410778814259472 0 -0.34344647427646718 0.082046728742321648 0 -0.33089007098043072 0.079233613187852742 0 -0.33551248331249578 0.10757284200453231 0 -0.34344647427646718 0.082046728742321648 0 -0.33089007098043072 0.079233613187852742 0 -0.33551248331249578 0.10757284200453231 0 -0.33089007098043072 0.079233613187852742 0 -0.38413367002432852 0.48466820949397371 0 -0.39197467039505129 0.46611734068214988 0 -0.41460981883164078 0.48516798004791117 0 -0.3981750166650535 0.50000000000000056 0 -0.38413367002432852 0.48466820949397371 0 -0.41460981883164078 0.48516798004791117 0 -0.3981750166650535 0.50000000000000056 0 -0.38413367002432852 0.48466820949397371 0 -0.37107410569903487 0.5 0 -0.39197467039505129 0.46611734068214988 0 -0.36482960672615539 0.47476559140937902 0 -0.38413367002432852 0.48466820949397371 0 -0.39197467039505129 0.46611734068214988 0 -0.36580706476392733 0.47631646954851292 0 -0.38785270990024268 0.44600589254376838 0 -0.39197467039505129 0.46611734068214988 0 -0.37006527051019528 0.45259743283909409 0 -0.39197467039505129 0.46611734068214988 0 -0.37006527051019528 0.45259743283909409 0 -0.36482960672615539 0.47476559140937902 0 -0.38785270990024268 0.44600589254376838 0 -0.37388199021079188 0.43349662060099697 0 -0.37006527051019528 0.45259743283909409 0 -0.38785270990024268 0.44600589254376838 0 -0.40320620376676342 0.45007503942677379 0 -0.39595691431975 0.42995942871021692 0 -0.38785270990024268 0.44600589254376838 0 -0.40320620376676342 0.45007503942677379 0 -0.39197467039505129 0.46611734068214988 0 -0.40320620376676342 0.45007503942677379 0 -0.39197467039505129 0.46611734068214988 0 -0.41277096383307582 0.46532813801804862 0 -0.40320620376676342 0.45007503942677379 0 -0.42781315099835598 0.44205737320498029 0 -0.39595691431975 0.42995942871021692 0 -0.40320620376676342 0.45007503942677379 0 -0.41277096383307582 0.46532813801804862 0 -0.42781315099835598 0.44205737320498029 0 -0.42781315099835598 0.44205737320498029 0 -0.43466730821188831 0.46706657063262308 0 -0.44460389203804629 0.44806533343805571 0 -0.42781315099835598 0.44205737320498029 0 -0.4310446209982266 0.47033596009582029 0 -0.42781315099835598 0.44205737320498029 0 -0.43466730821188831 0.46706657063262308 0 -0.4310446209982266 0.47033596009582029 0 -0.41277096383307582 0.46532813801804862 0 -0.42781315099835598 0.44205737320498029 0 -0.4310446209982266 0.47033596009582029 0 -0.43466730821188831 0.46706657063262308 0 -0.4310446209982266 0.47033596009582029 0 -0.4310446209982266 0.47033596009582029 0 -0.43443441043131342 0.50000000000000755 0 -0.4447827686264566 0.47926022536349122 0 -0.4310446209982266 0.47033596009582029 0 -0.41460981883164078 0.48516798004791117 0 -0.4310446209982266 0.47033596009582029 0 -0.41460981883164078 0.48516798004791117 0 -0.42409839095234109 0.48887598503593521 0 -0.43466730821188831 0.46706657063262308 0 -0.4310446209982266 0.47033596009582029 0 -0.4447827686264566 0.47926022536349122 0 -0.39197467039505129 0.46611734068214988 0 -0.41277096383307582 0.46532813801804862 0 -0.41460981883164078 0.48516798004791117 0 -0.41277096383307582 0.46532813801804862 0 -0.4310446209982266 0.47033596009582029 0 -0.41460981883164078 0.48516798004791117 0 -0.3981750166650535 0.50000000000000056 0 -0.41460981883164078 0.48516798004791117 0 -0.3981750166650535 0.50000000000000056 0 -0.41460981883164078 0.48516798004791117 0 -0.41630471354818338 0.5 0 -0.41460981883164078 0.48516798004791117 0 -0.41630471354818338 0.5 0 -0.42409839095234109 0.48887598503593521 0 -0.41630471354818338 0.5 0 -0.43443441043131342 0.50000000000000755 0 -0.42409839095234109 0.48887598503593521 0 -0.4310446209982266 0.47033596009582029 0 -0.43443441043131342 0.50000000000000755 0 -0.4310446209982266 0.47033596009582029 0 -0.43443441043131342 0.50000000000000755 0 -0.42409839095234109 0.48887598503593521 0 -0.43443441043131342 0.50000000000000755 0 -0.4447827686264566 0.47926022536349122 0 -0.4595127163698095 0.50000000000000022 0 -0.5 0.5 0 -0.47335596745111108 0.44169355163120572 0 -0.5 0.40038011321019712 0 -0.43466730821188831 0.46706657063262308 0 -0.4447827686264566 0.47926022536349122 0 -0.44899911668232212 0.46303481381032341 0 -0.4447827686264566 0.47926022536349122 0 -0.46015144363500948 0.47359397987248231 0 -0.44899911668232212 0.46303481381032341 0 -0.4447827686264566 0.47926022536349122 0 -0.46015144363500948 0.47359397987248231 0 -0.4595127163698095 0.50000000000000022 0 -0.46015144363500948 0.47359397987248231 0 -0.4595127163698095 0.50000000000000022 0 -0.46015144363500948 0.47359397987248231 0 -0.4595127163698095 0.50000000000000022 0 -0.5 0.5 0 -0.46015144363500948 0.47359397987248231 0 -0.5 0.5 0 -0.47335596745111108 0.44169355163120572 0 -0.46015144363500948 0.47359397987248231 0 -0.47335596745111108 0.44169355163120572 0 -0.46079017090020952 0.44718795974496428 0 -0.46079017090020952 0.44718795974496428 0 -0.44460389203804629 0.44806533343805571 0 -0.45590269758544211 0.43346995798949911 0 -0.47335596745111108 0.44169355163120572 0 -0.46079017090020952 0.44718795974496428 0 -0.45590269758544211 0.43346995798949911 0 -0.46015144363500948 0.47359397987248231 0 -0.46079017090020952 0.44718795974496428 0 -0.44899911668232212 0.46303481381032341 0 -0.46015144363500948 0.47359397987248231 0 -0.46079017090020952 0.44718795974496428 0 -0.43466730821188831 0.46706657063262308 0 -0.44899911668232212 0.46303481381032341 0 -0.44460389203804629 0.44806533343805571 0 -0.42781315099835598 0.44205737320498029 0 -0.44460389203804629 0.44806533343805571 0 -0.44268906624812487 0.42665452579602331 0 -0.46079017090020952 0.44718795974496428 0 -0.44899911668232212 0.46303481381032341 0 -0.44460389203804629 0.44806533343805571 0 -0.44460389203804629 0.44806533343805571 0 -0.44268906624812487 0.42665452579602331 0 -0.45590269758544211 0.43346995798949911 0 -0.44268906624812487 0.42665452579602331 0 -0.45186506472241439 0.42144574071262142 0 -0.45590269758544211 0.43346995798949911 0 -0.44268906624812487 0.42665452579602331 0 -0.45186506472241439 0.42144574071262142 0 -0.44576315445017062 0.40546276927260178 0 -0.44268906624812487 0.42665452579602331 0 -0.44576315445017062 0.40546276927260178 0 -0.42458168099848842 0.41377878631413989 0 -0.46310534060592018 0.42019570979236182 0 -0.47346151536459102 0.41731684507507272 0 -0.46374026742882618 0.39151162716981691 0 -0.45186506472241439 0.42144574071262142 0 -0.46310534060592018 0.42019570979236182 0 -0.44576315445017062 0.40546276927260178 0 -0.47335596745111108 0.44169355163120572 0 -0.46310534060592018 0.42019570979236182 0 -0.45590269758544211 0.43346995798949911 0 -0.45186506472241439 0.42144574071262142 0 -0.46310534060592018 0.42019570979236182 0 -0.45590269758544211 0.43346995798949911 0 -0.47335596745111108 0.44169355163120572 0 -0.46310534060592018 0.42019570979236182 0 -0.47346151536459102 0.41731684507507272 0 -0.47335596745111108 0.44169355163120572 0 -0.47346151536459102 0.41731684507507272 0 -0.5 0.40038011321019712 0 -0.47346151536459102 0.41731684507507272 0 -0.5 0.40038011321019712 0 -0.47533567507008778 0.39330498401591851 0 -0.47346151536459102 0.41731684507507272 0 -0.47533567507008778 0.39330498401591851 0 -0.47346151536459102 0.41731684507507272 0 -0.47533567507008778 0.39330498401591851 0 -0.46374026742882618 0.39151162716981691 0 -0.5 0.40038011321019712 0 -0.47533567507008778 0.39330498401591851 0 -0.47720983477558448 0.36929312295676431 0 -0.47533567507008778 0.39330498401591851 0 -0.47720983477558448 0.36929312295676431 0 -0.47533567507008778 0.39330498401591851 0 -0.46374026742882618 0.39151162716981691 0 -0.47720983477558448 0.36929312295676431 0 -0.46374026742882618 0.39151162716981691 0 -0.45297946443592813 0.37787116286410599 0 -0.46437519425173218 0.36282754454727217 0 -0.46374026742882618 0.39151162716981691 0 -0.45297946443592813 0.37787116286410599 0 -0.44807155782876301 0.39051600802545461 0 -0.46374026742882618 0.39151162716981691 0 -0.46437519425173218 0.36282754454727217 0 -0.46310534060592018 0.42019570979236182 0 -0.46374026742882618 0.39151162716981691 0 -0.46310534060592018 0.42019570979236182 0 -0.46374026742882618 0.39151162716981691 0 -0.44576315445017062 0.40546276927260178 0 -0.46374026742882618 0.39151162716981691 0 -0.44576315445017062 0.40546276927260178 0 -0.44807155782876301 0.39051600802545461 0 -0.44576315445017062 0.40546276927260178 0 -0.44807155782876301 0.39051600802545461 0 -0.43603237714897469 0.39502180629923989 0 -0.45297946443592813 0.37787116286410599 0 -0.44807155782876301 0.39051600802545461 0 -0.44039528146883089 0.37985126846070372 0 -0.44807155782876301 0.39051600802545461 0 -0.44039528146883089 0.37985126846070372 0 -0.43603237714897469 0.39502180629923989 0 -0.44039528146883089 0.37985126846070372 0 -0.42135021099862069 0.38550019942329938 0 -0.43603237714897469 0.39502180629923989 0 -0.44039528146883089 0.37985126846070372 0 -0.42135021099862069 0.38550019942329938 0 -0.43330693618304927 0.36743111704715392 0 -0.42135021099862069 0.38550019942329938 0 -0.3928737426436214 0.38288862872844909 0 -0.41811874099875312 0.35722161253245888 0 -0.42135021099862069 0.38550019942329938 0 -0.42458168099848842 0.41377878631413989 0 -0.40302940150938782 0.40252809503019821 0 -0.44576315445017062 0.40546276927260178 0 -0.43603237714897469 0.39502180629923989 0 -0.42458168099848842 0.41377878631413989 0 -0.42135021099862069 0.38550019942329938 0 -0.42458168099848842 0.41377878631413989 0 -0.42135021099862069 0.38550019942329938 0 -0.43603237714897469 0.39502180629923989 0 -0.42458168099848842 0.41377878631413989 0 -0.42781315099835598 0.44205737320498029 0 -0.42458168099848842 0.41377878631413989 0 -0.39595691431975 0.42995942871021692 0 -0.42781315099835598 0.44205737320498029 0 -0.44268906624812487 0.42665452579602331 0 -0.42458168099848842 0.41377878631413989 0 -0.42781315099835598 0.44205737320498029 0 -0.42458168099848842 0.41377878631413989 0 -0.42458168099848842 0.41377878631413989 0 -0.39595691431975 0.42995942871021692 0 -0.40302940150938782 0.40252809503019821 0 -0.39595691431975 0.42995942871021692 0 -0.38133644129271771 0.41060795377957438 0 -0.40302940150938782 0.40252809503019821 0 -0.39595691431975 0.42995942871021692 0 -0.38133644129271771 0.41060795377957438 0 -0.37388199021079188 0.43349662060099697 0 -0.38785270990024268 0.44600589254376838 0 -0.39595691431975 0.42995942871021692 0 -0.37388199021079188 0.43349662060099697 0 -0.39595691431975 0.42995942871021692 0 -0.38133644129271771 0.41060795377957438 0 -0.38133644129271771 0.41060795377957438 0 -0.3928737426436214 0.38288862872844909 0 -0.36671596826568531 0.39125647884893172 0 -0.3928737426436214 0.38288862872844909 0 -0.37126589511329411 0.37377724987418581 0 -0.36671596826568531 0.39125647884893172 0 -0.42135021099862069 0.38550019942329938 0 -0.3928737426436214 0.38288862872844909 0 -0.40302940150938782 0.40252809503019821 0 -0.38133644129271771 0.41060795377957438 0 -0.3928737426436214 0.38288862872844909 0 -0.40302940150938782 0.40252809503019821 0 -0.39068435811404417 0.36093702398180222 0 -0.39395667907880888 0.34326368506717603 0 -0.41811874099875312 0.35722161253245888 0 -0.3928737426436214 0.38288862872844909 0 -0.39068435811404417 0.36093702398180222 0 -0.41811874099875312 0.35722161253245888 0 -0.3928737426436214 0.38288862872844909 0 -0.39068435811404417 0.36093702398180222 0 -0.37126589511329411 0.37377724987418581 0 -0.39068435811404417 0.36093702398180222 0 -0.37302608715873109 0.35758434449273291 0 -0.37126589511329411 0.37377724987418581 0 -0.39395667907880888 0.34326368506717603 0 -0.37302608715873109 0.35758434449273291 0 -0.39068435811404417 0.36093702398180222 0 -0.39395667907880888 0.34326368506717603 0 -0.37302608715873109 0.35758434449273291 0 -0.37563375498023588 0.33893957100260502 0 -0.39395667907880888 0.34326368506717603 0 -0.37302608715873109 0.35758434449273291 0 -0.37563375498023588 0.33893957100260502 0 -0.3809584867257152 0.31995934924364311 0 -0.39395667907880888 0.34326368506717603 0 -0.3809584867257152 0.31995934924364311 0 -0.40019053093036899 0.31727751782089808 0 -0.39395667907880888 0.34326368506717603 0 -0.40019053093036899 0.31727751782089808 0 -0.39395667907880888 0.34326368506717603 0 -0.414887270998886 0.32894302564161831 0 -0.39395667907880888 0.34326368506717603 0 -0.414887270998886 0.32894302564161831 0 -0.414887270998886 0.32894302564161831 0 -0.41811874099875312 0.35722161253245888 0 -0.39395667907880888 0.34326368506717603 0 -0.414887270998886 0.32894302564161831 0 -0.41811874099875312 0.35722161253245888 0 -0.414887270998886 0.32894302564161831 0 -0.4287524947490482 0.33739992334137159 0 -0.41811874099875312 0.35722161253245888 0 -0.414887270998886 0.32894302564161831 0 -0.42784370751339318 0.3200782636988328 0 -0.41182569378737999 0.30215117016961263 0 -0.414887270998886 0.32894302564161831 0 -0.41182569378737999 0.30215117016961263 0 -0.40019053093036899 0.31727751782089808 0 -0.414887270998886 0.32894302564161831 0 -0.41182569378737999 0.30215117016961263 0 -0.414887270998886 0.32894302564161831 0 -0.42784370751339318 0.3200782636988328 0 -0.42784370751339318 0.3200782636988328 0 -0.44080014402789969 0.3112135017560464 0 -0.414887270998886 0.32894302564161831 0 -0.42784370751339318 0.3200782636988328 0 -0.4287524947490482 0.33739992334137159 0 -0.42784370751339318 0.3200782636988328 0 -0.4287524947490482 0.33739992334137159 0 -0.44455732798665581 0.33082357613192309 0 -0.4287524947490482 0.33739992334137159 0 -0.43835542624755341 0.34993313870202492 0 -0.44455732798665581 0.33082357613192309 0 -0.4287524947490482 0.33739992334137159 0 -0.41811874099875312 0.35722161253245888 0 -0.43835542624755341 0.34993313870202492 0 -0.41811874099875312 0.35722161253245888 0 -0.43330693618304927 0.36743111704715392 0 -0.43835542624755341 0.34993313870202492 0 -0.42135021099862069 0.38550019942329938 0 -0.41811874099875312 0.35722161253245888 0 -0.42135021099862069 0.38550019942329938 0 -0.41811874099875312 0.35722161253245888 0 -0.43330693618304927 0.36743111704715392 0 -0.44039528146883089 0.37985126846070372 0 -0.43330693618304927 0.36743111704715392 0 -0.44831502120148831 0.36464936611728249 0 -0.5 0.40038011321019712 0 -0.47720983477558448 0.36929312295676431 0 -0.5 0.32588146503443682 0 -0.43330693618304927 0.36743111704715392 0 -0.44831502120148831 0.36464936611728249 0 -0.43835542624755341 0.34993313870202492 0 -0.45297946443592813 0.37787116286410599 0 -0.44039528146883089 0.37985126846070372 0 -0.44831502120148831 0.36464936611728249 0 -0.44831502120148831 0.36464936611728249 0 -0.45212261815241361 0.34847541748464589 0 -0.43835542624755341 0.34993313870202492 0 -0.46437519425173218 0.36282754454727217 0 -0.46501012107463818 0.3341434619247271 0 -0.45212261815241361 0.34847541748464589 0 -0.46437519425173218 0.36282754454727217 0 -0.46501012107463818 0.3341434619247271 0 -0.44831502120148831 0.36464936611728249 0 -0.45212261815241361 0.34847541748464589 0 -0.46437519425173218 0.36282754454727217 0 -0.45297946443592813 0.37787116286410599 0 -0.44831502120148831 0.36464936611728249 0 -0.46437519425173218 0.36282754454727217 0 -0.46374026742882618 0.39151162716981691 0 -0.46437519425173218 0.36282754454727217 0 -0.47720983477558448 0.36929312295676431 0 -0.47720983477558448 0.36929312295676431 0 -0.4790839944810813 0.34528126189761021 0 -0.5 0.32588146503443682 0 -0.46437519425173218 0.36282754454727217 0 -0.47720983477558448 0.36929312295676431 0 -0.4790839944810813 0.34528126189761021 0 -0.46437519425173218 0.36282754454727217 0 -0.4790839944810813 0.34528126189761021 0 -0.46501012107463818 0.3341434619247271 0 -0.47720983477558448 0.36929312295676431 0 -0.4790839944810813 0.34528126189761021 0 -0.5 0.32588146503443682 0 -0.48095815418657811 0.32126940083845601 0 -0.48438341280173691 0.2990237851864897 0 -0.4790839944810813 0.34528126189761021 0 -0.5 0.32588146503443682 0 -0.48095815418657811 0.32126940083845601 0 -0.4790839944810813 0.34528126189761021 0 -0.48095815418657811 0.32126940083845601 0 -0.4790839944810813 0.34528126189761021 0 -0.48095815418657811 0.32126940083845601 0 -0.46501012107463818 0.3341434619247271 0 -0.48095815418657811 0.32126940083845601 0 -0.46501012107463818 0.3341434619247271 0 -0.46564504789754418 0.30545937930218209 0 -0.46501012107463818 0.3341434619247271 0 -0.46564504789754418 0.30545937930218209 0 -0.45334860311094782 0.31584311053598302 0 -0.46501012107463818 0.3341434619247271 0 -0.44455732798665581 0.33082357613192309 0 -0.45334860311094782 0.31584311053598302 0 -0.46501012107463818 0.3341434619247271 0 -0.46564504789754418 0.30545937930218209 0 -0.45212261815241361 0.34847541748464589 0 -0.46501012107463818 0.3341434619247271 0 -0.44455732798665581 0.33082357613192309 0 -0.45212261815241361 0.34847541748464589 0 -0.43835542624755341 0.34993313870202492 0 -0.44455732798665581 0.33082357613192309 0 -0.45334860311094782 0.31584311053598302 0 -0.44455732798665581 0.33082357613192309 0 -0.44080014402789969 0.3112135017560464 0 -0.42784370751339318 0.3200782636988328 0 -0.44455732798665581 0.33082357613192309 0 -0.44080014402789969 0.3112135017560464 0 -0.45334860311094782 0.31584311053598302 0 -0.44080014402789969 0.3112135017560464 0 -0.45212090372732222 0.29751224224269018 0 -0.44080014402789969 0.3112135017560464 0 -0.45212090372732222 0.29751224224269018 0 -0.43098419661848369 0.29848737705662681 0 -0.45212090372732222 0.29751224224269018 0 -0.44106680473088589 0.27968718865599468 0 -0.43098419661848369 0.29848737705662681 0 -0.45212090372732222 0.29751224224269018 0 -0.46878861662768212 0.293945894508436 0 -0.46620416538631942 0.27832296974934079 0 -0.45212090372732222 0.29751224224269018 0 -0.46620416538631942 0.27832296974934079 0 -0.44106680473088589 0.27968718865599468 0 -0.45334860311094782 0.31584311053598302 0 -0.45212090372732222 0.29751224224269018 0 -0.46564504789754418 0.30545937930218209 0 -0.45212090372732222 0.29751224224269018 0 -0.46564504789754418 0.30545937930218209 0 -0.46878861662768212 0.293945894508436 0 -0.48095815418657811 0.32126940083845601 0 -0.46564504789754418 0.30545937930218209 0 -0.47422271850004488 0.30257989257828583 0 -0.48095815418657811 0.32126940083845601 0 -0.48283231389207593 0.29725753977930192 0 -0.48095815418657811 0.32126940083845601 0 -0.48283231389207593 0.29725753977930192 0 -0.48438341280173691 0.2990237851864897 0 -0.48095815418657811 0.32126940083845601 0 -0.48283231389207593 0.29725753977930192 0 -0.47422271850004488 0.30257989257828583 0 -0.5 0.32588146503443682 0 -0.48438341280173691 0.2990237851864897 0 -0.5 0.27058277969487637 0 -0.48283231389207593 0.29725753977930192 0 -0.48438341280173691 0.2990237851864897 0 -0.48283231389207593 0.29725753977930192 0 -0.47422271850004488 0.30257989257828583 0 -0.46878861662768212 0.293945894508436 0 -0.46564504789754418 0.30545937930218209 0 -0.47422271850004488 0.30257989257828583 0 -0.46878861662768212 0.293945894508436 0 -0.48283231389207593 0.29725753977930192 0 -0.46620416538631942 0.27832296974934079 0 -0.4832665619079245 0.29169392479429618 0 -0.48272378290968532 0.2745465744653578 0 -0.46620416538631942 0.27832296974934079 0 -0.48283231389207593 0.29725753977930192 0 -0.46878861662768212 0.293945894508436 0 -0.46620416538631942 0.27832296974934079 0 -0.48283231389207593 0.29725753977930192 0 -0.4832665619079245 0.29169392479429618 0 -0.46620416538631942 0.27832296974934079 0 -0.48283231389207593 0.29725753977930192 0 -0.4832665619079245 0.29169392479429618 0 -0.48438341280173691 0.2990237851864897 0 -0.48283231389207593 0.29725753977930192 0 -0.4832665619079245 0.29169392479429618 0 -0.4832665619079245 0.29169392479429618 0 -0.48438341280173691 0.2990237851864897 0 -0.5 0.27058277969487637 0 -0.48510068849613291 0.2464952989699998 0 -0.5 0.27058277969487637 0 -0.47736829551405641 0.25971614189080378 0 -0.4832665619079245 0.29169392479429618 0 -0.5 0.27058277969487637 0 -0.48272378290968532 0.2745465744653578 0 -0.5 0.27058277969487637 0 -0.48272378290968532 0.2745465744653578 0 -0.47736829551405641 0.25971614189080378 0 -0.48272378290968532 0.2745465744653578 0 -0.47736829551405641 0.25971614189080378 0 -0.46620416538631942 0.27832296974934079 0 -0.48510068849613291 0.2464952989699998 0 -0.4662317729600568 0.24711617116125539 0 -0.47736829551405641 0.25971614189080378 0 -0.4662317729600568 0.24711617116125539 0 -0.47736829551405641 0.25971614189080378 0 -0.44957601688056159 0.25938839971938082 0 -0.47736829551405641 0.25971614189080378 0 -0.46620416538631942 0.27832296974934079 0 -0.44957601688056159 0.25938839971938082 0 -0.46620416538631942 0.27832296974934079 0 -0.44957601688056159 0.25938839971938082 0 -0.46620416538631942 0.27832296974934079 0 -0.44106680473088589 0.27968718865599468 0 -0.44957601688056159 0.25938839971938082 0 -0.44106680473088589 0.27968718865599468 0 -0.44957601688056159 0.25938839971938082 0 -0.42702456861835142 0.26373592368695459 0 -0.43294786837480398 0.2404538296894207 0 -0.44957601688056159 0.25938839971938082 0 -0.42702456861835142 0.26373592368695459 0 -0.43294786837480398 0.2404538296894207 0 -0.40570253936436479 0.24856745922560119 0 -0.42702456861835142 0.26373592368695459 0 -0.40570253936436479 0.24856745922560119 0 -0.40876411657587441 0.27535931469760672 0 -0.40570253936436479 0.24856745922560119 0 -0.42702456861835142 0.26373592368695459 0 -0.40876411657587441 0.27535931469760672 0 -0.42702456861835142 0.26373592368695459 0 -0.40876411657587441 0.27535931469760672 0 -0.42393307606619501 0.28388419485335897 0 -0.44106680473088589 0.27968718865599468 0 -0.42702456861835142 0.26373592368695459 0 -0.42393307606619501 0.28388419485335897 0 -0.44106680473088589 0.27968718865599468 0 -0.42393307606619501 0.28388419485335897 0 -0.43098419661848369 0.29848737705662681 0 -0.42393307606619501 0.28388419485335897 0 -0.43098419661848369 0.29848737705662681 0 -0.41182569378737999 0.30215117016961263 0 -0.42784370751339318 0.3200782636988328 0 -0.44080014402789969 0.3112135017560464 0 -0.43098419661848369 0.29848737705662681 0 -0.42784370751339318 0.3200782636988328 0 -0.43098419661848369 0.29848737705662681 0 -0.41182569378737999 0.30215117016961263 0 -0.40876411657587441 0.27535931469760672 0 -0.42393307606619501 0.28388419485335897 0 -0.41182569378737999 0.30215117016961263 0 -0.40876411657587441 0.27535931469760672 0 -0.41182569378737999 0.30215117016961263 0 -0.40876411657587441 0.27535931469760672 0 -0.41182569378737999 0.30215117016961263 0 -0.38942632587964537 0.29641120061531351 0 -0.40876411657587441 0.27535931469760672 0 -0.38942632587964537 0.29641120061531351 0 -0.38778179087320769 0.27529621765694001 0 -0.40019053093036899 0.31727751782089808 0 -0.41182569378737999 0.30215117016961263 0 -0.38942632587964537 0.29641120061531351 0 -0.3809584867257152 0.31995934924364311 0 -0.38942632587964537 0.29641120061531351 0 -0.36990774782730562 0.30465198401604282 0 -0.3809584867257152 0.31995934924364311 0 -0.40019053093036899 0.31727751782089808 0 -0.38942632587964537 0.29641120061531351 0 -0.38942632587964537 0.29641120061531351 0 -0.38778179087320769 0.27529621765694001 0 -0.37124129201382 0.2841753332327091 0 -0.38942632587964537 0.29641120061531351 0 -0.37124129201382 0.2841753332327091 0 -0.36990774782730562 0.30465198401604282 0 -0.38778179087320769 0.27529621765694001 0 -0.37230359566927929 0.26610576231553251 0 -0.37124129201382 0.2841753332327091 0 -0.38778179087320769 0.27529621765694001 0 -0.38900306751682168 0.25733661077056619 0 -0.37230359566927929 0.26610576231553251 0 -0.38900306751682168 0.25733661077056619 0 -0.37230359566927929 0.26610576231553251 0 -0.37675611103540763 0.25409865512553548 0 -0.38900306751682168 0.25733661077056619 0 -0.37230359566927929 0.26610576231553251 0 -0.38455494932564349 0.24416718140159829 0 -0.37675611103540763 0.25409865512553548 0 -0.38900306751682168 0.25733661077056619 0 -0.40570253936436479 0.24856745922560119 0 -0.40876411657587441 0.27535931469760672 0 -0.38900306751682168 0.25733661077056619 0 -0.40570253936436479 0.24856745922560119 0 -0.38900306751682168 0.25733661077056619 0 -0.40876411657587441 0.27535931469760672 0 -0.38778179087320769 0.27529621765694001 0 -0.38900306751682168 0.25733661077056619 0 -0.35344375069401829 0.26830850112922933 0 -0.35479842748912699 0.29354782535411539 0 -0.33783775680192157 0.27023153782616838 0 -0.35344375069401829 0.26830850112922933 0 -0.35479842748912699 0.29354782535411539 0 -0.35926376548055328 0.2486735779402334 0 -0.35208907389890948 0.24306917690434299 0 -0.35344375069401829 0.26830850112922933 0 -0.35208907389890948 0.24306917690434299 0 -0.35344375069401829 0.26830850112922933 0 -0.34142207509263922 0.25572960106260723 0 -0.35208907389890948 0.24306917690434299 0 -0.35344375069401829 0.26830850112922933 0 -0.35344375069401829 0.26830850112922933 0 -0.33783775680192157 0.27023153782616838 0 -0.34142207509263922 0.25572960106260723 0 -0.35344375069401829 0.26830850112922933 0 -0.36723308052532222 0.25309369692869038 0 -0.37230359566927929 0.26610576231553251 0 -0.35926376548055328 0.2486735779402334 0 -0.35344375069401829 0.26830850112922933 0 -0.36723308052532222 0.25309369692869038 0 -0.37552267705158737 0.2431978490864326 0 -0.37675611103540763 0.25409865512553548 0 -0.36723308052532222 0.25309369692869038 0 -0.37675611103540763 0.25409865512553548 0 -0.36723308052532222 0.25309369692869038 0 -0.37230359566927929 0.26610576231553251 0 -0.35344375069401829 0.26830850112922933 0 -0.37230359566927929 0.26610576231553251 0 -0.37124129201382 0.2841753332327091 0 -0.37124129201382 0.2841753332327091 0 -0.36990774782730562 0.30465198401604282 0 -0.35479842748912699 0.29354782535411539 0 -0.35344375069401829 0.26830850112922933 0 -0.37124129201382 0.2841753332327091 0 -0.35479842748912699 0.29354782535411539 0 -0.36990774782730562 0.30465198401604282 0 -0.35479842748912699 0.29354782535411539 0 -0.35615310428423591 0.31878714957900162 0 -0.35479842748912699 0.29354782535411539 0 -0.35615310428423591 0.31878714957900162 0 -0.35479842748912699 0.29354782535411539 0 -0.33790089425573833 0.30106400074382289 0 -0.35615310428423591 0.31878714957900162 0 -0.35479842748912699 0.29354782535411539 0 -0.32994760687178648 0.28429515218691809 0 -0.33783775680192157 0.27023153782616838 0 -0.35479842748912699 0.29354782535411539 0 -0.32994760687178648 0.28429515218691809 0 -0.33790089425573833 0.30106400074382289 0 -0.33790089425573833 0.30106400074382289 0 -0.31376474629655843 0.30225304786416751 0 -0.33257481532433891 0.31836647764434117 0 -0.32994760687178648 0.28429515218691809 0 -0.33790089425573833 0.30106400074382289 0 -0.31376474629655843 0.30225304786416751 0 -0.32994760687178648 0.28429515218691809 0 -0.31376474629655843 0.30225304786416751 0 -0.30745975664346697 0.28108303278283259 0 -0.32994760687178648 0.28429515218691809 0 -0.32025265357816562 0.27050697347699348 0 -0.30745975664346697 0.28108303278283259 0 -0.32994760687178648 0.28429515218691809 0 -0.32025265357816562 0.27050697347699348 0 -0.33783775680192157 0.27023153782616838 0 -0.33783775680192157 0.27023153782616838 0 -0.34142207509263922 0.25572960106260723 0 -0.32493898666941562 0.25370598596143412 0 -0.33787454055877381 0.24529314191448051 0 -0.34142207509263922 0.25572960106260723 0 -0.32493898666941562 0.25370598596143412 0 -0.32025265357816562 0.27050697347699348 0 -0.32493898666941562 0.25370598596143412 0 -0.3017176885818823 0.26220574059556451 0 -0.32025265357816562 0.27050697347699348 0 -0.33783775680192157 0.27023153782616838 0 -0.32493898666941562 0.25370598596143412 0 -0.28392805579818597 0.24584677119781029 0 -0.30659471691689572 0.242716670786389 0 -0.3017176885818823 0.26220574059556451 0 -0.30659471691689572 0.242716670786389 0 -0.32493898666941562 0.25370598596143412 0 -0.3017176885818823 0.26220574059556451 0 -0.32025265357816562 0.27050697347699348 0 -0.3017176885818823 0.26220574059556451 0 -0.30745975664346697 0.28108303278283259 0 -0.3017176885818823 0.26220574059556451 0 -0.30745975664346697 0.28108303278283259 0 -0.28581088023419748 0.27213864639403801 0 -0.28392805579818597 0.24584677119781029 0 -0.3017176885818823 0.26220574059556451 0 -0.28392805579818597 0.24584677119781029 0 -0.3017176885818823 0.26220574059556451 0 -0.28581088023419748 0.27213864639403801 0 -0.28392805579818597 0.24584677119781029 0 -0.28581088023419748 0.27213864639403801 0 -0.26655259030946182 0.26726307071448002 0 -0.28392805579818597 0.24584677119781029 0 -0.26514282027817931 0.24842266601513599 0 -0.26655259030946182 0.26726307071448002 0 -0.28581088023419748 0.27213864639403801 0 -0.26655259030946182 0.26726307071448002 0 -0.26709784128719349 0.28662765883125513 0 -0.26655259030946182 0.26726307071448002 0 -0.26709784128719349 0.28662765883125513 0 -0.24190471242523851 0.27972751922608308 0 -0.26655259030946182 0.26726307071448002 0 -0.24943129659764751 0.26000894523212309 0 -0.24190471242523851 0.27972751922608308 0 -0.26514282027817931 0.24842266601513599 0 -0.26655259030946182 0.26726307071448002 0 -0.24943129659764751 0.26000894523212309 0 -0.26514282027817931 0.24842266601513599 0 -0.24943129659764751 0.26000894523212309 0 -0.2468893326351202 0.24329134098969171 0 -0.25616918259472732 0.30236015827283808 0 -0.26709784128719349 0.28662765883125513 0 -0.24190471242523851 0.27972751922608308 0 -0.28581088023419748 0.27213864639403801 0 -0.26709784128719349 0.28662765883125513 0 -0.29016097772449478 0.2935014559625142 0 -0.26709784128719349 0.28662765883125513 0 -0.27491611994182802 0.30516871221215541 0 -0.29016097772449478 0.2935014559625142 0 -0.25616918259472732 0.30236015827283808 0 -0.27491611994182802 0.30516871221215541 0 -0.27043365276421599 0.32499279731959319 0 -0.25616918259472732 0.30236015827283808 0 -0.26709784128719349 0.28662765883125513 0 -0.27491611994182802 0.30516871221215541 0 -0.27491611994182802 0.30516871221215541 0 -0.29016097772449478 0.2935014559625142 0 -0.29169578744288521 0.31398791816734961 0 -0.30745975664346697 0.28108303278283259 0 -0.28581088023419748 0.27213864639403801 0 -0.29016097772449478 0.2935014559625142 0 -0.31376474629655843 0.30225304786416751 0 -0.30745975664346697 0.28108303278283259 0 -0.29016097772449478 0.2935014559625142 0 -0.31376474629655843 0.30225304786416751 0 -0.29016097772449478 0.2935014559625142 0 -0.29169578744288521 0.31398791816734961 0 -0.31376474629655843 0.30225304786416751 0 -0.31074538478735791 0.32738191455196902 0 -0.29169578744288521 0.31398791816734961 0 -0.31074538478735791 0.32738191455196902 0 -0.29170910681836448 0.3316805874579164 0 -0.29169578744288521 0.31398791816734961 0 -0.31074538478735791 0.32738191455196902 0 -0.30097258616365841 0.34441487088432199 0 -0.31556783578130437 0.34561409599239279 0 -0.31074538478735791 0.32738191455196902 0 -0.29170910681836448 0.3316805874579164 0 -0.30097258616365841 0.34441487088432199 0 -0.29170910681836448 0.3316805874579164 0 -0.28469812293370489 0.34762543636634829 0 -0.30097258616365841 0.34441487088432199 0 -0.29170910681836448 0.3316805874579164 0 -0.27043365276421599 0.32499279731959319 0 -0.28469812293370489 0.34762543636634829 0 -0.29170910681836448 0.3316805874579164 0 -0.29169578744288521 0.31398791816734961 0 -0.27043365276421599 0.32499279731959319 0 -0.27491611994182802 0.30516871221215541 0 -0.29169578744288521 0.31398791816734961 0 -0.27043365276421599 0.32499279731959319 0 -0.27043365276421599 0.32499279731959319 0 -0.26243222306204511 0.35090504016953772 0 -0.28469812293370489 0.34762543636634829 0 -0.27043365276421599 0.32499279731959319 0 -0.28469812293370489 0.34762543636634829 0 -0.27043365276421599 0.32499279731959319 0 -0.25002058798003007 0.3320526588471332 0 -0.26243222306204511 0.35090504016953772 0 -0.25616918259472732 0.30236015827283808 0 -0.27043365276421599 0.32499279731959319 0 -0.25616918259472732 0.30236015827283808 0 -0.27043365276421599 0.32499279731959319 0 -0.25002058798003007 0.3320526588471332 0 -0.25717133997193298 0.37426095615225607 0 -0.26243222306204511 0.35090504016953772 0 -0.27169383631612543 0.36953364855257259 0 -0.25717133997193298 0.37426095615225607 0 -0.26243222306204511 0.35090504016953772 0 -0.24481421723968019 0.36490975255658048 0 -0.27524778858216448 0.35766291394235578 0 -0.28324842690769031 0.36508823660180101 0 -0.28469812293370489 0.34762543636634829 0 -0.26243222306204511 0.35090504016953772 0 -0.27524778858216448 0.35766291394235578 0 -0.27169383631612543 0.36953364855257259 0 -0.26243222306204511 0.35090504016953772 0 -0.27524778858216448 0.35766291394235578 0 -0.28469812293370489 0.34762543636634829 0 -0.27524778858216448 0.35766291394235578 0 -0.27169383631612543 0.36953364855257259 0 -0.28324842690769031 0.36508823660180101 0 -0.27169383631612543 0.36953364855257259 0 -0.28324842690769031 0.36508823660180101 0 -0.28209338532393202 0.38222600668133688 0 -0.28324842690769031 0.36508823660180101 0 -0.28469812293370489 0.34762543636634829 0 -0.29896259310319367 0.37025807541310352 0 -0.28324842690769031 0.36508823660180101 0 -0.29896259310319367 0.37025807541310352 0 -0.28209338532393202 0.38222600668133688 0 -0.28469812293370489 0.34762543636634829 0 -0.29896259310319367 0.37025807541310352 0 -0.28469812293370489 0.34762543636634829 0 -0.30097258616365841 0.34441487088432199 0 -0.29896259310319367 0.37025807541310352 0 -0.30097258616365841 0.34441487088432199 0 -0.30971140611047582 0.35873879640362499 0 -0.29896259310319367 0.37025807541310352 0 -0.30097258616365841 0.34441487088432199 0 -0.29896259310319367 0.37025807541310352 0 -0.30097258616365841 0.34441487088432199 0 -0.30971140611047582 0.35873879640362499 0 -0.31556783578130437 0.34561409599239279 0 -0.30971140611047582 0.35873879640362499 0 -0.29896259310319367 0.37025807541310352 0 -0.31229554397435733 0.37005867265250031 0 -0.29896259310319367 0.37025807541310352 0 -0.31229554397435733 0.37005867265250031 0 -0.30732872976294823 0.38353215772995369 0 -0.31229554397435733 0.37005867265250031 0 -0.32118050234516199 0.36201264788746418 0 -0.32091897818789411 0.37757395005697603 0 -0.30971140611047582 0.35873879640362499 0 -0.31229554397435733 0.37005867265250031 0 -0.32118050234516199 0.36201264788746418 0 -0.32118050234516199 0.36201264788746418 0 -0.33508210951592582 0.36870163953731322 0 -0.32091897818789411 0.37757395005697603 0 -0.33508210951592582 0.36870163953731322 0 -0.35209549523865291 0.37190500391828912 0 -0.33393211710626841 0.38433234248782061 0 -0.32118050234516199 0.36201264788746418 0 -0.33508210951592582 0.36870163953731322 0 -0.33321476088078839 0.35466849371962073 0 -0.33508210951592582 0.36870163953731322 0 -0.33321476088078839 0.35466849371962073 0 -0.34577529297467657 0.36353966338233001 0 -0.33321476088078839 0.35466849371962073 0 -0.34577529297467657 0.36353966338233001 0 -0.34447532111727192 0.34884924989517158 0 -0.33321476088078839 0.35466849371962073 0 -0.33003563329740881 0.33925758124412497 0 -0.34447532111727192 0.34884924989517158 0 -0.32118050234516199 0.36201264788746418 0 -0.33321476088078839 0.35466849371962073 0 -0.31556783578130437 0.34561409599239279 0 -0.30971140611047582 0.35873879640362499 0 -0.32118050234516199 0.36201264788746418 0 -0.31556783578130437 0.34561409599239279 0 -0.33321476088078839 0.35466849371962073 0 -0.31556783578130437 0.34561409599239279 0 -0.33003563329740881 0.33925758124412497 0 -0.31074538478735791 0.32738191455196902 0 -0.33257481532433891 0.31836647764434117 0 -0.33003563329740881 0.33925758124412497 0 -0.31074538478735791 0.32738191455196902 0 -0.31556783578130437 0.34561409599239279 0 -0.33003563329740881 0.33925758124412497 0 -0.31376474629655843 0.30225304786416751 0 -0.31074538478735791 0.32738191455196902 0 -0.33257481532433891 0.31836647764434117 0 -0.33790089425573833 0.30106400074382289 0 -0.33257481532433891 0.31836647764434117 0 -0.35615310428423591 0.31878714957900162 0 -0.33257481532433891 0.31836647764434117 0 -0.33003563329740881 0.33925758124412497 0 -0.34490357793898208 0.33379293979876401 0 -0.33003563329740881 0.33925758124412497 0 -0.34490357793898208 0.33379293979876401 0 -0.34447532111727192 0.34884924989517158 0 -0.34490357793898208 0.33379293979876401 0 -0.34447532111727192 0.34884924989517158 0 -0.35750778107934472 0.34402647380388779 0 -0.35615310428423591 0.31878714957900162 0 -0.35750778107934472 0.34402647380388779 0 -0.34490357793898208 0.33379293979876401 0 -0.35615310428423591 0.31878714957900162 0 -0.35750778107934472 0.34402647380388779 0 -0.33257481532433891 0.31836647764434117 0 -0.34490357793898208 0.33379293979876401 0 -0.35615310428423591 0.31878714957900162 0 -0.3809584867257152 0.31995934924364311 0 -0.36990774782730562 0.30465198401604282 0 -0.35615310428423591 0.31878714957900162 0 -0.37563375498023588 0.33893957100260502 0 -0.3809584867257152 0.31995934924364311 0 -0.35615310428423591 0.31878714957900162 0 -0.37563375498023588 0.33893957100260502 0 -0.35615310428423591 0.31878714957900162 0 -0.35750778107934472 0.34402647380388779 0 -0.37563375498023588 0.33893957100260502 0 -0.37302608715873109 0.35758434449273291 0 -0.35750778107934472 0.34402647380388779 0 -0.37302608715873109 0.35758434449273291 0 -0.35750778107934472 0.34402647380388779 0 -0.35541488053243109 0.35781034742230239 0 -0.37302608715873109 0.35758434449273291 0 -0.35209549523865291 0.37190500391828912 0 -0.35541488053243109 0.35781034742230239 0 -0.37302608715873109 0.35758434449273291 0 -0.37126589511329411 0.37377724987418581 0 -0.35209549523865291 0.37190500391828912 0 -0.37302608715873109 0.35758434449273291 0 -0.35209549523865291 0.37190500391828912 0 -0.33508210951592582 0.36870163953731322 0 -0.35209549523865291 0.37190500391828912 0 -0.34577529297467657 0.36353966338233001 0 -0.35209549523865291 0.37190500391828912 0 -0.34577529297467657 0.36353966338233001 0 -0.35209549523865291 0.37190500391828912 0 -0.34577529297467657 0.36353966338233001 0 -0.35541488053243109 0.35781034742230239 0 -0.34577529297467657 0.36353966338233001 0 -0.34447532111727192 0.34884924989517158 0 -0.35541488053243109 0.35781034742230239 0 -0.34447532111727192 0.34884924989517158 0 -0.35750778107934472 0.34402647380388779 0 -0.35541488053243109 0.35781034742230239 0 -0.35026082972236822 0.40458613969335172 0 -0.34862050747833878 0.38874946299455448 0 -0.33552343261133938 0.40009846525415782 0 -0.35026082972236822 0.40458613969335172 0 -0.34862050747833878 0.38874946299455448 0 -0.36671596826568531 0.39125647884893172 0 -0.35209549523865291 0.37190500391828912 0 -0.34862050747833878 0.38874946299455448 0 -0.33393211710626841 0.38433234248782061 0 -0.35209549523865291 0.37190500391828912 0 -0.34862050747833878 0.38874946299455448 0 -0.36671596826568531 0.39125647884893172 0 -0.35209549523865291 0.37190500391828912 0 -0.36671596826568531 0.39125647884893172 0 -0.37126589511329411 0.37377724987418581 0 -0.35209549523865291 0.37190500391828912 0 -0.36671596826568531 0.39125647884893172 0 -0.38133644129271771 0.41060795377957438 0 -0.36671596826568531 0.39125647884893172 0 -0.35026082972236822 0.40458613969335172 0 -0.36671596826568531 0.39125647884893172 0 -0.36333227490387549 0.41594406858258898 0 -0.38133644129271771 0.41060795377957438 0 -0.36671596826568531 0.39125647884893172 0 -0.36333227490387549 0.41594406858258898 0 -0.38133644129271771 0.41060795377957438 0 -0.36333227490387549 0.41594406858258898 0 -0.37388199021079188 0.43349662060099697 0 -0.36333227490387549 0.41594406858258898 0 -0.37388199021079188 0.43349662060099697 0 -0.35906691460358248 0.43302642702751659 0 -0.36333227490387549 0.41594406858258898 0 -0.35906691460358248 0.43302642702751659 0 -0.35160825139420282 0.41805423523185442 0 -0.35906691460358248 0.43302642702751659 0 -0.34586475289765162 0.42738691828786168 0 -0.34964894770477822 0.45067928662270329 0 -0.35906691460358248 0.43302642702751659 0 -0.34586475289765162 0.42738691828786168 0 -0.35160825139420282 0.41805423523185442 0 -0.35026082972236822 0.40458613969335172 0 -0.36333227490387549 0.41594406858258898 0 -0.35160825139420282 0.41805423523185442 0 -0.34586475289765162 0.42738691828786168 0 -0.35160825139420282 0.41805423523185442 0 -0.33955069738530769 0.4144169953609998 0 -0.35026082972236822 0.40458613969335172 0 -0.35160825139420282 0.41805423523185442 0 -0.33955069738530769 0.4144169953609998 0 -0.35026082972236822 0.40458613969335172 0 -0.33955069738530769 0.4144169953609998 0 -0.33552343261133938 0.40009846525415782 0 -0.33446828868340289 0.42659298183602629 0 -0.325081577553051 0.41169961094141633 0 -0.33955069738530769 0.4144169953609998 0 -0.33446828868340289 0.42659298183602629 0 -0.325081577553051 0.41169961094141633 0 -0.33955069738530769 0.4144169953609998 0 -0.325081577553051 0.41169961094141633 0 -0.33552343261133938 0.40009846525415782 0 -0.33446828868340289 0.42659298183602629 0 -0.32353211865850812 0.43458959004027897 0 -0.33054677899099522 0.44587833955602901 0 -0.34586475289765162 0.42738691828786168 0 -0.33446828868340289 0.42659298183602629 0 -0.34964894770477822 0.45067928662270329 0 -0.34586475289765162 0.42738691828786168 0 -0.33446828868340289 0.42659298183602629 0 -0.34586475289765162 0.42738691828786168 0 -0.33955069738530769 0.4144169953609998 0 -0.33446828868340289 0.42659298183602629 0 -0.33446828868340289 0.42659298183602629 0 -0.31463215430362917 0.42521109444957261 0 -0.33446828868340289 0.42659298183602629 0 -0.31463215430362917 0.42521109444957261 0 -0.32353211865850812 0.43458959004027897 0 -0.31463215430362917 0.42521109444957261 0 -0.32353211865850812 0.43458959004027897 0 -0.30632691414132052 0.4383163993433048 0 -0.325081577553051 0.41169961094141633 0 -0.31576873897388319 0.39675968105735149 0 -0.30808160252936673 0.4121977433748496 0 -0.31463215430362917 0.42521109444957261 0 -0.325081577553051 0.41169961094141633 0 -0.30808160252936673 0.4121977433748496 0 -0.33446828868340289 0.42659298183602629 0 -0.31463215430362917 0.42521109444957261 0 -0.325081577553051 0.41169961094141633 0 -0.325081577553051 0.41169961094141633 0 -0.31576873897388319 0.39675968105735149 0 -0.33552343261133938 0.40009846525415782 0 -0.325081577553051 0.41169961094141633 0 -0.31576873897388319 0.39675968105735149 0 -0.34862050747833878 0.38874946299455448 0 -0.33552343261133938 0.40009846525415782 0 -0.33393211710626841 0.38433234248782061 0 -0.31576873897388319 0.39675968105735149 0 -0.33552343261133938 0.40009846525415782 0 -0.33393211710626841 0.38433234248782061 0 -0.35209549523865291 0.37190500391828912 0 -0.33393211710626841 0.38433234248782061 0 -0.33508210951592582 0.36870163953731322 0 -0.33393211710626841 0.38433234248782061 0 -0.32091897818789411 0.37757395005697603 0 -0.31576873897388319 0.39675968105735149 0 -0.32091897818789411 0.37757395005697603 0 -0.30732872976294823 0.38353215772995369 0 -0.31576873897388319 0.39675968105735149 0 -0.33393211710626841 0.38433234248782061 0 -0.31576873897388319 0.39675968105735149 0 -0.33393211710626841 0.38433234248782061 0 -0.32091897818789411 0.37757395005697603 0 -0.31229554397435733 0.37005867265250031 0 -0.32091897818789411 0.37757395005697603 0 -0.30732872976294823 0.38353215772995369 0 -0.29896259310319367 0.37025807541310352 0 -0.30732872976294823 0.38353215772995369 0 -0.29700674132229032 0.39540516601558717 0 -0.29896259310319367 0.37025807541310352 0 -0.29700674132229032 0.39540516601558717 0 -0.31576873897388319 0.39675968105735149 0 -0.30732872976294823 0.38353215772995369 0 -0.29896259310319367 0.37025807541310352 0 -0.30732872976294823 0.38353215772995369 0 -0.29700674132229032 0.39540516601558717 0 -0.30259284054109448 0.40478096048040529 0 -0.29641605771867308 0.41403951143914192 0 -0.31576873897388319 0.39675968105735149 0 -0.29700674132229032 0.39540516601558717 0 -0.30259284054109448 0.40478096048040529 0 -0.31576873897388319 0.39675968105735149 0 -0.30732872976294823 0.38353215772995369 0 -0.29700674132229032 0.39540516601558717 0 -0.31576873897388319 0.39675968105735149 0 -0.30259284054109448 0.40478096048040529 0 -0.30808160252936673 0.4121977433748496 0 -0.29700674132229032 0.39540516601558717 0 -0.28209338532393202 0.38222600668133688 0 -0.27839968129949771 0.4031848713431353 0 -0.29896259310319367 0.37025807541310352 0 -0.29700674132229032 0.39540516601558717 0 -0.28209338532393202 0.38222600668133688 0 -0.27169383631612543 0.36953364855257259 0 -0.28209338532393202 0.38222600668133688 0 -0.26324903299479457 0.38988604216182182 0 -0.27839968129949771 0.4031848713431353 0 -0.26324903299479457 0.38988604216182182 0 -0.26044543261494202 0.40722350202507612 0 -0.28209338532393202 0.38222600668133688 0 -0.27839968129949771 0.4031848713431353 0 -0.26324903299479457 0.38988604216182182 0 -0.26324903299479457 0.38988604216182182 0 -0.26044543261494202 0.40722350202507612 0 -0.24448809762487089 0.40050868906775772 0 -0.25717133997193298 0.37426095615225607 0 -0.26324903299479457 0.38988604216182182 0 -0.24074374520667241 0.38242687998337299 0 -0.25717133997193298 0.37426095615225607 0 -0.27169383631612543 0.36953364855257259 0 -0.26324903299479457 0.38988604216182182 0 -0.25382358621835049 0.43542260228310259 0 -0.27015352040741047 0.42211248350195679 0 -0.2459368307481366 0.42042542405070832 0 -0.27015352040741047 0.42211248350195679 0 -0.2459368307481366 0.42042542405070832 0 -0.26044543261494202 0.40722350202507612 0 -0.2459368307481366 0.42042542405070832 0 -0.24448809762487089 0.40050868906775772 0 -0.26044543261494202 0.40722350202507612 0 -0.27015352040741047 0.42211248350195679 0 -0.2459368307481366 0.42042542405070832 0 -0.27839968129949771 0.4031848713431353 0 -0.26044543261494202 0.40722350202507612 0 -0.27015352040741047 0.42211248350195679 0 -0.27839968129949771 0.4031848713431353 0 -0.27015352040741047 0.42211248350195679 0 -0.2950508895413867 0.42055225661807089 0 -0.25382358621835049 0.43542260228310259 0 -0.27015352040741047 0.42211248350195679 0 -0.27451598641054692 0.44016370142941202 0 -0.27015352040741047 0.42211248350195679 0 -0.28251112199335982 0.43211478794536817 0 -0.27451598641054692 0.44016370142941202 0 -0.28251112199335982 0.43211478794536817 0 -0.29479601992385501 0.42382920706312738 0 -0.29069111349206073 0.44135124015641658 0 -0.29479601992385501 0.42382920706312738 0 -0.29069111349206073 0.44135124015641658 0 -0.27015352040741047 0.42211248350195679 0 -0.28251112199335982 0.43211478794536817 0 -0.29479601992385501 0.42382920706312738 0 -0.27015352040741047 0.42211248350195679 0 -0.29479601992385501 0.42382920706312738 0 -0.27015352040741047 0.42211248350195679 0 -0.29479601992385501 0.42382920706312738 0 -0.2950508895413867 0.42055225661807089 0 -0.29479601992385501 0.42382920706312738 0 -0.2950508895413867 0.42055225661807089 0 -0.29700674132229032 0.39540516601558717 0 -0.2950508895413867 0.42055225661807089 0 -0.29641605771867308 0.41403951143914192 0 -0.29700674132229032 0.39540516601558717 0 -0.27839968129949771 0.4031848713431353 0 -0.2950508895413867 0.42055225661807089 0 -0.29700674132229032 0.39540516601558717 0 -0.2950508895413867 0.42055225661807089 0 -0.2950508895413867 0.42055225661807089 0 -0.29641605771867308 0.41403951143914192 0 -0.31463215430362917 0.42521109444957261 0 -0.2950508895413867 0.42055225661807089 0 -0.30808160252936673 0.4121977433748496 0 -0.30259284054109448 0.40478096048040529 0 -0.29641605771867308 0.41403951143914192 0 -0.30808160252936673 0.4121977433748496 0 -0.2950508895413867 0.42055225661807089 0 -0.29641605771867308 0.41403951143914192 0 -0.30808160252936673 0.4121977433748496 0 -0.31463215430362917 0.42521109444957261 0 -0.29479601992385501 0.42382920706312738 0 -0.2950508895413867 0.42055225661807089 0 -0.31463215430362917 0.42521109444957261 0 -0.29479601992385501 0.42382920706312738 0 -0.30632691414132052 0.4383163993433048 0 -0.29479601992385501 0.42382920706312738 0 -0.30632691414132052 0.4383163993433048 0 -0.29069111349206073 0.44135124015641658 0 -0.31463215430362917 0.42521109444957261 0 -0.29479601992385501 0.42382920706312738 0 -0.30632691414132052 0.4383163993433048 0 -0.3106014077299023 0.45452137664490028 0 -0.31918078655937843 0.44538174228416588 0 -0.30632691414132052 0.4383163993433048 0 -0.29796494780926752 0.45236230629258078 0 -0.3106014077299023 0.45452137664490028 0 -0.30632691414132052 0.4383163993433048 0 -0.29796494780926752 0.45236230629258078 0 -0.29069111349206073 0.44135124015641658 0 -0.3106014077299023 0.45452137664490028 0 -0.30192672627001949 0.46374394226332799 0 -0.31684143562260331 0.46858494716702748 0 -0.30192672627001949 0.46374394226332799 0 -0.31684143562260331 0.46858494716702748 0 -0.29796494780926752 0.45236230629258078 0 -0.3106014077299023 0.45452137664490028 0 -0.30192672627001949 0.46374394226332799 0 -0.28701201691743577 0.45890293735962839 0 -0.28352738281579593 0.4755269213664215 0 -0.30192672627001949 0.46374394226332799 0 -0.28701201691743577 0.45890293735962839 0 -0.30030559437380339 0.47420586516231239 0 -0.30192672627001949 0.46374394226332799 0 -0.28701201691743577 0.45890293735962839 0 -0.29796494780926752 0.45236230629258078 0 -0.30192672627001949 0.46374394226332799 0 -0.28701201691743577 0.45890293735962839 0 -0.28701201691743577 0.45890293735962839 0 -0.29069111349206073 0.44135124015641658 0 -0.28701201691743577 0.45890293735962839 0 -0.29069111349206073 0.44135124015641658 0 -0.27451598641054692 0.44016370142941202 0 -0.29796494780926752 0.45236230629258078 0 -0.28701201691743577 0.45890293735962839 0 -0.29069111349206073 0.44135124015641658 0 -0.28251112199335982 0.43211478794536817 0 -0.29069111349206073 0.44135124015641658 0 -0.27451598641054692 0.44016370142941202 0 -0.28701201691743577 0.45890293735962839 0 -0.27451598641054692 0.44016370142941202 0 -0.2629045594346644 0.45107815732999917 0 -0.28701201691743577 0.45890293735962839 0 -0.2629045594346644 0.45107815732999917 0 -0.28701201691743577 0.45890293735962839 0 -0.27023974482395158 0.46466667776273851 0 -0.28352738281579593 0.4755269213664215 0 -0.28701201691743577 0.45890293735962839 0 -0.27023974482395158 0.46466667776273851 0 -0.2629045594346644 0.45107815732999917 0 -0.27023974482395158 0.46466667776273851 0 -0.2629045594346644 0.45107815732999917 0 -0.2489120775907421 0.45611132706247232 0 -0.27023974482395158 0.46466667776273851 0 -0.24576275637927339 0.47027392540463459 0 -0.2489120775907421 0.45611132706247232 0 -0.25382358621835049 0.43542260228310259 0 -0.2629045594346644 0.45107815732999917 0 -0.2387971019518931 0.44325337730036979 0 -0.2629045594346644 0.45107815732999917 0 -0.2387971019518931 0.44325337730036979 0 -0.2629045594346644 0.45107815732999917 0 -0.2387971019518931 0.44325337730036979 0 -0.2489120775907421 0.45611132706247232 0 -0.25382358621835049 0.43542260228310259 0 -0.27451598641054692 0.44016370142941202 0 -0.2629045594346644 0.45107815732999917 0 -0.26267046183496029 0.5 0 -0.26550391405888962 0.48189416376756322 0 -0.24740973726578031 0.48747235416832729 0 -0.26550391405888962 0.48189416376756322 0 -0.24576275637927339 0.47027392540463459 0 -0.24740973726578031 0.48747235416832729 0 -0.27023974482395158 0.46466667776273851 0 -0.26550391405888962 0.48189416376756322 0 -0.24576275637927339 0.47027392540463459 0 -0.27023974482395158 0.46466667776273851 0 -0.26550391405888962 0.48189416376756322 0 -0.28352738281579593 0.4755269213664215 0 -0.26550391405888962 0.48189416376756322 0 -0.28004274871415491 0.49215090537321432 0 -0.28352738281579593 0.4755269213664215 0 -0.26267046183496029 0.5 0 -0.26550391405888962 0.48189416376756322 0 -0.28004274871415491 0.49215090537321432 0 -0.26267046183496029 0.5 0 -0.28004274871415491 0.49215090537321432 0 -0.28977137280097909 0.5 0 -0.28004274871415491 0.49215090537321432 0 -0.29422506909847679 0.48481709335143458 0 -0.28977137280097909 0.5 0 -0.29422506909847679 0.48481709335143458 0 -0.28977137280097909 0.5 0 -0.30059562840125281 0.49523014277448563 0 -0.29422506909847679 0.48481709335143458 0 -0.28352738281579593 0.4755269213664215 0 -0.30030559437380339 0.47420586516231239 0 -0.28004274871415491 0.49215090537321432 0 -0.29422506909847679 0.48481709335143458 0 -0.28352738281579593 0.4755269213664215 0 -0.28701201691743577 0.45890293735962839 0 -0.28352738281579593 0.4755269213664215 0 -0.30030559437380339 0.47420586516231239 0 -0.28004274871415491 0.49215090537321432 0 -0.28352738281579593 0.4755269213664215 0 -0.30192672627001949 0.46374394226332799 0 -0.30030559437380339 0.47420586516231239 0 -0.31684143562260331 0.46858494716702748 0 -0.30030559437380339 0.47420586516231239 0 -0.3087338265938282 0.48140676030859753 0 -0.31684143562260331 0.46858494716702748 0 -0.29422506909847679 0.48481709335143458 0 -0.30030559437380339 0.47420586516231239 0 -0.3087338265938282 0.48140676030859753 0 -0.28977137280097909 0.5 0 -0.30059562840125281 0.49523014277448563 0 -0.31687228376699761 0.5 0 -0.3087338265938282 0.48140676030859753 0 -0.30059562840125281 0.49523014277448563 0 -0.32200695450955369 0.48840862565278359 0 -0.30059562840125281 0.49523014277448563 0 -0.32200695450955369 0.48840862565278359 0 -0.29422506909847679 0.48481709335143458 0 -0.3087338265938282 0.48140676030859753 0 -0.30059562840125281 0.49523014277448563 0 -0.30059562840125281 0.49523014277448563 0 -0.31687228376699761 0.5 0 -0.32200695450955369 0.48840862565278359 0 -0.31687228376699761 0.5 0 -0.32200695450955369 0.48840862565278359 0 -0.33307541777069588 0.49179723018598798 0 -0.32200695450955369 0.48840862565278359 0 -0.34341828061785462 0.48158710853108161 0 -0.32200695450955369 0.48840862565278359 0 -0.33307541777069588 0.49179723018598798 0 -0.34341828061785462 0.48158710853108161 0 -0.33307541777069588 0.49179723018598798 0 -0.34341828061785462 0.48158710853108161 0 -0.34397319473301619 0.5 0 -0.31687228376699761 0.5 0 -0.33307541777069588 0.49179723018598798 0 -0.34397319473301619 0.5 0 -0.32200695450955369 0.48840862565278359 0 -0.34341828061785462 0.48158710853108161 0 -0.32987443399239552 0.47516769423785971 0 -0.34341828061785462 0.48158710853108161 0 -0.32987443399239552 0.47516769423785971 0 -0.34602126269748001 0.46829680282094799 0 -0.32987443399239552 0.47516769423785971 0 -0.31870391104731738 0.47862303310617538 0 -0.31684143562260331 0.46858494716702748 0 -0.32200695450955369 0.48840862565278359 0 -0.32987443399239552 0.47516769423785971 0 -0.31870391104731738 0.47862303310617538 0 -0.3087338265938282 0.48140676030859753 0 -0.32200695450955369 0.48840862565278359 0 -0.31870391104731738 0.47862303310617538 0 -0.3087338265938282 0.48140676030859753 0 -0.31870391104731738 0.47862303310617538 0 -0.31684143562260331 0.46858494716702748 0 -0.31684143562260331 0.46858494716702748 0 -0.32297313966047753 0.4563916054492167 0 -0.33347739267942988 0.46163483110378051 0 -0.32987443399239552 0.47516769423785971 0 -0.31684143562260331 0.46858494716702748 0 -0.33347739267942988 0.46163483110378051 0 -0.3106014077299023 0.45452137664490028 0 -0.31684143562260331 0.46858494716702748 0 -0.32297313966047753 0.4563916054492167 0 -0.32353211865850812 0.43458959004027897 0 -0.30632691414132052 0.4383163993433048 0 -0.31918078655937843 0.44538174228416588 0 -0.3106014077299023 0.45452137664490028 0 -0.32297313966047753 0.4563916054492167 0 -0.31918078655937843 0.44538174228416588 0 -0.32297313966047753 0.4563916054492167 0 -0.31918078655937843 0.44538174228416588 0 -0.33054677899099522 0.44587833955602901 0 -0.32353211865850812 0.43458959004027897 0 -0.31918078655937843 0.44538174228416588 0 -0.33054677899099522 0.44587833955602901 0 -0.33054677899099522 0.44587833955602901 0 -0.33347739267942988 0.46163483110378051 0 -0.34964894770477822 0.45067928662270329 0 -0.33446828868340289 0.42659298183602629 0 -0.34964894770477822 0.45067928662270329 0 -0.33446828868340289 0.42659298183602629 0 -0.33054677899099522 0.44587833955602901 0 -0.34964894770477822 0.45067928662270329 0 -0.32297313966047753 0.4563916054492167 0 -0.33054677899099522 0.44587833955602901 0 -0.33347739267942988 0.46163483110378051 0 -0.33347739267942988 0.46163483110378051 0 -0.34602126269748001 0.46829680282094799 0 -0.34964894770477822 0.45067928662270329 0 -0.32987443399239552 0.47516769423785971 0 -0.33347739267942988 0.46163483110378051 0 -0.34602126269748001 0.46829680282094799 0 -0.34964894770477822 0.45067928662270329 0 -0.36482960672615539 0.47476559140937902 0 -0.34602126269748001 0.46829680282094799 0 -0.34964894770477822 0.45067928662270329 0 -0.36482960672615539 0.47476559140937902 0 -0.37388199021079188 0.43349662060099697 0 -0.35906691460358248 0.43302642702751659 0 -0.37006527051019528 0.45259743283909409 0 -0.35906691460358248 0.43302642702751659 0 -0.34964894770477822 0.45067928662270329 0 -0.37006527051019528 0.45259743283909409 0 -0.34964894770477822 0.45067928662270329 0 -0.37006527051019528 0.45259743283909409 0 -0.36482960672615539 0.47476559140937902 0 -0.39197467039505129 0.46611734068214988 0 -0.36580706476392733 0.47631646954851292 0 -0.36482960672615539 0.47476559140937902 0 -0.38413367002432852 0.48466820949397371 0 -0.36580706476392733 0.47631646954851292 0 -0.36922226322768142 0.48798439540463678 0 -0.36580706476392733 0.47631646954851292 0 -0.36482960672615539 0.47476559140937902 0 -0.36580706476392733 0.47631646954851292 0 -0.36011621247549508 0.48220740160321018 0 -0.36922226322768142 0.48798439540463678 0 -0.36580706476392733 0.47631646954851292 0 -0.36482960672615539 0.47476559140937902 0 -0.36011621247549508 0.48220740160321018 0 -0.38413367002432852 0.48466820949397371 0 -0.36922226322768142 0.48798439540463678 0 -0.37107410569903487 0.5 0 -0.36922226322768142 0.48798439540463678 0 -0.37107410569903487 0.5 0 -0.35730384704185653 0.49038344312244059 0 -0.36011621247549508 0.48220740160321018 0 -0.36922226322768142 0.48798439540463678 0 -0.35730384704185653 0.49038344312244059 0 -0.34341828061785462 0.48158710853108161 0 -0.36011621247549508 0.48220740160321018 0 -0.35730384704185653 0.49038344312244059 0 -0.37107410569903487 0.5 0 -0.35730384704185653 0.49038344312244059 0 -0.34397319473301619 0.5 0 -0.34341828061785462 0.48158710853108161 0 -0.35730384704185653 0.49038344312244059 0 -0.34397319473301619 0.5 0 -0.34341828061785462 0.48158710853108161 0 -0.36482960672615539 0.47476559140937902 0 -0.36011621247549508 0.48220740160321018 0 -0.34341828061785462 0.48158710853108161 0 -0.34602126269748001 0.46829680282094799 0 -0.36482960672615539 0.47476559140937902 0 -0.34341828061785462 0.48158710853108161 0 -0.36482960672615539 0.47476559140937902 0 -0.14108182703901029 0.47856052106912539 0 -0.15218575011213231 0.48928026053456308 0 -0.15838645381207381 0.47784012782054008 0 -0.14108182703901029 0.47856052106912539 0 -0.15141758041572639 0.46790752156545012 0 -0.15838645381207381 0.47784012782054008 0 -0.14108182703901029 0.47856052106912539 0 -0.15218575011213231 0.48928026053456308 0 -0.14103512141071931 0.48261116844817892 0 -0.14108182703901029 0.47856052106912539 0 -0.15218575011213231 0.48928026053456308 0 -0.14103512141071931 0.48261116844817892 0 -0.14108182703901029 0.47856052106912539 0 -0.15218575011213231 0.48928026053456308 0 -0.14247376316698551 0.5 0 -0.1632896731852537 0.50000000000000155 0 -0.15218575011213231 0.48928026053456308 0 -0.14247376316698551 0.5 0 -0.14194011071192181 0.49099964735320722 0 -0.14103512141071931 0.48261116844817892 0 -0.15218575011213231 0.48928026053456308 0 -0.14194011071192181 0.49099964735320722 0 -0.14247376316698551 0.5 0 -0.13206580815784999 0.49210716043008701 0 -0.1216578531487173 0.50000000000000155 0 -0.13206580815784999 0.49210716043008701 0 -0.1215246548466888 0.48036061179670092 0 -0.1216578531487173 0.50000000000000155 0 -0.14103512141071931 0.48261116844817892 0 -0.13206580815784999 0.49210716043008701 0 -0.1215246548466888 0.48036061179670092 0 -0.14103512141071931 0.48261116844817892 0 -0.14194011071192181 0.49099964735320722 0 -0.13206580815784999 0.49210716043008701 0 -0.14247376316698551 0.5 0 -0.14194011071192181 0.49099964735320722 0 -0.13206580815784999 0.49210716043008701 0 -0.14103512141071931 0.48261116844817892 0 -0.14108182703901029 0.47856052106912539 0 -0.1215246548466888 0.48036061179670092 0 -0.14108182703901029 0.47856052106912539 0 -0.11987972175203609 0.45809198546251739 0 -0.1215246548466888 0.48036061179670092 0 -0.14108182703901029 0.47856052106912539 0 -0.14131813266979709 0.45806640035822538 0 -0.11987972175203609 0.45809198546251739 0 -0.14108182703901029 0.47856052106912539 0 -0.11987972175203609 0.45809198546251739 0 -0.12509104342100061 0.44188941827772182 0 -0.14131813266979709 0.45806640035822538 0 -0.11987972175203609 0.45809198546251739 0 -0.12509104342100061 0.44188941827772182 0 -0.14155443830058789 0.43757227964732542 0 -0.14131813266979709 0.45806640035822538 0 -0.14155443830058789 0.43757227964732542 0 -0.1590732886589914 0.44456462379371309 0 -0.14157918638415079 0.43542594817740249 0 -0.1590732886589914 0.44456462379371309 0 -0.1665175895587078 0.4467511244817659 0 -0.14157918638415079 0.43542594817740249 0 -0.1665175895587078 0.4467511244817659 0 -0.15486041744653839 0.43233395996053492 0 -0.14157918638415079 0.43542594817740249 0 -0.14155443830058789 0.43757227964732542 0 -0.14890115189103559 0.44846787442591368 0 -0.1590732886589914 0.44456462379371309 0 -0.1665175895587078 0.4467511244817659 0 -0.14157918638415079 0.43542594817740249 0 -0.14155443830058789 0.43757227964732542 0 -0.14890115189103559 0.44846787442591368 0 -0.14131813266979709 0.45806640035822538 0 -0.14155443830058789 0.43757227964732542 0 -0.1590732886589914 0.44456462379371309 0 -0.14155443830058789 0.43757227964732542 0 -0.14131813266979709 0.45806640035822538 0 -0.14890115189103559 0.44846787442591368 0 -0.15489186999573309 0.45643812449532861 0 -0.1590732886589914 0.44456462379371309 0 -0.14108182703901029 0.47856052106912539 0 -0.14131813266979709 0.45806640035822538 0 -0.14108182703901029 0.47856052106912539 0 -0.14131813266979709 0.45806640035822538 0 -0.15141758041572639 0.46790752156545012 0 -0.14890115189103559 0.44846787442591368 0 -0.14131813266979709 0.45806640035822538 0 -0.15489186999573309 0.45643812449532861 0 -0.14131813266979709 0.45806640035822538 0 -0.15489186999573309 0.45643812449532861 0 -0.15141758041572639 0.46790752156545012 0 -0.15489186999573309 0.45643812449532861 0 -0.15141758041572639 0.46790752156545012 0 -0.1637083375647361 0.46571847743475431 0 -0.15489186999573309 0.45643812449532861 0 -0.1637083375647361 0.46571847743475431 0 -0.16576602081972819 0.45650349861697093 0 -0.1637083375647361 0.46571847743475431 0 -0.1745644688617857 0.46423929942095737 0 -0.17520348646433229 0.47613194070040032 0 -0.1637083375647361 0.46571847743475431 0 -0.16576602081972819 0.45650349861697093 0 -0.1745644688617857 0.46423929942095737 0 -0.1590732886589914 0.44456462379371309 0 -0.17659213901739471 0.45155696794010108 0 -0.1590732886589914 0.44456462379371309 0 -0.1665175895587078 0.4467511244817659 0 -0.17659213901739471 0.45155696794010108 0 -0.16576602081972819 0.45650349861697093 0 -0.1590732886589914 0.44456462379371309 0 -0.17659213901739471 0.45155696794010108 0 -0.1665175895587078 0.4467511244817659 0 -0.1659354897241099 0.43449929542802312 0 -0.15486041744653839 0.43233395996053492 0 -0.15489186999573309 0.45643812449532861 0 -0.16576602081972819 0.45650349861697093 0 -0.1590732886589914 0.44456462379371309 0 -0.1665175895587078 0.4467511244817659 0 -0.1740586998674569 0.43899754936367941 0 -0.1659354897241099 0.43449929542802312 0 -0.1740586998674569 0.43899754936367941 0 -0.17659213901739471 0.45155696794010108 0 -0.1868590329817707 0.43357197228301869 0 -0.1665175895587078 0.4467511244817659 0 -0.1740586998674569 0.43899754936367941 0 -0.17659213901739471 0.45155696794010108 0 -0.1745644688617857 0.46423929942095737 0 -0.18738907724301901 0.4651958722260251 0 -0.17520348646433229 0.47613194070040032 0 -0.17659213901739471 0.45155696794010108 0 -0.1745644688617857 0.46423929942095737 0 -0.18738907724301901 0.4651958722260251 0 -0.16576602081972819 0.45650349861697093 0 -0.17659213901739471 0.45155696794010108 0 -0.1745644688617857 0.46423929942095737 0 -0.17520348646433229 0.47613194070040032 0 -0.17737148462513211 0.4885994124146576 0 -0.1949767913905355 0.48049775525153071 0 -0.18738907724301901 0.4651958722260251 0 -0.17520348646433229 0.47613194070040032 0 -0.1949767913905355 0.48049775525153071 0 -0.17520348646433229 0.47613194070040032 0 -0.1660045063390565 0.48636736612135473 0 -0.17737148462513211 0.4885994124146576 0 -0.17520348646433229 0.47613194070040032 0 -0.15838645381207381 0.47784012782054008 0 -0.1660045063390565 0.48636736612135473 0 -0.1637083375647361 0.46571847743475431 0 -0.17520348646433229 0.47613194070040032 0 -0.15838645381207381 0.47784012782054008 0 -0.15141758041572639 0.46790752156545012 0 -0.1637083375647361 0.46571847743475431 0 -0.15838645381207381 0.47784012782054008 0 -0.15218575011213231 0.48928026053456308 0 -0.1632896731852537 0.50000000000000155 0 -0.15218575011213231 0.48928026053456308 0 -0.15838645381207381 0.47784012782054008 0 -0.1660045063390565 0.48636736612135473 0 -0.15218575011213231 0.48928026053456308 0 -0.1632896731852537 0.50000000000000155 0 -0.1660045063390565 0.48636736612135473 0 -0.1632896731852537 0.50000000000000155 0 -0.1660045063390565 0.48636736612135473 0 -0.17737148462513211 0.4885994124146576 0 -0.1632896731852537 0.50000000000000155 0 -0.18738296574648311 0.5 0 -0.17737148462513211 0.4885994124146576 0 -0.18738296574648311 0.5 0 -0.17737148462513211 0.4885994124146576 0 -0.1949767913905355 0.48049775525153071 0 -0.18738296574648311 0.5 0 -0.1949767913905355 0.48049775525153071 0 -0.21147625830771241 0.5 0 -0.1949767913905355 0.48049775525153071 0 -0.2193327115732171 0.47785732409434201 0 -0.2030958722774939 0.45571464818868052 0 -0.1949767913905355 0.48049775525153071 0 -0.21147625830771241 0.5 0 -0.2193327115732171 0.47785732409434201 0 -0.21147625830771241 0.5 0 -0.2193327115732171 0.47785732409434201 0 -0.23556955086894171 0.50000000000000278 0 -0.2193327115732171 0.47785732409434201 0 -0.24740973726578031 0.48747235416832729 0 -0.23556955086894171 0.50000000000000278 0 -0.2193327115732171 0.47785732409434201 0 -0.23556955086894171 0.50000000000000278 0 -0.2193327115732171 0.47785732409434201 0 -0.24576275637927339 0.47027392540463459 0 -0.24740973726578031 0.48747235416832729 0 -0.26267046183496029 0.5 0 -0.24740973726578031 0.48747235416832729 0 -0.23556955086894171 0.50000000000000278 0 -0.2387971019518931 0.44325337730036979 0 -0.2489120775907421 0.45611132706247232 0 -0.22784244863720851 0.45419089524536999 0 -0.24576275637927339 0.47027392540463459 0 -0.2489120775907421 0.45611132706247232 0 -0.22784244863720851 0.45419089524536999 0 -0.2193327115732171 0.47785732409434201 0 -0.24576275637927339 0.47027392540463459 0 -0.22784244863720851 0.45419089524536999 0 -0.2387971019518931 0.44325337730036979 0 -0.22784244863720851 0.45419089524536999 0 -0.22695118484456259 0.43760496865691229 0 -0.22784244863720851 0.45419089524536999 0 -0.22695118484456259 0.43760496865691229 0 -0.21077827595677989 0.43843038173964088 0 -0.2387971019518931 0.44325337730036979 0 -0.22695118484456259 0.43760496865691229 0 -0.23717077667227929 0.4322920750106754 0 -0.22784244863720851 0.45419089524536999 0 -0.21077827595677989 0.43843038173964088 0 -0.2030958722774939 0.45571464818868052 0 -0.2193327115732171 0.47785732409434201 0 -0.22784244863720851 0.45419089524536999 0 -0.2030958722774939 0.45571464818868052 0 -0.2193327115732171 0.47785732409434201 0 -0.2030958722774939 0.45571464818868052 0 -0.18738907724301901 0.4651958722260251 0 -0.1949767913905355 0.48049775525153071 0 -0.2030958722774939 0.45571464818868052 0 -0.17659213901739471 0.45155696794010108 0 -0.18738907724301901 0.4651958722260251 0 -0.2030958722774939 0.45571464818868052 0 -0.17659213901739471 0.45155696794010108 0 -0.2030958722774939 0.45571464818868052 0 -0.1868590329817707 0.43357197228301869 0 -0.21077827595677989 0.43843038173964088 0 -0.2030958722774939 0.45571464818868052 0 -0.1868590329817707 0.43357197228301869 0 -0.2030958722774939 0.45571464818868052 0 -0.1868590329817707 0.43357197228301869 0 -0.21077827595677989 0.43843038173964088 0 -0.20038953475864499 0.42285930103310698 0 -0.1868590329817707 0.43357197228301869 0 -0.20038953475864499 0.42285930103310698 0 -0.18865851951403981 0.41114723081592358 0 -0.1868590329817707 0.43357197228301869 0 -0.20038953475864499 0.42285930103310698 0 -0.18865851951403981 0.41114723081592358 0 -0.20316386533702549 0.40742415296633488 0 -0.20038953475864499 0.42285930103310698 0 -0.20316386533702549 0.40742415296633488 0 -0.22016732100465239 0.41985811398850509 0 -0.20316386533702549 0.40742415296633488 0 -0.22016732100465239 0.41985811398850509 0 -0.21769018938602511 0.40540249138439582 0 -0.20316386533702549 0.40742415296633488 0 -0.22016732100465239 0.41985811398850509 0 -0.21077827595677989 0.43843038173964088 0 -0.20038953475864499 0.42285930103310698 0 -0.22016732100465239 0.41985811398850509 0 -0.22695118484456259 0.43760496865691229 0 -0.22016732100465239 0.41985811398850509 0 -0.23717077667227929 0.4322920750106754 0 -0.22695118484456259 0.43760496865691229 0 -0.21077827595677989 0.43843038173964088 0 -0.22016732100465239 0.41985811398850509 0 -0.22016732100465239 0.41985811398850509 0 -0.23358788463652869 0.41983625247023992 0 -0.23717077667227929 0.4322920750106754 0 -0.22016732100465239 0.41985811398850509 0 -0.23717077667227929 0.4322920750106754 0 -0.22016732100465239 0.41985811398850509 0 -0.23115288141678619 0.40759276862782062 0 -0.21769018938602511 0.40540249138439582 0 -0.22016732100465239 0.41985811398850509 0 -0.23115288141678619 0.40759276862782062 0 -0.23358788463652869 0.41983625247023992 0 -0.23115288141678619 0.40759276862782062 0 -0.2459368307481366 0.42042542405070832 0 -0.24448809762487089 0.40050868906775772 0 -0.23115288141678619 0.40759276862782062 0 -0.23358788463652869 0.41983625247023992 0 -0.2459368307481366 0.42042542405070832 0 -0.25382358621835049 0.43542260228310259 0 -0.2459368307481366 0.42042542405070832 0 -0.23717077667227929 0.4322920750106754 0 -0.25382358621835049 0.43542260228310259 0 -0.2387971019518931 0.44325337730036979 0 -0.23717077667227929 0.4322920750106754 0 -0.23358788463652869 0.41983625247023992 0 -0.2459368307481366 0.42042542405070832 0 -0.23717077667227929 0.4322920750106754 0 -0.26324903299479457 0.38988604216182182 0 -0.24074374520667241 0.38242687998337299 0 -0.24448809762487089 0.40050868906775772 0 -0.24074374520667241 0.38242687998337299 0 -0.24448809762487089 0.40050868906775772 0 -0.22634736018434309 0.39356380059118778 0 -0.23115288141678619 0.40759276862782062 0 -0.24448809762487089 0.40050868906775772 0 -0.22634736018434309 0.39356380059118778 0 -0.23115288141678619 0.40759276862782062 0 -0.22634736018434309 0.39356380059118778 0 -0.21769018938602511 0.40540249138439582 0 -0.24074374520667241 0.38242687998337299 0 -0.22634736018434309 0.39356380059118778 0 -0.21798062289891881 0.38062313327343511 0 -0.24074374520667241 0.38242687998337299 0 -0.21798062289891881 0.38062313327343511 0 -0.22441740966967141 0.36662202833489849 0 -0.21798062289891881 0.38062313327343511 0 -0.2053182195646632 0.38898911660535768 0 -0.20402060209966261 0.36833430411321649 0 -0.22634736018434309 0.39356380059118778 0 -0.21798062289891881 0.38062313327343511 0 -0.2053182195646632 0.38898911660535768 0 -0.22634736018434309 0.39356380059118778 0 -0.2053182195646632 0.38898911660535768 0 -0.21769018938602511 0.40540249138439582 0 -0.20316386533702549 0.40742415296633488 0 -0.2053182195646632 0.38898911660535768 0 -0.21769018938602511 0.40540249138439582 0 -0.20316386533702549 0.40742415296633488 0 -0.2053182195646632 0.38898911660535768 0 -0.18616040966939809 0.39499019194416529 0 -0.20316386533702549 0.40742415296633488 0 -0.18616040966939809 0.39499019194416529 0 -0.18865851951403981 0.41114723081592358 0 -0.20316386533702549 0.40742415296633488 0 -0.18616040966939809 0.39499019194416529 0 -0.2053182195646632 0.38898911660535768 0 -0.1927326532436788 0.38193994064591369 0 -0.18616040966939809 0.39499019194416529 0 -0.2053182195646632 0.38898911660535768 0 -0.1927326532436788 0.38193994064591369 0 -0.20402060209966261 0.36833430411321649 0 -0.1927326532436788 0.38193994064591369 0 -0.18374665136976759 0.37937871402705908 0 -0.18616040966939809 0.39499019194416529 0 -0.1744309637910503 0.37769149803556362 0 -0.1642142843906749 0.3789418502636645 0 -0.1838985270783616 0.39091510453828221 0 -0.1642142843906749 0.3789418502636645 0 -0.18616040966939809 0.39499019194416529 0 -0.1838985270783616 0.39091510453828221 0 -0.1927326532436788 0.38193994064591369 0 -0.18374665136976759 0.37937871402705908 0 -0.18362379452965399 0.37004657989153639 0 -0.18374665136976759 0.37937871402705908 0 -0.1744309637910503 0.37769149803556362 0 -0.1838985270783616 0.39091510453828221 0 -0.1642142843906749 0.3789418502636645 0 -0.18616040966939809 0.39499019194416529 0 -0.18374665136976759 0.37937871402705908 0 -0.1744309637910503 0.37769149803556362 0 -0.18362379452965399 0.37004657989153639 0 -0.18374665136976759 0.37937871402705908 0 -0.18616040966939809 0.39499019194416529 0 -0.18374665136976759 0.37937871402705908 0 -0.1838985270783616 0.39091510453828221 0 -0.18374665136976759 0.37937871402705908 0 -0.18616040966939809 0.39499019194416529 0 -0.1838985270783616 0.39091510453828221 0 -0.1642142843906749 0.3789418502636645 0 -0.1639919076143399 0.3974747808383628 0 -0.1489802686125267 0.38257497248127392 0 -0.1642142843906749 0.3789418502636645 0 -0.1639919076143399 0.3974747808383628 0 -0.18616040966939809 0.39499019194416529 0 -0.1744309637910503 0.37769149803556362 0 -0.1642142843906749 0.3789418502636645 0 -0.15874130784498061 0.37213542046662212 0 -0.1639919076143399 0.3974747808383628 0 -0.17750104491285451 0.40432040146684922 0 -0.17119334285363949 0.41366940226894577 0 -0.18865851951403981 0.41114723081592358 0 -0.18616040966939809 0.39499019194416529 0 -0.18865851951403981 0.41114723081592358 0 -0.17750104491285451 0.40432040146684922 0 -0.18616040966939809 0.39499019194416529 0 -0.1639919076143399 0.3974747808383628 0 -0.17750104491285451 0.40432040146684922 0 -0.18616040966939809 0.39499019194416529 0 -0.18865851951403981 0.41114723081592358 0 -0.17750104491285451 0.40432040146684922 0 -0.17119334285363949 0.41366940226894577 0 -0.18865851951403981 0.41114723081592358 0 -0.17459283461559361 0.42601523789076512 0 -0.17119334285363949 0.41366940226894577 0 -0.18865851951403981 0.41114723081592358 0 -0.1868590329817707 0.43357197228301869 0 -0.17459283461559361 0.42601523789076512 0 -0.1740586998674569 0.43899754936367941 0 -0.1868590329817707 0.43357197228301869 0 -0.17459283461559361 0.42601523789076512 0 -0.1740586998674569 0.43899754936367941 0 -0.17459283461559361 0.42601523789076512 0 -0.1659354897241099 0.43449929542802312 0 -0.17459283461559361 0.42601523789076512 0 -0.1659354897241099 0.43449929542802312 0 -0.16085192275254509 0.42420597718500008 0 -0.1659354897241099 0.43449929542802312 0 -0.16085192275254509 0.42420597718500008 0 -0.15486041744653839 0.43233395996053492 0 -0.1639919076143399 0.3974747808383628 0 -0.17119334285363949 0.41366940226894577 0 -0.1558060921739825 0.41026488178479492 0 -0.17459283461559361 0.42601523789076512 0 -0.16085192275254509 0.42420597718500008 0 -0.17119334285363949 0.41366940226894577 0 -0.16085192275254509 0.42420597718500008 0 -0.17119334285363949 0.41366940226894577 0 -0.1558060921739825 0.41026488178479492 0 -0.1558060921739825 0.41026488178479492 0 -0.1418117271851779 0.41525834053060801 0 -0.14204426798620681 0.39509073288381358 0 -0.16085192275254509 0.42420597718500008 0 -0.1558060921739825 0.41026488178479492 0 -0.1418117271851779 0.41525834053060801 0 -0.1418117271851779 0.41525834053060801 0 -0.14157918638415079 0.43542594817740249 0 -0.16085192275254509 0.42420597718500008 0 -0.1418117271851779 0.41525834053060801 0 -0.15486041744653839 0.43233395996053492 0 -0.1418117271851779 0.41525834053060801 0 -0.15486041744653839 0.43233395996053492 0 -0.14157918638415079 0.43542594817740249 0 -0.14155443830058789 0.43757227964732542 0 -0.14157918638415079 0.43542594817740249 0 -0.14155443830058789 0.43757227964732542 0 -0.14157918638415079 0.43542594817740249 0 -0.12025274126089 0.42574105579372712 0 -0.14155443830058789 0.43757227964732542 0 -0.1161249595423428 0.42742254588607831 0 -0.14157918638415079 0.43542594817740249 0 -0.12025274126089 0.42574105579372712 0 -0.1418117271851779 0.41525834053060801 0 -0.14157918638415079 0.43542594817740249 0 -0.12025274126089 0.42574105579372712 0 -0.14155443830058789 0.43757227964732542 0 -0.12025274126089 0.42574105579372712 0 -0.1161249595423428 0.42742254588607831 0 -0.12509104342100061 0.44188941827772182 0 -0.14155443830058789 0.43757227964732542 0 -0.1161249595423428 0.42742254588607831 0 -0.1418117271851779 0.41525834053060801 0 -0.1277268958593005 0.40709158096490278 0 -0.12025274126089 0.42574105579372712 0 -0.1418117271851779 0.41525834053060801 0 -0.1277268958593005 0.40709158096490278 0 -0.14204426798620681 0.39509073288381358 0 -0.1277268958593005 0.40709158096490278 0 -0.14204426798620681 0.39509073288381358 0 -0.1224972888069677 0.39405447109156733 0 -0.13238272395945991 0.37847398983736519 0 -0.1224972888069677 0.39405447109156733 0 -0.13238272395945991 0.37847398983736519 0 -0.14204426798620681 0.39509073288381358 0 -0.1224972888069677 0.39405447109156733 0 -0.13238272395945991 0.37847398983736519 0 -0.1489802686125267 0.38257497248127392 0 -0.14204426798620681 0.39509073288381358 0 -0.1639919076143399 0.3974747808383628 0 -0.1558060921739825 0.41026488178479492 0 -0.14204426798620681 0.39509073288381358 0 -0.1639919076143399 0.3974747808383628 0 -0.1489802686125267 0.38257497248127392 0 -0.14204426798620681 0.39509073288381358 0 -0.1418117271851779 0.41525834053060801 0 -0.14204426798620681 0.39509073288381358 0 -0.15552397359905151 0.35856797270850038 0 -0.1422681591119519 0.36289350858316322 0 -0.15574239997404821 0.34165669361972989 0 -0.1422681591119519 0.36289350858316322 0 -0.15574239997404821 0.34165669361972989 0 -0.13774544015442541 0.3595862213862932 0 -0.1344905665345571 0.34689990383467079 0 -0.15574239997404821 0.34165669361972989 0 -0.1422681591119519 0.36289350858316322 0 -0.13774544015442541 0.3595862213862932 0 -0.15574239997404821 0.34165669361972989 0 -0.1642142843906749 0.3789418502636645 0 -0.1422681591119519 0.36289350858316322 0 -0.13238272395945991 0.37847398983736519 0 -0.1489802686125267 0.38257497248127392 0 -0.1422681591119519 0.36289350858316322 0 -0.1642142843906749 0.3789418502636645 0 -0.1422681591119519 0.36289350858316322 0 -0.15874130784498061 0.37213542046662212 0 -0.1642142843906749 0.3789418502636645 0 -0.1489802686125267 0.38257497248127392 0 -0.1422681591119519 0.36289350858316322 0 -0.15552397359905151 0.35856797270850038 0 -0.1422681591119519 0.36289350858316322 0 -0.15874130784498061 0.37213542046662212 0 -0.1422681591119519 0.36289350858316322 0 -0.13774544015442541 0.3595862213862932 0 -0.12881796099468981 0.36725667352730101 0 -0.13238272395945991 0.37847398983736519 0 -0.12881796099468981 0.36725667352730101 0 -0.114951385737499 0.37611001703161828 0 -0.1422681591119519 0.36289350858316322 0 -0.13774544015442541 0.3595862213862932 0 -0.13238272395945991 0.37847398983736519 0 -0.1422681591119519 0.36289350858316322 0 -0.13238272395945991 0.37847398983736519 0 -0.1422681591119519 0.36289350858316322 0 -0.12881796099468981 0.36725667352730101 0 -0.13774544015442541 0.3595862213862932 0 -0.12881796099468981 0.36725667352730101 0 -0.13085154266849261 0.35745626259395852 0 -0.12881796099468981 0.36725667352730101 0 -0.13085154266849261 0.35745626259395852 0 -0.1223522029902982 0.35608225162756879 0 -0.13085154266849261 0.35745626259395852 0 -0.1344905665345571 0.34689990383467079 0 -0.1223522029902982 0.35608225162756879 0 -0.1344905665345571 0.34689990383467079 0 -0.1215793900664241 0.33965542352680428 0 -0.1223522029902982 0.35608225162756879 0 -0.13774544015442541 0.3595862213862932 0 -0.13085154266849261 0.35745626259395852 0 -0.1344905665345571 0.34689990383467079 0 -0.13871584827508379 0.32805163350527011 0 -0.1213981112161233 0.32606083512094008 0 -0.1215793900664241 0.33965542352680428 0 -0.1344905665345571 0.34689990383467079 0 -0.13871584827508379 0.32805163350527011 0 -0.1215793900664241 0.33965542352680428 0 -0.13871584827508379 0.32805163350527011 0 -0.122665507124936 0.30739316482981133 0 -0.1213981112161233 0.32606083512094008 0 -0.13871584827508379 0.32805163350527011 0 -0.1433184724342442 0.30536206331891741 0 -0.122665507124936 0.30739316482981133 0 -0.13871584827508379 0.32805163350527011 0 -0.1692166408361446 0.32041987865629651 0 -0.1433184724342442 0.30536206331891741 0 -0.1344905665345571 0.34689990383467079 0 -0.13871584827508379 0.32805163350527011 0 -0.15574239997404821 0.34165669361972989 0 -0.13871584827508379 0.32805163350527011 0 -0.15574239997404821 0.34165669361972989 0 -0.1692166408361446 0.32041987865629651 0 -0.15574239997404821 0.34165669361972989 0 -0.16882657531294051 0.33343050367394028 0 -0.16727942812343491 0.34541839291957183 0 -0.16882657531294051 0.33343050367394028 0 -0.1740652221397718 0.31676208059972089 0 -0.17253785706623809 0.33742704001517521 0 -0.15574239997404821 0.34165669361972989 0 -0.1692166408361446 0.32041987865629651 0 -0.15574239997404821 0.34165669361972989 0 -0.16882657531294051 0.33343050367394028 0 -0.1692166408361446 0.32041987865629651 0 -0.17253785706623809 0.33742704001517521 0 -0.17248005025835489 0.34536210115862542 0 -0.16727942812343491 0.34541839291957183 0 -0.16882657531294051 0.33343050367394028 0 -0.17253785706623809 0.33742704001517521 0 -0.16727942812343491 0.34541839291957183 0 -0.16882657531294051 0.33343050367394028 0 -0.1692166408361446 0.32041987865629651 0 -0.1740652221397718 0.31676208059972089 0 -0.18300185264204469 0.32280423575908729 0 -0.1740652221397718 0.31676208059972089 0 -0.17819295282042311 0.34345902717413063 0 -0.18300185264204469 0.32280423575908729 0 -0.1740652221397718 0.31676208059972089 0 -0.18269088169824049 0.29918306369286279 0 -0.18300185264204469 0.32280423575908729 0 -0.17819295282042311 0.34345902717413063 0 -0.18331282358584941 0.34642540782531189 0 -0.1740652221397718 0.31676208059972089 0 -0.17819295282042311 0.34345902717413063 0 -0.1740652221397718 0.31676208059972089 0 -0.17253785706623809 0.33742704001517521 0 -0.17819295282042311 0.34345902717413063 0 -0.18300185264204469 0.32280423575908729 0 -0.18331282358584941 0.34642540782531189 0 -0.17253785706623809 0.33742704001517521 0 -0.17819295282042311 0.34345902717413063 0 -0.17248005025835489 0.34536210115862542 0 -0.17819295282042311 0.34345902717413063 0 -0.17266476351591969 0.35237730914779941 0 -0.18362379452965399 0.37004657989153639 0 -0.17819295282042311 0.34345902717413063 0 -0.18331282358584941 0.34642540782531189 0 -0.18362379452965399 0.37004657989153639 0 -0.17819295282042311 0.34345902717413063 0 -0.18362379452965399 0.37004657989153639 0 -0.18331282358584941 0.34642540782531189 0 -0.18362379452965399 0.37004657989153639 0 -0.19396205315185269 0.35773027909378607 0 -0.18331282358584941 0.34642540782531189 0 -0.18362379452965399 0.37004657989153639 0 -0.17819295282042311 0.34345902717413063 0 -0.17266476351591969 0.35237730914779941 0 -0.17248005025835489 0.34536210115862542 0 -0.17266476351591969 0.35237730914779941 0 -0.16727942812343491 0.34541839291957183 0 -0.16404697378228 0.35342911006401911 0 -0.15552397359905151 0.35856797270850038 0 -0.15574239997404821 0.34165669361972989 0 -0.16404697378228 0.35342911006401911 0 -0.17266476351591969 0.35237730914779941 0 -0.17248005025835489 0.34536210115862542 0 -0.16727942812343491 0.34541839291957183 0 -0.17266476351591969 0.35237730914779941 0 -0.1697011683865553 0.35883091161224728 0 -0.16404697378228 0.35342911006401911 0 -0.1697011683865553 0.35883091161224728 0 -0.16404697378228 0.35342911006401911 0 -0.1633701090946704 0.36372338037626623 0 -0.15552397359905151 0.35856797270850038 0 -0.16404697378228 0.35342911006401911 0 -0.1633701090946704 0.36372338037626623 0 -0.15574239997404821 0.34165669361972989 0 -0.16727942812343491 0.34541839291957183 0 -0.16404697378228 0.35342911006401911 0 -0.15874130784498061 0.37213542046662212 0 -0.18362379452965399 0.37004657989153639 0 -0.15874130784498061 0.37213542046662212 0 -0.1633701090946704 0.36372338037626623 0 -0.18362379452965399 0.37004657989153639 0 -0.15552397359905151 0.35856797270850038 0 -0.15874130784498061 0.37213542046662212 0 -0.1633701090946704 0.36372338037626623 0 -0.17266476351591969 0.35237730914779941 0 -0.1697011683865553 0.35883091161224728 0 -0.18362379452965399 0.37004657989153639 0 -0.1697011683865553 0.35883091161224728 0 -0.1633701090946704 0.36372338037626623 0 -0.18362379452965399 0.37004657989153639 0 -0.1744309637910503 0.37769149803556362 0 -0.15874130784498061 0.37213542046662212 0 -0.18362379452965399 0.37004657989153639 0 -0.18374665136976759 0.37937871402705908 0 -0.18362379452965399 0.37004657989153639 0 -0.1927326532436788 0.38193994064591369 0 -0.18362379452965399 0.37004657989153639 0 -0.20402060209966261 0.36833430411321649 0 -0.18362379452965399 0.37004657989153639 0 -0.20402060209966261 0.36833430411321649 0 -0.18362379452965399 0.37004657989153639 0 -0.19396205315185269 0.35773027909378607 0 -0.20402060209966261 0.36833430411321649 0 -0.19396205315185269 0.35773027909378607 0 -0.208999317395312 0.3446492875548014 0 -0.20402060209966261 0.36833430411321649 0 -0.18331282358584941 0.34642540782531189 0 -0.19396205315185269 0.35773027909378607 0 -0.208999317395312 0.3446492875548014 0 -0.208999317395312 0.3446492875548014 0 -0.20402060209966261 0.36833430411321649 0 -0.22441740966967141 0.36662202833489849 0 -0.20402060209966261 0.36833430411321649 0 -0.22441740966967141 0.36662202833489849 0 -0.21798062289891881 0.38062313327343511 0 -0.20402060209966261 0.36833430411321649 0 -0.22441740966967141 0.36662202833489849 0 -0.208999317395312 0.3446492875548014 0 -0.23479591562654789 0.35148704487088239 0 -0.2313273246892763 0.33558392302215828 0 -0.208999317395312 0.3446492875548014 0 -0.22441740966967141 0.36662202833489849 0 -0.23479591562654789 0.35148704487088239 0 -0.25002058798003007 0.3320526588471332 0 -0.26243222306204511 0.35090504016953772 0 -0.23479591562654789 0.35148704487088239 0 -0.26243222306204511 0.35090504016953772 0 -0.23479591562654789 0.35148704487088239 0 -0.24481421723968019 0.36490975255658048 0 -0.22441740966967141 0.36662202833489849 0 -0.24481421723968019 0.36490975255658048 0 -0.24074374520667241 0.38242687998337299 0 -0.22441740966967141 0.36662202833489849 0 -0.24481421723968019 0.36490975255658048 0 -0.22441740966967141 0.36662202833489849 0 -0.23479591562654789 0.35148704487088239 0 -0.24481421723968019 0.36490975255658048 0 -0.25717133997193298 0.37426095615225607 0 -0.24074374520667241 0.38242687998337299 0 -0.24481421723968019 0.36490975255658048 0 -0.25616918259472732 0.30236015827283808 0 -0.25002058798003007 0.3320526588471332 0 -0.23403114015321011 0.31709209002172778 0 -0.25002058798003007 0.3320526588471332 0 -0.23479591562654789 0.35148704487088239 0 -0.2313273246892763 0.33558392302215828 0 -0.25002058798003007 0.3320526588471332 0 -0.2313273246892763 0.33558392302215828 0 -0.23403114015321011 0.31709209002172778 0 -0.208999317395312 0.3446492875548014 0 -0.2313273246892763 0.33558392302215828 0 -0.21850591254547599 0.32628872173457818 0 -0.23403114015321011 0.31709209002172778 0 -0.21850591254547599 0.32628872173457818 0 -0.21603293622121081 0.30879617143541382 0 -0.2313273246892763 0.33558392302215828 0 -0.23403114015321011 0.31709209002172778 0 -0.21850591254547599 0.32628872173457818 0 -0.21850591254547599 0.32628872173457818 0 -0.20213884426837089 0.32532213663878978 0 -0.21603293622121081 0.30879617143541382 0 -0.20213884426837089 0.32532213663878978 0 -0.19725183072938909 0.30509230858372249 0 -0.21603293622121081 0.30879617143541382 0 -0.208999317395312 0.3446492875548014 0 -0.21850591254547599 0.32628872173457818 0 -0.20213884426837089 0.32532213663878978 0 -0.18331282358584941 0.34642540782531189 0 -0.208999317395312 0.3446492875548014 0 -0.20213884426837089 0.32532213663878978 0 -0.18300185264204469 0.32280423575908729 0 -0.18331282358584941 0.34642540782531189 0 -0.20213884426837089 0.32532213663878978 0 -0.18300185264204469 0.32280423575908729 0 -0.20213884426837089 0.32532213663878978 0 -0.19725183072938909 0.30509230858372249 0 -0.19725183072938909 0.30509230858372249 0 -0.1906964717749009 0.28656541518329992 0 -0.18269088169824049 0.29918306369286279 0 -0.18300185264204469 0.32280423575908729 0 -0.19725183072938909 0.30509230858372249 0 -0.18269088169824049 0.29918306369286279 0 -0.19725183072938909 0.30509230858372249 0 -0.1906964717749009 0.28656541518329992 0 -0.20894999777156681 0.28788282879288141 0 -0.1906964717749009 0.28656541518329992 0 -0.20894999777156681 0.28788282879288141 0 -0.19560748054403571 0.27391850694798181 0 -0.19725183072938909 0.30509230858372249 0 -0.20894999777156681 0.28788282879288141 0 -0.21603293622121081 0.30879617143541382 0 -0.20894999777156681 0.28788282879288141 0 -0.21603293622121081 0.30879617143541382 0 -0.23010937568771669 0.29589673977315029 0 -0.23403114015321011 0.31709209002172778 0 -0.21603293622121081 0.30879617143541382 0 -0.23010937568771669 0.29589673977315029 0 -0.20894999777156681 0.28788282879288141 0 -0.23010937568771669 0.29589673977315029 0 -0.2234747025956966 0.27824585991597089 0 -0.23010937568771669 0.29589673977315029 0 -0.24190471242523851 0.27972751922608308 0 -0.2234747025956966 0.27824585991597089 0 -0.25616918259472732 0.30236015827283808 0 -0.24190471242523851 0.27972751922608308 0 -0.25616918259472732 0.30236015827283808 0 -0.23010937568771669 0.29589673977315029 0 -0.24190471242523851 0.27972751922608308 0 -0.25616918259472732 0.30236015827283808 0 -0.23403114015321011 0.31709209002172778 0 -0.23010937568771669 0.29589673977315029 0 -0.24943129659764751 0.26000894523212309 0 -0.24190471242523851 0.27972751922608308 0 -0.22764024225575111 0.25709488017932702 0 -0.22764024225575111 0.25709488017932702 0 -0.2468893326351202 0.24329134098969171 0 -0.24943129659764751 0.26000894523212309 0 -0.22764024225575111 0.25709488017932702 0 -0.2468893326351202 0.24329134098969171 0 -0.24190471242523851 0.27972751922608308 0 -0.22764024225575111 0.25709488017932702 0 -0.24190471242523851 0.27972751922608308 0 -0.2234747025956966 0.27824585991597089 0 -0.22764024225575111 0.25709488017932702 0 -0.2234747025956966 0.27824585991597089 0 -0.22764024225575111 0.25709488017932702 0 -0.20876918483820989 0.27062733160841262 0 -0.22764024225575111 0.25709488017932702 0 -0.21239874098331929 0.25437807278244762 0 -0.20876918483820989 0.27062733160841262 0 -0.22764024225575111 0.25709488017932702 0 -0.20876918483820989 0.27062733160841262 0 -0.21239874098331929 0.25437807278244762 0 -0.20876918483820989 0.27062733160841262 0 -0.2025020270240801 0.26019521754276942 0 -0.21239874098331929 0.25437807278244762 0 -0.2025020270240801 0.26019521754276942 0 -0.2046840695697589 0.2451395929661444 0 -0.20894999777156681 0.28788282879288141 0 -0.2234747025956966 0.27824585991597089 0 -0.20876918483820989 0.27062733160841262 0 -0.20894999777156681 0.28788282879288141 0 -0.20876918483820989 0.27062733160841262 0 -0.19560748054403571 0.27391850694798181 0 -0.19560748054403571 0.27391850694798181 0 -0.18940688912330481 0.25610334311205268 0 -0.18232207730982461 0.27116889680334472 0 -0.20876918483820989 0.27062733160841262 0 -0.19560748054403571 0.27391850694798181 0 -0.2025020270240801 0.26019521754276942 0 -0.1906964717749009 0.28656541518329992 0 -0.19560748054403571 0.27391850694798181 0 -0.18232207730982461 0.27116889680334472 0 -0.19560748054403571 0.27391850694798181 0 -0.2025020270240801 0.26019521754276942 0 -0.18940688912330481 0.25610334311205268 0 -0.2025020270240801 0.26019521754276942 0 -0.18940688912330481 0.25610334311205268 0 -0.2046840695697589 0.2451395929661444 0 -0.18940688912330481 0.25610334311205268 0 -0.17508206900779469 0.25918785244088571 0 -0.18195408303730121 0.23534357450296481 0 -0.18940688912330481 0.25610334311205268 0 -0.17508206900779469 0.25918785244088571 0 -0.18232207730982461 0.27116889680334472 0 -0.16225317791305921 0.25358582624422438 0 -0.1601147340924314 0.27132493958040771 0 -0.14746997276257359 0.25293699741112718 0 -0.17508206900779469 0.25918785244088571 0 -0.16225317791305921 0.25358582624422438 0 -0.1601147340924314 0.27132493958040771 0 -0.1601147340924314 0.27132493958040771 0 -0.18232207730982461 0.27116889680334472 0 -0.1715163911286523 0.28419500503467149 0 -0.17508206900779469 0.25918785244088571 0 -0.1601147340924314 0.27132493958040771 0 -0.18232207730982461 0.27116889680334472 0 -0.1906964717749009 0.28656541518329992 0 -0.18232207730982461 0.27116889680334472 0 -0.18269088169824049 0.29918306369286279 0 -0.18232207730982461 0.27116889680334472 0 -0.18269088169824049 0.29918306369286279 0 -0.1715163911286523 0.28419500503467149 0 -0.18232207730982461 0.27116889680334472 0 -0.18269088169824049 0.29918306369286279 0 -0.1906964717749009 0.28656541518329992 0 -0.18269088169824049 0.29918306369286279 0 -0.18300185264204469 0.32280423575908729 0 -0.18269088169824049 0.29918306369286279 0 -0.1692166408361446 0.32041987865629651 0 -0.18269088169824049 0.29918306369286279 0 -0.1692166408361446 0.32041987865629651 0 -0.1740652221397718 0.31676208059972089 0 -0.18269088169824049 0.29918306369286279 0 -0.1692166408361446 0.32041987865629651 0 -0.16093787141411231 0.2951031200620709 0 -0.1433184724342442 0.30536206331891741 0 -0.1692166408361446 0.32041987865629651 0 -0.18269088169824049 0.29918306369286279 0 -0.16093787141411231 0.2951031200620709 0 -0.18269088169824049 0.29918306369286279 0 -0.1715163911286523 0.28419500503467149 0 -0.16093787141411231 0.2951031200620709 0 -0.1601147340924314 0.27132493958040771 0 -0.1715163911286523 0.28419500503467149 0 -0.16093787141411231 0.2951031200620709 0 -0.1601147340924314 0.27132493958040771 0 -0.16093787141411231 0.2951031200620709 0 -0.140940242444347 0.28770890845956881 0 -0.16093787141411231 0.2951031200620709 0 -0.140940242444347 0.28770890845956881 0 -0.16093787141411231 0.2951031200620709 0 -0.140940242444347 0.28770890845956881 0 -0.1433184724342442 0.30536206331891741 0 -0.1433184724342442 0.30536206331891741 0 -0.12743472451084159 0.29349567440048657 0 -0.122665507124936 0.30739316482981133 0 -0.140940242444347 0.28770890845956881 0 -0.1433184724342442 0.30536206331891741 0 -0.12743472451084159 0.29349567440048657 0 -0.140940242444347 0.28770890845956881 0 -0.1209426134745812 0.28031469685706822 0 -0.140940242444347 0.28770890845956881 0 -0.12743472451084159 0.29349567440048657 0 -0.1209426134745812 0.28031469685706822 0 -0.140940242444347 0.28770890845956881 0 -0.12748957136376979 0.2697364722205553 0 -0.1209426134745812 0.28031469685706822 0 -0.140940242444347 0.28770890845956881 0 -0.1385418352730507 0.26582091200169278 0 -0.12748957136376979 0.2697364722205553 0 -0.1385418352730507 0.26582091200169278 0 -0.1252623291810667 0.25912953992318971 0 -0.13357218109292621 0.2499317644564327 0 -0.1385418352730507 0.26582091200169278 0 -0.14746997276257359 0.25293699741112718 0 -0.13357218109292621 0.2499317644564327 0 -0.1385418352730507 0.26582091200169278 0 -0.12748957136376979 0.2697364722205553 0 -0.1252623291810667 0.25912953992318971 0 -0.1252623291810667 0.25912953992318971 0 -0.13357218109292621 0.2499317644564327 0 -0.1213089330464012 0.24626659804535689 0 -0.1601147340924314 0.27132493958040771 0 -0.1385418352730507 0.26582091200169278 0 -0.14746997276257359 0.25293699741112718 0 -0.1601147340924314 0.27132493958040771 0 -0.140940242444347 0.28770890845956881 0 -0.1385418352730507 0.26582091200169278 0 -0.095230237001734636 0.27080743213428882 0 -0.101831548476812 0.26048951589785008 0 -0.1165241005361865 0.26558405137515151 0 -0.095230237001734636 0.27080743213428882 0 -0.1209426134745812 0.28031469685706822 0 -0.095230237001734636 0.27080743213428882 0 -0.101831548476812 0.26048951589785008 0 -0.101831548476812 0.26048951589785008 0 -0.112097455783086 0.24444379951602521 0 -0.096974545082976191 0.25880538532589209 0 -0.101831548476812 0.26048951589785008 0 -0.112097455783086 0.24444379951602521 0 -0.095230237001734636 0.27080743213428882 0 -0.096974545082976191 0.25880538532589209 0 -0.101831548476812 0.26048951589785008 0 -0.096974545082976191 0.25880538532589209 0 -0.101831548476812 0.26048951589785008 0 -0.101831548476812 0.26048951589785008 0 -0.1165241005361865 0.26558405137515151 0 -0.101831548476812 0.26048951589785008 0 -0.11521273165378559 0.25497892835963998 0 -0.112097455783086 0.24444379951602521 0 -0.101831548476812 0.26048951589785008 0 -0.1165241005361865 0.26558405137515151 0 -0.11521273165378559 0.25497892835963998 0 -0.1252623291810667 0.25912953992318971 0 -0.11521273165378559 0.25497892835963998 0 -0.1213089330464012 0.24626659804535689 0 -0.12748957136376979 0.2697364722205553 0 -0.1252623291810667 0.25912953992318971 0 -0.1165241005361865 0.26558405137515151 0 -0.1252623291810667 0.25912953992318971 0 -0.1165241005361865 0.26558405137515151 0 -0.11521273165378559 0.25497892835963998 0 -0.12748957136376979 0.2697364722205553 0 -0.1165241005361865 0.26558405137515151 0 -0.11826192468166601 0.27279143104315778 0 -0.095230237001734636 0.27080743213428882 0 -0.1165241005361865 0.26558405137515151 0 -0.11826192468166601 0.27279143104315778 0 -0.095230237001734636 0.27080743213428882 0 -0.11826192468166601 0.27279143104315778 0 -0.1209426134745812 0.28031469685706822 0 -0.12748957136376979 0.2697364722205553 0 -0.11826192468166601 0.27279143104315778 0 -0.1209426134745812 0.28031469685706822 0 -0.1209426134745812 0.28031469685706822 0 -0.099156256926613839 0.29556062278638268 0 -0.12743472451084159 0.29349567440048657 0 -0.1209426134745812 0.28031469685706822 0 -0.099156256926613839 0.29556062278638268 0 -0.12743472451084159 0.29349567440048657 0 -0.122665507124936 0.30739316482981133 0 -0.099156256926613839 0.29556062278638268 0 -0.1041414057358224 0.31201579539373148 0 -0.099156256926613839 0.29556062278638268 0 -0.091673901452025128 0.31746800270450398 0 -0.122665507124936 0.30739316482981133 0 -0.1041414057358224 0.31201579539373148 0 -0.099156256926613839 0.29556062278638268 0 -0.095230237001734636 0.27080743213428882 0 -0.1209426134745812 0.28031469685706822 0 -0.099156256926613839 0.29556062278638268 0 -0.081993310338176556 0.29149688165626692 0 -0.071574905525993715 0.28647654560898889 0 -0.088307373389434785 0.26824767274871397 0 -0.095230237001734636 0.27080743213428882 0 -0.099156256926613839 0.29556062278638268 0 -0.081993310338176556 0.29149688165626692 0 -0.099156256926613839 0.29556062278638268 0 -0.0773699003786468 0.31080654871569757 0 -0.091673901452025128 0.31746800270450398 0 -0.099156256926613839 0.29556062278638268 0 -0.0773699003786468 0.31080654871569757 0 -0.081993310338176556 0.29149688165626692 0 -0.0773699003786468 0.31080654871569757 0 -0.099156256926613839 0.29556062278638268 0 -0.081993310338176556 0.29149688165626692 0 -0.0773699003786468 0.31080654871569757 0 -0.081993310338176556 0.29149688165626692 0 -0.0773699003786468 0.31080654871569757 0 -0.07000108740115632 0.31024084673351238 0 -0.081993310338176556 0.29149688165626692 0 -0.07000108740115632 0.31024084673351238 0 -0.07082691849754412 0.29686868922251758 0 -0.081993310338176556 0.29149688165626692 0 -0.07000108740115632 0.31024084673351238 0 -0.06406362287003417 0.30105685935529619 0 -0.07000108740115632 0.31024084673351238 0 -0.07082691849754412 0.29686868922251758 0 -0.06406362287003417 0.30105685935529619 0 -0.07000108740115632 0.31024084673351238 0 -0.05903493703298672 0.30842013861035528 0 -0.081993310338176556 0.29149688165626692 0 -0.071574905525993715 0.28647654560898889 0 -0.07082691849754412 0.29686868922251758 0 -0.071574905525993715 0.28647654560898889 0 -0.07082691849754412 0.29686868922251758 0 -0.064150197611200194 0.29028153745804169 0 -0.06406362287003417 0.30105685935529619 0 -0.07082691849754412 0.29686868922251758 0 -0.064150197611200194 0.29028153745804169 0 -0.071574905525993715 0.28647654560898889 0 -0.064150197611200194 0.29028153745804169 0 -0.066272470786091969 0.27951596978905408 0 -0.066272470786091969 0.27951596978905408 0 -0.064867048676514966 0.26815492676469338 0 -0.075116873927680253 0.27479103085629453 0 -0.066272470786091969 0.27951596978905408 0 -0.064867048676514966 0.26815492676469338 0 -0.056753075498150757 0.28085207326825551 0 -0.064867048676514966 0.26815492676469338 0 -0.075116873927680253 0.27479103085629453 0 -0.074399806026204385 0.26466482186588819 0 -0.075116873927680253 0.27479103085629453 0 -0.079975847673146208 0.26885948770409202 0 -0.074399806026204385 0.26466482186588819 0 -0.071574905525993715 0.28647654560898889 0 -0.066272470786091969 0.27951596978905408 0 -0.075116873927680253 0.27479103085629453 0 -0.095230237001734636 0.27080743213428882 0 -0.081993310338176556 0.29149688165626692 0 -0.095230237001734636 0.27080743213428882 0 -0.081993310338176556 0.29149688165626692 0 -0.088307373389434785 0.26824767274871397 0 -0.071574905525993715 0.28647654560898889 0 -0.088307373389434785 0.26824767274871397 0 -0.071574905525993715 0.28647654560898889 0 -0.075116873927680253 0.27479103085629453 0 -0.088307373389434785 0.26824767274871397 0 -0.079975847673146208 0.26885948770409202 0 -0.084329260359261832 0.26677674789216088 0 -0.074399806026204385 0.26466482186588819 0 -0.075116873927680253 0.27479103085629453 0 -0.079975847673146208 0.26885948770409202 0 -0.088307373389434785 0.26824767274871397 0 -0.079975847673146208 0.26885948770409202 0 -0.084329260359261832 0.26677674789216088 0 -0.088307373389434785 0.26824767274871397 0 -0.095230237001734636 0.27080743213428882 0 -0.096974545082976191 0.25880538532589209 0 -0.088307373389434785 0.26824767274871397 0 -0.084329260359261832 0.26677674789216088 0 -0.088307373389434785 0.26824767274871397 0 -0.095230237001734636 0.27080743213428882 0 -0.088307373389434785 0.26824767274871397 0 -0.096974545082976191 0.25880538532589209 0 -0.073553522625709841 0.25068431627396631 0 -0.088715331182393942 0.2449718195011524 0 -0.096974545082976191 0.25880538532589209 0 -0.084329260359261832 0.26677674789216088 0 -0.073553522625709841 0.25068431627396631 0 -0.096974545082976191 0.25880538532589209 0 -0.073553522625709841 0.25068431627396631 0 -0.096974545082976191 0.25880538532589209 0 -0.088307373389434785 0.26824767274871397 0 -0.096974545082976191 0.25880538532589209 0 -0.084329260359261832 0.26677674789216088 0 -0.088307373389434785 0.26824767274871397 0 -0.084329260359261832 0.26677674789216088 0 -0.073553522625709841 0.25068431627396631 0 -0.074399806026204385 0.26466482186588819 0 -0.064867048676514966 0.26815492676469338 0 -0.073553522625709841 0.25068431627396631 0 -0.050450936449665702 0.26047062327699849 0 -0.064867048676514966 0.26815492676469338 0 -0.073553522625709841 0.25068431627396631 0 -0.074399806026204385 0.26466482186588819 0 -0.073553522625709841 0.25068431627396631 0 -0.050450936449665702 0.26047062327699849 0 -0.050132500168443887 0.2425632472220397 0 -0.064867048676514966 0.26815492676469338 0 -0.050450936449665702 0.26047062327699849 0 -0.056753075498150757 0.28085207326825551 0 -0.050450936449665702 0.26047062327699849 0 -0.056753075498150757 0.28085207326825551 0 -0.041567118232982071 0.28155035039042642 0 -0.050450936449665702 0.26047062327699849 0 -0.032664289439585513 0.26886008103247921 0 -0.041567118232982071 0.28155035039042642 0 -0.032664289439585513 0.26886008103247921 0 -0.025724023578003428 0.28484302527062832 0 -0.041567118232982071 0.28155035039042642 0 -0.050450936449665702 0.26047062327699849 0 -0.032664289439585513 0.26886008103247921 0 -0.029881977245259539 0.25372898958001938 0 -0.050450936449665702 0.26047062327699849 0 -0.029881977245259539 0.25372898958001938 0 -0.050132500168443887 0.2425632472220397 0 -0.029881977245259539 0.25372898958001938 0 -0.019473314891880141 0.26767922737850353 0 -0.0082457657602449386 0.25246627485226031 0 -0.032664289439585513 0.26886008103247921 0 -0.029881977245259539 0.25372898958001938 0 -0.019473314891880141 0.26767922737850353 0 -0.019473314891880141 0.26767922737850353 0 -0.0042610585373493576 0.2771562680236046 0 -0.025724023578003428 0.28484302527062832 0 -0.032664289439585513 0.26886008103247921 0 -0.019473314891880141 0.26767922737850353 0 -0.025724023578003428 0.28484302527062832 0 -0.019473314891880141 0.26767922737850353 0 -0.0042610585373493576 0.2771562680236046 0 -0.0082457657602449386 0.25246627485226031 0 -0.0042610585373493576 0.2771562680236046 0 -0.0082457657602449386 0.25246627485226031 0 0.0071094060709509964 0.26564087220093879 0 -0.0069555348311276686 0.31079851600377723 0 -0.00058836015198596755 0.32088344941533808 0 0.0054341821912287152 0.30403492879740468 0 -0.013098506886936411 0.29875518722530359 0 -0.0069555348311276686 0.31079851600377723 0 0.0054341821912287152 0.30403492879740468 0 -0.013098506886936411 0.29875518722530359 0 -0.0069555348311276686 0.31079851600377723 0 -0.020687787070248039 0.31403805852116051 0 -0.0042610585373493576 0.2771562680236046 0 -0.013098506886936411 0.29875518722530359 0 -0.025724023578003428 0.28484302527062832 0 -0.0042610585373493576 0.2771562680236046 0 -0.013098506886936411 0.29875518722530359 0 0.0054341821912287152 0.30403492879740468 0 -0.013098506886936411 0.29875518722530359 0 -0.025724023578003428 0.28484302527062832 0 -0.02904570801181227 0.30414560716861699 0 -0.013098506886936411 0.29875518722530359 0 -0.02904570801181227 0.30414560716861699 0 -0.020687787070248039 0.31403805852116051 0 -0.02904570801181227 0.30414560716861699 0 -0.034308890996313193 0.31619803717231232 0 -0.020687787070248039 0.31403805852116051 0 -0.02904570801181227 0.30414560716861699 0 -0.04581664775108537 0.30961879620062571 0 -0.039958169045478269 0.29575445567546388 0 -0.02904570801181227 0.30414560716861699 0 -0.04581664775108537 0.30961879620062571 0 -0.034308890996313193 0.31619803717231232 0 -0.025724023578003428 0.28484302527062832 0 -0.02904570801181227 0.30414560716861699 0 -0.039958169045478269 0.29575445567546388 0 -0.025724023578003428 0.28484302527062832 0 -0.039958169045478269 0.29575445567546388 0 -0.041567118232982071 0.28155035039042642 0 -0.039958169045478269 0.29575445567546388 0 -0.041567118232982071 0.28155035039042642 0 -0.055410192489386563 0.29691908750413831 0 -0.056753075498150757 0.28085207326825551 0 -0.041567118232982071 0.28155035039042642 0 -0.055410192489386563 0.29691908750413831 0 -0.064150197611200194 0.29028153745804169 0 -0.056753075498150757 0.28085207326825551 0 -0.055410192489386563 0.29691908750413831 0 -0.06406362287003417 0.30105685935529619 0 -0.064150197611200194 0.29028153745804169 0 -0.055410192489386563 0.29691908750413831 0 -0.064150197611200194 0.29028153745804169 0 -0.066272470786091969 0.27951596978905408 0 -0.056753075498150757 0.28085207326825551 0 -0.04581664775108537 0.30961879620062571 0 -0.055410192489386563 0.29691908750413831 0 -0.05903493703298672 0.30842013861035528 0 -0.04581664775108537 0.30961879620062571 0 -0.039958169045478269 0.29575445567546388 0 -0.055410192489386563 0.29691908750413831 0 -0.06406362287003417 0.30105685935529619 0 -0.055410192489386563 0.29691908750413831 0 -0.05903493703298672 0.30842013861035528 0 -0.04581664775108537 0.30961879620062571 0 -0.05999398685661865 0.32296608029812152 0 -0.042756171354298787 0.3224483405388896 0 -0.05999398685661865 0.32296608029812152 0 -0.04261807333459134 0.33512561188054663 0 -0.042756171354298787 0.3224483405388896 0 -0.04581664775108537 0.30961879620062571 0 -0.05903493703298672 0.30842013861035528 0 -0.05999398685661865 0.32296608029812152 0 -0.05999398685661865 0.32296608029812152 0 -0.056804034856699187 0.33429177223338907 0 -0.04261807333459134 0.33512561188054663 0 -0.056804034856699187 0.33429177223338907 0 -0.046192251460743447 0.34598703554363702 0 -0.071259793987160716 0.33632540193228971 0 -0.046192251460743447 0.34598703554363702 0 -0.071259793987160716 0.33632540193228971 0 -0.05999398685661865 0.32296608029812152 0 -0.04261807333459134 0.33512561188054663 0 -0.05999398685661865 0.32296608029812152 0 -0.056804034856699187 0.33429177223338907 0 -0.064831017760781137 0.32924814232959693 0 -0.056804034856699187 0.33429177223338907 0 -0.04261807333459134 0.33512561188054663 0 -0.046192251460743447 0.34598703554363702 0 -0.04261807333459134 0.33512561188054663 0 -0.034276320251641283 0.34282206612864702 0 -0.046192251460743447 0.34598703554363702 0 -0.04261807333459134 0.33512561188054663 0 -0.034276320251641283 0.34282206612864702 0 -0.031043257832885369 0.32833317714284199 0 -0.04261807333459134 0.33512561188054663 0 -0.042756171354298787 0.3224483405388896 0 -0.031043257832885369 0.32833317714284199 0 -0.04581664775108537 0.30961879620062571 0 -0.042756171354298787 0.3224483405388896 0 -0.034308890996313193 0.31619803717231232 0 -0.042756171354298787 0.3224483405388896 0 -0.034308890996313193 0.31619803717231232 0 -0.031043257832885369 0.32833317714284199 0 -0.020687787070248039 0.31403805852116051 0 -0.031043257832885369 0.32833317714284199 0 -0.01426308592107553 0.32709781564023149 0 -0.034308890996313193 0.31619803717231232 0 -0.020687787070248039 0.31403805852116051 0 -0.031043257832885369 0.32833317714284199 0 -0.025032962324117471 0.33875149869244531 0 -0.01426308592107553 0.32709781564023149 0 -0.014716180493599089 0.34442071988127893 0 -0.031043257832885369 0.32833317714284199 0 -0.025032962324117471 0.33875149869244531 0 -0.01426308592107553 0.32709781564023149 0 -0.034276320251641283 0.34282206612864702 0 -0.025032962324117471 0.33875149869244531 0 -0.023787543000920942 0.34541073846433867 0 -0.034276320251641283 0.34282206612864702 0 -0.031043257832885369 0.32833317714284199 0 -0.025032962324117471 0.33875149869244531 0 -0.025032962324117471 0.33875149869244531 0 -0.014716180493599089 0.34442071988127893 0 -0.023787543000920942 0.34541073846433867 0 -0.0025616559074486049 0.3329031852911295 0 -0.01426308592107553 0.32709781564023149 0 -0.014716180493599089 0.34442071988127893 0 -0.0025616559074486049 0.3329031852911295 0 -0.002583240235104544 0.34489224502179239 0 -0.014716180493599089 0.34442071988127893 0 -0.0069555348311276686 0.31079851600377723 0 -0.020687787070248039 0.31403805852116051 0 -0.01426308592107553 0.32709781564023149 0 -0.0025616559074486049 0.3329031852911295 0 -0.00058836015198596755 0.32088344941533808 0 -0.01426308592107553 0.32709781564023149 0 -0.0069555348311276686 0.31079851600377723 0 -0.00058836015198596755 0.32088344941533808 0 -0.01426308592107553 0.32709781564023149 0 -0.012102714267097759 0.36590539057294968 0 -0.001064505034491721 0.37161458349227261 0 0.0039428335920915006 0.36531030276633031 0 -0.021124708934325921 0.35564866915498361 0 0.0039428335920915006 0.36531030276633031 0 -0.001064505034491721 0.37161458349227261 0 -0.017677659244944521 0.37122807787390621 0 -0.017803283764421592 0.37921609746689411 0 -0.012102714267097759 0.36590539057294968 0 -0.001064505034491721 0.37161458349227261 0 -0.017677659244944521 0.37122807787390621 0 -0.012102714267097759 0.36590539057294968 0 -0.021124708934325921 0.35564866915498361 0 0.0039428335920915006 0.36531030276633031 0 -0.0064988099748367559 0.35299106404641623 0 -0.021124708934325921 0.35564866915498361 0 0.0039428335920915006 0.36531030276633031 0 -0.0064988099748367559 0.35299106404641623 0 -0.002583240235104544 0.34489224502179239 0 0.0032447233134405931 0.35422125060834359 0 -0.0064988099748367559 0.35299106404641623 0 -0.002583240235104544 0.34489224502179239 0 -0.014716180493599089 0.34442071988127893 0 -0.0064988099748367559 0.35299106404641623 0 -0.014716180493599089 0.34442071988127893 0 -0.021124708934325921 0.35564866915498361 0 -0.021124708934325921 0.35564866915498361 0 -0.03312405361854439 0.36059385714354403 0 -0.039104805720823227 0.35618275869992938 0 -0.014716180493599089 0.34442071988127893 0 -0.021124708934325921 0.35564866915498361 0 -0.023787543000920942 0.34541073846433867 0 -0.034276320251641283 0.34282206612864702 0 -0.021124708934325921 0.35564866915498361 0 -0.023787543000920942 0.34541073846433867 0 -0.021124708934325921 0.35564866915498361 0 -0.0246585823330631 0.36616539344166837 0 -0.03312405361854439 0.36059385714354403 0 -0.0246585823330631 0.36616539344166837 0 -0.033447590357386023 0.36570071259042941 0 -0.03312405361854439 0.36059385714354403 0 -0.012102714267097759 0.36590539057294968 0 -0.021124708934325921 0.35564866915498361 0 -0.0246585823330631 0.36616539344166837 0 -0.017677659244944521 0.37122807787390621 0 -0.032897312064139907 0.37411907212457252 0 -0.017803283764421592 0.37921609746689411 0 -0.012102714267097759 0.36590539057294968 0 -0.0246585823330631 0.36616539344166837 0 -0.017677659244944521 0.37122807787390621 0 -0.0246585823330631 0.36616539344166837 0 -0.017677659244944521 0.37122807787390621 0 -0.032897312064139907 0.37411907212457252 0 -0.0246585823330631 0.36616539344166837 0 -0.032897312064139907 0.37411907212457252 0 -0.0246585823330631 0.36616539344166837 0 -0.032897312064139907 0.37411907212457252 0 -0.033447590357386023 0.36570071259042941 0 -0.032897312064139907 0.37411907212457252 0 -0.059723517795068168 0.36506026769318489 0 -0.032897312064139907 0.37411907212457252 0 -0.033447590357386023 0.36570071259042941 0 -0.04311041341379776 0.36192452765193173 0 -0.032897312064139907 0.37411907212457252 0 -0.046925961112427347 0.36446589286881009 0 -0.059723517795068168 0.36506026769318489 0 -0.032897312064139907 0.37411907212457252 0 -0.049098878804771373 0.3725140996878949 0 -0.043775979817191349 0.37615739516056462 0 -0.03312405361854439 0.36059385714354403 0 -0.04311041341379776 0.36192452765193173 0 -0.039104805720823227 0.35618275869992938 0 -0.033447590357386023 0.36570071259042941 0 -0.03312405361854439 0.36059385714354403 0 -0.04311041341379776 0.36192452765193173 0 -0.032897312064139907 0.37411907212457252 0 -0.04311041341379776 0.36192452765193173 0 -0.046925961112427347 0.36446589286881009 0 -0.034276320251641283 0.34282206612864702 0 -0.021124708934325921 0.35564866915498361 0 -0.046192251460743447 0.34598703554363702 0 -0.021124708934325921 0.35564866915498361 0 -0.039104805720823227 0.35618275869992938 0 -0.046192251460743447 0.34598703554363702 0 -0.021124708934325921 0.35564866915498361 0 -0.046192251460743447 0.34598703554363702 0 -0.039104805720823227 0.35618275869992938 0 -0.046192251460743447 0.34598703554363702 0 -0.051972601176704672 0.35675970400555063 0 -0.04311041341379776 0.36192452765193173 0 -0.039104805720823227 0.35618275869992938 0 -0.051972601176704672 0.35675970400555063 0 -0.046192251460743447 0.34598703554363702 0 -0.066911938965716039 0.35448421406914471 0 -0.071259793987160716 0.33632540193228971 0 -0.046192251460743447 0.34598703554363702 0 -0.051972601176704672 0.35675970400555063 0 -0.066911938965716039 0.35448421406914471 0 -0.051972601176704672 0.35675970400555063 0 -0.059723517795068168 0.36506026769318489 0 -0.066911938965716039 0.35448421406914471 0 -0.032897312064139907 0.37411907212457252 0 -0.049098878804771373 0.3725140996878949 0 -0.059723517795068168 0.36506026769318489 0 -0.049098878804771373 0.3725140996878949 0 -0.056089193364373929 0.37273715424054699 0 -0.050724207312953518 0.37700173675436199 0 -0.051972601176704672 0.35675970400555063 0 -0.046925961112427347 0.36446589286881009 0 -0.059723517795068168 0.36506026769318489 0 -0.04311041341379776 0.36192452765193173 0 -0.051972601176704672 0.35675970400555063 0 -0.046925961112427347 0.36446589286881009 0 -0.049098878804771373 0.3725140996878949 0 -0.059723517795068168 0.36506026769318489 0 -0.056089193364373929 0.37273715424054699 0 -0.059723517795068168 0.36506026769318489 0 -0.056089193364373929 0.37273715424054699 0 -0.062564083944274151 0.37264302620600032 0 -0.062075486208271788 0.37468365416042188 0 -0.062564083944274151 0.37264302620600032 0 -0.062075486208271788 0.37468365416042188 0 -0.062564083944274151 0.37264302620600032 0 -0.064607287490063475 0.3752877934920828 0 -0.069626031180744216 0.37451783031500979 0 -0.079039419043354958 0.3748493973737258 0 -0.082597891671162132 0.35089307241393791 0 -0.062564083944274151 0.37264302620600032 0 -0.066911938965716039 0.35448421406914471 0 -0.062564083944274151 0.37264302620600032 0 -0.069626031180744216 0.37451783031500979 0 -0.064607287490063475 0.3752877934920828 0 -0.062564083944274151 0.37264302620600032 0 -0.069626031180744216 0.37451783031500979 0 -0.082597891671162132 0.35089307241393791 0 -0.062564083944274151 0.37264302620600032 0 -0.082597891671162132 0.35089307241393791 0 -0.059723517795068168 0.36506026769318489 0 -0.062564083944274151 0.37264302620600032 0 -0.066911938965716039 0.35448421406914471 0 -0.090941745129797052 0.36956363188929697 0 -0.082597891671162132 0.35089307241393791 0 -0.097939085056313616 0.35825468271447503 0 -0.079039419043354958 0.3748493973737258 0 -0.090941745129797052 0.36956363188929697 0 -0.082597891671162132 0.35089307241393791 0 -0.082597891671162132 0.35089307241393791 0 -0.097939085056313616 0.35825468271447503 0 -0.099795521962392192 0.34663223796478099 0 -0.066911938965716039 0.35448421406914471 0 -0.071259793987160716 0.33632540193228971 0 -0.082597891671162132 0.35089307241393791 0 -0.066911938965716039 0.35448421406914471 0 -0.079003984513522238 0.34200566120660753 0 -0.066911938965716039 0.35448421406914471 0 -0.071259793987160716 0.33632540193228971 0 -0.079003984513522238 0.34200566120660753 0 -0.062564083944274151 0.37264302620600032 0 -0.082597891671162132 0.35089307241393791 0 -0.066911938965716039 0.35448421406914471 0 -0.056804034856699187 0.33429177223338907 0 -0.064831017760781137 0.32924814232959693 0 -0.071259793987160716 0.33632540193228971 0 -0.071259793987160716 0.33632540193228971 0 -0.079659291821908368 0.33308803351003258 0 -0.071259793987160716 0.33632540193228971 0 -0.079003984513522238 0.34200566120660753 0 -0.079659291821908368 0.33308803351003258 0 -0.0773699003786468 0.31080654871569757 0 -0.07000108740115632 0.31024084673351238 0 -0.05999398685661865 0.32296608029812152 0 -0.0773699003786468 0.31080654871569757 0 -0.071259793987160716 0.33632540193228971 0 -0.0773699003786468 0.31080654871569757 0 -0.071259793987160716 0.33632540193228971 0 -0.079659291821908368 0.33308803351003258 0 -0.0773699003786468 0.31080654871569757 0 -0.05999398685661865 0.32296608029812152 0 -0.0773699003786468 0.31080654871569757 0 -0.064831017760781137 0.32924814232959693 0 -0.071259793987160716 0.33632540193228971 0 -0.0773699003786468 0.31080654871569757 0 -0.05999398685661865 0.32296608029812152 0 -0.064831017760781137 0.32924814232959693 0 -0.07000108740115632 0.31024084673351238 0 -0.05903493703298672 0.30842013861035528 0 -0.05999398685661865 0.32296608029812152 0 -0.091673901452025128 0.31746800270450398 0 -0.079659291821908368 0.33308803351003258 0 -0.1026316993980491 0.32914311862187462 0 -0.0773699003786468 0.31080654871569757 0 -0.091673901452025128 0.31746800270450398 0 -0.079659291821908368 0.33308803351003258 0 -0.082597891671162132 0.35089307241393791 0 -0.1026316993980491 0.32914311862187462 0 -0.082597891671162132 0.35089307241393791 0 -0.079003984513522238 0.34200566120660753 0 -0.1026316993980491 0.32914311862187462 0 -0.079003984513522238 0.34200566120660753 0 -0.079659291821908368 0.33308803351003258 0 -0.1026316993980491 0.32914311862187462 0 -0.082597891671162132 0.35089307241393791 0 -0.1026316993980491 0.32914311862187462 0 -0.099795521962392192 0.34663223796478099 0 -0.1026316993980491 0.32914311862187462 0 -0.11309959964963499 0.35023802862820708 0 -0.099795521962392192 0.34663223796478099 0 -0.1041414057358224 0.31201579539373148 0 -0.091673901452025128 0.31746800270450398 0 -0.1026316993980491 0.32914311862187462 0 -0.122665507124936 0.30739316482981133 0 -0.1041414057358224 0.31201579539373148 0 -0.1026316993980491 0.32914311862187462 0 -0.122665507124936 0.30739316482981133 0 -0.1026316993980491 0.32914311862187462 0 -0.1213981112161233 0.32606083512094008 0 -0.122665507124936 0.30739316482981133 0 -0.1026316993980491 0.32914311862187462 0 -0.1026316993980491 0.32914311862187462 0 -0.1215793900664241 0.33965542352680428 0 -0.11309959964963499 0.35023802862820708 0 -0.1026316993980491 0.32914311862187462 0 -0.1213981112161233 0.32606083512094008 0 -0.1215793900664241 0.33965542352680428 0 -0.1215793900664241 0.33965542352680428 0 -0.11309959964963499 0.35023802862820708 0 -0.1223522029902982 0.35608225162756879 0 -0.11309959964963499 0.35023802862820708 0 -0.1223522029902982 0.35608225162756879 0 -0.1091573093543224 0.361674516205302 0 -0.12881796099468981 0.36725667352730101 0 -0.1223522029902982 0.35608225162756879 0 -0.11881971476920231 0.36528086459794751 0 -0.12881796099468981 0.36725667352730101 0 -0.11881971476920231 0.36528086459794751 0 -0.114951385737499 0.37611001703161828 0 -0.11881971476920231 0.36528086459794751 0 -0.1091573093543224 0.361674516205302 0 -0.114951385737499 0.37611001703161828 0 -0.1223522029902982 0.35608225162756879 0 -0.11881971476920231 0.36528086459794751 0 -0.1091573093543224 0.361674516205302 0 -0.1091573093543224 0.361674516205302 0 -0.1012990589455684 0.36953412384373102 0 -0.097939085056313616 0.35825468271447503 0 -0.1091573093543224 0.361674516205302 0 -0.1012990589455684 0.36953412384373102 0 -0.114951385737499 0.37611001703161828 0 -0.090941745129797052 0.36956363188929697 0 -0.1012990589455684 0.36953412384373102 0 -0.098890550417286477 0.38099249480062602 0 -0.090941745129797052 0.36956363188929697 0 -0.1012990589455684 0.36953412384373102 0 -0.097939085056313616 0.35825468271447503 0 -0.11309959964963499 0.35023802862820708 0 -0.097939085056313616 0.35825468271447503 0 -0.099795521962392192 0.34663223796478099 0 -0.11309959964963499 0.35023802862820708 0 -0.1091573093543224 0.361674516205302 0 -0.097939085056313616 0.35825468271447503 0 -0.094424665366596924 0.39634464281418252 0 -0.11202845405726 0.40531330452479791 0 -0.098926296137628822 0.41605616341005208 0 -0.1085605322944487 0.39079571404043828 0 -0.094424665366596924 0.39634464281418252 0 -0.11202845405726 0.40531330452479791 0 -0.1085605322944487 0.39079571404043828 0 -0.098890550417286477 0.38099249480062602 0 -0.114951385737499 0.37611001703161828 0 -0.1085605322944487 0.39079571404043828 0 -0.094424665366596924 0.39634464281418252 0 -0.098890550417286477 0.38099249480062602 0 -0.1012990589455684 0.36953412384373102 0 -0.098890550417286477 0.38099249480062602 0 -0.114951385737499 0.37611001703161828 0 -0.1085605322944487 0.39079571404043828 0 -0.114951385737499 0.37611001703161828 0 -0.1224972888069677 0.39405447109156733 0 -0.13238272395945991 0.37847398983736519 0 -0.114951385737499 0.37611001703161828 0 -0.1224972888069677 0.39405447109156733 0 -0.1277268958593005 0.40709158096490278 0 -0.1224972888069677 0.39405447109156733 0 -0.11202845405726 0.40531330452479791 0 -0.1085605322944487 0.39079571404043828 0 -0.1224972888069677 0.39405447109156733 0 -0.11202845405726 0.40531330452479791 0 -0.11202845405726 0.40531330452479791 0 -0.12025274126089 0.42574105579372712 0 -0.098926296137628822 0.41605616341005208 0 -0.12025274126089 0.42574105579372712 0 -0.098926296137628822 0.41605616341005208 0 -0.1277268958593005 0.40709158096490278 0 -0.11202845405726 0.40531330452479791 0 -0.12025274126089 0.42574105579372712 0 -0.12025274126089 0.42574105579372712 0 -0.1161249595423428 0.42742254588607831 0 -0.098926296137628822 0.41605616341005208 0 -0.12509104342100061 0.44188941827772182 0 -0.1161249595423428 0.42742254588607831 0 -0.098677616465060528 0.43762344985591101 0 -0.1161249595423428 0.42742254588607831 0 -0.090695480784097504 0.41727281212483158 0 -0.1161249595423428 0.42742254588607831 0 -0.090695480784097504 0.41727281212483158 0 -0.098677616465060528 0.43762344985591101 0 -0.1161249595423428 0.42742254588607831 0 -0.098926296137628822 0.41605616341005208 0 -0.090695480784097504 0.41727281212483158 0 -0.098926296137628822 0.41605616341005208 0 -0.077599851014367602 0.40637127102637732 0 -0.094424665366596924 0.39634464281418252 0 -0.098926296137628822 0.41605616341005208 0 -0.077599851014367602 0.40637127102637732 0 -0.098926296137628822 0.41605616341005208 0 -0.090695480784097504 0.41727281212483158 0 -0.077599851014367602 0.40637127102637732 0 -0.090695480784097504 0.41727281212483158 0 -0.077599851014367602 0.40637127102637732 0 -0.077475511178084946 0.4171549142493044 0 -0.077475511178084946 0.4171549142493044 0 -0.098677616465060528 0.43762344985591101 0 -0.090695480784097504 0.41727281212483158 0 -0.077475511178084946 0.4171549142493044 0 -0.098677616465060528 0.43762344985591101 0 -0.077475511178084946 0.4171549142493044 0 -0.078698858269308614 0.44343419105434712 0 -0.098677616465060528 0.43762344985591101 0 -0.077475511178084946 0.4171549142493044 0 -0.059178928229814701 0.4365201208845606 0 -0.055106871557328428 0.42305161159228227 0 -0.077475511178084946 0.4171549142493044 0 -0.059178928229814701 0.4365201208845606 0 -0.078698858269308614 0.44343419105434712 0 -0.077475511178084946 0.4171549142493044 0 -0.056273405891107527 0.39668637864269979 0 -0.077599851014367602 0.40637127102637732 0 -0.077475511178084946 0.4171549142493044 0 -0.056273405891107527 0.39668637864269979 0 -0.077599851014367602 0.40637127102637732 0 -0.056273405891107527 0.39668637864269979 0 -0.077599851014367602 0.40637127102637732 0 -0.078331801269405671 0.3911923311589619 0 -0.056273405891107527 0.39668637864269979 0 -0.094424665366596924 0.39634464281418252 0 -0.077599851014367602 0.40637127102637732 0 -0.078331801269405671 0.3911923311589619 0 -0.094424665366596924 0.39634464281418252 0 -0.078331801269405671 0.3911923311589619 0 -0.087166581823546807 0.38268142547449258 0 -0.079039419043354958 0.3748493973737258 0 -0.078331801269405671 0.3911923311589619 0 -0.087166581823546807 0.38268142547449258 0 -0.090941745129797052 0.36956363188929697 0 -0.098890550417286477 0.38099249480062602 0 -0.087166581823546807 0.38268142547449258 0 -0.094424665366596924 0.39634464281418252 0 -0.098890550417286477 0.38099249480062602 0 -0.087166581823546807 0.38268142547449258 0 -0.079039419043354958 0.3748493973737258 0 -0.090941745129797052 0.36956363188929697 0 -0.087166581823546807 0.38268142547449258 0 -0.078331801269405671 0.3911923311589619 0 -0.070241768304658683 0.38125320512289401 0 -0.062400115896225239 0.38328565763688038 0 -0.078331801269405671 0.3911923311589619 0 -0.047880784994249512 0.38858413326022379 0 -0.069626031180744216 0.37451783031500979 0 -0.079039419043354958 0.3748493973737258 0 -0.070241768304658683 0.38125320512289401 0 -0.078331801269405671 0.3911923311589619 0 -0.062400115896225239 0.38328565763688038 0 -0.047880784994249512 0.38858413326022379 0 -0.079039419043354958 0.3748493973737258 0 -0.078331801269405671 0.3911923311589619 0 -0.070241768304658683 0.38125320512289401 0 -0.070241768304658683 0.38125320512289401 0 -0.064210651178174066 0.37904237845721811 0 -0.062400115896225239 0.38328565763688038 0 -0.069626031180744216 0.37451783031500979 0 -0.070241768304658683 0.38125320512289401 0 -0.064210651178174066 0.37904237845721811 0 -0.069626031180744216 0.37451783031500979 0 -0.064210651178174066 0.37904237845721811 0 -0.064607287490063475 0.3752877934920828 0 -0.062075486208271788 0.37468365416042188 0 -0.064210651178174066 0.37904237845721811 0 -0.064607287490063475 0.3752877934920828 0 -0.062075486208271788 0.37468365416042188 0 -0.064210651178174066 0.37904237845721811 0 -0.059083848751135488 0.37840884602566088 0 -0.059083848751135488 0.37840884602566088 0 -0.062400115896225239 0.38328565763688038 0 -0.054293362626053041 0.38162223819359442 0 -0.062075486208271788 0.37468365416042188 0 -0.062564083944274151 0.37264302620600032 0 -0.059083848751135488 0.37840884602566088 0 -0.062564083944274151 0.37264302620600032 0 -0.054293362626053041 0.38162223819359442 0 -0.062564083944274151 0.37264302620600032 0 -0.059083848751135488 0.37840884602566088 0 -0.054293362626053041 0.38162223819359442 0 -0.056089193364373929 0.37273715424054699 0 -0.062564083944274151 0.37264302620600032 0 -0.054293362626053041 0.38162223819359442 0 -0.059083848751135488 0.37840884602566088 0 -0.054293362626053041 0.38162223819359442 0 -0.064210651178174066 0.37904237845721811 0 -0.059083848751135488 0.37840884602566088 0 -0.062400115896225239 0.38328565763688038 0 -0.062400115896225239 0.38328565763688038 0 -0.047880784994249512 0.38858413326022379 0 -0.054293362626053041 0.38162223819359442 0 -0.047880784994249512 0.38858413326022379 0 -0.054293362626053041 0.38162223819359442 0 -0.047880784994249512 0.38858413326022379 0 -0.054293362626053041 0.38162223819359442 0 -0.046254793771615982 0.3870143995575549 0 -0.047836657145122599 0.38128015361824008 0 -0.054293362626053041 0.38162223819359442 0 -0.046254793771615982 0.3870143995575549 0 -0.054293362626053041 0.38162223819359442 0 -0.046254793771615982 0.3870143995575549 0 -0.047880784994249512 0.38858413326022379 0 -0.046254793771615982 0.3870143995575549 0 -0.056089193364373929 0.37273715424054699 0 -0.050724207312953518 0.37700173675436199 0 -0.054293362626053041 0.38162223819359442 0 -0.049098878804771373 0.3725140996878949 0 -0.050724207312953518 0.37700173675436199 0 -0.043775979817191349 0.37615739516056462 0 -0.047836657145122599 0.38128015361824008 0 -0.050724207312953518 0.37700173675436199 0 -0.043775979817191349 0.37615739516056462 0 -0.047836657145122599 0.38128015361824008 0 -0.050724207312953518 0.37700173675436199 0 -0.054293362626053041 0.38162223819359442 0 -0.078331801269405671 0.3911923311589619 0 -0.047880784994249512 0.38858413326022379 0 -0.056273405891107527 0.39668637864269979 0 -0.047880784994249512 0.38858413326022379 0 -0.056273405891107527 0.39668637864269979 0 -0.045094078598563243 0.39160955589403151 0 -0.056273405891107527 0.39668637864269979 0 -0.048342871606355781 0.40097934792702961 0 -0.045094078598563243 0.39160955589403151 0 -0.047880784994249512 0.38858413326022379 0 -0.056273405891107527 0.39668637864269979 0 -0.056273405891107527 0.39668637864269979 0 -0.045094078598563243 0.39160955589403151 0 -0.056273405891107527 0.39668637864269979 0 -0.048342871606355781 0.40097934792702961 0 -0.051161828253680347 0.40954535298997258 0 -0.04342775431262437 0.39341862168501102 0 -0.028839939204686131 0.40925606551247828 0 -0.042973684961738069 0.41592643291826231 0 -0.048342871606355781 0.40097934792702961 0 -0.04342775431262437 0.39341862168501102 0 -0.042973684961738069 0.41592643291826231 0 -0.041701311968281377 0.39006881248802111 0 -0.02243782954129785 0.40299049140363558 0 -0.041701311968281377 0.39006881248802111 0 -0.03457878247319518 0.38683428693719679 0 -0.02243782954129785 0.40299049140363558 0 -0.04342775431262437 0.39341862168501102 0 -0.041701311968281377 0.39006881248802111 0 -0.02243782954129785 0.40299049140363558 0 -0.04342775431262437 0.39341862168501102 0 -0.028839939204686131 0.40925606551247828 0 -0.04342775431262437 0.39341862168501102 0 -0.042973684961738069 0.41592643291826231 0 -0.04342775431262437 0.39341862168501102 0 -0.02243782954129785 0.40299049140363558 0 -0.028839939204686131 0.40925606551247828 0 -0.048342871606355781 0.40097934792702961 0 -0.04342775431262437 0.39341862168501102 0 -0.045094078598563243 0.39160955589403151 0 -0.04342775431262437 0.39341862168501102 0 -0.045094078598563243 0.39160955589403151 0 -0.043479046219812342 0.39087612776318198 0 -0.04342775431262437 0.39341862168501102 0 -0.043479046219812342 0.39087612776318198 0 -0.045094078598563243 0.39160955589403151 0 -0.043479046219812342 0.39087612776318198 0 -0.045094078598563243 0.39160955589403151 0 -0.043479046219812342 0.39087612776318198 0 -0.045172553619539632 0.38973569244798251 0 -0.04342775431262437 0.39341862168501102 0 -0.045094078598563243 0.39160955589403151 0 -0.04342775431262437 0.39341862168501102 0 -0.043479046219812342 0.39087612776318198 0 -0.041701311968281377 0.39006881248802111 0 -0.047836657145122599 0.38128015361824008 0 -0.043775979817191349 0.37615739516056462 0 -0.043608491196287617 0.38445965616034072 0 -0.043775979817191349 0.37615739516056462 0 -0.043608491196287617 0.38445965616034072 0 -0.032897312064139907 0.37411907212457252 0 -0.043775979817191349 0.37615739516056462 0 -0.043608491196287617 0.38445965616034072 0 -0.047836657145122599 0.38128015361824008 0 -0.043608491196287617 0.38445965616034072 0 -0.046254793771615982 0.3870143995575549 0 -0.043542573639619581 0.38772713043400647 0 -0.041701311968281377 0.39006881248802111 0 -0.03457878247319518 0.38683428693719679 0 -0.043608491196287617 0.38445965616034072 0 -0.043542573639619581 0.38772713043400647 0 -0.03457878247319518 0.38683428693719679 0 -0.043608491196287617 0.38445965616034072 0 -0.046254793771615982 0.3870143995575549 0 -0.043608491196287617 0.38445965616034072 0 -0.046254793771615982 0.3870143995575549 0 -0.043542573639619581 0.38772713043400647 0 -0.043608491196287617 0.38445965616034072 0 -0.043542573639619581 0.38772713043400647 0 -0.047880784994249512 0.38858413326022379 0 -0.045094078598563243 0.39160955589403151 0 -0.047880784994249512 0.38858413326022379 0 -0.045094078598563243 0.39160955589403151 0 -0.045172553619539632 0.38973569244798251 0 -0.047880784994249512 0.38858413326022379 0 -0.045172553619539632 0.38973569244798251 0 -0.046254793771615982 0.3870143995575549 0 -0.045172553619539632 0.38973569244798251 0 -0.046254793771615982 0.3870143995575549 0 -0.043542573639619581 0.38772713043400647 0 -0.046254793771615982 0.3870143995575549 0 -0.043542573639619581 0.38772713043400647 0 -0.043479046219812342 0.39087612776318198 0 -0.045172553619539632 0.38973569244798251 0 -0.043542573639619581 0.38772713043400647 0 -0.043479046219812342 0.39087612776318198 0 -0.043542573639619581 0.38772713043400647 0 -0.043542573639619581 0.38772713043400647 0 -0.041701311968281377 0.39006881248802111 0 -0.043479046219812342 0.39087612776318198 0 -0.043542573639619581 0.38772713043400647 0 -0.041701311968281377 0.39006881248802111 0 -0.043479046219812342 0.39087612776318198 0 -0.041701311968281377 0.39006881248802111 0 -0.043542573639619581 0.38772713043400647 0 -0.03457878247319518 0.38683428693719679 0 -0.041701311968281377 0.39006881248802111 0 -0.03457878247319518 0.38683428693719679 0 -0.032897312064139907 0.37411907212457252 0 -0.043608491196287617 0.38445965616034072 0 -0.032897312064139907 0.37411907212457252 0 -0.043608491196287617 0.38445965616034072 0 -0.03457878247319518 0.38683428693719679 0 -0.03457878247319518 0.38683428693719679 0 -0.017803283764421592 0.37921609746689411 0 -0.03457878247319518 0.38683428693719679 0 -0.017803283764421592 0.37921609746689411 0 -0.019390911734903489 0.38532149046890818 0 -0.032897312064139907 0.37411907212457252 0 -0.017803283764421592 0.37921609746689411 0 -0.032897312064139907 0.37411907212457252 0 -0.03457878247319518 0.38683428693719679 0 -0.017803283764421592 0.37921609746689411 0 -0.03457878247319518 0.38683428693719679 0 -0.019390911734903489 0.38532149046890818 0 -0.019390911734903489 0.38532149046890818 0 -0.02243782954129785 0.40299049140363558 0 -0.0064316016559190746 0.3999483233353413 0 -0.03457878247319518 0.38683428693719679 0 -0.019390911734903489 0.38532149046890818 0 -0.02243782954129785 0.40299049140363558 0 -0.0064316016559190746 0.3999483233353413 0 -0.0042030409966118051 0.38380869400061962 0 0.010437450069317761 0.40463061763750507 0 -0.001064505034491721 0.37161458349227261 0 -0.017803283764421592 0.37921609746689411 0 -0.001064505034491721 0.37161458349227261 0 -0.017803283764421592 0.37921609746689411 0 -0.0042030409966118051 0.38380869400061962 0 -0.019390911734903489 0.38532149046890818 0 -0.0064316016559190746 0.3999483233353413 0 -0.0042030409966118051 0.38380869400061962 0 -0.017803283764421592 0.37921609746689411 0 -0.0042030409966118051 0.38380869400061962 0 -0.017803283764421592 0.37921609746689411 0 -0.019390911734903489 0.38532149046890818 0 -0.0042030409966118051 0.38380869400061962 0 -0.019390911734903489 0.38532149046890818 0 -0.0042030409966118051 0.38380869400061962 0 -0.014252124096747171 0.42509350933994478 0 0.0048617880261327502 0.44584476697033082 0 -0.014252124096747171 0.42509350933994478 0 -0.010454900682288101 0.44126855924159908 0 0.0048617880261327502 0.44584476697033082 0 -0.014252124096747171 0.42509350933994478 0 -0.0026301228576318379 0.42717885202372191 0 0.0048617880261327502 0.44584476697033082 0 -0.014252124096747171 0.42509350933994478 0 -0.0026301228576318379 0.42717885202372191 0 -0.003174347114314008 0.41591217031924949 0 -0.02243782954129785 0.40299049140363558 0 -0.0064316016559190746 0.3999483233353413 0 -0.003174347114314008 0.41591217031924949 0 -0.02243782954129785 0.40299049140363558 0 -0.003174347114314008 0.41591217031924949 0 -0.02243782954129785 0.40299049140363558 0 -0.014252124096747171 0.42509350933994478 0 -0.003174347114314008 0.41591217031924949 0 -0.014252124096747171 0.42509350933994478 0 -0.003174347114314008 0.41591217031924949 0 -0.014252124096747171 0.42509350933994478 0 -0.028839939204686131 0.40925606551247828 0 -0.02243782954129785 0.40299049140363558 0 -0.014252124096747171 0.42509350933994478 0 -0.028839939204686131 0.40925606551247828 0 -0.014252124096747171 0.42509350933994478 0 -0.028839939204686131 0.40925606551247828 0 -0.022470349574322469 0.43190483207895858 0 -0.014252124096747171 0.42509350933994478 0 -0.022470349574322469 0.43190483207895858 0 -0.010454900682288101 0.44126855924159908 0 -0.014252124096747171 0.42509350933994478 0 -0.022470349574322469 0.43190483207895858 0 -0.022470349574322469 0.43190483207895858 0 -0.010454900682288101 0.44126855924159908 0 -0.022470349574322469 0.43190483207895858 0 -0.042646571141636773 0.43214117214318359 0 -0.04231945732153318 0.44835591136810488 0 -0.022470349574322469 0.43190483207895858 0 -0.042646571141636773 0.43214117214318359 0 -0.042973684961738069 0.41592643291826231 0 -0.042646571141636773 0.43214117214318359 0 -0.042973684961738069 0.41592643291826231 0 -0.022470349574322469 0.43190483207895858 0 -0.042973684961738069 0.41592643291826231 0 -0.028839939204686131 0.40925606551247828 0 -0.022470349574322469 0.43190483207895858 0 -0.042973684961738069 0.41592643291826231 0 -0.077475511178084946 0.4171549142493044 0 -0.051161828253680347 0.40954535298997258 0 -0.055106871557328428 0.42305161159228227 0 -0.077475511178084946 0.4171549142493044 0 -0.056273405891107527 0.39668637864269979 0 -0.051161828253680347 0.40954535298997258 0 -0.048342871606355781 0.40097934792702961 0 -0.042973684961738069 0.41592643291826231 0 -0.051161828253680347 0.40954535298997258 0 -0.042973684961738069 0.41592643291826231 0 -0.051161828253680347 0.40954535298997258 0 -0.042973684961738069 0.41592643291826231 0 -0.051161828253680347 0.40954535298997258 0 -0.055106871557328428 0.42305161159228227 0 -0.042646571141636773 0.43214117214318359 0 -0.059178928229814701 0.4365201208845606 0 -0.055106871557328428 0.42305161159228227 0 -0.042646571141636773 0.43214117214318359 0 -0.042973684961738069 0.41592643291826231 0 -0.055106871557328428 0.42305161159228227 0 -0.042646571141636773 0.43214117214318359 0 -0.059178928229814701 0.4365201208845606 0 -0.049245987713513212 0.44319563894678482 0 -0.059178928229814701 0.4365201208845606 0 -0.050742244958162368 0.46439359559444437 0 -0.049245987713513212 0.44319563894678482 0 -0.050742244958162368 0.46439359559444437 0 -0.044608833217136261 0.45025336211807931 0 -0.059178928229814701 0.4365201208845606 0 -0.050742244958162368 0.46439359559444437 0 -0.065484051744298263 0.4513847118260722 0 -0.059178928229814701 0.4365201208845606 0 -0.049245987713513212 0.44319563894678482 0 -0.050742244958162368 0.46439359559444437 0 -0.050742244958162368 0.46439359559444437 0 -0.061707257777874093 0.47273252787991399 0 -0.073231504917427276 0.46237159316971249 0 -0.050742244958162368 0.46439359559444437 0 -0.073231504917427276 0.46237159316971249 0 -0.0419800222431604 0.46518140433549732 0 -0.04231945732153318 0.44835591136810488 0 -0.025697431038521311 0.45487791879973932 0 -0.0419800222431604 0.46518140433549732 0 -0.04231945732153318 0.44835591136810488 0 -0.0419800222431604 0.46518140433549732 0 -0.044608833217136261 0.45025336211807931 0 -0.04231945732153318 0.44835591136810488 0 -0.050742244958162368 0.46439359559444437 0 -0.0419800222431604 0.46518140433549732 0 -0.050742244958162368 0.46439359559444437 0 -0.0419800222431604 0.46518140433549732 0 -0.044608833217136261 0.45025336211807931 0 -0.022470349574322469 0.43190483207895858 0 -0.04231945732153318 0.44835591136810488 0 -0.042646571141636773 0.43214117214318359 0 -0.049245987713513212 0.44319563894678482 0 -0.04231945732153318 0.44835591136810488 0 -0.042646571141636773 0.43214117214318359 0 -0.04231945732153318 0.44835591136810488 0 -0.049245987713513212 0.44319563894678482 0 -0.044608833217136261 0.45025336211807931 0 -0.04231945732153318 0.44835591136810488 0 -0.044608833217136261 0.45025336211807931 0 -0.04231945732153318 0.44835591136810488 0 -0.022470349574322469 0.43190483207895858 0 -0.04231945732153318 0.44835591136810488 0 -0.022362297003099281 0.44511471557515531 0 -0.04231945732153318 0.44835591136810488 0 -0.022362297003099281 0.44511471557515531 0 -0.025697431038521311 0.45487791879973932 0 -0.022470349574322469 0.43190483207895858 0 -0.022362297003099281 0.44511471557515531 0 -0.010454900682288101 0.44126855924159908 0 -0.022362297003099281 0.44511471557515531 0 -0.025697431038521311 0.45487791879973932 0 -0.01311544116488466 0.453963754661173 0 -0.0419800222431604 0.46518140433549732 0 -0.025697431038521311 0.45487791879973932 0 -0.01345201465746383 0.46774634869629322 0 -0.0419800222431604 0.46518140433549732 0 -0.01345201465746383 0.46774634869629322 0 -0.025697431038521311 0.45487791879973932 0 -0.01311544116488466 0.453963754661173 0 -0.01345201465746383 0.46774634869629322 0 -0.0094095992007081283 0.46654139838691122 0 -0.010427957625441169 0.46801824073108461 0 0.0053167838454733218 0.46943384557929257 0 -0.0094095992007081283 0.46654139838691122 0 0.0015605482097463411 0.45063228640423969 0 -0.010427957625441169 0.46801824073108461 0 0.0053167838454733218 0.46943384557929257 0 -0.0094095992007081283 0.46654139838691122 0 0.0080738590363113663 0.46132998490476868 0 -0.01311544116488466 0.453963754661173 0 -0.0094095992007081283 0.46654139838691122 0 0.0015605482097463411 0.45063228640423969 0 -0.01311544116488466 0.453963754661173 0 -0.01345201465746383 0.46774634869629322 0 -0.0094095992007081283 0.46654139838691122 0 -0.01345201465746383 0.46774634869629322 0 -0.010427957625441169 0.46801824073108461 0 -0.01345201465746383 0.46774634869629322 0 -0.0094095992007081283 0.46654139838691122 0 -0.01345201465746383 0.46774634869629322 0 -0.0094095992007081283 0.46654139838691122 0 -0.010427957625441169 0.46801824073108461 0 -0.0094095992007081283 0.46654139838691122 0 -0.010427957625441169 0.46801824073108461 0 -0.01311544116488466 0.453963754661173 0 -0.010454900682288101 0.44126855924159908 0 0.0015605482097463411 0.45063228640423969 0 -0.010454900682288101 0.44126855924159908 0 0.0048617880261327502 0.44584476697033082 0 0.0015605482097463411 0.45063228640423969 0 -0.010454900682288101 0.44126855924159908 0 0.0015605482097463411 0.45063228640423969 0 -0.022362297003099281 0.44511471557515531 0 -0.01311544116488466 0.453963754661173 0 -0.010454900682288101 0.44126855924159908 0 -0.0067005321321746969 0.5 0 -0.003880604538310756 0.48346324919380129 0 -0.021454488019086362 0.48400912036554289 0 -0.01345201465746383 0.46774634869629322 0 -0.010427957625441169 0.46801824073108461 0 -0.021454488019086362 0.48400912036554289 0 -0.010427957625441169 0.46801824073108461 0 -0.003880604538310756 0.48346324919380129 0 -0.021454488019086362 0.48400912036554289 0 -0.010427957625441169 0.46801824073108461 0 -0.001026908195020756 0.47486914558720472 0 0.0053167838454733218 0.46943384557929257 0 -0.010427957625441169 0.46801824073108461 0 -0.003880604538310756 0.48346324919380129 0 -0.001026908195020756 0.47486914558720472 0 -0.010427957625441169 0.46801824073108461 0 -0.021454488019086362 0.48400912036554289 0 -0.01345201465746383 0.46774634869629322 0 -0.021454488019086362 0.48400912036554289 0 -0.032447842195153342 0.48378293317924542 0 -0.01345201465746383 0.46774634869629322 0 -0.032447842195153342 0.48378293317924542 0 -0.041758062999807367 0.47618372532725728 0 -0.01345201465746383 0.46774634869629322 0 -0.041758062999807367 0.47618372532725728 0 -0.021454488019086362 0.48400912036554289 0 -0.032481018412731863 0.50000000000000089 0 -0.033555046977316587 0.49207813668870121 0 -0.021454488019086362 0.48400912036554289 0 -0.032481018412731863 0.50000000000000089 0 -0.021454488019086362 0.48400912036554289 0 -0.033555046977316587 0.49207813668870121 0 -0.032447842195153342 0.48378293317924542 0 -0.0067005321321746969 0.5 0 -0.021454488019086362 0.48400912036554289 0 -0.032481018412731863 0.50000000000000089 0 -0.033555046977316587 0.49207813668870121 0 -0.039964975186860582 0.49999999999999872 0 -0.042139887415076342 0.49281443204190178 0 -0.032481018412731863 0.50000000000000089 0 -0.033555046977316587 0.49207813668870121 0 -0.039964975186860582 0.49999999999999872 0 -0.042139887415076342 0.49281443204190178 0 -0.041758062999807367 0.47618372532725728 0 -0.033555046977316587 0.49207813668870121 0 -0.042139887415076342 0.49281443204190178 0 -0.032447842195153342 0.48378293317924542 0 -0.042139887415076342 0.49281443204190178 0 -0.046725468384182907 0.47766439368476649 0 -0.039964975186860582 0.49999999999999872 0 -0.042139887415076342 0.49281443204190178 0 -0.053580454847170257 0.49193017513362319 0 -0.039964975186860582 0.49999999999999872 0 -0.042139887415076342 0.49281443204190178 0 -0.042139887415076342 0.49281443204190178 0 -0.046725468384182907 0.47766439368476649 0 -0.041758062999807367 0.47618372532725728 0 -0.0419800222431604 0.46518140433549732 0 -0.01345201465746383 0.46774634869629322 0 -0.041758062999807367 0.47618372532725728 0 -0.042139887415076342 0.49281443204190178 0 -0.032447842195153342 0.48378293317924542 0 -0.041758062999807367 0.47618372532725728 0 -0.046725468384182907 0.47766439368476649 0 -0.041758062999807367 0.47618372532725728 0 -0.0419800222431604 0.46518140433549732 0 -0.046725468384182907 0.47766439368476649 0 -0.041758062999807367 0.47618372532725728 0 -0.050742244958162368 0.46439359559444437 0 -0.0419800222431604 0.46518140433549732 0 -0.046725468384182907 0.47766439368476649 0 -0.0419800222431604 0.46518140433549732 0 -0.041758062999807367 0.47618372532725728 0 -0.046725468384182907 0.47766439368476649 0 -0.061707257777874093 0.47273252787991399 0 -0.071702929972361051 0.48510959578984503 0 -0.046725468384182907 0.47766439368476649 0 -0.071702929972361051 0.48510959578984503 0 -0.050742244958162368 0.46439359559444437 0 -0.046725468384182907 0.47766439368476649 0 -0.061707257777874093 0.47273252787991399 0 -0.050742244958162368 0.46439359559444437 0 -0.046725468384182907 0.47766439368476649 0 -0.046725468384182907 0.47766439368476649 0 -0.053580454847170257 0.49193017513362319 0 -0.071702929972361051 0.48510959578984503 0 -0.039964975186860582 0.49999999999999872 0 -0.053580454847170257 0.49193017513362319 0 -0.067195934507479516 0.5 0 -0.042139887415076342 0.49281443204190178 0 -0.046725468384182907 0.47766439368476649 0 -0.053580454847170257 0.49193017513362319 0 -0.053580454847170257 0.49193017513362319 0 -0.067195934507479516 0.5 0 -0.071702929972361051 0.48510959578984503 0 -0.067195934507479516 0.5 0 -0.071702929972361051 0.48510959578984503 0 -0.094426893828098324 0.5 0 -0.071702929972361051 0.48510959578984503 0 -0.096680391560538939 0.49255479789492401 0 -0.071702929972361051 0.48510959578984503 0 -0.094426893828098324 0.5 0 -0.096680391560538939 0.49255479789492401 0 -0.071702929972361051 0.48510959578984503 0 -0.094342239683345888 0.46564946071770819 0 -0.096680391560538939 0.49255479789492401 0 -0.071702929972361051 0.48510959578984503 0 -0.073231504917427276 0.46237159316971249 0 -0.094342239683345888 0.46564946071770819 0 -0.061707257777874093 0.47273252787991399 0 -0.071702929972361051 0.48510959578984503 0 -0.073231504917427276 0.46237159316971249 0 -0.050742244958162368 0.46439359559444437 0 -0.073231504917427276 0.46237159316971249 0 -0.065484051744298263 0.4513847118260722 0 -0.059178928229814701 0.4365201208845606 0 -0.065484051744298263 0.4513847118260722 0 -0.078698858269308614 0.44343419105434712 0 -0.073231504917427276 0.46237159316971249 0 -0.065484051744298263 0.4513847118260722 0 -0.078698858269308614 0.44343419105434712 0 -0.078698858269308614 0.44343419105434712 0 -0.094342239683345888 0.46564946071770819 0 -0.098677616465060528 0.43762344985591101 0 -0.073231504917427276 0.46237159316971249 0 -0.078698858269308614 0.44343419105434712 0 -0.094342239683345888 0.46564946071770819 0 -0.094342239683345888 0.46564946071770819 0 -0.098677616465060528 0.43762344985591101 0 -0.11987972175203609 0.45809198546251739 0 -0.098677616465060528 0.43762344985591101 0 -0.11987972175203609 0.45809198546251739 0 -0.12509104342100061 0.44188941827772182 0 -0.098677616465060528 0.43762344985591101 0 -0.11987972175203609 0.45809198546251739 0 -0.094342239683345888 0.46564946071770819 0 -0.11987972175203609 0.45809198546251739 0 -0.1215246548466888 0.48036061179670092 0 -0.1215246548466888 0.48036061179670092 0 -0.1216578531487173 0.50000000000000155 0 -0.096680391560538939 0.49255479789492401 0 -0.1216578531487173 0.50000000000000155 0 -0.094426893828098324 0.5 0 -0.096680391560538939 0.49255479789492401 0 -0.1216578531487173 0.50000000000000155 0 -0.096680391560538939 0.49255479789492401 0 -0.094342239683345888 0.46564946071770819 0 -0.1215246548466888 0.48036061179670092 0 -0.096680391560538939 0.49255479789492401 0 -0.16310986573530631 0.084156321085019567 0 -0.17544541039362899 0.09436804860009354 0 -0.15783765240444911 0.096274401630791262 0 -0.16310986573530631 0.084156321085019567 0 -0.15783765240444911 0.096274401630791262 0 -0.16310986573530631 0.084156321085019567 0 -0.1657815390990264 0.070802932860687437 0 -0.15463431661472629 0.07014553381523804 0 -0.16310986573530631 0.084156321085019567 0 -0.1657815390990264 0.070802932860687437 0 -0.17966236107341149 0.074300518116336353 0 -0.1657815390990264 0.070802932860687437 0 -0.17966236107341149 0.074300518116336353 0 -0.1657196129726615 0.054609358426155781 0 -0.1657815390990264 0.070802932860687437 0 -0.15463431661472629 0.07014553381523804 0 -0.1657196129726615 0.054609358426155781 0 -0.17966236107341149 0.074300518116336353 0 -0.1657196129726615 0.054609358426155781 0 -0.19326118210642521 0.060262893486061127 0 -0.17966236107341149 0.074300518116336353 0 -0.1657196129726615 0.054609358426155781 0 -0.16310986573530631 0.084156321085019567 0 -0.17966236107341149 0.074300518116336353 0 -0.17544541039362899 0.09436804860009354 0 -0.17966236107341149 0.074300518116336353 0 -0.17544541039362899 0.09436804860009354 0 -0.19360510917416149 0.093991677806516877 0 -0.17966236107341149 0.074300518116336353 0 -0.19360510917416149 0.093991677806516877 0 -0.17544541039362899 0.09436804860009354 0 -0.18934336527218601 0.1087413065502997 0 -0.19360510917416149 0.093991677806516877 0 -0.17544541039362899 0.09436804860009354 0 -0.16911410870225951 0.1087440664115976 0 -0.18934336527218601 0.1087413065502997 0 -0.18039056500006781 0.12121373119240569 0 -0.16911410870225951 0.1087440664115976 0 -0.18934336527218601 0.1087413065502997 0 -0.18039056500006781 0.12121373119240569 0 -0.16911410870225951 0.1087440664115976 0 -0.18039056500006781 0.12121373119240569 0 -0.16911410870225951 0.1087440664115976 0 -0.15507510040999009 0.1056512286087255 0 -0.18039056500006781 0.12121373119240569 0 -0.15507510040999009 0.1056512286087255 0 -0.1628447509754036 0.1248738178506951 0 -0.15507510040999009 0.1056512286087255 0 -0.15358711882774939 0.11801712706942639 0 -0.18039056500006781 0.12121373119240569 0 -0.1628447509754036 0.1248738178506951 0 -0.15507510040999009 0.1056512286087255 0 -0.17544541039362899 0.09436804860009354 0 -0.16911410870225951 0.1087440664115976 0 -0.15783765240444911 0.096274401630791262 0 -0.16911410870225951 0.1087440664115976 0 -0.15783765240444911 0.096274401630791262 0 -0.16911410870225951 0.1087440664115976 0 -0.15783765240444911 0.096274401630791262 0 -0.15507510040999009 0.1056512286087255 0 -0.15783765240444911 0.096274401630791262 0 -0.14455303356647331 0.096744639073681929 0 -0.15139402388202119 0.11108495737684999 0 -0.14455303356647331 0.096744639073681929 0 -0.15139402388202119 0.11108495737684999 0 -0.12991930243541749 0.1020465165188278 0 -0.15783765240444911 0.096274401630791262 0 -0.15507510040999009 0.1056512286087255 0 -0.15139402388202119 0.11108495737684999 0 -0.15783765240444911 0.096274401630791262 0 -0.15139402388202119 0.11108495737684999 0 -0.15139402388202119 0.11108495737684999 0 -0.12991930243541749 0.1020465165188278 0 -0.14495039535959489 0.12589551312290931 0 -0.1628447509754036 0.1248738178506951 0 -0.15358711882774939 0.11801712706942639 0 -0.14495039535959489 0.12589551312290931 0 -0.15358711882774939 0.11801712706942639 0 -0.15139402388202119 0.11108495737684999 0 -0.14495039535959489 0.12589551312290931 0 -0.15507510040999009 0.1056512286087255 0 -0.15358711882774939 0.11801712706942639 0 -0.15139402388202119 0.11108495737684999 0 -0.15139402388202119 0.11108495737684999 0 -0.14495039535959489 0.12589551312290931 0 -0.12991930243541749 0.1020465165188278 0 -0.14495039535959489 0.12589551312290931 0 -0.12991930243541749 0.1020465165188278 0 -0.14495039535959489 0.12589551312290931 0 -0.13028426483969929 0.13221647237215789 0 -0.14455303356647331 0.096744639073681929 0 -0.12991930243541749 0.1020465165188278 0 -0.13683438329036771 0.088098653177494879 0 -0.12991930243541749 0.1020465165188278 0 -0.13683438329036771 0.088098653177494879 0 -0.1248370695698198 0.083226530136874921 0 -0.13683438329036771 0.088098653177494879 0 -0.13729578978526799 0.073558919561796721 0 -0.1248370695698198 0.083226530136874921 0 -0.13683438329036771 0.088098653177494879 0 -0.14756672109485969 0.08491666059629295 0 -0.13729578978526799 0.073558919561796721 0 -0.14455303356647331 0.096744639073681929 0 -0.13683438329036771 0.088098653177494879 0 -0.14756672109485969 0.08491666059629295 0 -0.14756672109485969 0.08491666059629295 0 -0.13729578978526799 0.073558919561796721 0 -0.16310986573530631 0.084156321085019567 0 -0.14756672109485969 0.08491666059629295 0 -0.15463431661472629 0.07014553381523804 0 -0.16310986573530631 0.084156321085019567 0 -0.15783765240444911 0.096274401630791262 0 -0.14756672109485969 0.08491666059629295 0 -0.15783765240444911 0.096274401630791262 0 -0.14756672109485969 0.08491666059629295 0 -0.15783765240444911 0.096274401630791262 0 -0.14455303356647331 0.096744639073681929 0 -0.14756672109485969 0.08491666059629295 0 -0.14756672109485969 0.08491666059629295 0 -0.15463431661472629 0.07014553381523804 0 -0.13729578978526799 0.073558919561796721 0 -0.15463431661472629 0.07014553381523804 0 -0.13729578978526799 0.073558919561796721 0 -0.14428807100988511 0.057223156242914672 0 -0.13729578978526799 0.073558919561796721 0 -0.1311901693420546 0.060374133793646992 0 -0.14428807100988511 0.057223156242914672 0 -0.13729578978526799 0.073558919561796721 0 -0.12498233095038511 0.069533312171706482 0 -0.1248370695698198 0.083226530136874921 0 -0.13729578978526799 0.073558919561796721 0 -0.1311901693420546 0.060374133793646992 0 -0.12498233095038511 0.069533312171706482 0 -0.1311901693420546 0.060374133793646992 0 -0.1304591025064194 0.044551821316570157 0 -0.1169815729820268 0.057446916627697332 0 -0.1311901693420546 0.060374133793646992 0 -0.1304591025064194 0.044551821316570157 0 -0.14428807100988511 0.057223156242914672 0 -0.1304591025064194 0.044551821316570157 0 -0.1338093633065561 0.031702984145267947 0 -0.14718764802187309 0.041237794311798179 0 -0.1304591025064194 0.044551821316570157 0 -0.1338093633065561 0.031702984145267947 0 -0.120950474974805 0.030974477430810402 0 -0.14718764802187309 0.041237794311798179 0 -0.14507935476777459 0.024735833563247479 0 -0.16332082262574071 0.033969476032413119 0 -0.1338093633065561 0.031702984145267947 0 -0.14718764802187309 0.041237794311798179 0 -0.14507935476777459 0.024735833563247479 0 -0.1304591025064194 0.044551821316570157 0 -0.14718764802187309 0.041237794311798179 0 -0.14428807100988511 0.057223156242914672 0 -0.15463431661472629 0.07014553381523804 0 -0.14428807100988511 0.057223156242914672 0 -0.1657196129726615 0.054609358426155781 0 -0.14718764802187309 0.041237794311798179 0 -0.14428807100988511 0.057223156242914672 0 -0.1657196129726615 0.054609358426155781 0 -0.1273771369441013 0.0023450629401116992 0 -0.12537023626190849 0.01701499410391356 0 -0.14358534871595791 0.0085390787577918573 0 -0.14275634286812811 -0.006203461430080404 0 -0.1273771369441013 0.0023450629401116992 0 -0.14358534871595791 0.0085390787577918573 0 -0.1338093633065561 0.031702984145267947 0 -0.12537023626190849 0.01701499410391356 0 -0.14507935476777459 0.024735833563247479 0 -0.12537023626190849 0.01701499410391356 0 -0.14507935476777459 0.024735833563247479 0 -0.14358534871595791 0.0085390787577918573 0 -0.1338093633065561 0.031702984145267947 0 -0.12537023626190849 0.01701499410391356 0 -0.120950474974805 0.030974477430810402 0 -0.14507935476777459 0.024735833563247479 0 -0.14358534871595791 0.0085390787577918573 0 -0.1631610812614456 0.0141265482177085 0 -0.15796117991031841 -0.00029962151665172479 0 -0.14358534871595791 0.0085390787577918573 0 -0.1631610812614456 0.0141265482177085 0 -0.14275634286812811 -0.006203461430080404 0 -0.15796117991031841 -0.00029962151665172479 0 -0.14358534871595791 0.0085390787577918573 0 -0.15796117991031841 -0.00029962151665172479 0 -0.17967452986780849 -0.0030086181600807401 0 -0.1631610812614456 0.0141265482177085 0 -0.1631610812614456 0.0141265482177085 0 -0.18063081477410151 0.02444866588981499 0 -0.16332082262574071 0.033969476032413119 0 -0.14507935476777459 0.024735833563247479 0 -0.1631610812614456 0.0141265482177085 0 -0.16332082262574071 0.033969476032413119 0 -0.17967452986780849 -0.0030086181600807401 0 -0.1631610812614456 0.0141265482177085 0 -0.18063081477410151 0.02444866588981499 0 -0.17967452986780849 -0.0030086181600807401 0 -0.18063081477410151 0.02444866588981499 0 -0.19591489879339791 0.012499298725408061 0 -0.1657196129726615 0.054609358426155781 0 -0.16332082262574071 0.033969476032413119 0 -0.1853408533429271 0.041769259974547668 0 -0.14718764802187309 0.041237794311798179 0 -0.1657196129726615 0.054609358426155781 0 -0.16332082262574071 0.033969476032413119 0 -0.18063081477410151 0.02444866588981499 0 -0.16332082262574071 0.033969476032413119 0 -0.1853408533429271 0.041769259974547668 0 -0.1657196129726615 0.054609358426155781 0 -0.1853408533429271 0.041769259974547668 0 -0.19326118210642521 0.060262893486061127 0 -0.1853408533429271 0.041769259974547668 0 -0.19326118210642521 0.060262893486061127 0 -0.20638984228336041 0.047204147208118788 0 -0.18063081477410151 0.02444866588981499 0 -0.1853408533429271 0.041769259974547668 0 -0.2003712226561333 0.029120430419108619 0 -0.1853408533429271 0.041769259974547668 0 -0.20638984228336041 0.047204147208118788 0 -0.2003712226561333 0.029120430419108619 0 -0.20638984228336041 0.047204147208118788 0 -0.2003712226561333 0.029120430419108619 0 -0.21890969838457369 0.03387481538926377 0 -0.20638984228336041 0.047204147208118788 0 -0.2248274879423891 0.050626958701997932 0 -0.21890969838457369 0.03387481538926377 0 -0.20638984228336041 0.047204147208118788 0 -0.2248274879423891 0.050626958701997932 0 -0.21240822864659401 0.064474545157398255 0 -0.19326118210642521 0.060262893486061127 0 -0.20638984228336041 0.047204147208118788 0 -0.21240822864659401 0.064474545157398255 0 -0.17967452986780849 -0.0030086181600807401 0 -0.20680301002479959 -0.0020434230711429339 0 -0.19591489879339791 0.012499298725408061 0 -0.18063081477410151 0.02444866588981499 0 -0.19591489879339791 0.012499298725408061 0 -0.2003712226561333 0.029120430419108619 0 -0.2003712226561333 0.029120430419108619 0 -0.2150412283584397 0.01492639532749848 0 -0.21890969838457369 0.03387481538926377 0 -0.19591489879339791 0.012499298725408061 0 -0.2003712226561333 0.029120430419108619 0 -0.2150412283584397 0.01492639532749848 0 -0.20680301002479959 -0.0020434230711429339 0 -0.19591489879339791 0.012499298725408061 0 -0.2150412283584397 0.01492639532749848 0 -0.20680301002479959 -0.0020434230711429339 0 -0.2150412283584397 0.01492639532749848 0 -0.22850437187820721 0.00061554774341724197 0 -0.2150412283584397 0.01492639532749848 0 -0.22850437187820721 0.00061554774341724197 0 -0.23416676111704099 0.01917273774715204 0 -0.23416676111704099 0.01917273774715204 0 -0.21890969838457369 0.03387481538926377 0 -0.23451298379830759 0.036058925104307242 0 -0.2150412283584397 0.01492639532749848 0 -0.23416676111704099 0.01917273774715204 0 -0.21890969838457369 0.03387481538926377 0 -0.25132042997239518 0.0027134119798401068 0 -0.25642639863326749 0.02710060176493858 0 -0.23416676111704099 0.01917273774715204 0 -0.25642639863326749 0.02710060176493858 0 -0.23416676111704099 0.01917273774715204 0 -0.23451298379830759 0.036058925104307242 0 -0.25132042997239518 0.0027134119798401068 0 -0.22850437187820721 0.00061554774341724197 0 -0.23416676111704099 0.01917273774715204 0 -0.2248274879423891 0.050626958701997932 0 -0.234130504556473 0.067172247096954504 0 -0.21240822864659401 0.064474545157398255 0 -0.2248274879423891 0.050626958701997932 0 -0.21890969838457369 0.03387481538926377 0 -0.23451298379830759 0.036058925104307242 0 -0.25642639863326749 0.02710060176493858 0 -0.23451298379830759 0.036058925104307242 0 -0.24534917185526489 0.049526218608574313 0 -0.2248274879423891 0.050626958701997932 0 -0.23451298379830759 0.036058925104307242 0 -0.24534917185526489 0.049526218608574313 0 -0.26195798501385009 0.070226375813507561 0 -0.24534917185526489 0.049526218608574313 0 -0.234130504556473 0.067172247096954504 0 -0.2248274879423891 0.050626958701997932 0 -0.24534917185526489 0.049526218608574313 0 -0.234130504556473 0.067172247096954504 0 -0.26195798501385009 0.070226375813507561 0 -0.24382127576753621 0.084711863041238192 0 -0.234130504556473 0.067172247096954504 0 -0.24382127576753621 0.084711863041238192 0 -0.22568456652122221 0.099197350268968809 0 -0.24382127576753621 0.084711863041238192 0 -0.221160002309051 0.081738136999685213 0 -0.22568456652122221 0.099197350268968809 0 -0.221160002309051 0.081738136999685213 0 -0.20949418686790969 0.097522886253834359 0 -0.22568456652122221 0.099197350268968809 0 -0.24382127576753621 0.084711863041238192 0 -0.221160002309051 0.081738136999685213 0 -0.234130504556473 0.067172247096954504 0 -0.221160002309051 0.081738136999685213 0 -0.234130504556473 0.067172247096954504 0 -0.21240822864659401 0.064474545157398255 0 -0.221160002309051 0.081738136999685213 0 -0.21240822864659401 0.064474545157398255 0 -0.19789508720454749 0.077516785054754192 0 -0.221160002309051 0.081738136999685213 0 -0.19789508720454749 0.077516785054754192 0 -0.20949418686790969 0.097522886253834359 0 -0.17966236107341149 0.074300518116336353 0 -0.19789508720454749 0.077516785054754192 0 -0.19360510917416149 0.093991677806516877 0 -0.19789508720454749 0.077516785054754192 0 -0.19360510917416149 0.093991677806516877 0 -0.20949418686790969 0.097522886253834359 0 -0.19326118210642521 0.060262893486061127 0 -0.21240822864659401 0.064474545157398255 0 -0.19789508720454749 0.077516785054754192 0 -0.17966236107341149 0.074300518116336353 0 -0.19326118210642521 0.060262893486061127 0 -0.19789508720454749 0.077516785054754192 0 -0.20040659369392541 0.1193864456313013 0 -0.18934336527218601 0.1087413065502997 0 -0.2075478572749084 0.11368283749669961 0 -0.18039056500006781 0.12121373119240569 0 -0.20040659369392541 0.1193864456313013 0 -0.18934336527218601 0.1087413065502997 0 -0.19360510917416149 0.093991677806516877 0 -0.2075478572749084 0.11368283749669961 0 -0.18934336527218601 0.1087413065502997 0 -0.19360510917416149 0.093991677806516877 0 -0.2075478572749084 0.11368283749669961 0 -0.19360510917416149 0.093991677806516877 0 -0.20949418686790969 0.097522886253834359 0 -0.2075478572749084 0.11368283749669961 0 -0.2075478572749084 0.11368283749669961 0 -0.22568456652122221 0.099197350268968809 0 -0.20949418686790969 0.097522886253834359 0 -0.2075478572749084 0.11368283749669961 0 -0.22568456652122221 0.099197350268968809 0 -0.2075478572749084 0.11368283749669961 0 -0.22488407219564061 0.1186598638475915 0 -0.22370276663374011 0.1364982034250237 0 -0.20040659369392541 0.1193864456313013 0 -0.2075478572749084 0.11368283749669961 0 -0.20214902218410111 0.13458958866239301 0 -0.20040659369392541 0.1193864456313013 0 -0.2075478572749084 0.11368283749669961 0 -0.2075478572749084 0.11368283749669961 0 -0.22488407219564061 0.1186598638475915 0 -0.22568456652122221 0.099197350268968809 0 -0.22488407219564061 0.1186598638475915 0 -0.23975573915859391 0.1186480270080747 0 -0.23562440086935879 0.12869665656040569 0 -0.22488407219564061 0.1186598638475915 0 -0.22568456652122221 0.099197350268968809 0 -0.23888908650362611 0.1045060591559635 0 -0.24382127576753621 0.084711863041238192 0 -0.22568456652122221 0.099197350268968809 0 -0.23888908650362611 0.1045060591559635 0 -0.25364395357421121 0.10678394025260531 0 -0.24382127576753621 0.084711863041238192 0 -0.23888908650362611 0.1045060591559635 0 -0.25033803458298193 0.12914144363467839 0 -0.25364395357421121 0.10678394025260531 0 -0.23975573915859391 0.1186480270080747 0 -0.22488407219564061 0.1186598638475915 0 -0.23888908650362611 0.1045060591559635 0 -0.23975573915859391 0.1186480270080747 0 -0.25364395357421121 0.10678394025260531 0 -0.23888908650362611 0.1045060591559635 0 -0.23975573915859391 0.1186480270080747 0 -0.25033803458298193 0.12914144363467839 0 -0.23975573915859391 0.1186480270080747 0 -0.23562440086935879 0.12869665656040569 0 -0.25033803458298193 0.12914144363467839 0 -0.2394413917758374 0.14053574488666021 0 -0.23562440086935879 0.12869665656040569 0 -0.2394413917758374 0.14053574488666021 0 -0.23562440086935879 0.12869665656040569 0 -0.22370276663374011 0.1364982034250237 0 -0.22488407219564061 0.1186598638475915 0 -0.23562440086935879 0.12869665656040569 0 -0.22370276663374011 0.1364982034250237 0 -0.2394413917758374 0.14053574488666021 0 -0.22370276663374011 0.1364982034250237 0 -0.22390747936813421 0.14796544613238069 0 -0.22390747936813421 0.14796544613238069 0 -0.22774584105848089 0.15976823357977049 0 -0.2168312664826515 0.15850745189495519 0 -0.2394413917758374 0.14053574488666021 0 -0.22390747936813421 0.14796544613238069 0 -0.24566593655216731 0.1613413036023684 0 -0.22390747936813421 0.14796544613238069 0 -0.24566593655216731 0.1613413036023684 0 -0.26077588748637798 0.14053443996503889 0 -0.2394413917758374 0.14053574488666021 0 -0.24566593655216731 0.1613413036023684 0 -0.24566593655216731 0.1613413036023684 0 -0.2425545525554833 0.18325607046718431 0 -0.22457868183097049 0.171258732689378 0 -0.2425545525554833 0.18325607046718431 0 -0.2235130486054053 0.18492553164669809 0 -0.22457868183097049 0.171258732689378 0 -0.2425545525554833 0.18325607046718431 0 -0.2235130486054053 0.18492553164669809 0 -0.2315679775879351 0.19375458513227489 0 -0.2235130486054053 0.18492553164669809 0 -0.22457868183097049 0.171258732689378 0 -0.209750232499154 0.17791844316711489 0 -0.24566593655216731 0.1613413036023684 0 -0.22774584105848089 0.15976823357977049 0 -0.22457868183097049 0.171258732689378 0 -0.22390747936813421 0.14796544613238069 0 -0.24566593655216731 0.1613413036023684 0 -0.22774584105848089 0.15976823357977049 0 -0.22774584105848089 0.15976823357977049 0 -0.22457868183097049 0.171258732689378 0 -0.2168312664826515 0.15850745189495519 0 -0.2168312664826515 0.15850745189495519 0 -0.21186753860838101 0.16733255095299371 0 -0.20758447520558959 0.15683863127083711 0 -0.22457868183097049 0.171258732689378 0 -0.2168312664826515 0.15850745189495519 0 -0.21186753860838101 0.16733255095299371 0 -0.21186753860838101 0.16733255095299371 0 -0.209750232499154 0.17791844316711489 0 -0.20173639765426299 0.1643971743801825 0 -0.21186753860838101 0.16733255095299371 0 -0.20758447520558959 0.15683863127083711 0 -0.20173639765426299 0.1643971743801825 0 -0.20758447520558959 0.15683863127083711 0 -0.20173639765426299 0.1643971743801825 0 -0.20024290349544879 0.15519061181074151 0 -0.22457868183097049 0.171258732689378 0 -0.21186753860838101 0.16733255095299371 0 -0.209750232499154 0.17791844316711489 0 -0.19610042498268601 0.17522502183351021 0 -0.19038698318195549 0.16711234260031069 0 -0.17752183765376101 0.1775748035498933 0 -0.19610042498268601 0.17522502183351021 0 -0.19785886193094021 0.18900131099286041 0 -0.17752183765376101 0.1775748035498933 0 -0.19785886193094021 0.18900131099286041 0 -0.17752183765376101 0.1775748035498933 0 -0.209750232499154 0.17791844316711489 0 -0.19610042498268601 0.17522502183351021 0 -0.19785886193094021 0.18900131099286041 0 -0.209750232499154 0.17791844316711489 0 -0.19610042498268601 0.17522502183351021 0 -0.20173639765426299 0.1643971743801825 0 -0.20173639765426299 0.1643971743801825 0 -0.1927705130470404 0.15866088515044 0 -0.20024290349544879 0.15519061181074151 0 -0.19610042498268601 0.17522502183351021 0 -0.20173639765426299 0.1643971743801825 0 -0.19038698318195549 0.16711234260031069 0 -0.20173639765426299 0.1643971743801825 0 -0.19038698318195549 0.16711234260031069 0 -0.1927705130470404 0.15866088515044 0 -0.19038698318195549 0.16711234260031069 0 -0.1927705130470404 0.15866088515044 0 -0.18413510522225521 0.16259499244525211 0 -0.1927705130470404 0.15866088515044 0 -0.19507878308752141 0.1486405391940768 0 -0.1852646507768699 0.1545619776798173 0 -0.19507878308752141 0.1486405391940768 0 -0.18706065072040501 0.14468661846275019 0 -0.1852646507768699 0.1545619776798173 0 -0.19507878308752141 0.1486405391940768 0 -0.20024290349544879 0.15519061181074151 0 -0.20390252305447459 0.15036513687703029 0 -0.1927705130470404 0.15866088515044 0 -0.19507878308752141 0.1486405391940768 0 -0.20024290349544879 0.15519061181074151 0 -0.19507878308752141 0.1486405391940768 0 -0.202312374299252 0.1441640524023215 0 -0.19563802519160789 0.13807458821396759 0 -0.19507878308752141 0.1486405391940768 0 -0.202312374299252 0.1441640524023215 0 -0.20390252305447459 0.15036513687703029 0 -0.19507878308752141 0.1486405391940768 0 -0.19563802519160789 0.13807458821396759 0 -0.18706065072040501 0.14468661846275019 0 -0.18039056500006781 0.12121373119240569 0 -0.20214902218410111 0.13458958866239301 0 -0.18039056500006781 0.12121373119240569 0 -0.20040659369392541 0.1193864456313013 0 -0.20214902218410111 0.13458958866239301 0 -0.18039056500006781 0.12121373119240569 0 -0.19563802519160789 0.13807458821396759 0 -0.20214902218410111 0.13458958866239301 0 -0.18039056500006781 0.12121373119240569 0 -0.19563802519160789 0.13807458821396759 0 -0.202312374299252 0.1441640524023215 0 -0.19563802519160789 0.13807458821396759 0 -0.20214902218410111 0.13458958866239301 0 -0.2075478572749084 0.11368283749669961 0 -0.22370276663374011 0.1364982034250237 0 -0.20214902218410111 0.13458958866239301 0 -0.2075478572749084 0.11368283749669961 0 -0.22370276663374011 0.1364982034250237 0 -0.22370276663374011 0.1364982034250237 0 -0.22390747936813421 0.14796544613238069 0 -0.20214902218410111 0.13458958866239301 0 -0.22390747936813421 0.14796544613238069 0 -0.20214902218410111 0.13458958866239301 0 -0.22390747936813421 0.14796544613238069 0 -0.20214902218410111 0.13458958866239301 0 -0.20948943058945241 0.14863997276184041 0 -0.22390747936813421 0.14796544613238069 0 -0.2168312664826515 0.15850745189495519 0 -0.20948943058945241 0.14863997276184041 0 -0.2168312664826515 0.15850745189495519 0 -0.20758447520558959 0.15683863127083711 0 -0.20948943058945241 0.14863997276184041 0 -0.20758447520558959 0.15683863127083711 0 -0.20948943058945241 0.14863997276184041 0 -0.20390252305447459 0.15036513687703029 0 -0.20758447520558959 0.15683863127083711 0 -0.20024290349544879 0.15519061181074151 0 -0.20390252305447459 0.15036513687703029 0 -0.202312374299252 0.1441640524023215 0 -0.20214902218410111 0.13458958866239301 0 -0.20948943058945241 0.14863997276184041 0 -0.202312374299252 0.1441640524023215 0 -0.20948943058945241 0.14863997276184041 0 -0.20390252305447459 0.15036513687703029 0 -0.22764024225575111 0.25709488017932702 0 -0.2151106411052526 0.2372148610219694 0 -0.22764024225575111 0.25709488017932702 0 -0.2283272457552897 0.2411225242229286 0 -0.2468893326351202 0.24329134098969171 0 -0.22764024225575111 0.25709488017932702 0 -0.2283272457552897 0.2411225242229286 0 -0.2151106411052526 0.2372148610219694 0 -0.2283272457552897 0.2411225242229286 0 -0.22236430254422471 0.22707510271615991 0 -0.2151106411052526 0.2372148610219694 0 -0.2283272457552897 0.2411225242229286 0 -0.2468893326351202 0.24329134098969171 0 -0.2329273297721271 0.2301735095518313 0 -0.25250373055295899 0.22903132158689779 0 -0.2468893326351202 0.24329134098969171 0 -0.24260825180894061 0.22311859240920151 0 -0.2468893326351202 0.24329134098969171 0 -0.24260825180894061 0.22311859240920151 0 -0.2329273297721271 0.2301735095518313 0 -0.25326648915379463 0.21765104414027969 0 -0.25250373055295899 0.22903132158689779 0 -0.24260825180894061 0.22311859240920151 0 -0.24260825180894061 0.22311859240920151 0 -0.23239639752576971 0.22100751879425451 0 -0.2329273297721271 0.2301735095518313 0 -0.23239639752576971 0.22100751879425451 0 -0.2329273297721271 0.2301735095518313 0 -0.22236430254422471 0.22707510271615991 0 -0.2283272457552897 0.2411225242229286 0 -0.2329273297721271 0.2301735095518313 0 -0.22236430254422471 0.22707510271615991 0 -0.23239639752576971 0.22100751879425451 0 -0.22236430254422471 0.22707510271615991 0 -0.2228431611521535 0.2155973608413651 0 -0.2228431611521535 0.2155973608413651 0 -0.2385329104852989 0.2118543258787943 0 -0.21819588620811961 0.20042781843582741 0 -0.2385329104852989 0.2118543258787943 0 -0.21819588620811961 0.20042781843582741 0 -0.23239639752576971 0.22100751879425451 0 -0.2228431611521535 0.2155973608413651 0 -0.2385329104852989 0.2118543258787943 0 -0.2385329104852989 0.2118543258787943 0 -0.24039455529309961 0.2058142864805034 0 -0.21819588620811961 0.20042781843582741 0 -0.24260825180894061 0.22311859240920151 0 -0.23239639752576971 0.22100751879425451 0 -0.2385329104852989 0.2118543258787943 0 -0.25326648915379463 0.21765104414027969 0 -0.24039455529309961 0.2058142864805034 0 -0.25326648915379463 0.21765104414027969 0 -0.2385329104852989 0.2118543258787943 0 -0.24039455529309961 0.2058142864805034 0 -0.25326648915379463 0.21765104414027969 0 -0.24260825180894061 0.22311859240920151 0 -0.2385329104852989 0.2118543258787943 0 -0.25264776582176801 0.2054066783297176 0 -0.25326648915379463 0.21765104414027969 0 -0.24039455529309961 0.2058142864805034 0 -0.25846339158769432 0.19477026040294029 0 -0.2425545525554833 0.18325607046718431 0 -0.24512564856919611 0.1966003761625241 0 -0.24039455529309961 0.2058142864805034 0 -0.24512564856919611 0.1966003761625241 0 -0.2315679775879351 0.19375458513227489 0 -0.25264776582176801 0.2054066783297176 0 -0.24039455529309961 0.2058142864805034 0 -0.24512564856919611 0.1966003761625241 0 -0.2425545525554833 0.18325607046718431 0 -0.24512564856919611 0.1966003761625241 0 -0.2315679775879351 0.19375458513227489 0 -0.24039455529309961 0.2058142864805034 0 -0.2315679775879351 0.19375458513227489 0 -0.21819588620811961 0.20042781843582741 0 -0.2235130486054053 0.18492553164669809 0 -0.2315679775879351 0.19375458513227489 0 -0.21819588620811961 0.20042781843582741 0 -0.21819588620811961 0.20042781843582741 0 -0.19785886193094021 0.18900131099286041 0 -0.2235130486054053 0.18492553164669809 0 -0.209750232499154 0.17791844316711489 0 -0.21819588620811961 0.20042781843582741 0 -0.209750232499154 0.17791844316711489 0 -0.21819588620811961 0.20042781843582741 0 -0.19785886193094021 0.18900131099286041 0 -0.21819588620811961 0.20042781843582741 0 -0.20376966825666501 0.2022924765927995 0 -0.19785886193094021 0.18900131099286041 0 -0.19785886193094021 0.18900131099286041 0 -0.19005143880425829 0.1974548227072519 0 -0.17752183765376101 0.1775748035498933 0 -0.20376966825666501 0.2022924765927995 0 -0.19785886193094021 0.18900131099286041 0 -0.19005143880425829 0.1974548227072519 0 -0.19005143880425829 0.1974548227072519 0 -0.187650486280975 0.21451757224245291 0 -0.20258103995475549 0.21733484186461069 0 -0.19005143880425829 0.1974548227072519 0 -0.20258103995475549 0.21733484186461069 0 -0.20376966825666501 0.2022924765927995 0 -0.19005143880425829 0.1974548227072519 0 -0.20258103995475549 0.21733484186461069 0 -0.2228431611521535 0.2155973608413651 0 -0.21819588620811961 0.20042781843582741 0 -0.20258103995475549 0.21733484186461069 0 -0.21819588620811961 0.20042781843582741 0 -0.20376966825666501 0.2022924765927995 0 -0.20258103995475549 0.21733484186461069 0 -0.20258103995475549 0.21733484186461069 0 -0.19839606398960871 0.22991008851962841 0 -0.2151106411052526 0.2372148610219694 0 -0.22236430254422471 0.22707510271615991 0 -0.2228431611521535 0.2155973608413651 0 -0.20258103995475549 0.21733484186461069 0 -0.22236430254422471 0.22707510271615991 0 -0.20258103995475549 0.21733484186461069 0 -0.2151106411052526 0.2372148610219694 0 -0.20258103995475549 0.21733484186461069 0 -0.2151106411052526 0.2372148610219694 0 -0.187650486280975 0.21451757224245291 0 -0.20258103995475549 0.21733484186461069 0 -0.19839606398960871 0.22991008851962841 0 -0.187650486280975 0.21451757224245291 0 -0.19839606398960871 0.22991008851962841 0 -0.18195408303730121 0.23534357450296481 0 -0.18940688912330481 0.25610334311205268 0 -0.2046840695697589 0.2451395929661444 0 -0.18195408303730121 0.23534357450296481 0 -0.2046840695697589 0.2451395929661444 0 -0.18195408303730121 0.23534357450296481 0 -0.19839606398960871 0.22991008851962841 0 -0.2046840695697589 0.2451395929661444 0 -0.18195408303730121 0.23534357450296481 0 -0.21239874098331929 0.25437807278244762 0 -0.2046840695697589 0.2451395929661444 0 -0.2151106411052526 0.2372148610219694 0 -0.19839606398960871 0.22991008851962841 0 -0.2046840695697589 0.2451395929661444 0 -0.2151106411052526 0.2372148610219694 0 -0.22764024225575111 0.25709488017932702 0 -0.21239874098331929 0.25437807278244762 0 -0.2151106411052526 0.2372148610219694 0 -0.16225317791305921 0.25358582624422438 0 -0.18195408303730121 0.23534357450296481 0 -0.155242522585569 0.24016045739440639 0 -0.17508206900779469 0.25918785244088571 0 -0.16225317791305921 0.25358582624422438 0 -0.18195408303730121 0.23534357450296481 0 -0.187650486280975 0.21451757224245291 0 -0.18195408303730121 0.23534357450296481 0 -0.17144823439391829 0.2141895330645725 0 -0.18195408303730121 0.23534357450296481 0 -0.15922409650484359 0.2255475560397853 0 -0.18195408303730121 0.23534357450296481 0 -0.15922409650484359 0.2255475560397853 0 -0.155242522585569 0.24016045739440639 0 -0.18195408303730121 0.23534357450296481 0 -0.15922409650484359 0.2255475560397853 0 -0.17144823439391829 0.2141895330645725 0 -0.15922409650484359 0.2255475560397853 0 -0.15900733689739069 0.21062159977010589 0 -0.17144823439391829 0.2141895330645725 0 -0.15900733689739069 0.21062159977010589 0 -0.1653418357915476 0.2018213455952054 0 -0.15361129879784891 0.20139719057542019 0 -0.17144823439391829 0.2141895330645725 0 -0.17723797391968729 0.20390802022475071 0 -0.1653418357915476 0.2018213455952054 0 -0.15900733689739069 0.21062159977010589 0 -0.17144823439391829 0.2141895330645725 0 -0.1653418357915476 0.2018213455952054 0 -0.187650486280975 0.21451757224245291 0 -0.17144823439391829 0.2141895330645725 0 -0.17723797391968729 0.20390802022475071 0 -0.19005143880425829 0.1974548227072519 0 -0.187650486280975 0.21451757224245291 0 -0.17723797391968729 0.20390802022475071 0 -0.19005143880425829 0.1974548227072519 0 -0.17169787432773731 0.19155682751427069 0 -0.17752183765376101 0.1775748035498933 0 -0.19005143880425829 0.1974548227072519 0 -0.17723797391968729 0.20390802022475071 0 -0.17169787432773731 0.19155682751427069 0 -0.19005143880425829 0.1974548227072519 0 -0.17752183765376101 0.1775748035498933 0 -0.17169787432773731 0.19155682751427069 0 -0.1653418357915476 0.2018213455952054 0 -0.15791164184663151 0.19274793286901881 0 -0.17723797391968729 0.20390802022475071 0 -0.17169787432773731 0.19155682751427069 0 -0.1653418357915476 0.2018213455952054 0 -0.1653418357915476 0.2018213455952054 0 -0.15791164184663151 0.19274793286901881 0 -0.15361129879784891 0.20139719057542019 0 -0.17169787432773731 0.19155682751427069 0 -0.15791164184663151 0.19274793286901881 0 -0.16134243263699979 0.18146195783717889 0 -0.15791164184663151 0.19274793286901881 0 -0.15361129879784891 0.20139719057542019 0 -0.14754997702249989 0.19123102061556399 0 -0.15791164184663151 0.19274793286901881 0 -0.14754997702249989 0.19123102061556399 0 -0.15378055215212841 0.1853342336718547 0 -0.15361129879784891 0.20139719057542019 0 -0.144337775963609 0.20069921068637719 0 -0.14754997702249989 0.19123102061556399 0 -0.14754997702249989 0.19123102061556399 0 -0.13411435042981179 0.19106266128805069 0 -0.1463292802833521 0.18023770330257241 0 -0.144337775963609 0.20069921068637719 0 -0.14754997702249989 0.19123102061556399 0 -0.13411435042981179 0.19106266128805069 0 -0.13411435042981179 0.19106266128805069 0 -0.12967955466007261 0.2074258594294596 0 -0.1235431789710726 0.1969801993001162 0 -0.13411435042981179 0.19106266128805069 0 -0.13770187294137159 0.2043383794177894 0 -0.12967955466007261 0.2074258594294596 0 -0.144337775963609 0.20069921068637719 0 -0.13411435042981179 0.19106266128805069 0 -0.13770187294137159 0.2043383794177894 0 -0.13770187294137159 0.2043383794177894 0 -0.13855706597983281 0.21350408889879899 0 -0.14247480998137141 0.20718589651263181 0 -0.1364941099723872 0.21575153757660309 0 -0.120958802369795 0.22183359367242919 0 -0.11894773722242739 0.20818951851535461 0 -0.12967955466007261 0.2074258594294596 0 -0.1364941099723872 0.21575153757660309 0 -0.11894773722242739 0.20818951851535461 0 -0.13770187294137159 0.2043383794177894 0 -0.12967955466007261 0.2074258594294596 0 -0.13855706597983281 0.21350408889879899 0 -0.1364941099723872 0.21575153757660309 0 -0.11894773722242739 0.20818951851535461 0 -0.12967955466007261 0.2074258594294596 0 -0.1364941099723872 0.21575153757660309 0 -0.13855706597983281 0.21350408889879899 0 -0.1364941099723872 0.21575153757660309 0 -0.13855706597983281 0.21350408889879899 0 -0.15922409650484359 0.2255475560397853 0 -0.1364941099723872 0.21575153757660309 0 -0.13855706597983281 0.21350408889879899 0 -0.15922409650484359 0.2255475560397853 0 -0.13855706597983281 0.21350408889879899 0 -0.14930252504067221 0.21020190704756139 0 -0.13855706597983281 0.21350408889879899 0 -0.14247480998137141 0.20718589651263181 0 -0.14930252504067221 0.21020190704756139 0 -0.144337775963609 0.20069921068637719 0 -0.14247480998137141 0.20718589651263181 0 -0.14930252504067221 0.21020190704756139 0 -0.144337775963609 0.20069921068637719 0 -0.13770187294137159 0.2043383794177894 0 -0.14247480998137141 0.20718589651263181 0 -0.15900733689739069 0.21062159977010589 0 -0.15361129879784891 0.20139719057542019 0 -0.14930252504067221 0.21020190704756139 0 -0.15361129879784891 0.20139719057542019 0 -0.144337775963609 0.20069921068637719 0 -0.14930252504067221 0.21020190704756139 0 -0.15922409650484359 0.2255475560397853 0 -0.15900733689739069 0.21062159977010589 0 -0.14930252504067221 0.21020190704756139 0 -0.15922409650484359 0.2255475560397853 0 -0.13635804662702189 0.23039018670563211 0 -0.14207867318260539 0.23889574066385899 0 -0.15922409650484359 0.2255475560397853 0 -0.1364941099723872 0.21575153757660309 0 -0.13635804662702189 0.23039018670563211 0 -0.15922409650484359 0.2255475560397853 0 -0.1364941099723872 0.21575153757660309 0 -0.1364941099723872 0.21575153757660309 0 -0.13635804662702189 0.23039018670563211 0 -0.11673432752768111 0.2372784614512472 0 -0.1364941099723872 0.21575153757660309 0 -0.11673432752768111 0.2372784614512472 0 -0.13635804662702189 0.23039018670563211 0 -0.12961957513534 0.23973743310435161 0 -0.11673432752768111 0.2372784614512472 0 -0.13635804662702189 0.23039018670563211 0 -0.12961957513534 0.23973743310435161 0 -0.14207867318260539 0.23889574066385899 0 -0.12961957513534 0.23973743310435161 0 -0.13357218109292621 0.2499317644564327 0 -0.1213089330464012 0.24626659804535689 0 -0.12961957513534 0.23973743310435161 0 -0.13357218109292621 0.2499317644564327 0 -0.14207867318260539 0.23889574066385899 0 -0.14746997276257359 0.25293699741112718 0 -0.13357218109292621 0.2499317644564327 0 -0.14207867318260539 0.23889574066385899 0 -0.15922409650484359 0.2255475560397853 0 -0.14207867318260539 0.23889574066385899 0 -0.155242522585569 0.24016045739440639 0 -0.14746997276257359 0.25293699741112718 0 -0.14207867318260539 0.23889574066385899 0 -0.155242522585569 0.24016045739440639 0 -0.16225317791305921 0.25358582624422438 0 -0.14746997276257359 0.25293699741112718 0 -0.155242522585569 0.24016045739440639 0 -0.166988808872575 0.14091924592242799 0 -0.1736883691443292 0.1501381655411517 0 -0.1666646902223726 0.16034837340756511 0 -0.166988808872575 0.14091924592242799 0 -0.1666646902223726 0.16034837340756511 0 -0.15580754279098399 0.143121943265237 0 -0.1666646902223726 0.16034837340756511 0 -0.1549726550285947 0.15674585516748279 0 -0.15580754279098399 0.143121943265237 0 -0.1666646902223726 0.16034837340756511 0 -0.15580754279098399 0.143121943265237 0 -0.1628447509754036 0.1248738178506951 0 -0.166988808872575 0.14091924592242799 0 -0.17824709647023271 0.1379937977022469 0 -0.1628447509754036 0.1248738178506951 0 -0.166988808872575 0.14091924592242799 0 -0.15580754279098399 0.143121943265237 0 -0.18039056500006781 0.12121373119240569 0 -0.1628447509754036 0.1248738178506951 0 -0.17824709647023271 0.1379937977022469 0 -0.19563802519160789 0.13807458821396759 0 -0.17824709647023271 0.1379937977022469 0 -0.18706065072040501 0.14468661846275019 0 -0.18039056500006781 0.12121373119240569 0 -0.19563802519160789 0.13807458821396759 0 -0.17824709647023271 0.1379937977022469 0 -0.17824709647023271 0.1379937977022469 0 -0.18706065072040501 0.14468661846275019 0 -0.1811623126986891 0.14793864394101769 0 -0.166988808872575 0.14091924592242799 0 -0.17824709647023271 0.1379937977022469 0 -0.1736883691443292 0.1501381655411517 0 -0.17824709647023271 0.1379937977022469 0 -0.1811623126986891 0.14793864394101769 0 -0.1736883691443292 0.1501381655411517 0 -0.1811623126986891 0.14793864394101769 0 -0.1736883691443292 0.1501381655411517 0 -0.17666515903818969 0.15970684649729899 0 -0.1811623126986891 0.14793864394101769 0 -0.1852646507768699 0.1545619776798173 0 -0.17666515903818969 0.15970684649729899 0 -0.18706065072040501 0.14468661846275019 0 -0.1811623126986891 0.14793864394101769 0 -0.1852646507768699 0.1545619776798173 0 -0.17752183765376101 0.1775748035498933 0 -0.1666646902223726 0.16034837340756511 0 -0.1927705130470404 0.15866088515044 0 -0.1852646507768699 0.1545619776798173 0 -0.18413510522225521 0.16259499244525211 0 -0.17666515903818969 0.15970684649729899 0 -0.17752183765376101 0.1775748035498933 0 -0.1666646902223726 0.16034837340756511 0 -0.1852646507768699 0.1545619776798173 0 -0.18413510522225521 0.16259499244525211 0 -0.17666515903818969 0.15970684649729899 0 -0.18413510522225521 0.16259499244525211 0 -0.17666515903818969 0.15970684649729899 0 -0.17752183765376101 0.1775748035498933 0 -0.19038698318195549 0.16711234260031069 0 -0.18413510522225521 0.16259499244525211 0 -0.17752183765376101 0.1775748035498933 0 -0.1736883691443292 0.1501381655411517 0 -0.17666515903818969 0.15970684649729899 0 -0.1666646902223726 0.16034837340756511 0 -0.17169787432773731 0.19155682751427069 0 -0.17752183765376101 0.1775748035498933 0 -0.16134243263699979 0.18146195783717889 0 -0.17752183765376101 0.1775748035498933 0 -0.160166055014445 0.16782332876165751 0 -0.17752183765376101 0.1775748035498933 0 -0.16134243263699979 0.18146195783717889 0 -0.160166055014445 0.16782332876165751 0 -0.16134243263699979 0.18146195783717889 0 -0.160166055014445 0.16782332876165751 0 -0.1543363168372556 0.17604552304072019 0 -0.16134243263699979 0.18146195783717889 0 -0.15378055215212841 0.1853342336718547 0 -0.1543363168372556 0.17604552304072019 0 -0.15791164184663151 0.19274793286901881 0 -0.16134243263699979 0.18146195783717889 0 -0.15378055215212841 0.1853342336718547 0 -0.17752183765376101 0.1775748035498933 0 -0.1666646902223726 0.16034837340756511 0 -0.160166055014445 0.16782332876165751 0 -0.1666646902223726 0.16034837340756511 0 -0.160166055014445 0.16782332876165751 0 -0.1549726550285947 0.15674585516748279 0 -0.160166055014445 0.16782332876165751 0 -0.1549726550285947 0.15674585516748279 0 -0.14281027237512919 0.15807185397342149 0 -0.160166055014445 0.16782332876165751 0 -0.14281027237512919 0.15807185397342149 0 -0.160166055014445 0.16782332876165751 0 -0.1483000089644074 0.1706867490983929 0 -0.14281027237512919 0.15807185397342149 0 -0.160166055014445 0.16782332876165751 0 -0.1483000089644074 0.1706867490983929 0 -0.1543363168372556 0.17604552304072019 0 -0.1483000089644074 0.1706867490983929 0 -0.14281027237512919 0.15807185397342149 0 -0.13856119746919621 0.1732320213376258 0 -0.14754997702249989 0.19123102061556399 0 -0.15378055215212841 0.1853342336718547 0 -0.1463292802833521 0.18023770330257241 0 -0.15378055215212841 0.1853342336718547 0 -0.1543363168372556 0.17604552304072019 0 -0.1463292802833521 0.18023770330257241 0 -0.1483000089644074 0.1706867490983929 0 -0.1543363168372556 0.17604552304072019 0 -0.1463292802833521 0.18023770330257241 0 -0.1483000089644074 0.1706867490983929 0 -0.1463292802833521 0.18023770330257241 0 -0.13856119746919621 0.1732320213376258 0 -0.13411435042981179 0.19106266128805069 0 -0.13856119746919621 0.1732320213376258 0 -0.12609153575556739 0.16924223779836581 0 -0.13411435042981179 0.19106266128805069 0 -0.12609153575556739 0.16924223779836581 0 -0.1152399272795421 0.1851742901109647 0 -0.13411435042981179 0.19106266128805069 0 -0.1463292802833521 0.18023770330257241 0 -0.13856119746919621 0.1732320213376258 0 -0.14281027237512919 0.15807185397342149 0 -0.12609153575556739 0.16924223779836581 0 -0.135520965557581 0.14756887546063741 0 -0.12609153575556739 0.16924223779836581 0 -0.135520965557581 0.14756887546063741 0 -0.14281027237512919 0.15807185397342149 0 -0.13856119746919621 0.1732320213376258 0 -0.12609153575556739 0.16924223779836581 0 -0.135520965557581 0.14756887546063741 0 -0.13028426483969929 0.13221647237215789 0 -0.1192914655824909 0.15059360814623801 0 -0.12609153575556739 0.16924223779836581 0 -0.135520965557581 0.14756887546063741 0 -0.1192914655824909 0.15059360814623801 0 -0.1549726550285947 0.15674585516748279 0 -0.14281027237512919 0.15807185397342149 0 -0.14652630769324659 0.14708303210739521 0 -0.14281027237512919 0.15807185397342149 0 -0.135520965557581 0.14756887546063741 0 -0.14652630769324659 0.14708303210739521 0 -0.1549726550285947 0.15674585516748279 0 -0.14652630769324659 0.14708303210739521 0 -0.15580754279098399 0.143121943265237 0 -0.1628447509754036 0.1248738178506951 0 -0.15580754279098399 0.143121943265237 0 -0.14495039535959489 0.12589551312290931 0 -0.135520965557581 0.14756887546063741 0 -0.14652630769324659 0.14708303210739521 0 -0.14495039535959489 0.12589551312290931 0 -0.15580754279098399 0.143121943265237 0 -0.14495039535959489 0.12589551312290931 0 -0.14652630769324659 0.14708303210739521 0 -0.15580754279098399 0.143121943265237 0 -0.14495039535959489 0.12589551312290931 0 -0.135520965557581 0.14756887546063741 0 -0.14495039535959489 0.12589551312290931 0 -0.135520965557581 0.14756887546063741 0 -0.14495039535959489 0.12589551312290931 0 -0.13028426483969929 0.13221647237215789 0 -0.13028426483969929 0.13221647237215789 0 -0.1131006250587715 0.12959615498317961 0 -0.1192914655824909 0.15059360814623801 0 -0.1131006250587715 0.12959615498317961 0 -0.10078539792307099 0.15464240809582361 0 -0.092802426943272898 0.12960292979422991 0 -0.1131006250587715 0.12959615498317961 0 -0.10078539792307099 0.15464240809582361 0 -0.1192914655824909 0.15059360814623801 0 -0.10078539792307099 0.15464240809582361 0 -0.1192914655824909 0.15059360814623801 0 -0.10897534263953949 0.16967833346669081 0 -0.12609153575556739 0.16924223779836581 0 -0.1192914655824909 0.15059360814623801 0 -0.10897534263953949 0.16967833346669081 0 -0.12609153575556739 0.16924223779836581 0 -0.1152399272795421 0.1851742901109647 0 -0.10897534263953949 0.16967833346669081 0 -0.1152399272795421 0.1851742901109647 0 -0.098409264142157865 0.1851788001203086 0 -0.10897534263953949 0.16967833346669081 0 -0.098409264142157865 0.1851788001203086 0 -0.10897534263953949 0.16967833346669081 0 -0.082277471490505807 0.17420718144711089 0 -0.10078539792307099 0.15464240809582361 0 -0.10897534263953949 0.16967833346669081 0 -0.082277471490505807 0.17420718144711089 0 -0.10078539792307099 0.15464240809582361 0 -0.082277471490505807 0.17420718144711089 0 -0.082277471490505807 0.17420718144711089 0 -0.065615427061545384 0.16058384892905991 0 -0.074642854581774637 0.14147916649728479 0 -0.10078539792307099 0.15464240809582361 0 -0.082277471490505807 0.17420718144711089 0 -0.074642854581774637 0.14147916649728479 0 -0.098409264142157865 0.1851788001203086 0 -0.082277471490505807 0.17420718144711089 0 -0.084152214828733252 0.19620669612267311 0 -0.082277471490505807 0.17420718144711089 0 -0.063769545057940663 0.19377195479839809 0 -0.082277471490505807 0.17420718144711089 0 -0.063769545057940663 0.19377195479839809 0 -0.051824687549248197 0.17345858692208871 0 -0.082277471490505807 0.17420718144711089 0 -0.065615427061545384 0.16058384892905991 0 -0.051824687549248197 0.17345858692208871 0 -0.074642854581774637 0.14147916649728479 0 -0.055186524828957063 0.1281687789626855 0 -0.07438317581125764 0.1124407737129243 0 -0.074642854581774637 0.14147916649728479 0 -0.092802426943272898 0.12960292979422991 0 -0.07438317581125764 0.1124407737129243 0 -0.10078539792307099 0.15464240809582361 0 -0.074642854581774637 0.14147916649728479 0 -0.092802426943272898 0.12960292979422991 0 -0.10058650277722481 0.24229521027045481 0 -0.11673432752768111 0.2372784614512472 0 -0.1053270170515283 0.2324499666522013 0 -0.096974545082976191 0.25880538532589209 0 -0.10058650277722481 0.24229521027045481 0 -0.088715331182393942 0.2449718195011524 0 -0.096974545082976191 0.25880538532589209 0 -0.10058650277722481 0.24229521027045481 0 -0.11673432752768111 0.2372784614512472 0 -0.096974545082976191 0.25880538532589209 0 -0.112097455783086 0.24444379951602521 0 -0.11673432752768111 0.2372784614512472 0 -0.096974545082976191 0.25880538532589209 0 -0.11673432752768111 0.2372784614512472 0 -0.10058650277722481 0.24229521027045481 0 -0.091983872440322634 0.23323291704093771 0 -0.088715331182393942 0.2449718195011524 0 -0.10058650277722481 0.24229521027045481 0 -0.1053270170515283 0.2324499666522013 0 -0.091983872440322634 0.23323291704093771 0 -0.11521273165378559 0.25497892835963998 0 -0.112097455783086 0.24444379951602521 0 -0.1213089330464012 0.24626659804535689 0 -0.112097455783086 0.24444379951602521 0 -0.1213089330464012 0.24626659804535689 0 -0.11673432752768111 0.2372784614512472 0 -0.12961957513534 0.23973743310435161 0 -0.1213089330464012 0.24626659804535689 0 -0.11673432752768111 0.2372784614512472 0 -0.11673432752768111 0.2372784614512472 0 -0.111977792011399 0.2261119040305537 0 -0.1053270170515283 0.2324499666522013 0 -0.1364941099723872 0.21575153757660309 0 -0.11673432752768111 0.2372784614512472 0 -0.120958802369795 0.22183359367242919 0 -0.11673432752768111 0.2372784614512472 0 -0.120958802369795 0.22183359367242919 0 -0.111977792011399 0.2261119040305537 0 -0.120958802369795 0.22183359367242919 0 -0.111977792011399 0.2261119040305537 0 -0.11263418842693861 0.21654350143059611 0 -0.111977792011399 0.2261119040305537 0 -0.1027476190553803 0.22153268259517769 0 -0.11263418842693861 0.21654350143059611 0 -0.1027476190553803 0.22153268259517769 0 -0.088008266818085573 0.21525264443096179 0 -0.091983872440322634 0.23323291704093771 0 -0.111977792011399 0.2261119040305537 0 -0.1027476190553803 0.22153268259517769 0 -0.1053270170515283 0.2324499666522013 0 -0.1027476190553803 0.22153268259517769 0 -0.1053270170515283 0.2324499666522013 0 -0.091983872440322634 0.23323291704093771 0 -0.1027476190553803 0.22153268259517769 0 -0.1014013644724687 0.20062749945410349 0 -0.088008266818085573 0.21525264443096179 0 -0.1027476190553803 0.22153268259517769 0 -0.11263418842693861 0.21654350143059611 0 -0.1014013644724687 0.20062749945410349 0 -0.11263418842693861 0.21654350143059611 0 -0.11894773722242739 0.20818951851535461 0 -0.1014013644724687 0.20062749945410349 0 -0.11894773722242739 0.20818951851535461 0 -0.1014013644724687 0.20062749945410349 0 -0.120958802369795 0.22183359367242919 0 -0.11263418842693861 0.21654350143059611 0 -0.11894773722242739 0.20818951851535461 0 -0.12967955466007261 0.2074258594294596 0 -0.11894773722242739 0.20818951851535461 0 -0.1235431789710726 0.1969801993001162 0 -0.11894773722242739 0.20818951851535461 0 -0.1235431789710726 0.1969801993001162 0 -0.1014013644724687 0.20062749945410349 0 -0.13411435042981179 0.19106266128805069 0 -0.1152399272795421 0.1851742901109647 0 -0.1235431789710726 0.1969801993001162 0 -0.1152399272795421 0.1851742901109647 0 -0.1235431789710726 0.1969801993001162 0 -0.1014013644724687 0.20062749945410349 0 -0.1152399272795421 0.1851742901109647 0 -0.098409264142157865 0.1851788001203086 0 -0.1014013644724687 0.20062749945410349 0 -0.098409264142157865 0.1851788001203086 0 -0.1014013644724687 0.20062749945410349 0 -0.084152214828733252 0.19620669612267311 0 -0.084152214828733252 0.19620669612267311 0 -0.063769545057940663 0.19377195479839809 0 -0.072142849724606259 0.2099260872470029 0 -0.082277471490505807 0.17420718144711089 0 -0.084152214828733252 0.19620669612267311 0 -0.063769545057940663 0.19377195479839809 0 -0.072142849724606259 0.2099260872470029 0 -0.088008266818085573 0.21525264443096179 0 -0.068407602306599244 0.22780678473085289 0 -0.084152214828733252 0.19620669612267311 0 -0.072142849724606259 0.2099260872470029 0 -0.088008266818085573 0.21525264443096179 0 -0.1014013644724687 0.20062749945410349 0 -0.084152214828733252 0.19620669612267311 0 -0.088008266818085573 0.21525264443096179 0 -0.091983872440322634 0.23323291704093771 0 -0.068407602306599244 0.22780678473085289 0 -0.080478212985736569 0.23984126859451149 0 -0.088008266818085573 0.21525264443096179 0 -0.091983872440322634 0.23323291704093771 0 -0.068407602306599244 0.22780678473085289 0 -0.073553522625709841 0.25068431627396631 0 -0.068407602306599244 0.22780678473085289 0 -0.080478212985736569 0.23984126859451149 0 -0.073553522625709841 0.25068431627396631 0 -0.068407602306599244 0.22780678473085289 0 -0.050132500168443887 0.2425632472220397 0 -0.073553522625709841 0.25068431627396631 0 -0.080478212985736569 0.23984126859451149 0 -0.088715331182393942 0.2449718195011524 0 -0.091983872440322634 0.23323291704093771 0 -0.080478212985736569 0.23984126859451149 0 -0.088715331182393942 0.2449718195011524 0 -0.050132500168443887 0.2425632472220397 0 -0.026711477711177899 0.23444217817011309 0 -0.029881977245259539 0.25372898958001938 0 -0.050132500168443887 0.2425632472220397 0 -0.026711477711177899 0.23444217817011309 0 -0.050132500168443887 0.2425632472220397 0 -0.042100384295285467 0.22888272761933071 0 -0.026711477711177899 0.23444217817011309 0 -0.073553522625709841 0.25068431627396631 0 -0.050132500168443887 0.2425632472220397 0 -0.068407602306599244 0.22780678473085289 0 -0.050132500168443887 0.2425632472220397 0 -0.042100384295285467 0.22888272761933071 0 -0.068407602306599244 0.22780678473085289 0 -0.042100384295285467 0.22888272761933071 0 -0.045261618625375449 0.21333672814968549 0 -0.045261618625375449 0.21333672814968549 0 -0.02675369219281019 0.23290150150097291 0 -0.045261618625375449 0.21333672814968549 0 -0.02772339752401377 0.22169904798743939 0 -0.02675369219281019 0.23290150150097291 0 -0.042100384295285467 0.22888272761933071 0 -0.045261618625375449 0.21333672814968549 0 -0.02675369219281019 0.23290150150097291 0 -0.042100384295285467 0.22888272761933071 0 -0.02675369219281019 0.23290150150097291 0 -0.026711477711177899 0.23444217817011309 0 -0.045261618625375449 0.21333672814968549 0 -0.025983012380334781 0.2115930184476672 0 -0.02772339752401377 0.22169904798743939 0 -0.045261618625375449 0.21333672814968549 0 -0.029252980350323681 0.1977376245802884 0 -0.025983012380334781 0.2115930184476672 0 -0.063769545057940663 0.19377195479839809 0 -0.045261618625375449 0.21333672814968549 0 -0.063769545057940663 0.19377195479839809 0 -0.072142849724606259 0.2099260872470029 0 -0.045261618625375449 0.21333672814968549 0 -0.072142849724606259 0.2099260872470029 0 -0.068407602306599244 0.22780678473085289 0 -0.045261618625375449 0.21333672814968549 0 -0.063769545057940663 0.19377195479839809 0 -0.045261618625375449 0.21333672814968549 0 -0.041349789320347038 0.18749549167170951 0 -0.029252980350323681 0.1977376245802884 0 -0.041349789320347038 0.18749549167170951 0 -0.02440704960050057 0.1813667693045137 0 -0.045261618625375449 0.21333672814968549 0 -0.029252980350323681 0.1977376245802884 0 -0.041349789320347038 0.18749549167170951 0 -0.029252980350323681 0.1977376245802884 0 -0.01949536222664228 0.1923427933584827 0 -0.02440704960050057 0.1813667693045137 0 -0.029252980350323681 0.1977376245802884 0 -0.019383630886315679 0.20246845033521829 0 -0.01949536222664228 0.1923427933584827 0 -0.019383630886315679 0.20246845033521829 0 -0.01949536222664228 0.1923427933584827 0 -0.011799668219416901 0.19617813045667529 0 -0.01949536222664228 0.1923427933584827 0 -0.011799668219416901 0.19617813045667529 0 -0.0099503170468955675 0.185467411183286 0 -0.0047591026019954026 0.19332022418589959 0 -0.011799668219416901 0.19617813045667529 0 -0.0099503170468955675 0.185467411183286 0 -0.0047591026019954026 0.19332022418589959 0 -0.003081975793268537 0.18782002811878001 0 -0.0099503170468955675 0.185467411183286 0 -0.0047591026019954026 0.19332022418589959 0 -2.3422743153838069e-05 0.1988005567515452 0 0.0015327128313205251 0.1915709431207247 0 -0.0047591026019954026 0.19332022418589959 0 -0.003081975793268537 0.18782002811878001 0 0.0015327128313205251 0.1915709431207247 0 -2.3422743153838069e-05 0.1988005567515452 0 -0.0064134676939889088 0.1997865992100484 0 -0.0042090490499692894 0.20625736901624969 0 -0.0047591026019954026 0.19332022418589959 0 -2.3422743153838069e-05 0.1988005567515452 0 -0.0064134676939889088 0.1997865992100484 0 -0.0047591026019954026 0.19332022418589959 0 -0.0064134676939889088 0.1997865992100484 0 -0.011799668219416901 0.19617813045667529 0 -0.019383630886315679 0.20246845033521829 0 -0.011799668219416901 0.19617813045667529 0 -0.01127609585540912 0.20437671563987239 0 -0.0064134676939889088 0.1997865992100484 0 -0.011799668219416901 0.19617813045667529 0 -0.01127609585540912 0.20437671563987239 0 -0.019383630886315679 0.20246845033521829 0 -0.01127609585540912 0.20437671563987239 0 -0.015975625416527989 0.21106072298800291 0 -0.0098363755348389904 0.2097806401996784 0 -0.01127609585540912 0.20437671563987239 0 -0.015975625416527989 0.21106072298800291 0 -0.0098363755348389904 0.2097806401996784 0 -0.01127609585540912 0.20437671563987239 0 -0.0042090490499692894 0.20625736901624969 0 -0.0042090490499692894 0.20625736901624969 0 0.00083142932333707279 0.21381627434491049 0 0.0029581381265264858 0.20519393183106241 0 -0.0064134676939889088 0.1997865992100484 0 -0.01127609585540912 0.20437671563987239 0 -0.0042090490499692894 0.20625736901624969 0 -0.0098363755348389904 0.2097806401996784 0 -0.0042090490499692894 0.20625736901624969 0 -0.0060196598873338584 0.21321125444391051 0 -2.3422743153838069e-05 0.1988005567515452 0 -0.0042090490499692894 0.20625736901624969 0 0.0029581381265264858 0.20519393183106241 0 -0.0055559642639475869 0.21913689448513271 0 0.0001093474821353509 0.22215689039817851 0 0.00083142932333707279 0.21381627434491049 0 -0.0060196598873338584 0.21321125444391051 0 -0.0055559642639475869 0.21913689448513271 0 0.00083142932333707279 0.21381627434491049 0 -0.0042090490499692894 0.20625736901624969 0 -0.0060196598873338584 0.21321125444391051 0 0.00083142932333707279 0.21381627434491049 0 -0.0060196598873338584 0.21321125444391051 0 -0.01091493828254137 0.21625783395607551 0 -0.0055559642639475869 0.21913689448513271 0 -0.01091493828254137 0.21625783395607551 0 -0.015975625416527989 0.21106072298800291 0 -0.017588491814277241 0.22188462813269769 0 -0.0098363755348389904 0.2097806401996784 0 -0.0060196598873338584 0.21321125444391051 0 -0.01091493828254137 0.21625783395607551 0 -0.0098363755348389904 0.2097806401996784 0 -0.01091493828254137 0.21625783395607551 0 -0.015975625416527989 0.21106072298800291 0 -0.015975625416527989 0.21106072298800291 0 -0.025983012380334781 0.2115930184476672 0 -0.017588491814277241 0.22188462813269769 0 -0.019383630886315679 0.20246845033521829 0 -0.015975625416527989 0.21106072298800291 0 -0.025983012380334781 0.2115930184476672 0 -0.029252980350323681 0.1977376245802884 0 -0.019383630886315679 0.20246845033521829 0 -0.025983012380334781 0.2115930184476672 0 -0.025983012380334781 0.2115930184476672 0 -0.02772339752401377 0.22169904798743939 0 -0.017588491814277241 0.22188462813269769 0 -0.02772339752401377 0.22169904798743939 0 -0.02675369219281019 0.23290150150097291 0 -0.022352419066048221 0.22652947853539249 0 -0.02675369219281019 0.23290150150097291 0 -0.017344094733091689 0.22963273652046001 0 -0.01246950101347712 0.23792538229425519 0 -0.02675369219281019 0.23290150150097291 0 -0.017344094733091689 0.22963273652046001 0 -0.022352419066048221 0.22652947853539249 0 -0.017344094733091689 0.22963273652046001 0 -0.017588491814277241 0.22188462813269769 0 -0.01350500053265637 0.2263729039251991 0 -0.017344094733091689 0.22963273652046001 0 -0.022352419066048221 0.22652947853539249 0 -0.017588491814277241 0.22188462813269769 0 -0.02772339752401377 0.22169904798743939 0 -0.022352419066048221 0.22652947853539249 0 -0.017588491814277241 0.22188462813269769 0 -0.01091493828254137 0.21625783395607551 0 -0.017588491814277241 0.22188462813269769 0 -0.01009356448405245 0.2229710377255022 0 -0.017588491814277241 0.22188462813269769 0 -0.01350500053265637 0.2263729039251991 0 -0.01009356448405245 0.2229710377255022 0 -0.01091493828254137 0.21625783395607551 0 -0.01009356448405245 0.2229710377255022 0 -0.0055559642639475869 0.21913689448513271 0 -0.01009356448405245 0.2229710377255022 0 -0.0055559642639475869 0.21913689448513271 0 -0.0046023563546483629 0.22639127835839259 0 -0.0055559642639475869 0.21913689448513271 0 -0.0046023563546483629 0.22639127835839259 0 0.0001093474821353509 0.22215689039817851 0 -0.0046023563546483629 0.22639127835839259 0 0.0010433620948100131 0.23240638127880581 0 0.0001093474821353509 0.22215689039817851 0 -0.0046023563546483629 0.22639127835839259 0 -0.0089938510992040935 0.23100321332213661 0 0.0010433620948100131 0.23240638127880581 0 -0.017344094733091689 0.22963273652046001 0 -0.0089938510992040935 0.23100321332213661 0 -0.01246950101347712 0.23792538229425519 0 -0.01009356448405245 0.2229710377255022 0 -0.0046023563546483629 0.22639127835839259 0 -0.0089938510992040935 0.23100321332213661 0 -0.017344094733091689 0.22963273652046001 0 -0.01350500053265637 0.2263729039251991 0 -0.0089938510992040935 0.23100321332213661 0 -0.01350500053265637 0.2263729039251991 0 -0.01009356448405245 0.2229710377255022 0 -0.0089938510992040935 0.23100321332213661 0 -0.0089938510992040935 0.23100321332213661 0 -0.001965278602122185 0.24182690426762959 0 0.0010433620948100131 0.23240638127880581 0 -0.0089938510992040935 0.23100321332213661 0 -0.01246950101347712 0.23792538229425519 0 -0.001965278602122185 0.24182690426762959 0 -0.0082457657602449386 0.25246627485226031 0 -0.01246950101347712 0.23792538229425519 0 -0.001965278602122185 0.24182690426762959 0 -0.0082457657602449386 0.25246627485226031 0 -0.02675369219281019 0.23290150150097291 0 -0.01246950101347712 0.23792538229425519 0 -0.029881977245259539 0.25372898958001938 0 -0.0082457657602449386 0.25246627485226031 0 -0.026711477711177899 0.23444217817011309 0 -0.0082457657602449386 0.25246627485226031 0 -0.02675369219281019 0.23290150150097291 0 -0.026711477711177899 0.23444217817011309 0 -0.0082457657602449386 0.25246627485226031 0 -0.02675369219281019 0.23290150150097291 0 -0.046893106203257602 0.1507880314475378 0 -0.033582854738693747 0.16530128627528251 0 -0.03096555907766051 0.14775731769023701 0 -0.035508455794597132 0.13046501110523001 0 -0.046893106203257602 0.1507880314475378 0 -0.03096555907766051 0.14775731769023701 0 -0.035508455794597132 0.13046501110523001 0 -0.046893106203257602 0.1507880314475378 0 -0.035508455794597132 0.13046501110523001 0 -0.055186524828957063 0.1281687789626855 0 -0.046893106203257602 0.1507880314475378 0 -0.035508455794597132 0.13046501110523001 0 -0.055186524828957063 0.1281687789626855 0 -0.04045215309894238 0.1165912735558266 0 -0.074642854581774637 0.14147916649728479 0 -0.055186524828957063 0.1281687789626855 0 -0.046893106203257602 0.1507880314475378 0 -0.065615427061545384 0.16058384892905991 0 -0.074642854581774637 0.14147916649728479 0 -0.046893106203257602 0.1507880314475378 0 -0.065615427061545384 0.16058384892905991 0 -0.046893106203257602 0.1507880314475378 0 -0.051824687549248197 0.17345858692208871 0 -0.063769545057940663 0.19377195479839809 0 -0.051824687549248197 0.17345858692208871 0 -0.041349789320347038 0.18749549167170951 0 -0.041349789320347038 0.18749549167170951 0 -0.033582854738693747 0.16530128627528251 0 -0.02440704960050057 0.1813667693045137 0 -0.051824687549248197 0.17345858692208871 0 -0.041349789320347038 0.18749549167170951 0 -0.033582854738693747 0.16530128627528251 0 -0.046893106203257602 0.1507880314475378 0 -0.051824687549248197 0.17345858692208871 0 -0.033582854738693747 0.16530128627528251 0 -0.033582854738693747 0.16530128627528251 0 -0.022139091883514501 0.16815071126606429 0 -0.02440704960050057 0.1813667693045137 0 -0.033582854738693747 0.16530128627528251 0 -0.022139091883514501 0.16815071126606429 0 -0.016648491277264341 0.15771365056650341 0 -0.033582854738693747 0.16530128627528251 0 -0.016648491277264341 0.15771365056650341 0 -0.03096555907766051 0.14775731769023701 0 -0.022139091883514501 0.16815071126606429 0 -0.02440704960050057 0.1813667693045137 0 -0.01283771780100665 0.17547196173435681 0 -0.01949536222664228 0.1923427933584827 0 -0.02440704960050057 0.1813667693045137 0 -0.0099503170468955675 0.185467411183286 0 -0.02440704960050057 0.1813667693045137 0 -0.0099503170468955675 0.185467411183286 0 -0.01283771780100665 0.17547196173435681 0 -0.0099503170468955675 0.185467411183286 0 -0.01283771780100665 0.17547196173435681 0 -0.00450206117857799 0.17688747855202069 0 -0.01283771780100665 0.17547196173435681 0 -0.00450206117857799 0.17688747855202069 0 -0.0026654791677323511 0.16604552865166611 0 -0.00450206117857799 0.17688747855202069 0 -0.0026654791677323511 0.16604552865166611 0 0.0024081860720475369 0.17557227428335351 0 -0.00450206117857799 0.17688747855202069 0 0.00053502205069707774 0.18188021690744111 0 0.0024081860720475369 0.17557227428335351 0 -0.0099503170468955675 0.185467411183286 0 -0.00450206117857799 0.17688747855202069 0 0.00053502205069707774 0.18188021690744111 0 -0.003081975793268537 0.18782002811878001 0 -0.0099503170468955675 0.185467411183286 0 0.00053502205069707774 0.18188021690744111 0 -0.022139091883514501 0.16815071126606429 0 -0.016648491277264341 0.15771365056650341 0 -0.0026654791677323511 0.16604552865166611 0 -0.022139091883514501 0.16815071126606429 0 -0.01283771780100665 0.17547196173435681 0 -0.0026654791677323511 0.16604552865166611 0 -0.016648491277264341 0.15771365056650341 0 -0.0026654791677323511 0.16604552865166611 0 0.00151890392611572 0.15456094484017679 0 -0.016648491277264341 0.15771365056650341 0 -0.0026654791677323511 0.16604552865166611 0 -0.0082797250895681185 0.13474448294352481 0 0.00151890392611572 0.15456094484017679 0 -0.016648491277264341 0.15771365056650341 0 -0.0082797250895681185 0.13474448294352481 0 0.00151890392611572 0.15456094484017679 0 -0.016648491277264341 0.15771365056650341 0 -0.03096555907766051 0.14775731769023701 0 -0.022194887374489752 0.13451860905663129 0 -0.016648491277264341 0.15771365056650341 0 -0.022194887374489752 0.13451860905663129 0 -0.0082797250895681185 0.13474448294352481 0 -0.035508455794597132 0.13046501110523001 0 -0.03096555907766051 0.14775731769023701 0 -0.022194887374489752 0.13451860905663129 0 -0.035508455794597132 0.13046501110523001 0 -0.022194887374489752 0.13451860905663129 0 -0.02222625157844095 0.1227088344756834 0 -0.022194887374489752 0.13451860905663129 0 -0.012678773622269129 0.1213748672570316 0 -0.02222625157844095 0.1227088344756834 0 -0.022194887374489752 0.13451860905663129 0 -0.0082797250895681185 0.13474448294352481 0 -0.012678773622269129 0.1213748672570316 0 -0.0082797250895681185 0.13474448294352481 0 -0.012678773622269129 0.1213748672570316 0 0.0010393500416724941 0.12595831854165979 0 -0.012678773622269129 0.1213748672570316 0 -0.0069683050282923539 0.11495619240176071 0 0.0010393500416724941 0.12595831854165979 0 -0.0069683050282923539 0.11495619240176071 0 0.00039794405216867472 0.112072386291362 0 0.0010393500416724941 0.12595831854165979 0 -0.012678773622269129 0.1213748672570316 0 -0.012248850971573841 0.1125208075020822 0 -0.01744198128355802 0.11503771634109559 0 -0.012678773622269129 0.1213748672570316 0 -0.012248850971573841 0.1125208075020822 0 -0.0069683050282923539 0.11495619240176071 0 -0.012248850971573841 0.1125208075020822 0 -0.0069683050282923539 0.11495619240176071 0 -0.0083997351711877014 0.10895079227570641 0 -0.0069683050282923539 0.11495619240176071 0 -0.0083997351711877014 0.10895079227570641 0 0.00039794405216867472 0.112072386291362 0 -0.011506603279544361 0.087618711973773578 0 0.0058206420146291954 0.1114089238878985 0 0.00039794405216867472 0.112072386291362 0 -0.015837719346710199 0.095350294128549784 0 -0.011506603279544361 0.087618711973773578 0 0.00039794405216867472 0.112072386291362 0 -0.011506603279544361 0.087618711973773578 0 0.0058206420146291954 0.1114089238878985 0 -0.015837719346710199 0.095350294128549784 0 0.00039794405216867472 0.112072386291362 0 -0.0083997351711877014 0.10895079227570641 0 -0.015837719346710199 0.095350294128549784 0 0.00039794405216867472 0.112072386291362 0 -0.011506603279544361 0.087618711973773578 0 0.0017142141577850001 0.096485027642689541 0 0.0058206420146291954 0.1114089238878985 0 -0.0083997351711877014 0.10895079227570641 0 -0.013221823848225379 0.1065091018144344 0 -0.015837719346710199 0.095350294128549784 0 -0.012248850971573841 0.1125208075020822 0 -0.0083997351711877014 0.10895079227570641 0 -0.013221823848225379 0.1065091018144344 0 -0.012248850971573841 0.1125208075020822 0 -0.013221823848225379 0.1065091018144344 0 -0.017997844109414411 0.1087655018954708 0 -0.017997844109414411 0.1087655018954708 0 -0.015837719346710199 0.095350294128549784 0 -0.024123805385937312 0.11014199076292169 0 -0.013221823848225379 0.1065091018144344 0 -0.017997844109414411 0.1087655018954708 0 -0.015837719346710199 0.095350294128549784 0 -0.024123805385937312 0.11014199076292169 0 -0.032300333499350402 0.090057470672271281 0 -0.015837719346710199 0.095350294128549784 0 -0.024123805385937312 0.11014199076292169 0 -0.032300333499350402 0.090057470672271281 0 -0.015837719346710199 0.095350294128549784 0 -0.024123805385937312 0.11014199076292169 0 -0.035508455794597132 0.13046501110523001 0 -0.024123805385937312 0.11014199076292169 0 -0.023307159817290739 0.1121479686184283 0 -0.035508455794597132 0.13046501110523001 0 -0.02222625157844095 0.1227088344756834 0 -0.023307159817290739 0.1121479686184283 0 -0.035508455794597132 0.13046501110523001 0 -0.024123805385937312 0.11014199076292169 0 -0.024123805385937312 0.11014199076292169 0 -0.023307159817290739 0.1121479686184283 0 -0.012678773622269129 0.1213748672570316 0 -0.02222625157844095 0.1227088344756834 0 -0.01744198128355802 0.11503771634109559 0 -0.02222625157844095 0.1227088344756834 0 -0.01744198128355802 0.11503771634109559 0 -0.023307159817290739 0.1121479686184283 0 -0.012248850971573841 0.1125208075020822 0 -0.017997844109414411 0.1087655018954708 0 -0.01744198128355802 0.11503771634109559 0 -0.017997844109414411 0.1087655018954708 0 -0.024123805385937312 0.11014199076292169 0 -0.023307159817290739 0.1121479686184283 0 -0.017997844109414411 0.1087655018954708 0 -0.01744198128355802 0.11503771634109559 0 -0.023307159817290739 0.1121479686184283 0 -0.0046988296279310846 0.075465987257500103 0 -0.004471055932428975 0.061346262570306953 0 0.0079626054049135586 0.052863747179962457 0 -0.0093767874180366029 0.073051079923104223 0 -0.014915188529848109 0.07157527628023079 0 -0.011506603279544361 0.087618711973773578 0 -0.0096267601800840239 0.066065855624376196 0 -0.01690032334888349 0.065021557104339434 0 -0.015766095144715799 0.059221925757037469 0 -0.0096267601800840239 0.066065855624376196 0 -0.014915188529848109 0.07157527628023079 0 -0.01690032334888349 0.065021557104339434 0 -0.0096267601800840239 0.066065855624376196 0 -0.0093767874180366029 0.073051079923104223 0 -0.014915188529848109 0.07157527628023079 0 -0.0096267601800840239 0.066065855624376196 0 -0.0046988296279310846 0.075465987257500103 0 -0.004471055932428975 0.061346262570306953 0 -0.0046988296279310846 0.075465987257500103 0 -0.0093767874180366029 0.073051079923104223 0 -0.0096267601800840239 0.066065855624376196 0 -0.0046988296279310846 0.075465987257500103 0 -0.0093767874180366029 0.073051079923104223 0 -0.0046988296279310846 0.075465987257500103 0 -0.011506603279544361 0.087618711973773578 0 -0.0046988296279310846 0.075465987257500103 0 -0.0093767874180366029 0.073051079923104223 0 -0.011506603279544361 0.087618711973773578 0 -0.0046988296279310846 0.075465987257500103 0 -0.011506603279544361 0.087618711973773578 0 0.00056903788424511365 0.086682396089073327 0 -0.011506603279544361 0.087618711973773578 0 0.00056903788424511365 0.086682396089073327 0 0.0017142141577850001 0.096485027642689541 0 -0.015837719346710199 0.095350294128549784 0 -0.011506603279544361 0.087618711973773578 0 -0.011506603279544361 0.087618711973773578 0 -0.028157290479737571 0.082661622355085798 0 -0.027165468422692102 0.066119176775560506 0 -0.015837719346710199 0.095350294128549784 0 -0.011506603279544361 0.087618711973773578 0 -0.028157290479737571 0.082661622355085798 0 -0.015837719346710199 0.095350294128549784 0 -0.028157290479737571 0.082661622355085798 0 -0.032300333499350402 0.090057470672271281 0 -0.015837719346710199 0.095350294128549784 0 -0.028157290479737571 0.082661622355085798 0 -0.014915188529848109 0.07157527628023079 0 -0.011506603279544361 0.087618711973773578 0 -0.027165468422692102 0.066119176775560506 0 -0.011506603279544361 0.087618711973773578 0 -0.027165468422692102 0.066119176775560506 0 -0.027165468422692102 0.066119176775560506 0 -0.01690032334888349 0.065021557104339434 0 -0.021155304748881689 0.062203044053262727 0 -0.014915188529848109 0.07157527628023079 0 -0.027165468422692102 0.066119176775560506 0 -0.01690032334888349 0.065021557104339434 0 -0.027165468422692102 0.066119176775560506 0 -0.040476861612764189 0.069972950581621118 0 -0.047888547298180387 0.051767161035057033 0 -0.028157290479737571 0.082661622355085798 0 -0.027165468422692102 0.066119176775560506 0 -0.040476861612764189 0.069972950581621118 0 -0.040476861612764189 0.069972950581621118 0 -0.049934811086014087 0.07186746235717667 0 -0.047859912164240369 0.063897566148078455 0 -0.028157290479737571 0.082661622355085798 0 -0.040476861612764189 0.069972950581621118 0 -0.040476861612764189 0.069972950581621118 0 -0.032300333499350402 0.090057470672271281 0 -0.028157290479737571 0.082661622355085798 0 -0.040476861612764189 0.069972950581621118 0 -0.032300333499350402 0.090057470672271281 0 -0.032300333499350402 0.090057470672271281 0 -0.052294403454901703 0.081174947256086191 0 -0.05578440732887191 0.096170589739797752 0 -0.040476861612764189 0.069972950581621118 0 -0.032300333499350402 0.090057470672271281 0 -0.052294403454901703 0.081174947256086191 0 -0.052294403454901703 0.081174947256086191 0 -0.05578440732887191 0.096170589739797752 0 -0.071620526940906107 0.087533684005701329 0 -0.052294403454901703 0.081174947256086191 0 -0.071620526940906107 0.087533684005701329 0 -0.062515526400001881 0.068377579792855414 0 -0.040476861612764189 0.069972950581621118 0 -0.052294403454901703 0.081174947256086191 0 -0.049934811086014087 0.07186746235717667 0 -0.052294403454901703 0.081174947256086191 0 -0.049934811086014087 0.07186746235717667 0 -0.062515526400001881 0.068377579792855414 0 -0.049934811086014087 0.07186746235717667 0 -0.052204780428632629 0.062945341387988421 0 -0.062515526400001881 0.068377579792855414 0 -0.052204780428632629 0.062945341387988421 0 -0.062515526400001881 0.068377579792855414 0 -0.055379183454653792 0.058514889464143828 0 -0.049934811086014087 0.07186746235717667 0 -0.052204780428632629 0.062945341387988421 0 -0.047859912164240369 0.063897566148078455 0 -0.024123805385937312 0.11014199076292169 0 -0.04045215309894238 0.1165912735558266 0 -0.041170092212669533 0.1046411265361262 0 -0.035508455794597132 0.13046501110523001 0 -0.024123805385937312 0.11014199076292169 0 -0.04045215309894238 0.1165912735558266 0 -0.04045215309894238 0.1165912735558266 0 -0.041170092212669533 0.1046411265361262 0 -0.052159737415513489 0.1112025467171566 0 -0.032300333499350402 0.090057470672271281 0 -0.041170092212669533 0.1046411265361262 0 -0.05578440732887191 0.096170589739797752 0 -0.024123805385937312 0.11014199076292169 0 -0.032300333499350402 0.090057470672271281 0 -0.041170092212669533 0.1046411265361262 0 -0.05578440732887191 0.096170589739797752 0 -0.052159737415513489 0.1112025467171566 0 -0.07438317581125764 0.1124407737129243 0 -0.041170092212669533 0.1046411265361262 0 -0.05578440732887191 0.096170589739797752 0 -0.052159737415513489 0.1112025467171566 0 -0.055186524828957063 0.1281687789626855 0 -0.04045215309894238 0.1165912735558266 0 -0.052159737415513489 0.1112025467171566 0 -0.055186524828957063 0.1281687789626855 0 -0.052159737415513489 0.1112025467171566 0 -0.07438317581125764 0.1124407737129243 0 -0.092802426943272898 0.12960292979422991 0 -0.07438317581125764 0.1124407737129243 0 -0.10110008134148971 0.1098561456819369 0 -0.07438317581125764 0.1124407737129243 0 -0.086834659998143784 0.098004038152668241 0 -0.10110008134148971 0.1098561456819369 0 -0.07438317581125764 0.1124407737129243 0 -0.086834659998143784 0.098004038152668241 0 -0.071620526940906107 0.087533684005701329 0 -0.05578440732887191 0.096170589739797752 0 -0.07438317581125764 0.1124407737129243 0 -0.071620526940906107 0.087533684005701329 0 -0.071620526940906107 0.087533684005701329 0 -0.062515526400001881 0.068377579792855414 0 -0.077633089280774809 0.070659037798975324 0 -0.062515526400001881 0.068377579792855414 0 -0.077633089280774809 0.070659037798975324 0 -0.069862538744371955 0.057777113150521288 0 -0.077633089280774809 0.070659037798975324 0 -0.081860045586377939 0.060182951188062161 0 -0.069862538744371955 0.057777113150521288 0 -0.077633089280774809 0.070659037798975324 0 -0.09054666164713164 0.067286880848174316 0 -0.081860045586377939 0.060182951188062161 0 -0.077633089280774809 0.070659037798975324 0 -0.09054666164713164 0.067286880848174316 0 -0.091096470542610469 0.082323341280698709 0 -0.071620526940906107 0.087533684005701329 0 -0.077633089280774809 0.070659037798975324 0 -0.091096470542610469 0.082323341280698709 0 -0.086834659998143784 0.098004038152668241 0 -0.071620526940906107 0.087533684005701329 0 -0.091096470542610469 0.082323341280698709 0 -0.086834659998143784 0.098004038152668241 0 -0.091096470542610469 0.082323341280698709 0 -0.1074822184466613 0.088136729408796272 0 -0.091096470542610469 0.082323341280698709 0 -0.1074822184466613 0.088136729408796272 0 -0.10104646070399111 0.074349611526457776 0 -0.1074822184466613 0.088136729408796272 0 -0.10104646070399111 0.074349611526457776 0 -0.1134486320906168 0.071653759806922179 0 -0.09054666164713164 0.067286880848174316 0 -0.10104646070399111 0.074349611526457776 0 -0.1026583207929353 0.062347346287697412 0 -0.09054666164713164 0.067286880848174316 0 -0.091096470542610469 0.082323341280698709 0 -0.10104646070399111 0.074349611526457776 0 -0.10104646070399111 0.074349611526457776 0 -0.1134486320906168 0.071653759806922179 0 -0.1026583207929353 0.062347346287697412 0 -0.1134486320906168 0.071653759806922179 0 -0.1169815729820268 0.057446916627697332 0 -0.1026583207929353 0.062347346287697412 0 -0.1134486320906168 0.071653759806922179 0 -0.12498233095038511 0.069533312171706482 0 -0.1248370695698198 0.083226530136874921 0 -0.1134486320906168 0.071653759806922179 0 -0.12498233095038511 0.069533312171706482 0 -0.1169815729820268 0.057446916627697332 0 -0.1074822184466613 0.088136729408796272 0 -0.1134486320906168 0.071653759806922179 0 -0.1248370695698198 0.083226530136874921 0 -0.12991930243541749 0.1020465165188278 0 -0.1074822184466613 0.088136729408796272 0 -0.1248370695698198 0.083226530136874921 0 -0.12991930243541749 0.1020465165188278 0 -0.1074822184466613 0.088136729408796272 0 -0.10110008134148971 0.1098561456819369 0 -0.12991930243541749 0.1020465165188278 0 -0.1131006250587715 0.12959615498317961 0 -0.10110008134148971 0.1098561456819369 0 -0.12991930243541749 0.1020465165188278 0 -0.13028426483969929 0.13221647237215789 0 -0.1131006250587715 0.12959615498317961 0 -0.1131006250587715 0.12959615498317961 0 -0.092802426943272898 0.12960292979422991 0 -0.10110008134148971 0.1098561456819369 0 -0.086834659998143784 0.098004038152668241 0 -0.1074822184466613 0.088136729408796272 0 -0.10110008134148971 0.1098561456819369 0 -0.1061587232064081 0.029080734372794698 0 -0.094449021505079139 0.018227913303066591 0 -0.1094215753963574 0.0115277712725063 0 -0.1061587232064081 0.029080734372794698 0 -0.094924595462104619 0.030399760044886301 0 -0.094449021505079139 0.018227913303066591 0 -0.094449021505079139 0.018227913303066591 0 -0.097507665945787692 0.0040820149966005574 0 -0.1094215753963574 0.0115277712725063 0 -0.097507665945787692 0.0040820149966005574 0 -0.1058521268010089 0.00073384547527136773 0 -0.1094215753963574 0.0115277712725063 0 -0.1152652699767374 -0.0044733142422073097 0 -0.1273771369441013 0.0023450629401116992 0 -0.1094215753963574 0.0115277712725063 0 -0.1152652699767374 -0.0044733142422073097 0 -0.1058521268010089 0.00073384547527136773 0 -0.1094215753963574 0.0115277712725063 0 -0.1273771369441013 0.0023450629401116992 0 -0.12537023626190849 0.01701499410391356 0 -0.1094215753963574 0.0115277712725063 0 -0.12537023626190849 0.01701499410391356 0 -0.1094215753963574 0.0115277712725063 0 -0.1154752524598698 0.02214949429500624 0 -0.12537023626190849 0.01701499410391356 0 -0.1154752524598698 0.02214949429500624 0 -0.120950474974805 0.030974477430810402 0 -0.1061587232064081 0.029080734372794698 0 -0.1094215753963574 0.0115277712725063 0 -0.1154752524598698 0.02214949429500624 0 -0.1061587232064081 0.029080734372794698 0 -0.1154752524598698 0.02214949429500624 0 -0.120950474974805 0.030974477430810402 0 -0.1304591025064194 0.044551821316570157 0 -0.120950474974805 0.030974477430810402 0 -0.112428546201817 0.041955624634692393 0 -0.1061587232064081 0.029080734372794698 0 -0.120950474974805 0.030974477430810402 0 -0.112428546201817 0.041955624634692393 0 -0.1304591025064194 0.044551821316570157 0 -0.112428546201817 0.041955624634692393 0 -0.1169815729820268 0.057446916627697332 0 -0.1311901693420546 0.060374133793646992 0 -0.12498233095038511 0.069533312171706482 0 -0.1169815729820268 0.057446916627697332 0 -0.112428546201817 0.041955624634692393 0 -0.1169815729820268 0.057446916627697332 0 -0.10210071185166431 0.050014029354961582 0 -0.1169815729820268 0.057446916627697332 0 -0.1026583207929353 0.062347346287697412 0 -0.10210071185166431 0.050014029354961582 0 -0.10210071185166431 0.050014029354961582 0 -0.091201579857211959 0.041080799774458047 0 -0.091131717688311603 0.055225201160547438 0 -0.1026583207929353 0.062347346287697412 0 -0.10210071185166431 0.050014029354961582 0 -0.091131717688311603 0.055225201160547438 0 -0.09054666164713164 0.067286880848174316 0 -0.1026583207929353 0.062347346287697412 0 -0.091131717688311603 0.055225201160547438 0 -0.1061587232064081 0.029080734372794698 0 -0.112428546201817 0.041955624634692393 0 -0.1016080011228369 0.039407166226836883 0 -0.112428546201817 0.041955624634692393 0 -0.10210071185166431 0.050014029354961582 0 -0.1016080011228369 0.039407166226836883 0 -0.10210071185166431 0.050014029354961582 0 -0.1016080011228369 0.039407166226836883 0 -0.091201579857211959 0.041080799774458047 0 -0.1061587232064081 0.029080734372794698 0 -0.094924595462104619 0.030399760044886301 0 -0.1016080011228369 0.039407166226836883 0 -0.094924595462104619 0.030399760044886301 0 -0.1016080011228369 0.039407166226836883 0 -0.091201579857211959 0.041080799774458047 0 -0.094924595462104619 0.030399760044886301 0 -0.091201579857211959 0.041080799774458047 0 -0.083613433652756419 0.02825823648094046 0 -0.091201579857211959 0.041080799774458047 0 -0.080163505572120847 0.038728335950810322 0 -0.0801262205712997 0.049966522982092462 0 -0.091201579857211959 0.041080799774458047 0 -0.080163505572120847 0.038728335950810322 0 -0.083613433652756419 0.02825823648094046 0 -0.080163505572120847 0.038728335950810322 0 -0.075199828102842814 0.032505994045140242 0 -0.083613433652756419 0.02825823648094046 0 -0.09054666164713164 0.067286880848174316 0 -0.091131717688311603 0.055225201160547438 0 -0.081860045586377939 0.060182951188062161 0 -0.091201579857211959 0.041080799774458047 0 -0.091131717688311603 0.055225201160547438 0 -0.0801262205712997 0.049966522982092462 0 -0.091131717688311603 0.055225201160547438 0 -0.0801262205712997 0.049966522982092462 0 -0.081860045586377939 0.060182951188062161 0 -0.0801262205712997 0.049966522982092462 0 -0.069862538744371955 0.057777113150521288 0 -0.06901267431079619 0.039797487593251017 0 -0.069862538744371955 0.057777113150521288 0 -0.06901267431079619 0.039797487593251017 0 -0.058907879691800273 0.050969475640674493 0 -0.062515526400001881 0.068377579792855414 0 -0.069862538744371955 0.057777113150521288 0 -0.058907879691800273 0.050969475640674493 0 -0.0801262205712997 0.049966522982092462 0 -0.081860045586377939 0.060182951188062161 0 -0.069862538744371955 0.057777113150521288 0 -0.06901267431079619 0.039797487593251017 0 -0.068009698875697827 0.023239916155559141 0 -0.055300232983598208 0.033561371488493641 0 -0.075199828102842814 0.032505994045140242 0 -0.06901267431079619 0.039797487593251017 0 -0.068009698875697827 0.023239916155559141 0 -0.080163505572120847 0.038728335950810322 0 -0.075199828102842814 0.032505994045140242 0 -0.06901267431079619 0.039797487593251017 0 -0.080163505572120847 0.038728335950810322 0 -0.0801262205712997 0.049966522982092462 0 -0.06901267431079619 0.039797487593251017 0 -0.068009698875697827 0.023239916155559141 0 -0.066123158358303874 0.0069763394170788487 0 -0.055300232983598208 0.033561371488493641 0 -0.068009698875697827 0.023239916155559141 0 -0.083613433652756419 0.02825823648094046 0 -0.080050012301679602 0.015705407900093959 0 -0.068009698875697827 0.023239916155559141 0 -0.080050012301679602 0.015705407900093959 0 -0.07274845615251338 0.0135364418571977 0 -0.075199828102842814 0.032505994045140242 0 -0.068009698875697827 0.023239916155559141 0 -0.083613433652756419 0.02825823648094046 0 -0.094449021505079139 0.018227913303066591 0 -0.083613433652756419 0.02825823648094046 0 -0.080050012301679602 0.015705407900093959 0 -0.094924595462104619 0.030399760044886301 0 -0.094449021505079139 0.018227913303066591 0 -0.083613433652756419 0.02825823648094046 0 -0.089124004628701792 -0.0040277377021705899 0 -0.097507665945787692 0.0040820149966005574 0 -0.086098134196158846 0.0059583430860626887 0 -0.094449021505079139 0.018227913303066591 0 -0.080050012301679602 0.015705407900093959 0 -0.086098134196158846 0.0059583430860626887 0 -0.094449021505079139 0.018227913303066591 0 -0.097507665945787692 0.0040820149966005574 0 -0.086098134196158846 0.0059583430860626887 0 -0.080050012301679602 0.015705407900093959 0 -0.086098134196158846 0.0059583430860626887 0 -0.076810955074372203 0.0082241039560588727 0 -0.079764572027605563 -0.001208843295517239 0 -0.086098134196158846 0.0059583430860626887 0 -0.076810955074372203 0.0082241039560588727 0 -0.079764572027605563 -0.001208843295517239 0 -0.089124004628701792 -0.0040277377021705899 0 -0.086098134196158846 0.0059583430860626887 0 -0.079764572027605563 -0.001208843295517239 0 -0.076810955074372203 0.0082241039560588727 0 -0.066123158358303874 0.0069763394170788487 0 -0.068009698875697827 0.023239916155559141 0 -0.07274845615251338 0.0135364418571977 0 -0.066123158358303874 0.0069763394170788487 0 -0.076810955074372203 0.0082241039560588727 0 -0.07274845615251338 0.0135364418571977 0 -0.066123158358303874 0.0069763394170788487 0 -0.080050012301679602 0.015705407900093959 0 -0.076810955074372203 0.0082241039560588727 0 -0.07274845615251338 0.0135364418571977 0 -0.047617207273071643 -0.0035118018543059538 0 -0.059664616745900671 -0.0040500510012267867 0 -0.050798470683601923 0.01183886002179501 0 -0.059664616745900671 -0.0040500510012267867 0 -0.066123158358303874 0.0069763394170788487 0 -0.050798470683601923 0.01183886002179501 0 -0.059664616745900671 -0.0040500510012267867 0 -0.050798470683601923 0.01183886002179501 0 -0.047617207273071643 -0.0035118018543059538 0 -0.050798470683601923 0.01183886002179501 0 -0.050798470683601923 0.01183886002179501 0 -0.055300232983598208 0.033561371488493641 0 -0.04692109718252771 0.035386244484329407 0 -0.066123158358303874 0.0069763394170788487 0 -0.055300232983598208 0.033561371488493641 0 -0.066123158358303874 0.0069763394170788487 0 -0.050798470683601923 0.01183886002179501 0 -0.055300232983598208 0.033561371488493641 0 -0.050798470683601923 0.01183886002179501 0 -0.055300232983598208 0.033561371488493641 0 -0.050798470683601923 0.01183886002179501 0 -0.034391162446891957 0.018187238464497092 0 -0.037793901381418679 0.035144188298954319 0 -0.034391162446891957 0.018187238464497092 0 -0.037793901381418679 0.035144188298954319 0 -0.022455882408961961 0.026825405924253771 0 -0.050798470683601923 0.01183886002179501 0 -0.037793901381418679 0.035144188298954319 0 -0.050798470683601923 0.01183886002179501 0 -0.04692109718252771 0.035386244484329407 0 -0.037793901381418679 0.035144188298954319 0 -0.050798470683601923 0.01183886002179501 0 -0.034391162446891957 0.018187238464497092 0 -0.03671052455766443 0.0037031618858211421 0 -0.034391162446891957 0.018187238464497092 0 -0.03671052455766443 0.0037031618858211421 0 -0.022890364083827771 0.01081673007749915 0 -0.047617207273071643 -0.0035118018543059538 0 -0.050798470683601923 0.01183886002179501 0 -0.03671052455766443 0.0037031618858211421 0 -0.062515526400001881 0.068377579792855414 0 -0.058907879691800273 0.050969475640674493 0 -0.062515526400001881 0.068377579792855414 0 -0.055379183454653792 0.058514889464143828 0 -0.058907879691800273 0.050969475640674493 0 -0.052204780428632629 0.062945341387988421 0 -0.047859912164240369 0.063897566148078455 0 -0.047888547298180387 0.051767161035057033 0 -0.052204780428632629 0.062945341387988421 0 -0.055379183454653792 0.058514889464143828 0 -0.047888547298180387 0.051767161035057033 0 -0.055379183454653792 0.058514889464143828 0 -0.058907879691800273 0.050969475640674493 0 -0.047888547298180387 0.051767161035057033 0 -0.06901267431079619 0.039797487593251017 0 -0.058907879691800273 0.050969475640674493 0 -0.055300232983598208 0.033561371488493641 0 -0.047888547298180387 0.051767161035057033 0 -0.055300232983598208 0.033561371488493641 0 -0.04692109718252771 0.035386244484329407 0 -0.058907879691800273 0.050969475640674493 0 -0.047888547298180387 0.051767161035057033 0 -0.055300232983598208 0.033561371488493641 0 -0.047888547298180387 0.051767161035057033 0 -0.055300232983598208 0.033561371488493641 0 -0.058907879691800273 0.050969475640674493 0 -0.055300232983598208 0.033561371488493641 0 -0.037793901381418679 0.035144188298954319 0 -0.024789332079235359 0.058449516576113518 0 -0.047888547298180387 0.051767161035057033 0 -0.04692109718252771 0.035386244484329407 0 -0.042824333565839388 0.044619641577347061 0 -0.037793901381418679 0.035144188298954319 0 -0.042824333565839388 0.044619641577347061 0 -0.024789332079235359 0.058449516576113518 0 -0.04692109718252771 0.035386244484329407 0 -0.037793901381418679 0.035144188298954319 0 -0.042824333565839388 0.044619641577347061 0 -0.027165468422692102 0.066119176775560506 0 -0.047888547298180387 0.051767161035057033 0 -0.042824333565839388 0.044619641577347061 0 -0.040476861612764189 0.069972950581621118 0 -0.047859912164240369 0.063897566148078455 0 -0.047888547298180387 0.051767161035057033 0 -0.040476861612764189 0.069972950581621118 0 -0.047888547298180387 0.051767161035057033 0 -0.027165468422692102 0.066119176775560506 0 -0.042824333565839388 0.044619641577347061 0 -0.027165468422692102 0.066119176775560506 0 -0.042824333565839388 0.044619641577347061 0 -0.024789332079235359 0.058449516576113518 0 -0.015766095144715799 0.059221925757037469 0 -0.024789332079235359 0.058449516576113518 0 -0.0190365636870411 0.05257699221554326 0 -0.015766095144715799 0.059221925757037469 0 -0.021155304748881689 0.062203044053262727 0 -0.024789332079235359 0.058449516576113518 0 -0.01690032334888349 0.065021557104339434 0 -0.015766095144715799 0.059221925757037469 0 -0.021155304748881689 0.062203044053262727 0 -0.027165468422692102 0.066119176775560506 0 -0.021155304748881689 0.062203044053262727 0 -0.024789332079235359 0.058449516576113518 0 -0.024789332079235359 0.058449516576113518 0 -0.0190365636870411 0.05257699221554326 0 -0.02501616098884394 0.043295095323351421 0 -0.0190365636870411 0.05257699221554326 0 -0.02501616098884394 0.043295095323351421 0 -0.010574666535369299 0.049341431205670631 0 -0.037793901381418679 0.035144188298954319 0 -0.024789332079235359 0.058449516576113518 0 -0.02501616098884394 0.043295095323351421 0 -0.037793901381418679 0.035144188298954319 0 -0.02501616098884394 0.043295095323351421 0 -0.022455882408961961 0.026825405924253771 0 -0.02501616098884394 0.043295095323351421 0 -0.01174883101074616 0.035626247072063598 0 -0.022455882408961961 0.026825405924253771 0 -0.02501616098884394 0.043295095323351421 0 -0.01174883101074616 0.035626247072063598 0 -0.010574666535369299 0.049341431205670631 0 -0.01174883101074616 0.035626247072063598 0 -0.010574666535369299 0.049341431205670631 0 0.0050554059078342702 0.036817447586302399 0 -0.010574666535369299 0.049341431205670631 0 -0.004471055932428975 0.061346262570306953 0 0.0079626054049135586 0.052863747179962457 0 -0.015766095144715799 0.059221925757037469 0 -0.0190365636870411 0.05257699221554326 0 -0.010574666535369299 0.049341431205670631 0 -0.015766095144715799 0.059221925757037469 0 -0.010574666535369299 0.049341431205670631 0 -0.004471055932428975 0.061346262570306953 0 -0.0096267601800840239 0.066065855624376196 0 -0.015766095144715799 0.059221925757037469 0 -0.004471055932428975 0.061346262570306953 0 -0.025670282478897081 -0.0054027298625421993 0 -0.03671052455766443 0.0037031618858211421 0 -0.022890364083827771 0.01081673007749915 0 -0.025670282478897081 -0.0054027298625421993 0 -0.022890364083827771 0.01081673007749915 0 -0.010105069976996849 0.0023765649732562961 0 -0.022890364083827771 0.01081673007749915 0 -0.022455882408961961 0.026825405924253771 0 -0.0028948745420432241 0.01788293630915707 0 -0.034391162446891957 0.018187238464497092 0 -0.022890364083827771 0.01081673007749915 0 -0.022455882408961961 0.026825405924253771 0 -0.01174883101074616 0.035626247072063598 0 -0.022455882408961961 0.026825405924253771 0 -0.0028948745420432241 0.01788293630915707 0 -0.01174883101074616 0.035626247072063598 0 -0.0028948745420432241 0.01788293630915707 0 0.0050554059078342702 0.036817447586302399 0 -0.022890364083827771 0.01081673007749915 0 -0.0028948745420432241 0.01788293630915707 0 -0.010105069976996849 0.0023765649732562961 0 -0.0028948745420432241 0.01788293630915707 0 -0.010105069976996849 0.0023765649732562961 0 0.0047038114401232534 -0.001040937293712483 0 -0.0028948745420432241 0.01788293630915707 0 0.020415517075116841 0.0076517724901667356 0 0.0047038114401232534 -0.001040937293712483 0 -0.0028948745420432241 0.01788293630915707 0 0.020342672512877309 0.02491627604112644 0 0.020415517075116841 0.0076517724901667356 0 -0.0028948745420432241 0.01788293630915707 0 0.020342672512877309 0.02491627604112644 0 0.0050554059078342702 0.036817447586302399 0 0.020342672512877309 0.02491627604112644 0 0.020415517075116841 0.0076517724901667356 0 0.04034715667016759 0.018897687307637179 0 0.020342672512877309 0.02491627604112644 0 0.02507841675544124 0.048354097280414877 0 0.04034715667016759 0.018897687307637179 0 0.0079626054049135586 0.052863747179962457 0 0.02507841675544124 0.048354097280414877 0 0.010722424996073881 0.068121568230846891 0 -0.010574666535369299 0.049341431205670631 0 0.0079626054049135586 0.052863747179962457 0 0.0050554059078342702 0.036817447586302399 0 0.0079626054049135586 0.052863747179962457 0 0.0050554059078342702 0.036817447586302399 0 0.02507841675544124 0.048354097280414877 0 0.020342672512877309 0.02491627604112644 0 0.0050554059078342702 0.036817447586302399 0 0.02507841675544124 0.048354097280414877 0 0.02507841675544124 0.048354097280414877 0 0.050251726499931808 0.044842678424317363 0 0.039807943620716157 0.068946520475498749 0 0.050251726499931808 0.044842678424317363 0 0.039807943620716157 0.068946520475498749 0 0.02507841675544124 0.048354097280414877 0 0.050251726499931808 0.044842678424317363 0 0.04034715667016759 0.018897687307637179 0 0.050251726499931808 0.044842678424317363 0 0.060695509379147472 0.02073883637313596 0 0.066628286533047365 0.040173783681243101 0 0.050251726499931808 0.044842678424317363 0 0.060695509379147472 0.02073883637313596 0 0.050251726499931808 0.044842678424317363 0 0.066628286533047365 0.040173783681243101 0 0.063756980967503582 0.059761195325569103 0 0.050251726499931808 0.044842678424317363 0 0.063756980967503582 0.059761195325569103 0 0.039807943620716157 0.068946520475498749 0 0.020415517075116841 0.0076517724901667356 0 0.04034715667016759 0.018897687307637179 0 0.039787151186370009 -0.0039594854922263374 0 0.04034715667016759 0.018897687307637179 0 0.053306813386582982 0.0056008818424343951 0 0.039787151186370009 -0.0039594854922263374 0 0.050251726499931808 0.044842678424317363 0 0.04034715667016759 0.018897687307637179 0 0.060695509379147472 0.02073883637313596 0 0.04034715667016759 0.018897687307637179 0 0.060695509379147472 0.02073883637313596 0 0.053306813386582982 0.0056008818424343951 0 0.060695509379147472 0.02073883637313596 0 0.053306813386582982 0.0056008818424343951 0 0.065940651683257009 0.0024831850618150888 0 0.060695509379147472 0.02073883637313596 0 0.065940651683257009 0.0024831850618150888 0 0.07992851590561921 0.0082161523869754144 0 0.065940651683257009 0.0024831850618150888 0 0.07992851590561921 0.0082161523869754144 0 0.074177093133044117 -0.010507922444979889 0 0.07992851590561921 0.0082161523869754144 0 0.1009244284881298 0.0078078577834924806 0 0.09649789417263642 -0.0037639840011086311 0 0.07992851590561921 0.0082161523869754144 0 0.1009244284881298 0.0078078577834924806 0 0.09893654195113713 0.02570505514797651 0 0.07992851590561921 0.0082161523869754144 0 0.08516149451907469 0.032589503251719387 0 0.07992851590561921 0.0082161523869754144 0 0.08516149451907469 0.032589503251719387 0 0.09893654195113713 0.02570505514797651 0 0.060695509379147472 0.02073883637313596 0 0.07992851590561921 0.0082161523869754144 0 0.08516149451907469 0.032589503251719387 0 0.060695509379147472 0.02073883637313596 0 0.066628286533047365 0.040173783681243101 0 0.08516149451907469 0.032589503251719387 0 0.066628286533047365 0.040173783681243101 0 0.076734924211177571 0.049535316522237388 0 0.08516149451907469 0.032589503251719387 0 0.066628286533047365 0.040173783681243101 0 0.063756980967503582 0.059761195325569103 0 0.076734924211177571 0.049535316522237388 0 0.063756980967503582 0.059761195325569103 0 0.076734924211177571 0.049535316522237388 0 0.078896317813284711 0.063130005487330554 0 0.076734924211177571 0.049535316522237388 0 0.090394473132530156 0.056962854116463339 0 0.078896317813284711 0.063130005487330554 0 0.090394473132530156 0.056962854116463339 0 0.08516149451907469 0.032589503251719387 0 0.076734924211177571 0.049535316522237388 0 0.090394473132530156 0.056962854116463339 0 0.08516149451907469 0.032589503251719387 0 0.090394473132530156 0.056962854116463339 0 0.08516149451907469 0.032589503251719387 0 0.096764564946639139 0.043178279343160431 0 0.08516149451907469 0.032589503251719387 0 0.096764564946639139 0.043178279343160431 0 0.09893654195113713 0.02570505514797651 0 0.096764564946639139 0.043178279343160431 0 0.10666951487556919 0.040720151324231749 0 0.09893654195113713 0.02570505514797651 0 0.096764564946639139 0.043178279343160431 0 0.10666951487556919 0.040720151324231749 0 0.10388747543703999 0.053358399551525167 0 0.10666951487556919 0.040720151324231749 0 0.1142736493139349 0.03087626799389703 0 0.09893654195113713 0.02570505514797651 0 0.10388747543703999 0.053358399551525167 0 0.11892469151436 0.060175562481194378 0 0.096340815718618328 0.066677421107029802 0 0.090394473132530156 0.056962854116463339 0 0.10388747543703999 0.053358399551525167 0 0.096340815718618328 0.066677421107029802 0 0.090394473132530156 0.056962854116463339 0 0.096764564946639139 0.043178279343160431 0 0.10388747543703999 0.053358399551525167 0 0.10666951487556919 0.040720151324231749 0 0.10388747543703999 0.053358399551525167 0 0.1137328545953389 0.049471119462924477 0 0.1137328545953389 0.049471119462924477 0 0.11892469151436 0.060175562481194378 0 0.12367169586596689 0.04413069599522032 0 0.10388747543703999 0.053358399551525167 0 0.1137328545953389 0.049471119462924477 0 0.11892469151436 0.060175562481194378 0 0.10666951487556919 0.040720151324231749 0 0.12367169586596689 0.04413069599522032 0 0.1142736493139349 0.03087626799389703 0 0.12367169586596689 0.04413069599522032 0 0.1142736493139349 0.03087626799389703 0 0.13034027439662041 0.028127834929059549 0 0.10666951487556919 0.040720151324231749 0 0.1137328545953389 0.049471119462924477 0 0.12367169586596689 0.04413069599522032 0 0.1142736493139349 0.03087626799389703 0 0.111750219480381 0.015697602572997061 0 0.13034027439662041 0.028127834929059549 0 0.11917198148314 0.002581966002757949 0 0.13034027439662041 0.028127834929059549 0 0.111750219480381 0.015697602572997061 0 0.11917198148314 0.002581966002757949 0 0.13034027439662041 0.028127834929059549 0 0.11917198148314 0.002581966002757949 0 0.1309849453148588 0.01811654968683717 0 0.1228376310831711 -0.00076623140119310329 0 0.11917198148314 0.002581966002757949 0 0.1228376310831711 -0.00076623140119310329 0 0.11917198148314 0.002581966002757949 0 0.1133629416093747 0.002418872237081233 0 0.1105415625726717 -0.0014271332550589229 0 0.11917198148314 0.002581966002757949 0 0.1133629416093747 0.002418872237081233 0 0.11092652002007269 0.0067640166461111727 0 0.1133629416093747 0.002418872237081233 0 0.1078625722471533 0.0022823866337398822 0 0.1105415625726717 -0.0014271332550589229 0 0.1133629416093747 0.002418872237081233 0 0.11092652002007269 0.0067640166461111727 0 0.1078625722471533 0.0022823866337398822 0 0.111750219480381 0.015697602572997061 0 0.11917198148314 0.002581966002757949 0 0.11092652002007269 0.0067640166461111727 0 0.111750219480381 0.015697602572997061 0 0.11092652002007269 0.0067640166461111727 0 0.1009244284881298 0.0078078577834924806 0 0.1078625722471533 0.0022823866337398822 0 0.1009244284881298 0.0078078577834924806 0 0.1039166904039584 -0.0028966343462391718 0 0.11092652002007269 0.0067640166461111727 0 0.1078625722471533 0.0022823866337398822 0 0.1009244284881298 0.0078078577834924806 0 0.1009244284881298 0.0078078577834924806 0 0.1039166904039584 -0.0028966343462391718 0 0.09649789417263642 -0.0037639840011086311 0 0.111750219480381 0.015697602572997061 0 0.1009244284881298 0.0078078577834924806 0 0.09893654195113713 0.02570505514797651 0 0.1142736493139349 0.03087626799389703 0 0.111750219480381 0.015697602572997061 0 0.09893654195113713 0.02570505514797651 0 0.10086043035944101 0.1057095558459509 0 0.088353675930770217 0.1090445403681379 0 0.098136173783193614 0.12855261503670501 0 0.10086043035944101 0.1057095558459509 0 0.11707998843366239 0.12090166170324231 0 0.098136173783193614 0.12855261503670501 0 0.10086043035944101 0.1057095558459509 0 0.11707998843366239 0.12090166170324231 0 0.12018819637303869 0.10164151191590461 0 0.11707998843366239 0.12090166170324231 0 0.12018819637303869 0.10164151191590461 0 0.1368974078767736 0.107501873099266 0 0.10086043035944101 0.1057095558459509 0 0.12018819637303869 0.10164151191590461 0 0.11039993896964689 0.089589601033300492 0 0.12018819637303869 0.10164151191590461 0 0.1225478872688979 0.090713611373926736 0 0.11039993896964689 0.089589601033300492 0 0.1225478872688979 0.090713611373926736 0 0.1210037722340596 0.082520495593825793 0 0.11039993896964689 0.089589601033300492 0 0.1210037722340596 0.082520495593825793 0 0.11039993896964689 0.089589601033300492 0 0.1079674466630436 0.07575227550831827 0 0.1243405792371938 0.066503547411893488 0 0.1152310018430296 0.068591719667449438 0 0.13121537104960351 0.072689189806444385 0 0.1152310018430296 0.068591719667449438 0 0.1079674466630436 0.07575227550831827 0 0.13121537104960351 0.072689189806444385 0 0.11892469151436 0.060175562481194378 0 0.1152310018430296 0.068591719667449438 0 0.096340815718618328 0.066677421107029802 0 0.1210037722340596 0.082520495593825793 0 0.1079674466630436 0.07575227550831827 0 0.13121537104960351 0.072689189806444385 0 0.1079674466630436 0.07575227550831827 0 0.13121537104960351 0.072689189806444385 0 0.11892469151436 0.060175562481194378 0 0.1243405792371938 0.066503547411893488 0 0.1152310018430296 0.068591719667449438 0 0.090394473132530156 0.056962854116463339 0 0.096340815718618328 0.066677421107029802 0 0.095627451745985609 0.081336204981207194 0 0.11892469151436 0.060175562481194378 0 0.096340815718618328 0.066677421107029802 0 0.1152310018430296 0.068591719667449438 0 0.1079674466630436 0.07575227550831827 0 0.096340815718618328 0.066677421107029802 0 0.1079674466630436 0.07575227550831827 0 0.096340815718618328 0.066677421107029802 0 0.095627451745985609 0.081336204981207194 0 0.10086043035944101 0.1057095558459509 0 0.095627451745985609 0.081336204981207194 0 0.10086043035944101 0.1057095558459509 0 0.095627451745985609 0.081336204981207194 0 0.085469831166676849 0.087436677031336632 0 0.10086043035944101 0.1057095558459509 0 0.11039993896964689 0.089589601033300492 0 0.095627451745985609 0.081336204981207194 0 0.11039993896964689 0.089589601033300492 0 0.1079674466630436 0.07575227550831827 0 0.095627451745985609 0.081336204981207194 0 0.095627451745985609 0.081336204981207194 0 0.085469831166676849 0.087436677031336632 0 0.085588317529406169 0.073238424790440806 0 0.085469831166676849 0.087436677031336632 0 0.085588317529406169 0.073238424790440806 0 0.076873554133312927 0.079435143693455501 0 0.085469831166676849 0.087436677031336632 0 0.070098818600398835 0.095008337279511162 0 0.081838863589211913 0.097859807548057495 0 0.085588317529406169 0.073238424790440806 0 0.078896317813284711 0.063130005487330554 0 0.076873554133312927 0.079435143693455501 0 0.090394473132530156 0.056962854116463339 0 0.095627451745985609 0.081336204981207194 0 0.090394473132530156 0.056962854116463339 0 0.095627451745985609 0.081336204981207194 0 0.085588317529406169 0.073238424790440806 0 0.090394473132530156 0.056962854116463339 0 0.085588317529406169 0.073238424790440806 0 0.078896317813284711 0.063130005487330554 0 0.063756980967503582 0.059761195325569103 0 0.076873554133312927 0.079435143693455501 0 0.058428932400687923 0.080576723114904505 0 0.063756980967503582 0.059761195325569103 0 0.078896317813284711 0.063130005487330554 0 0.076873554133312927 0.079435143693455501 0 0.076873554133312927 0.079435143693455501 0 0.070098818600398835 0.095008337279511162 0 0.058428932400687923 0.080576723114904505 0 0.085469831166676849 0.087436677031336632 0 0.076873554133312927 0.079435143693455501 0 0.070098818600398835 0.095008337279511162 0 0.076873554133312927 0.079435143693455501 0 0.070098818600398835 0.095008337279511162 0 0.070098818600398835 0.095008337279511162 0 0.063324083067484813 0.1105815308655668 0 0.056772327777908818 0.093355456469435216 0 0.070098818600398835 0.095008337279511162 0 0.073686861685182473 0.1058294153104071 0 0.063324083067484813 0.1105815308655668 0 0.070098818600398835 0.095008337279511162 0 0.063324083067484813 0.1105815308655668 0 0.070098818600398835 0.095008337279511162 0 0.073686861685182473 0.1058294153104071 0 0.081838863589211913 0.097859807548057495 0 0.10086043035944101 0.1057095558459509 0 0.088353675930770217 0.1090445403681379 0 0.081838863589211913 0.097859807548057495 0 0.10086043035944101 0.1057095558459509 0 0.085469831166676849 0.087436677031336632 0 0.081838863589211913 0.097859807548057495 0 0.073686861685182473 0.1058294153104071 0 0.081838863589211913 0.097859807548057495 0 0.081058066011519173 0.11973636453468819 0 0.081838863589211913 0.097859807548057495 0 0.081058066011519173 0.11973636453468819 0 0.088353675930770217 0.1090445403681379 0 0.081838863589211913 0.097859807548057495 0 0.081058066011519173 0.11973636453468819 0 0.081058066011519173 0.11973636453468819 0 0.098136173783193614 0.12855261503670501 0 0.088353675930770217 0.1090445403681379 0 0.081058066011519173 0.11973636453468819 0 0.098136173783193614 0.12855261503670501 0 0.081058066011519173 0.11973636453468819 0 0.063324083067484813 0.1105815308655668 0 0.068402942841081005 0.12865021266463919 0 0.081058066011519173 0.11973636453468819 0 0.063324083067484813 0.1105815308655668 0 0.073686861685182473 0.1058294153104071 0 0.081058066011519173 0.11973636453468819 0 0.063324083067484813 0.1105815308655668 0 0.063324083067484813 0.1105815308655668 0 0.047212646671147621 0.11637508280246631 0 0.046344121904492837 0.10181594669612309 0 0.063324083067484813 0.1105815308655668 0 0.047212646671147621 0.11637508280246631 0 0.054704645729867107 0.1303951701743557 0 0.063324083067484813 0.1105815308655668 0 0.054704645729867107 0.1303951701743557 0 0.068402942841081005 0.12865021266463919 0 0.063324083067484813 0.1105815308655668 0 0.054704645729867107 0.1303951701743557 0 0.063324083067484813 0.1105815308655668 0 0.046344121904492837 0.10181594669612309 0 0.056772327777908818 0.093355456469435216 0 0.063324083067484813 0.1105815308655668 0 0.046344121904492837 0.10181594669612309 0 0.046344121904492837 0.10181594669612309 0 0.056772327777908818 0.093355456469435216 0 0.045320775007697253 0.087378911453508054 0 0.046344121904492837 0.10181594669612309 0 0.0293641607415005 0.093050362526680058 0 0.027539824430943272 0.097260859315675907 0 0.046344121904492837 0.10181594669612309 0 0.0293641607415005 0.093050362526680058 0 0.046344121904492837 0.10181594669612309 0 0.045320775007697253 0.087378911453508054 0 0.0293641607415005 0.093050362526680058 0 0.046344121904492837 0.10181594669612309 0 0.034802580128522533 0.108370238657299 0 0.027539824430943272 0.097260859315675907 0 0.047212646671147621 0.11637508280246631 0 0.046344121904492837 0.10181594669612309 0 0.034802580128522533 0.108370238657299 0 0.034802580128522533 0.108370238657299 0 0.02295827912300942 0.1143792008990337 0 0.036209801575650402 0.12755429465012871 0 0.047212646671147621 0.11637508280246631 0 0.054704645729867107 0.1303951701743557 0 0.036209801575650402 0.12755429465012871 0 0.047212646671147621 0.11637508280246631 0 0.034802580128522533 0.108370238657299 0 0.036209801575650402 0.12755429465012871 0 0.063756980967503582 0.059761195325569103 0 0.058428932400687923 0.080576723114904505 0 0.039807943620716157 0.068946520475498749 0 0.058428932400687923 0.080576723114904505 0 0.045320775007697253 0.087378911453508054 0 0.039807943620716157 0.068946520475498749 0 0.070098818600398835 0.095008337279511162 0 0.058428932400687923 0.080576723114904505 0 0.056772327777908818 0.093355456469435216 0 0.058428932400687923 0.080576723114904505 0 0.056772327777908818 0.093355456469435216 0 0.045320775007697253 0.087378911453508054 0 0.039807943620716157 0.068946520475498749 0 0.02523443473854358 0.074793540318702806 0 0.0293641607415005 0.093050362526680058 0 0.045320775007697253 0.087378911453508054 0 0.039807943620716157 0.068946520475498749 0 0.0293641607415005 0.093050362526680058 0 0.039807943620716157 0.068946520475498749 0 0.0293641607415005 0.093050362526680058 0 0.02507841675544124 0.048354097280414877 0 0.039807943620716157 0.068946520475498749 0 0.02523443473854358 0.074793540318702806 0 0.02523443473854358 0.074793540318702806 0 0.01233266555678463 0.084258174892090337 0 0.010722424996073881 0.068121568230846891 0 0.02507841675544124 0.048354097280414877 0 0.02523443473854358 0.074793540318702806 0 0.010722424996073881 0.068121568230846891 0 0.0293641607415005 0.093050362526680058 0 0.01233266555678463 0.084258174892090337 0 0.0293641607415005 0.093050362526680058 0 0.01233266555678463 0.084258174892090337 0 0.019584721545335231 0.095933386042030777 0 0.02523443473854358 0.074793540318702806 0 0.0293641607415005 0.093050362526680058 0 0.01233266555678463 0.084258174892090337 0 -0.0046988296279310846 0.075465987257500103 0 0.01233266555678463 0.084258174892090337 0 -0.0046988296279310846 0.075465987257500103 0 0.00056903788424511365 0.086682396089073327 0 0.01233266555678463 0.084258174892090337 0 0.01233266555678463 0.084258174892090337 0 0.019584721545335231 0.095933386042030777 0 0.0096773837387348072 0.094713106344260181 0 0.00056903788424511365 0.086682396089073327 0 0.0096773837387348072 0.094713106344260181 0 0.0017142141577850001 0.096485027642689541 0 0.00056903788424511365 0.086682396089073327 0 0.01233266555678463 0.084258174892090337 0 0.0096773837387348072 0.094713106344260181 0 -0.0046988296279310846 0.075465987257500103 0 0.0079626054049135586 0.052863747179962457 0 -0.0046988296279310846 0.075465987257500103 0 0.01233266555678463 0.084258174892090337 0 0.010722424996073881 0.068121568230846891 0 -0.0046988296279310846 0.075465987257500103 0 0.0079626054049135586 0.052863747179962457 0 0.010722424996073881 0.068121568230846891 0 0.02295827912300942 0.1143792008990337 0 0.016633607451047409 0.12879447845417449 0 0.036209801575650402 0.12755429465012871 0 0.02295827912300942 0.1143792008990337 0 0.02320798257890765 0.1047443639128517 0 0.017264926825327171 0.1093249123190818 0 0.02295827912300942 0.1143792008990337 0 0.017264926825327171 0.1093249123190818 0 0.01360187540002143 0.11722717171449371 0 0.02295827912300942 0.1143792008990337 0 0.01360187540002143 0.11722717171449371 0 0.016633607451047409 0.12879447845417449 0 0.034802580128522533 0.108370238657299 0 0.027539824430943272 0.097260859315675907 0 0.02320798257890765 0.1047443639128517 0 0.034802580128522533 0.108370238657299 0 0.02295827912300942 0.1143792008990337 0 0.02320798257890765 0.1047443639128517 0 0.0293641607415005 0.093050362526680058 0 0.027539824430943272 0.097260859315675907 0 0.019584721545335231 0.095933386042030777 0 0.027539824430943272 0.097260859315675907 0 0.019584721545335231 0.095933386042030777 0 0.02320798257890765 0.1047443639128517 0 0.0293641607415005 0.093050362526680058 0 0.027539824430943272 0.097260859315675907 0 0.019584721545335231 0.095933386042030777 0 0.02320798257890765 0.1047443639128517 0 0.01504081682007688 0.10253598369847031 0 0.02320798257890765 0.1047443639128517 0 0.017264926825327171 0.1093249123190818 0 0.01504081682007688 0.10253598369847031 0 0.0088228464681819972 0.10238366970120689 0 0.01151568020462046 0.1077378413705596 0 0.0058206420146291954 0.1114089238878985 0 0.017264926825327171 0.1093249123190818 0 0.01504081682007688 0.10253598369847031 0 0.01151568020462046 0.1077378413705596 0 0.01504081682007688 0.10253598369847031 0 0.0088228464681819972 0.10238366970120689 0 0.01151568020462046 0.1077378413705596 0 0.019584721545335231 0.095933386042030777 0 0.01504081682007688 0.10253598369847031 0 0.0096773837387348072 0.094713106344260181 0 0.01504081682007688 0.10253598369847031 0 0.0088228464681819972 0.10238366970120689 0 0.0096773837387348072 0.094713106344260181 0 0.0088228464681819972 0.10238366970120689 0 0.0096773837387348072 0.094713106344260181 0 0.0017142141577850001 0.096485027642689541 0 0.0088228464681819972 0.10238366970120689 0 0.0017142141577850001 0.096485027642689541 0 0.0058206420146291954 0.1114089238878985 0 0.0058206420146291954 0.1114089238878985 0 0.00039794405216867472 0.112072386291362 0 0.01360187540002143 0.11722717171449371 0 0.00039794405216867472 0.112072386291362 0 0.016633607451047409 0.12879447845417449 0 0.00039794405216867472 0.112072386291362 0 0.01360187540002143 0.11722717171449371 0 0.016633607451047409 0.12879447845417449 0 0.00039794405216867472 0.112072386291362 0 0.0010393500416724941 0.12595831854165979 0 0.016633607451047409 0.12879447845417449 0 0.01151568020462046 0.1077378413705596 0 0.0058206420146291954 0.1114089238878985 0 0.01360187540002143 0.11722717171449371 0 0.017264926825327171 0.1093249123190818 0 0.01151568020462046 0.1077378413705596 0 0.01360187540002143 0.11722717171449371 0 -0.0082797250895681185 0.13474448294352481 0 0.0010393500416724941 0.12595831854165979 0 0.01291562537333717 0.14373886088149129 0 0.0010393500416724941 0.12595831854165979 0 0.016633607451047409 0.12879447845417449 0 0.01291562537333717 0.14373886088149129 0 0.016633607451047409 0.12879447845417449 0 0.030096440749716711 0.14309687622970299 0 0.036209801575650402 0.12755429465012871 0 0.016633607451047409 0.12879447845417449 0 0.030096440749716711 0.14309687622970299 0 0.01291562537333717 0.14373886088149129 0 0.030096440749716711 0.14309687622970299 0 0.01291562537333717 0.14373886088149129 0 0.026789162612504271 0.15663130254031199 0 0.01291562537333717 0.14373886088149129 0 0.015650655317666261 0.15865613344587939 0 0.026789162612504271 0.15663130254031199 0 0.01291562537333717 0.14373886088149129 0 0.00151890392611572 0.15456094484017679 0 0.015650655317666261 0.15865613344587939 0 -0.0082797250895681185 0.13474448294352481 0 0.01291562537333717 0.14373886088149129 0 0.00151890392611572 0.15456094484017679 0 0.00151890392611572 0.15456094484017679 0 0.01131753294179963 0.17437740673682869 0 0.00151890392611572 0.15456094484017679 0 0.012386788017382491 0.1641388541230504 0 0.01131753294179963 0.17437740673682869 0 -0.0026654791677323511 0.16604552865166611 0 0.00151890392611572 0.15456094484017679 0 0.01131753294179963 0.17437740673682869 0 -0.0026654791677323511 0.16604552865166611 0 0.01131753294179963 0.17437740673682869 0 0.012386788017382491 0.1641388541230504 0 0.01131753294179963 0.17437740673682869 0 0.021060059883948341 0.16896093146931659 0 0.00151890392611572 0.15456094484017679 0 0.012386788017382491 0.1641388541230504 0 0.015650655317666261 0.15865613344587939 0 0.0072367552089822543 0.1840346549744645 0 0.003085550936940849 0.18695469644268639 0 0.007927604969267173 0.18944813828794729 0 0.0072367552089822543 0.1840346549744645 0 0.003085550936940849 0.18695469644268639 0 0.00053502205069707774 0.18188021690744111 0 -0.003081975793268537 0.18782002811878001 0 0.003085550936940849 0.18695469644268639 0 0.00053502205069707774 0.18188021690744111 0 0.0072367552089822543 0.1840346549744645 0 0.00053502205069707774 0.18188021690744111 0 0.0082701590199136289 0.17900500476799119 0 -0.0026654791677323511 0.16604552865166611 0 0.0024081860720475369 0.17557227428335351 0 0.01131753294179963 0.17437740673682869 0 0.0024081860720475369 0.17557227428335351 0 0.01131753294179963 0.17437740673682869 0 0.0082701590199136289 0.17900500476799119 0 0.00053502205069707774 0.18188021690744111 0 0.0024081860720475369 0.17557227428335351 0 0.0082701590199136289 0.17900500476799119 0 0.01131753294179963 0.17437740673682869 0 0.013543000689093809 0.1790660034635034 0 0.021389494149062459 0.18037885708243739 0 0.01131753294179963 0.17437740673682869 0 0.013543000689093809 0.1790660034635034 0 0.01131753294179963 0.17437740673682869 0 0.013543000689093809 0.1790660034635034 0 0.0082701590199136289 0.17900500476799119 0 0.013543000689093809 0.1790660034635034 0 0.0115175493401282 0.18523262863701309 0 0.016985704636488509 0.19275209946522329 0 0.0072367552089822543 0.1840346549744645 0 0.0082701590199136289 0.17900500476799119 0 0.0115175493401282 0.18523262863701309 0 0.013543000689093809 0.1790660034635034 0 0.0082701590199136289 0.17900500476799119 0 0.0115175493401282 0.18523262863701309 0 0.0072367552089822543 0.1840346549744645 0 0.0115175493401282 0.18523262863701309 0 0.007927604969267173 0.18944813828794729 0 0.021389494149062459 0.18037885708243739 0 0.039453436217199322 0.18340126598870379 0 0.013543000689093809 0.1790660034635034 0 0.021389494149062459 0.18037885708243739 0 0.02230428843080948 0.19662630733770359 0 0.013543000689093809 0.1790660034635034 0 0.021389494149062459 0.18037885708243739 0 0.01131753294179963 0.17437740673682869 0 0.021389494149062459 0.18037885708243739 0 0.01131753294179963 0.17437740673682869 0 0.021389494149062459 0.18037885708243739 0 0.021060059883948341 0.16896093146931659 0 0.021389494149062459 0.18037885708243739 0 0.021060059883948341 0.16896093146931659 0 0.034487576316221548 0.17006964541133651 0 0.021389494149062459 0.18037885708243739 0 0.036772518206031037 0.18954494233072339 0 0.012386788017382491 0.1641388541230504 0 0.015650655317666261 0.15865613344587939 0 0.021060059883948341 0.16896093146931659 0 0.015650655317666261 0.15865613344587939 0 0.021060059883948341 0.16896093146931659 0 0.026789162612504271 0.15663130254031199 0 0.021060059883948341 0.16896093146931659 0 0.026789162612504271 0.15663130254031199 0 0.034487576316221548 0.17006964541133651 0 0.026789162612504271 0.15663130254031199 0 0.034487576316221548 0.17006964541133651 0 0.046085208392249437 0.15020880948314461 0 0.034487576316221548 0.17006964541133651 0 0.049790080527993393 0.16878629006039211 0 0.046085208392249437 0.15020880948314461 0 0.021389494149062459 0.18037885708243739 0 0.039453436217199322 0.18340126598870379 0 0.036772518206031037 0.18954494233072339 0 0.021389494149062459 0.18037885708243739 0 0.034487576316221548 0.17006964541133651 0 0.039453436217199322 0.18340126598870379 0 0.034487576316221548 0.17006964541133651 0 0.039453436217199322 0.18340126598870379 0 0.049790080527993393 0.16878629006039211 0 0.039453436217199322 0.18340126598870379 0 0.057517378285335978 0.18642367489497111 0 0.049790080527993393 0.16878629006039211 0 0.057517378285335978 0.18642367489497111 0 0.06670876632053821 0.16536039993208129 0 0.039453436217199322 0.18340126598870379 0 0.057517378285335978 0.18642367489497111 0 0.039453436217199322 0.18340126598870379 0 0.057517378285335978 0.18642367489497111 0 0.046621016020550923 0.1898787739154234 0 0.057517378285335978 0.18642367489497111 0 0.049790080527993393 0.16878629006039211 0 0.06670876632053821 0.16536039993208129 0 0.056759789081437029 0.15816783404816359 0 0.049790080527993393 0.16878629006039211 0 0.06670876632053821 0.16536039993208129 0 0.056759789081437029 0.15816783404816359 0 0.049790080527993393 0.16878629006039211 0 0.046085208392249437 0.15020880948314461 0 0.056759789081437029 0.15816783404816359 0 0.046085208392249437 0.15020880948314461 0 0.06445510108496709 0.14831583671703669 0 0.054704645729867107 0.1303951701743557 0 0.046085208392249437 0.15020880948314461 0 0.06445510108496709 0.14831583671703669 0 0.054704645729867107 0.1303951701743557 0 0.046085208392249437 0.15020880948314461 0 0.054704645729867107 0.1303951701743557 0 0.036209801575650402 0.12755429465012871 0 0.046085208392249437 0.15020880948314461 0 0.030096440749716711 0.14309687622970299 0 0.036209801575650402 0.12755429465012871 0 0.046085208392249437 0.15020880948314461 0 0.030096440749716711 0.14309687622970299 0 0.026789162612504271 0.15663130254031199 0 0.046085208392249437 0.15020880948314461 0 0.02117589590128718 0.2395927914801684 0 0.012156823249103331 0.25259817100369902 0 0.030652172791378579 0.25229956247347313 0 0.02117589590128718 0.2395927914801684 0 0.034188277432347557 0.23988537883147459 0 0.030652172791378579 0.25229956247347313 0 0.02117589590128718 0.2395927914801684 0 0.030323397599499081 0.22959965211839081 0 0.034188277432347557 0.23988537883147459 0 -0.0082457657602449386 0.25246627485226031 0 -0.001965278602122185 0.24182690426762959 0 0.012156823249103331 0.25259817100369902 0 0.02117589590128718 0.2395927914801684 0 0.008579196815527634 0.23953031834541311 0 0.012156823249103331 0.25259817100369902 0 -0.001965278602122185 0.24182690426762959 0 0.008579196815527634 0.23953031834541311 0 0.012156823249103331 0.25259817100369902 0 -0.001965278602122185 0.24182690426762959 0 0.008579196815527634 0.23953031834541311 0 0.0010433620948100131 0.23240638127880581 0 0.02117589590128718 0.2395927914801684 0 0.008579196815527634 0.23953031834541311 0 0.01115565641706814 0.2303537873583584 0 0.008579196815527634 0.23953031834541311 0 0.01115565641706814 0.2303537873583584 0 0.0010433620948100131 0.23240638127880581 0 0.01115565641706814 0.2303537873583584 0 0.0010433620948100131 0.23240638127880581 0 0.0091084557899102862 0.2202403998025296 0 0.0010433620948100131 0.23240638127880581 0 0.0001093474821353509 0.22215689039817851 0 0.0091084557899102862 0.2202403998025296 0 0.01115565641706814 0.2303537873583584 0 0.0091084557899102862 0.2202403998025296 0 0.016496999093422449 0.223541986747673 0 0.0091084557899102862 0.2202403998025296 0 0.016496999093422449 0.223541986747673 0 0.01612020317490017 0.2152275371535412 0 0.016496999093422449 0.223541986747673 0 0.02147394042148347 0.23028557103733549 0 0.024626739663750161 0.22160263838659999 0 0.016496999093422449 0.223541986747673 0 0.024626739663750161 0.22160263838659999 0 0.01612020317490017 0.2152275371535412 0 0.01115565641706814 0.2303537873583584 0 0.016496999093422449 0.223541986747673 0 0.02147394042148347 0.23028557103733549 0 0.02117589590128718 0.2395927914801684 0 0.01115565641706814 0.2303537873583584 0 0.02147394042148347 0.23028557103733549 0 0.02147394042148347 0.23028557103733549 0 0.030323397599499081 0.22959965211839081 0 0.024626739663750161 0.22160263838659999 0 0.02117589590128718 0.2395927914801684 0 0.02147394042148347 0.23028557103733549 0 0.030323397599499081 0.22959965211839081 0 0.024626739663750161 0.22160263838659999 0 0.027508903383077599 0.21474836631904051 0 0.034268755792753257 0.2207932912834846 0 0.030323397599499081 0.22959965211839081 0 0.024626739663750161 0.22160263838659999 0 0.034268755792753257 0.2207932912834846 0 0.027508903383077599 0.21474836631904051 0 0.023943201944243639 0.1999111919537408 0 0.034268755792753257 0.2207932912834846 0 0.023943201944243639 0.1999111919537408 0 0.034268755792753257 0.2207932912834846 0 0.027508903383077599 0.21474836631904051 0 0.023922045305692211 0.20684028787671799 0 0.022699459496289199 0.2141990688659105 0 0.024626739663750161 0.22160263838659999 0 0.027508903383077599 0.21474836631904051 0 0.022699459496289199 0.2141990688659105 0 0.027508903383077599 0.21474836631904051 0 0.023922045305692211 0.20684028787671799 0 0.023943201944243639 0.1999111919537408 0 0.01896544066016782 0.20973745132843891 0 0.01612020317490017 0.2152275371535412 0 0.013247665380499421 0.20734461508933349 0 0.023922045305692211 0.20684028787671799 0 0.01896544066016782 0.20973745132843891 0 0.022699459496289199 0.2141990688659105 0 0.023922045305692211 0.20684028787671799 0 0.021734838082019509 0.20302577286306159 0 0.023943201944243639 0.1999111919537408 0 0.023922045305692211 0.20684028787671799 0 0.018650848458870179 0.20436341187488569 0 0.021734838082019509 0.20302577286306159 0 0.023922045305692211 0.20684028787671799 0 0.018650848458870179 0.20436341187488569 0 0.01896544066016782 0.20973745132843891 0 0.018650848458870179 0.20436341187488569 0 0.01896544066016782 0.20973745132843891 0 0.013247665380499421 0.20734461508933349 0 0.024626739663750161 0.22160263838659999 0 0.022699459496289199 0.2141990688659105 0 0.01612020317490017 0.2152275371535412 0 0.01896544066016782 0.20973745132843891 0 0.022699459496289199 0.2141990688659105 0 0.01612020317490017 0.2152275371535412 0 0.01612020317490017 0.2152275371535412 0 0.0085100262700745465 0.21094865931476009 0 0.013247665380499421 0.20734461508933349 0 0.0091084557899102862 0.2202403998025296 0 0.01612020317490017 0.2152275371535412 0 0.0085100262700745465 0.21094865931476009 0 0.0001093474821353509 0.22215689039817851 0 0.0091084557899102862 0.2202403998025296 0 0.00083142932333707279 0.21381627434491049 0 0.0091084557899102862 0.2202403998025296 0 0.0085100262700745465 0.21094865931476009 0 0.00083142932333707279 0.21381627434491049 0 0.0085100262700745465 0.21094865931476009 0 0.00083142932333707279 0.21381627434491049 0 0.0029581381265264858 0.20519393183106241 0 0.0085100262700745465 0.21094865931476009 0 0.0029581381265264858 0.20519393183106241 0 0.0087942658252738396 0.20386919766718339 0 0.0029581381265264858 0.20519393183106241 0 0.0087942658252738396 0.20386919766718339 0 0.0056326315351633537 0.2004899601979887 0 0.0085100262700745465 0.21094865931476009 0 0.0087942658252738396 0.20386919766718339 0 0.013247665380499421 0.20734461508933349 0 0.0087942658252738396 0.20386919766718339 0 0.013247665380499421 0.20734461508933349 0 0.013927284278231049 0.2027684573698135 0 0.018650848458870179 0.20436341187488569 0 0.013247665380499421 0.20734461508933349 0 0.013927284278231049 0.2027684573698135 0 0.013927284278231049 0.2027684573698135 0 0.010260103200158849 0.1991700010832006 0 0.016231602148303749 0.1987520895161983 0 0.010260103200158849 0.1991700010832006 0 0.01183675088797494 0.19419665586736051 0 0.016231602148303749 0.1987520895161983 0 0.010260103200158849 0.1991700010832006 0 0.0061740732670114221 0.19541611365695169 0 0.01183675088797494 0.19419665586736051 0 0.0087942658252738396 0.20386919766718339 0 0.010260103200158849 0.1991700010832006 0 0.0056326315351633537 0.2004899601979887 0 0.0087942658252738396 0.20386919766718339 0 0.013927284278231049 0.2027684573698135 0 0.010260103200158849 0.1991700010832006 0 0.010260103200158849 0.1991700010832006 0 0.0056326315351633537 0.2004899601979887 0 0.0061740732670114221 0.19541611365695169 0 -2.3422743153838069e-05 0.1988005567515452 0 0.0056326315351633537 0.2004899601979887 0 0.0061740732670114221 0.19541611365695169 0 -2.3422743153838069e-05 0.1988005567515452 0 0.0029581381265264858 0.20519393183106241 0 0.0056326315351633537 0.2004899601979887 0 -0.003081975793268537 0.18782002811878001 0 0.003085550936940849 0.18695469644268639 0 0.0015327128313205251 0.1915709431207247 0 -2.3422743153838069e-05 0.1988005567515452 0 0.0061740732670114221 0.19541611365695169 0 0.0015327128313205251 0.1915709431207247 0 0.0061740732670114221 0.19541611365695169 0 0.0015327128313205251 0.1915709431207247 0 0.007927604969267173 0.18944813828794729 0 0.003085550936940849 0.18695469644268639 0 0.0015327128313205251 0.1915709431207247 0 0.007927604969267173 0.18944813828794729 0 0.007927604969267173 0.18944813828794729 0 0.01183675088797494 0.19419665586736051 0 0.012456110925155389 0.1902446129755902 0 0.0115175493401282 0.18523262863701309 0 0.007927604969267173 0.18944813828794729 0 0.012456110925155389 0.1902446129755902 0 0.0061740732670114221 0.19541611365695169 0 0.007927604969267173 0.18944813828794729 0 0.01183675088797494 0.19419665586736051 0 0.01183675088797494 0.19419665586736051 0 0.012456110925155389 0.1902446129755902 0 0.016985704636488509 0.19275209946522329 0 0.01183675088797494 0.19419665586736051 0 0.016985704636488509 0.19275209946522329 0 0.016231602148303749 0.1987520895161983 0 0.0115175493401282 0.18523262863701309 0 0.012456110925155389 0.1902446129755902 0 0.016985704636488509 0.19275209946522329 0 0.021389494149062459 0.18037885708243739 0 0.02230428843080948 0.19662630733770359 0 0.036772518206031037 0.18954494233072339 0 0.013543000689093809 0.1790660034635034 0 0.02230428843080948 0.19662630733770359 0 0.013543000689093809 0.1790660034635034 0 0.016985704636488509 0.19275209946522329 0 0.02230428843080948 0.19662630733770359 0 0.016985704636488509 0.19275209946522329 0 0.019428477636303031 0.19812266709439569 0 0.016231602148303749 0.1987520895161983 0 0.019428477636303031 0.19812266709439569 0 0.016231602148303749 0.1987520895161983 0 0.020423256619271999 0.20098819974690199 0 0.018650848458870179 0.20436341187488569 0 0.016231602148303749 0.1987520895161983 0 0.020423256619271999 0.20098819974690199 0 0.018650848458870179 0.20436341187488569 0 0.013927284278231049 0.2027684573698135 0 0.016231602148303749 0.1987520895161983 0 0.019428477636303031 0.19812266709439569 0 0.020423256619271999 0.20098819974690199 0 0.023943201944243639 0.1999111919537408 0 0.018650848458870179 0.20436341187488569 0 0.020423256619271999 0.20098819974690199 0 0.021734838082019509 0.20302577286306159 0 0.020423256619271999 0.20098819974690199 0 0.021734838082019509 0.20302577286306159 0 0.023943201944243639 0.1999111919537408 0 0.016985704636488509 0.19275209946522329 0 0.02230428843080948 0.19662630733770359 0 0.023943201944243639 0.1999111919537408 0 0.016985704636488509 0.19275209946522329 0 0.019428477636303031 0.19812266709439569 0 0.023943201944243639 0.1999111919537408 0 0.02230428843080948 0.19662630733770359 0 0.023943201944243639 0.1999111919537408 0 0.02230428843080948 0.19662630733770359 0 0.023943201944243639 0.1999111919537408 0 0.035957366435008513 0.20647473970990701 0 0.02230428843080948 0.19662630733770359 0 0.050897121833006063 0.20159486356051531 0 0.035957366435008513 0.20647473970990701 0 0.02230428843080948 0.19662630733770359 0 0.036772518206031037 0.18954494233072339 0 0.050897121833006063 0.20159486356051531 0 0.02230428843080948 0.19662630733770359 0 0.050897121833006063 0.20159486356051531 0 0.036772518206031037 0.18954494233072339 0 0.050897121833006063 0.20159486356051531 0 0.052155542262999663 0.1987110275790093 0 0.036772518206031037 0.18954494233072339 0 0.052155542262999663 0.1987110275790093 0 0.036772518206031037 0.18954494233072339 0 0.046621016020550923 0.1898787739154234 0 0.052155542262999663 0.1987110275790093 0 0.039453436217199322 0.18340126598870379 0 0.036772518206031037 0.18954494233072339 0 0.046621016020550923 0.1898787739154234 0 0.057517378285335978 0.18642367489497111 0 0.046621016020550923 0.1898787739154234 0 0.052155542262999663 0.1987110275790093 0 0.057517378285335978 0.18642367489497111 0 0.052155542262999663 0.1987110275790093 0 0.057517378285335978 0.18642367489497111 0 0.057090951257530269 0.197109929087698 0 0.052155542262999663 0.1987110275790093 0 0.057517378285335978 0.18642367489497111 0 0.060667890749981898 0.1933513013873914 0 0.057090951257530269 0.197109929087698 0 0.060667890749981898 0.1933513013873914 0 0.057090951257530269 0.197109929087698 0 0.058031923789004708 0.2022125116707813 0 0.060667890749981898 0.1933513013873914 0 0.058031923789004708 0.2022125116707813 0 0.060667890749981898 0.1933513013873914 0 0.058031923789004708 0.2022125116707813 0 0.059673977213942478 0.20319094098477611 0 0.058031923789004708 0.2022125116707813 0 0.059673977213942478 0.20319094098477611 0 0.057090951257530269 0.197109929087698 0 0.058031923789004708 0.2022125116707813 0 0.052155542262999663 0.1987110275790093 0 0.058031923789004708 0.2022125116707813 0 0.052155542262999663 0.1987110275790093 0 0.058031923789004708 0.2022125116707813 0 0.050897121833006063 0.20159486356051531 0 0.052155542262999663 0.1987110275790093 0 0.058031923789004708 0.2022125116707813 0 0.050897121833006063 0.20159486356051531 0 0.050897121833006063 0.20159486356051531 0 0.052155542262999663 0.1987110275790093 0 0.050897121833006063 0.20159486356051531 0 0.042542699632676838 0.22074012119599501 0 0.053005439111290922 0.21910981667301421 0 0.058031923789004708 0.2022125116707813 0 0.050897121833006063 0.20159486356051531 0 0.053005439111290922 0.21910981667301421 0 0.058031923789004708 0.2022125116707813 0 0.053005439111290922 0.21910981667301421 0 0.058031923789004708 0.2022125116707813 0 0.061718375040706958 0.21244198365854619 0 0.053005439111290922 0.21910981667301421 0 0.058031923789004708 0.2022125116707813 0 0.059673977213942478 0.20319094098477611 0 0.061718375040706958 0.21244198365854619 0 0.061718375040706958 0.21244198365854619 0 0.053005439111290922 0.21910981667301421 0 0.062081063031912492 0.22413796841031719 0 0.050897121833006063 0.20159486356051531 0 0.042542699632676838 0.22074012119599501 0 0.023943201944243639 0.1999111919537408 0 0.035957366435008513 0.20647473970990701 0 0.034268755792753257 0.2207932912834846 0 0.050897121833006063 0.20159486356051531 0 0.038363073609551428 0.21412918370060571 0 0.042542699632676838 0.22074012119599501 0 0.050897121833006063 0.20159486356051531 0 0.035957366435008513 0.20647473970990701 0 0.038363073609551428 0.21412918370060571 0 0.038363073609551428 0.21412918370060571 0 0.034268755792753257 0.2207932912834846 0 0.042542699632676838 0.22074012119599501 0 0.035957366435008513 0.20647473970990701 0 0.038363073609551428 0.21412918370060571 0 0.034268755792753257 0.2207932912834846 0 0.042542699632676838 0.22074012119599501 0 0.034188277432347557 0.23988537883147459 0 0.042542699632676838 0.22074012119599501 0 0.04817080422001134 0.23536218897101929 0 0.044937254539659167 0.2379713478153713 0 0.030323397599499081 0.22959965211839081 0 0.042542699632676838 0.22074012119599501 0 0.034188277432347557 0.23988537883147459 0 0.042542699632676838 0.22074012119599501 0 0.044937254539659167 0.2379713478153713 0 0.034188277432347557 0.23988537883147459 0 0.030323397599499081 0.22959965211839081 0 0.034268755792753257 0.2207932912834846 0 0.042542699632676838 0.22074012119599501 0 0.053005439111290922 0.21910981667301421 0 0.04817080422001134 0.23536218897101929 0 0.053005439111290922 0.21910981667301421 0 0.062081063031912492 0.22413796841031719 0 0.04817080422001134 0.23536218897101929 0 0.062081063031912492 0.22413796841031719 0 0.04817080422001134 0.23536218897101929 0 0.059531729096570118 0.24099028160929839 0 0.042542699632676838 0.22074012119599501 0 0.053005439111290922 0.21910981667301421 0 0.04817080422001134 0.23536218897101929 0 0.062081063031912492 0.22413796841031719 0 0.04817080422001134 0.23536218897101929 0 0.04817080422001134 0.23536218897101929 0 0.052294646587479003 0.2493466198794505 0 0.04073495957405681 0.26035892983227987 0 0.04817080422001134 0.23536218897101929 0 0.059531729096570118 0.24099028160929839 0 0.052294646587479003 0.2493466198794505 0 0.059531729096570118 0.24099028160929839 0 0.067445722382230539 0.24771064348785149 0 0.06034442261467237 0.25120339486286308 0 0.059531729096570118 0.24099028160929839 0 0.052294646587479003 0.2493466198794505 0 0.06034442261467237 0.25120339486286308 0 0.04817080422001134 0.23536218897101929 0 0.04073495957405681 0.26035892983227987 0 0.04817080422001134 0.23536218897101929 0 0.044937254539659167 0.2379713478153713 0 0.04073495957405681 0.26035892983227987 0 0.04817080422001134 0.23536218897101929 0 0.044937254539659167 0.2379713478153713 0 0.044937254539659167 0.2379713478153713 0 0.034188277432347557 0.23988537883147459 0 0.030652172791378579 0.25229956247347313 0 0.085975255819246227 0.24304742420893821 0 0.091760355399887042 0.24149966876957779 0 0.085886262968569133 0.25948379364412733 0 0.091760355399887042 0.24149966876957779 0 0.10166443252893551 0.23659000017624271 0 0.085886262968569133 0.25948379364412733 0 0.085975255819246227 0.24304742420893821 0 0.091760355399887042 0.24149966876957779 0 0.090327239942362525 0.2312920649275291 0 0.085975255819246227 0.24304742420893821 0 0.075396639696560977 0.24390878816167419 0 0.077103558767455421 0.230534611802553 0 0.085975255819246227 0.24304742420893821 0 0.077103558767455421 0.230534611802553 0 0.090327239942362525 0.2312920649275291 0 0.085975255819246227 0.24304742420893821 0 0.075396639696560977 0.24390878816167419 0 0.080478695998155714 0.25165019938018113 0 0.075396639696560977 0.24390878816167419 0 0.074707437689247702 0.25389633834412328 0 0.080478695998155714 0.25165019938018113 0 0.075396639696560977 0.24390878816167419 0 0.067445722382230539 0.24771064348785149 0 0.068934414955804643 0.23628801399858909 0 0.075396639696560977 0.24390878816167419 0 0.067445722382230539 0.24771064348785149 0 0.074707437689247702 0.25389633834412328 0 0.059531729096570118 0.24099028160929839 0 0.067445722382230539 0.24771064348785149 0 0.068934414955804643 0.23628801399858909 0 0.075396639696560977 0.24390878816167419 0 0.068934414955804643 0.23628801399858909 0 0.077103558767455421 0.230534611802553 0 0.062081063031912492 0.22413796841031719 0 0.059531729096570118 0.24099028160929839 0 0.068934414955804643 0.23628801399858909 0 0.062081063031912492 0.22413796841031719 0 0.077103558767455421 0.230534611802553 0 0.077696208689423979 0.21392961690810641 0 0.077103558767455421 0.230534611802553 0 0.077696208689423979 0.21392961690810641 0 0.062081063031912492 0.22413796841031719 0 0.068934414955804643 0.23628801399858909 0 0.077103558767455421 0.230534611802553 0 0.077103558767455421 0.230534611802553 0 0.086723057100410644 0.21930832929599969 0 0.077696208689423979 0.21392961690810641 0 0.077103558767455421 0.230534611802553 0 0.090327239942362525 0.2312920649275291 0 0.086723057100410644 0.21930832929599969 0 0.090327239942362525 0.2312920649275291 0 0.086723057100410644 0.21930832929599969 0 0.099258091607832458 0.22228701345730209 0 0.08282365066700062 0.20740072564839451 0 0.1001331263781514 0.21054846617837791 0 0.08282365066700062 0.20740072564839451 0 0.0830920941513177 0.21288940176841251 0 0.1001331263781514 0.21054846617837791 0 0.086723057100410644 0.21930832929599969 0 0.0830920941513177 0.21288940176841251 0 0.1001331263781514 0.21054846617837791 0 0.08282365066700062 0.20740072564839451 0 0.077960793866212394 0.2065164116634538 0 0.08282365066700062 0.20740072564839451 0 0.07778409662064556 0.21146715366449201 0 0.077960793866212394 0.2065164116634538 0 0.08282365066700062 0.20740072564839451 0 0.0830920941513177 0.21288940176841251 0 0.07778409662064556 0.21146715366449201 0 0.08282365066700062 0.20740072564839451 0 0.07778409662064556 0.21146715366449201 0 0.086723057100410644 0.21930832929599969 0 0.077696208689423979 0.21392961690810641 0 0.086723057100410644 0.21930832929599969 0 0.0830920941513177 0.21288940176841251 0 0.077696208689423979 0.21392961690810641 0 0.0830920941513177 0.21288940176841251 0 0.07778409662064556 0.21146715366449201 0 0.077696208689423979 0.21392961690810641 0 0.059673977213942478 0.20319094098477611 0 0.077960793866212394 0.2065164116634538 0 0.062081063031912492 0.22413796841031719 0 0.077696208689423979 0.21392961690810641 0 0.075991321843812007 0.21291374784961289 0 0.059673977213942478 0.20319094098477611 0 0.075991321843812007 0.21291374784961289 0 0.059673977213942478 0.20319094098477611 0 0.061718375040706958 0.21244198365854619 0 0.075991321843812007 0.21291374784961289 0 0.059673977213942478 0.20319094098477611 0 0.075991321843812007 0.21291374784961289 0 0.077960793866212394 0.2065164116634538 0 0.07778409662064556 0.21146715366449201 0 0.077696208689423979 0.21392961690810641 0 0.075991321843812007 0.21291374784961289 0 0.07778409662064556 0.21146715366449201 0 0.077696208689423979 0.21392961690810641 0 0.07778409662064556 0.21146715366449201 0 0.075991321843812007 0.21291374784961289 0 0.077696208689423979 0.21392961690810641 0 0.075991321843812007 0.21291374784961289 0 0.062081063031912492 0.22413796841031719 0 0.075991321843812007 0.21291374784961289 0 0.061718375040706958 0.21244198365854619 0 0.062081063031912492 0.22413796841031719 0 0.075991321843812007 0.21291374784961289 0 0.07778409662064556 0.21146715366449201 0 0.075991321843812007 0.21291374784961289 0 0.077960793866212394 0.2065164116634538 0 0.07778409662064556 0.21146715366449201 0 0.077960793866212394 0.2065164116634538 0 0.060667890749981898 0.1933513013873914 0 0.069391780603767286 0.1985353247034998 0 0.078552310067739675 0.1899431815963343 0 0.059673977213942478 0.20319094098477611 0 0.077960793866212394 0.2065164116634538 0 0.069391780603767286 0.1985353247034998 0 0.057517378285335978 0.18642367489497111 0 0.060667890749981898 0.1933513013873914 0 0.078552310067739675 0.1899431815963343 0 0.077960793866212394 0.2065164116634538 0 0.069391780603767286 0.1985353247034998 0 0.078552310067739675 0.1899431815963343 0 0.057517378285335978 0.18642367489497111 0 0.078552310067739675 0.1899431815963343 0 0.060667890749981898 0.1933513013873914 0 0.059673977213942478 0.20319094098477611 0 0.069391780603767286 0.1985353247034998 0 0.077960793866212394 0.2065164116634538 0 0.078552310067739675 0.1899431815963343 0 0.08282365066700062 0.20740072564839451 0 0.078552310067739675 0.1899431815963343 0 0.1000095862482286 0.19353335379614581 0 0.08282365066700062 0.20740072564839451 0 0.077960793866212394 0.2065164116634538 0 0.078552310067739675 0.1899431815963343 0 0.08282365066700062 0.20740072564839451 0 0.1000095862482286 0.19353335379614581 0 0.078552310067739675 0.1899431815963343 0 0.1000095862482286 0.19353335379614581 0 0.1000095862482286 0.19353335379614581 0 0.1119621855324581 0.18388877331391679 0 0.1119621855324581 0.18388877331391679 0 0.12809949413598259 0.1982332796183166 0 0.12623709760602039 0.18867627876683751 0 0.1000095862482286 0.19353335379614581 0 0.12809949413598259 0.1982332796183166 0 0.1000095862482286 0.19353335379614581 0 0.1174426020893027 0.21369620670835879 0 0.12809949413598259 0.1982332796183166 0 0.1000095862482286 0.19353335379614581 0 0.1119621855324581 0.18388877331391679 0 0.12809949413598259 0.1982332796183166 0 0.1174426020893027 0.21369620670835879 0 0.12809949413598259 0.1982332796183166 0 0.1174426020893027 0.21369620670835879 0 0.13079881134157489 0.21612504290720769 0 0.1174426020893027 0.21369620670835879 0 0.1001331263781514 0.21054846617837791 0 0.1000095862482286 0.19353335379614581 0 0.1174426020893027 0.21369620670835879 0 0.1001331263781514 0.21054846617837791 0 0.08282365066700062 0.20740072564839451 0 0.1000095862482286 0.19353335379614581 0 0.1001331263781514 0.21054846617837791 0 0.1174426020893027 0.21369620670835879 0 0.1001331263781514 0.21054846617837791 0 0.099258091607832458 0.22228701345730209 0 0.086723057100410644 0.21930832929599969 0 0.1001331263781514 0.21054846617837791 0 0.099258091607832458 0.22228701345730209 0 0.1174426020893027 0.21369620670835879 0 0.099258091607832458 0.22228701345730209 0 0.10166443252893551 0.23659000017624271 0 0.090327239942362525 0.2312920649275291 0 0.099258091607832458 0.22228701345730209 0 0.10166443252893551 0.23659000017624271 0 0.11193009187841341 0.23778907333103991 0 0.1233060832280653 0.2372070654073864 0 0.13079881134157489 0.21612504290720769 0 0.1174426020893027 0.21369620670835879 0 0.11193009187841341 0.23778907333103991 0 0.10166443252893551 0.23659000017624271 0 0.1174426020893027 0.21369620670835879 0 0.11193009187841341 0.23778907333103991 0 0.13079881134157489 0.21612504290720769 0 0.11193009187841341 0.23778907333103991 0 0.13079881134157489 0.21612504290720769 0 0.1174426020893027 0.21369620670835879 0 0.10166443252893551 0.23659000017624271 0 0.11193009187841341 0.23778907333103991 0 0.1233060832280653 0.2372070654073864 0 0.1152979079485152 0.2467056018988516 0 0.1233060832280653 0.2372070654073864 0 0.1152979079485152 0.2467056018988516 0 0.1250676346401875 0.24796443701554319 0 0.11193009187841341 0.23778907333103991 0 0.1152979079485152 0.2467056018988516 0 0.10650461767427161 0.25132517155921902 0 0.11193009187841341 0.23778907333103991 0 0.10166443252893551 0.23659000017624271 0 0.093061372415253377 0.25945310375487363 0 0.10166443252893551 0.23659000017624271 0 0.085886262968569133 0.25948379364412733 0 0.11193009187841341 0.23778907333103991 0 0.093061372415253377 0.25945310375487363 0 0.11193009187841341 0.23778907333103991 0 0.093061372415253377 0.25945310375487363 0 0.10650461767427161 0.25132517155921902 0 0.091760355399887042 0.24149966876957779 0 0.090327239942362525 0.2312920649275291 0 0.10166443252893551 0.23659000017624271 0 0.08022281403025916 0.14313863688857029 0 0.093167312330706492 0.16073073013935579 0 0.097579150219516186 0.1459852772673329 0 0.08022281403025916 0.14313863688857029 0 0.079387562048995053 0.16654090924245221 0 0.08022281403025916 0.14313863688857029 0 0.097579150219516186 0.1459852772673329 0 0.098136173783193614 0.12855261503670501 0 0.081058066011519173 0.11973636453468819 0 0.08022281403025916 0.14313863688857029 0 0.081058066011519173 0.11973636453468819 0 0.08022281403025916 0.14313863688857029 0 0.098136173783193614 0.12855261503670501 0 0.054704645729867107 0.1303951701743557 0 0.068402942841081005 0.12865021266463919 0 0.06445510108496709 0.14831583671703669 0 0.081058066011519173 0.11973636453468819 0 0.08022281403025916 0.14313863688857029 0 0.068402942841081005 0.12865021266463919 0 0.08022281403025916 0.14313863688857029 0 0.068402942841081005 0.12865021266463919 0 0.06445510108496709 0.14831583671703669 0 0.08022281403025916 0.14313863688857029 0 0.06445510108496709 0.14831583671703669 0 0.079387562048995053 0.16654090924245221 0 0.06445510108496709 0.14831583671703669 0 0.06670876632053821 0.16536039993208129 0 0.079387562048995053 0.16654090924245221 0 0.056759789081437029 0.15816783404816359 0 0.06445510108496709 0.14831583671703669 0 0.06670876632053821 0.16536039993208129 0 0.06670876632053821 0.16536039993208129 0 0.071220178094475839 0.177519435916074 0 0.079387562048995053 0.16654090924245221 0 0.078552310067739675 0.1899431815963343 0 0.071220178094475839 0.177519435916074 0 0.079387562048995053 0.16654090924245221 0 0.057517378285335978 0.18642367489497111 0 0.078552310067739675 0.1899431815963343 0 0.071220178094475839 0.177519435916074 0 0.057517378285335978 0.18642367489497111 0 0.06670876632053821 0.16536039993208129 0 0.071220178094475839 0.177519435916074 0 0.078552310067739675 0.1899431815963343 0 0.079387562048995053 0.16654090924245221 0 0.078552310067739675 0.1899431815963343 0 0.079387562048995053 0.16654090924245221 0 0.094656188726405799 0.1772984468475671 0 0.078552310067739675 0.1899431815963343 0 0.1000095862482286 0.19353335379614581 0 0.094656188726405799 0.1772984468475671 0 0.079387562048995053 0.16654090924245221 0 0.093167312330706492 0.16073073013935579 0 0.094656188726405799 0.1772984468475671 0 0.08022281403025916 0.14313863688857029 0 0.079387562048995053 0.16654090924245221 0 0.093167312330706492 0.16073073013935579 0 0.093167312330706492 0.16073073013935579 0 0.1051682117550992 0.16863341283049499 0 0.094656188726405799 0.1772984468475671 0 0.093167312330706492 0.16073073013935579 0 0.1051682117550992 0.16863341283049499 0 0.10738037989590581 0.15691718048007991 0 0.1051682117550992 0.16863341283049499 0 0.094656188726405799 0.1772984468475671 0 0.1119621855324581 0.18388877331391679 0 0.1000095862482286 0.19353335379614581 0 0.094656188726405799 0.1772984468475671 0 0.1119621855324581 0.18388877331391679 0 0.1051682117550992 0.16863341283049499 0 0.1119621855324581 0.18388877331391679 0 0.1176573055604207 0.16965843036111 0 0.1119621855324581 0.18388877331391679 0 0.1176573055604207 0.16965843036111 0 0.12502668500631101 0.18003223183350331 0 0.1119621855324581 0.18388877331391679 0 0.12502668500631101 0.18003223183350331 0 0.12623709760602039 0.18867627876683751 0 0.10738037989590581 0.15691718048007991 0 0.1176573055604207 0.16965843036111 0 0.1263510041100718 0.15412713222648239 0 0.1051682117550992 0.16863341283049499 0 0.10738037989590581 0.15691718048007991 0 0.1176573055604207 0.16965843036111 0 0.10738037989590581 0.15691718048007991 0 0.1089890710575158 0.14058722379195329 0 0.1263510041100718 0.15412713222648239 0 0.1089890710575158 0.14058722379195329 0 0.1243116374868449 0.136850619307404 0 0.1263510041100718 0.15412713222648239 0 0.10738037989590581 0.15691718048007991 0 0.097579150219516186 0.1459852772673329 0 0.1089890710575158 0.14058722379195329 0 0.093167312330706492 0.16073073013935579 0 0.10738037989590581 0.15691718048007991 0 0.097579150219516186 0.1459852772673329 0 0.097579150219516186 0.1459852772673329 0 0.1089890710575158 0.14058722379195329 0 0.098136173783193614 0.12855261503670501 0 0.11707998843366239 0.12090166170324231 0 0.1089890710575158 0.14058722379195329 0 0.098136173783193614 0.12855261503670501 0 0.11707998843366239 0.12090166170324231 0 0.1089890710575158 0.14058722379195329 0 0.1243116374868449 0.136850619307404 0 0.11707998843366239 0.12090166170324231 0 0.1243116374868449 0.136850619307404 0 0.14061487869327599 0.12738787364596069 0 0.1243116374868449 0.136850619307404 0 0.14061487869327599 0.12738787364596069 0 0.1450893294801871 0.15084825440961219 0 0.14061487869327599 0.12738787364596069 0 0.1450893294801871 0.15084825440961219 0 0.16208469833826319 0.13464304631642149 0 0.1450893294801871 0.15084825440961219 0 0.16208469833826319 0.13464304631642149 0 0.1243116374868449 0.136850619307404 0 0.1450893294801871 0.15084825440961219 0 0.1263510041100718 0.15412713222648239 0 0.1450893294801871 0.15084825440961219 0 0.1263510041100718 0.15412713222648239 0 0.13434892063135129 0.1709012650253654 0 0.1176573055604207 0.16965843036111 0 0.1263510041100718 0.15412713222648239 0 0.13434892063135129 0.1709012650253654 0 0.1176573055604207 0.16965843036111 0 0.13434892063135129 0.1709012650253654 0 0.12502668500631101 0.18003223183350331 0 0.12502668500631101 0.18003223183350331 0 0.13317066441191511 0.18549658195139779 0 0.12623709760602039 0.18867627876683751 0 0.13434892063135129 0.1709012650253654 0 0.12502668500631101 0.18003223183350331 0 0.13317066441191511 0.18549658195139779 0 0.13434892063135129 0.1709012650253654 0 0.13317066441191511 0.18549658195139779 0 0.14289571148574401 0.18421669799074539 0 0.13434892063135129 0.1709012650253654 0 0.14289571148574401 0.18421669799074539 0 0.15014598838012391 0.16812378435884931 0 0.14289571148574401 0.18421669799074539 0 0.15014598838012391 0.16812378435884931 0 0.16340295837154781 0.17869074671240681 0 0.1450893294801871 0.15084825440961219 0 0.15014598838012391 0.16812378435884931 0 0.17025484901730581 0.156442106610301 0 0.1450893294801871 0.15084825440961219 0 0.13434892063135129 0.1709012650253654 0 0.15014598838012391 0.16812378435884931 0 0.15014598838012391 0.16812378435884931 0 0.17025484901730581 0.156442106610301 0 0.16340295837154781 0.17869074671240681 0 0.17025484901730581 0.156442106610301 0 0.16340295837154781 0.17869074671240681 0 0.18344157371591241 0.18406997535271 0 0.17025484901730581 0.156442106610301 0 0.18344157371591241 0.18406997535271 0 0.1981233639171355 0.16578679509823521 0 0.17025484901730581 0.156442106610301 0 0.1886017155567373 0.14211231666073301 0 0.1981233639171355 0.16578679509823521 0 0.17025484901730581 0.156442106610301 0 0.16208469833826319 0.13464304631642149 0 0.1886017155567373 0.14211231666073301 0 0.1886017155567373 0.14211231666073301 0 0.1790800671963392 0.1184378382232308 0 0.16208469833826319 0.13464304631642149 0 0.1886017155567373 0.14211231666073301 0 0.1790800671963392 0.1184378382232308 0 0.19325819231563421 0.12959887947710741 0 0.1886017155567373 0.14211231666073301 0 0.1790800671963392 0.1184378382232308 0 0.16208469833826319 0.13464304631642149 0 0.1790800671963392 0.1184378382232308 0 0.1450893294801871 0.15084825440961219 0 0.17025484901730581 0.156442106610301 0 0.16208469833826319 0.13464304631642149 0 0.1514273965657848 0.24085309905483679 0 0.13478444466321229 0.23767678351231611 0 0.14386495534927929 0.22895205141331151 0 0.1514273965657848 0.24085309905483679 0 0.13478444466321229 0.23767678351231611 0 0.1384713120865835 0.25773302092121009 0 0.1250676346401875 0.24796443701554319 0 0.13478444466321229 0.23767678351231611 0 0.1384713120865835 0.25773302092121009 0 0.1233060832280653 0.2372070654073864 0 0.1250676346401875 0.24796443701554319 0 0.13478444466321229 0.23767678351231611 0 0.1233060832280653 0.2372070654073864 0 0.13478444466321229 0.23767678351231611 0 0.13079881134157489 0.21612504290720769 0 0.13478444466321229 0.23767678351231611 0 0.14386495534927929 0.22895205141331151 0 0.13079881134157489 0.21612504290720769 0 0.14386495534927929 0.22895205141331151 0 0.13079881134157489 0.21612504290720769 0 0.15844916882654519 0.22115328017888419 0 0.1514273965657848 0.24085309905483679 0 0.14386495534927929 0.22895205141331151 0 0.15844916882654519 0.22115328017888419 0 0.13079881134157489 0.21612504290720769 0 0.15844916882654519 0.22115328017888419 0 0.13079881134157489 0.21612504290720769 0 0.14405659807402271 0.2009031781863346 0 0.15844916882654519 0.22115328017888419 0 0.13079881134157489 0.21612504290720769 0 0.12809949413598259 0.1982332796183166 0 0.14405659807402271 0.2009031781863346 0 0.1174426020893027 0.21369620670835879 0 0.13079881134157489 0.21612504290720769 0 0.12809949413598259 0.1982332796183166 0 0.13079881134157489 0.21612504290720769 0 0.14405659807402271 0.2009031781863346 0 0.12809949413598259 0.1982332796183166 0 0.14405659807402271 0.2009031781863346 0 0.12809949413598259 0.1982332796183166 0 0.1377541084679488 0.19338203871321119 0 0.14405659807402271 0.2009031781863346 0 0.12809949413598259 0.1982332796183166 0 0.13022991801334199 0.19514207920620891 0 0.1377541084679488 0.19338203871321119 0 0.12809949413598259 0.1982332796183166 0 0.13022991801334199 0.19514207920620891 0 0.12809949413598259 0.1982332796183166 0 0.12623709760602039 0.18867627876683751 0 0.13022991801334199 0.19514207920620891 0 0.13317066441191511 0.18549658195139779 0 0.12623709760602039 0.18867627876683751 0 0.13022991801334199 0.19514207920620891 0 0.13317066441191511 0.18549658195139779 0 0.14289571148574401 0.18421669799074539 0 0.1377541084679488 0.19338203871321119 0 0.13317066441191511 0.18549658195139779 0 0.13022991801334199 0.19514207920620891 0 0.1377541084679488 0.19338203871321119 0 0.14289571148574401 0.18421669799074539 0 0.1377541084679488 0.19338203871321119 0 0.14405659807402271 0.2009031781863346 0 0.14405659807402271 0.2009031781863346 0 0.1684266189286579 0.20498070278197239 0 0.14289571148574401 0.18421669799074539 0 0.16340295837154781 0.17869074671240681 0 0.14405659807402271 0.2009031781863346 0 0.16340295837154781 0.17869074671240681 0 0.14405659807402271 0.2009031781863346 0 0.16340295837154781 0.17869074671240681 0 0.18344157371591241 0.18406997535271 0 0.1684266189286579 0.20498070278197239 0 0.16340295837154781 0.17869074671240681 0 0.14405659807402271 0.2009031781863346 0 0.1684266189286579 0.20498070278197239 0 0.18344157371591241 0.18406997535271 0 0.1684266189286579 0.20498070278197239 0 0.19279663978329381 0.20905822737760699 0 0.1684266189286579 0.20498070278197239 0 0.19279663978329381 0.20905822737760699 0 0.17869659642439559 0.21414630976549021 0 0.1684266189286579 0.20498070278197239 0 0.19279663978329381 0.20905822737760699 0 0.17869659642439559 0.21414630976549021 0 0.18609952631151591 0.22618151745055959 0 0.19279663978329381 0.20905822737760699 0 0.14405659807402271 0.2009031781863346 0 0.1684266189286579 0.20498070278197239 0 0.15844916882654519 0.22115328017888419 0 0.17869659642439559 0.21414630976549021 0 0.1684266189286579 0.20498070278197239 0 0.15844916882654519 0.22115328017888419 0 0.1514273965657848 0.24085309905483679 0 0.15844916882654519 0.22115328017888419 0 0.1691493644934341 0.23606856512045299 0 0.15844916882654519 0.22115328017888419 0 0.18609952631151591 0.22618151745055959 0 0.1691493644934341 0.23606856512045299 0 0.17869659642439559 0.21414630976549021 0 0.15844916882654519 0.22115328017888419 0 0.18609952631151591 0.22618151745055959 0 0.15844916882654519 0.22115328017888419 0 0.18609952631151591 0.22618151745055959 0 0.18609952631151591 0.22618151745055959 0 0.1971008006350988 0.24422433182354611 0 0.17660728565697029 0.25284173787090108 0 0.18609952631151591 0.22618151745055959 0 0.1691493644934341 0.23606856512045299 0 0.17660728565697029 0.25284173787090108 0 0.1514273965657848 0.24085309905483679 0 0.17660728565697029 0.25284173787090108 0 0.1514273965657848 0.24085309905483679 0 0.1691493644934341 0.23606856512045299 0 0.17660728565697029 0.25284173787090108 0 0.1971008006350988 0.24422433182354611 0 0.21374988379648621 0.2312097547222359 0 0.2257125065402284 0.25431107802280528 0 0.18609952631151591 0.22618151745055959 0 0.19919001424274069 0.21902366269476331 0 0.2102140220753515 0.22438156273492879 0 0.18609952631151591 0.22618151745055959 0 0.1971008006350988 0.24422433182354611 0 0.21374988379648621 0.2312097547222359 0 0.18609952631151591 0.22618151745055959 0 0.21374988379648621 0.2312097547222359 0 0.18609952631151591 0.22618151745055959 0 0.2102140220753515 0.22438156273492879 0 0.21374988379648621 0.2312097547222359 0 0.19919001424274069 0.21902366269476331 0 0.2102140220753515 0.22438156273492879 0 0.22326984787173351 0.22831062181695069 0 0.19919001424274069 0.21902366269476331 0 0.21716666063792969 0.21313575197324039 0 0.22326984787173351 0.22831062181695069 0 0.19919001424274069 0.21902366269476331 0 0.22326984787173351 0.22831062181695069 0 0.2102140220753515 0.22438156273492879 0 0.21374988379648621 0.2312097547222359 0 0.2102140220753515 0.22438156273492879 0 0.21374988379648621 0.2312097547222359 0 0.22326984787173351 0.22831062181695069 0 0.21716666063792969 0.21313575197324039 0 0.19279663978329381 0.20905822737760699 0 0.20764501227753371 0.18946127353573741 0 0.21716666063792969 0.21313575197324039 0 0.19279663978329381 0.20905822737760699 0 0.19919001424274069 0.21902366269476331 0 0.21716666063792969 0.21313575197324039 0 0.19279663978329381 0.20905822737760699 0 0.18609952631151591 0.22618151745055959 0 0.19919001424274069 0.21902366269476331 0 0.19279663978329381 0.20905822737760699 0 0.18344157371591241 0.18406997535271 0 0.19279663978329381 0.20905822737760699 0 0.20764501227753371 0.18946127353573741 0 0.21716666063792969 0.21313575197324039 0 0.20764501227753371 0.18946127353573741 0 0.21716666063792969 0.21313575197324039 0 0.20764501227753371 0.18946127353573741 0 0.22349524510262589 0.1882929917077163 0 0.21716666063792969 0.21313575197324039 0 0.22349524510262589 0.1882929917077163 0 0.23482300448504159 0.1984970970255906 0 0.22349524510262589 0.1882929917077163 0 0.23482300448504159 0.1984970970255906 0 0.23800281531175979 0.18073324988006281 0 0.23482300448504159 0.1984970970255906 0 0.24828008483854189 0.20295934428596721 0 0.25113643024109478 0.19094495075723769 0 0.23482300448504159 0.1984970970255906 0 0.23800281531175979 0.18073324988006281 0 0.25113643024109478 0.19094495075723769 0 0.23482300448504159 0.1984970970255906 0 0.24828008483854189 0.20295934428596721 0 0.24332195560292991 0.2175119837032847 0 0.21716666063792969 0.21313575197324039 0 0.23482300448504159 0.1984970970255906 0 0.24332195560292991 0.2175119837032847 0 0.21716666063792969 0.21313575197324039 0 0.24332195560292991 0.2175119837032847 0 0.22527908084694109 0.23330634744632109 0 0.22326984787173351 0.22831062181695069 0 0.2459873280094696 0.23707215699401071 0 0.21716666063792969 0.21313575197324039 0 0.24332195560292991 0.2175119837032847 0 0.22326984787173351 0.22831062181695069 0 0.21716666063792969 0.21313575197324039 0 0.22326984787173351 0.22831062181695069 0 0.21374988379648621 0.2312097547222359 0 0.22527908084694109 0.23330634744632109 0 0.22326984787173351 0.22831062181695069 0 0.21374988379648621 0.2312097547222359 0 0.22527908084694109 0.23330634744632109 0 0.22527908084694109 0.23330634744632109 0 0.22326984787173351 0.22831062181695069 0 0.22326984787173351 0.22831062181695069 0 0.2459873280094696 0.23707215699401071 0 0.24332195560292991 0.2175119837032847 0 0.22326984787173351 0.22831062181695069 0 0.2459873280094696 0.23707215699401071 0 0.22527908084694109 0.23330634744632109 0 0.2459873280094696 0.23707215699401071 0 0.22527908084694109 0.23330634744632109 0 0.2459873280094696 0.23707215699401071 0 0.23435940432808119 0.2558835225658645 0 0.22527908084694109 0.23330634744632109 0 0.23435940432808119 0.2558835225658645 0 0.21374988379648621 0.2312097547222359 0 0.2257125065402284 0.25431107802280528 0 0.21374988379648621 0.2312097547222359 0 0.22527908084694109 0.23330634744632109 0 0.2257125065402284 0.25431107802280528 0 0.22527908084694109 0.23330634744632109 0 0.2257125065402284 0.25431107802280528 0 0.23435940432808119 0.2558835225658645 0 0.207677409848747 0.15265436726913009 0 0.20799191400454739 0.1375227668896451 0 0.22134903716669199 0.14708536363501609 0 0.20799191400454739 0.1375227668896451 0 0.22703691245497479 0.13189098412415109 0 0.21251029914637609 0.1192952894197942 0 0.20799191400454739 0.1375227668896451 0 0.19325819231563421 0.12959887947710741 0 0.21251029914637609 0.1192952894197942 0 0.20799191400454739 0.1375227668896451 0 0.19325819231563421 0.12959887947710741 0 0.1886017155567373 0.14211231666073301 0 0.1886017155567373 0.14211231666073301 0 0.1981233639171355 0.16578679509823521 0 0.207677409848747 0.15265436726913009 0 0.20799191400454739 0.1375227668896451 0 0.1886017155567373 0.14211231666073301 0 0.207677409848747 0.15265436726913009 0 0.1886017155567373 0.14211231666073301 0 0.1981233639171355 0.16578679509823521 0 0.20764501227753371 0.18946127353573741 0 0.1981233639171355 0.16578679509823521 0 0.18344157371591241 0.18406997535271 0 0.20764501227753371 0.18946127353573741 0 0.1981233639171355 0.16578679509823521 0 0.20764501227753371 0.18946127353573741 0 0.1981233639171355 0.16578679509823521 0 0.22193333897365611 0.16940236618161161 0 0.20764501227753371 0.18946127353573741 0 0.22349524510262589 0.1882929917077163 0 0.22193333897365611 0.16940236618161161 0 0.207677409848747 0.15265436726913009 0 0.1981233639171355 0.16578679509823521 0 0.22193333897365611 0.16940236618161161 0 0.207677409848747 0.15265436726913009 0 0.22193333897365611 0.16940236618161161 0 0.22134903716669199 0.14708536363501609 0 0.22349524510262589 0.1882929917077163 0 0.22193333897365611 0.16940236618161161 0 0.23800281531175979 0.18073324988006281 0 0.23800281531175979 0.18073324988006281 0 0.24342118736862761 0.16410875332904781 0 0.25421457754785548 0.17528354573505059 0 0.23800281531175979 0.18073324988006281 0 0.25421457754785548 0.17528354573505059 0 0.25113643024109478 0.19094495075723769 0 0.22193333897365611 0.16940236618161161 0 0.23800281531175979 0.18073324988006281 0 0.24342118736862761 0.16410875332904781 0 0.22193333897365611 0.16940236618161161 0 0.24342118736862761 0.16410875332904781 0 0.2381959797174126 0.14809141417820801 0 0.2381959797174126 0.14809141417820801 0 0.2471064899150823 0.133463067737116 0 0.25227113898158787 0.14916335431643429 0 0.24342118736862761 0.16410875332904781 0 0.2381959797174126 0.14809141417820801 0 0.25227113898158787 0.14916335431643429 0 0.2381959797174126 0.14809141417820801 0 0.22134903716669199 0.14708536363501609 0 0.22703691245497479 0.13189098412415109 0 0.22193333897365611 0.16940236618161161 0 0.2381959797174126 0.14809141417820801 0 0.22134903716669199 0.14708536363501609 0 0.20799191400454739 0.1375227668896451 0 0.22134903716669199 0.14708536363501609 0 0.22703691245497479 0.13189098412415109 0 0.22703691245497479 0.13189098412415109 0 0.2471064899150823 0.133463067737116 0 0.2348532799323845 0.1126728752525727 0 0.2381959797174126 0.14809141417820801 0 0.22703691245497479 0.13189098412415109 0 0.2471064899150823 0.133463067737116 0 0.2471064899150823 0.133463067737116 0 0.2496952397761337 0.1160329650041991 0 0.2348532799323845 0.1126728752525727 0 0.2348532799323845 0.1126728752525727 0 0.23238347446995899 0.09878858498409393 0 0.25089272908716931 0.092982859712809007 0 0.2496952397761337 0.1160329650041991 0 0.2348532799323845 0.1126728752525727 0 0.25089272908716931 0.092982859712809007 0 0.23238347446995899 0.09878858498409393 0 0.21965336389696419 0.1029970115124081 0 0.22413452496331809 0.086501593458585962 0 0.2348532799323845 0.1126728752525727 0 0.23238347446995899 0.09878858498409393 0 0.21965336389696419 0.1029970115124081 0 0.2348532799323845 0.1126728752525727 0 0.21965336389696419 0.1029970115124081 0 0.21251029914637609 0.1192952894197942 0 0.22703691245497479 0.13189098412415109 0 0.2348532799323845 0.1126728752525727 0 0.21251029914637609 0.1192952894197942 0 0.21965336389696419 0.1029970115124081 0 0.21251029914637609 0.1192952894197942 0 0.20714728240524249 0.10617251279081751 0 0.21251029914637609 0.1192952894197942 0 0.20714728240524249 0.10617251279081751 0 0.2007454095485067 0.1153730887768626 0 0.21965336389696419 0.1029970115124081 0 0.21155544327336909 0.093494818701204518 0 0.22413452496331809 0.086501593458585962 0 0.21965336389696419 0.1029970115124081 0 0.20714728240524249 0.10617251279081751 0 0.21155544327336909 0.093494818701204518 0 0.20029711589946361 0.098207227624031723 0 0.20055037116402991 0.091606906531847498 0 0.21155544327336909 0.093494818701204518 0 0.20714728240524249 0.10617251279081751 0 0.20029711589946361 0.098207227624031723 0 0.21155544327336909 0.093494818701204518 0 0.19812206266677551 0.107667640710604 0 0.20029711589946361 0.098207227624031723 0 0.1885688884481975 0.1093901779912298 0 0.20714728240524249 0.10617251279081751 0 0.19812206266677551 0.107667640710604 0 0.20029711589946361 0.098207227624031723 0 0.20029711589946361 0.098207227624031723 0 0.1929726046438287 0.094705252597794665 0 0.20055037116402991 0.091606906531847498 0 0.1929726046438287 0.094705252597794665 0 0.1885688884481975 0.1093901779912298 0 0.1832996600419958 0.1003897382564244 0 0.20029711589946361 0.098207227624031723 0 0.1929726046438287 0.094705252597794665 0 0.1885688884481975 0.1093901779912298 0 0.20029711589946361 0.098207227624031723 0 0.1885688884481975 0.1093901779912298 0 0.1929726046438287 0.094705252597794665 0 0.1885688884481975 0.1093901779912298 0 0.19812206266677551 0.107667640710604 0 0.19247123508700151 0.1156451737142033 0 0.1885688884481975 0.1093901779912298 0 0.19247123508700151 0.1156451737142033 0 0.1885688884481975 0.1093901779912298 0 0.1858372065203453 0.1184994265274882 0 0.19325819231563421 0.12959887947710741 0 0.21251029914637609 0.1192952894197942 0 0.2007454095485067 0.1153730887768626 0 0.19325819231563421 0.12959887947710741 0 0.19247123508700151 0.1156451737142033 0 0.1858372065203453 0.1184994265274882 0 0.19325819231563421 0.12959887947710741 0 0.19247123508700151 0.1156451737142033 0 0.2007454095485067 0.1153730887768626 0 0.20714728240524249 0.10617251279081751 0 0.19812206266677551 0.107667640710604 0 0.2007454095485067 0.1153730887768626 0 0.19812206266677551 0.107667640710604 0 0.19247123508700151 0.1156451737142033 0 0.2007454095485067 0.1153730887768626 0 0.20238686903042469 0.063311819413239129 0 0.1973763208394673 0.08002032720436178 0 0.18079222374313991 0.066157073385880324 0 0.20238686903042469 0.063311819413239129 0 0.18079222374313991 0.066157073385880324 0 0.1973763208394673 0.08002032720436178 0 0.17868141559437861 0.075492121278057239 0 0.20238686903042469 0.063311819413239129 0 0.1973763208394673 0.08002032720436178 0 0.1929726046438287 0.094705252597794665 0 0.1973763208394673 0.08002032720436178 0 0.1929726046438287 0.094705252597794665 0 0.1973763208394673 0.08002032720436178 0 0.18493574174144031 0.087819629641268118 0 0.1929726046438287 0.094705252597794665 0 0.20055037116402991 0.091606906531847498 0 0.1973763208394673 0.08002032720436178 0 0.1973763208394673 0.08002032720436178 0 0.22413452496331809 0.086501593458585962 0 0.1973763208394673 0.08002032720436178 0 0.21155544327336909 0.093494818701204518 0 0.22413452496331809 0.086501593458585962 0 0.1973763208394673 0.08002032720436178 0 0.21581045027983861 0.072515516379325212 0 0.22413452496331809 0.086501593458585962 0 0.20055037116402991 0.091606906531847498 0 0.1973763208394673 0.08002032720436178 0 0.21155544327336909 0.093494818701204518 0 0.20238686903042469 0.063311819413239129 0 0.21581045027983861 0.072515516379325212 0 0.22639199231908241 0.060148967164815811 0 0.20238686903042469 0.063311819413239129 0 0.1973763208394673 0.08002032720436178 0 0.21581045027983861 0.072515516379325212 0 0.21581045027983861 0.072515516379325212 0 0.22413452496331809 0.086501593458585962 0 0.23571274181676019 0.070187616308315881 0 0.21581045027983861 0.072515516379325212 0 0.23571274181676019 0.070187616308315881 0 0.22639199231908241 0.060148967164815811 0 0.23571274181676019 0.070187616308315881 0 0.23935269316475091 0.05797056278501677 0 0.22639199231908241 0.060148967164815811 0 0.22413452496331809 0.086501593458585962 0 0.25089272908716931 0.092982859712809007 0 0.22413452496331809 0.086501593458585962 0 0.23571274181676019 0.070187616308315881 0 0.25089272908716931 0.092982859712809007 0 0.23238347446995899 0.09878858498409393 0 0.22413452496331809 0.086501593458585962 0 0.25089272908716931 0.092982859712809007 0 0.23571274181676019 0.070187616308315881 0 0.25089272908716931 0.092982859712809007 0 0.23571274181676019 0.070187616308315881 0 0.25282536794073712 0.073272794188635415 0 0.25089272908716931 0.092982859712809007 0 0.23935269316475091 0.05797056278501677 0 0.25425538404847059 0.057624927133231481 0 0.25282536794073712 0.073272794188635415 0 0.23571274181676019 0.070187616308315881 0 0.23935269316475091 0.05797056278501677 0 0.25282536794073712 0.073272794188635415 0 0.2368345322212535 0.044434942105003657 0 0.25425538404847059 0.057624927133231481 0 0.23935269316475091 0.05797056278501677 0 0.2368345322212535 0.044434942105003657 0 0.25425538404847059 0.057624927133231481 0 0.23935269316475091 0.05797056278501677 0 0.2368345322212535 0.044434942105003657 0 0.23127016951469481 0.052559852354376588 0 0.2368345322212535 0.044434942105003657 0 0.25291178968964928 0.037547667281027097 0 0.25425538404847059 0.057624927133231481 0 0.2368345322212535 0.044434942105003657 0 0.24190969492169709 0.024768393557462999 0 0.25291178968964928 0.037547667281027097 0 0.2368345322212535 0.044434942105003657 0 0.21941368039403211 0.031244957076781411 0 0.2368345322212535 0.044434942105003657 0 0.22121604545690071 0.040326540279582428 0 0.22250146035369231 0.047684937362670127 0 0.2368345322212535 0.044434942105003657 0 0.22121604545690071 0.040326540279582428 0 0.21941368039403211 0.031244957076781411 0 0.2368345322212535 0.044434942105003657 0 0.24190969492169709 0.024768393557462999 0 0.21941368039403211 0.031244957076781411 0 0.22121604545690071 0.040326540279582428 0 0.22250146035369231 0.047684937362670127 0 0.2151241054634794 0.043140718643033253 0 0.22250146035369231 0.047684937362670127 0 0.22639199231908241 0.060148967164815811 0 0.21464985550632831 0.05254647609126252 0 0.23935269316475091 0.05797056278501677 0 0.22639199231908241 0.060148967164815811 0 0.23127016951469481 0.052559852354376588 0 0.2368345322212535 0.044434942105003657 0 0.22250146035369231 0.047684937362670127 0 0.23127016951469481 0.052559852354376588 0 0.22250146035369231 0.047684937362670127 0 0.22639199231908241 0.060148967164815811 0 0.23127016951469481 0.052559852354376588 0 0.23517440673197429 0.0051848507458196356 0 0.24190969492169709 0.024768393557462999 0 0.22860778246280219 0.01441509204728152 0 0.23517440673197429 0.0051848507458196356 0 0.2485551203034157 0.0102848256948572 0 0.24190969492169709 0.024768393557462999 0 0.23517440673197429 0.0051848507458196356 0 0.2429424487767215 0.0026164120279975069 0 0.24005113852307369 -0.0027355710512556022 0 0.23517440673197429 0.0051848507458196356 0 0.2429424487767215 0.0026164120279975069 0 0.2485551203034157 0.0102848256948572 0 0.2429424487767215 0.0026164120279975069 0 0.2485551203034157 0.0102848256948572 0 0.2479891295484222 -0.0022684572774312019 0 0.2237082671027216 0.020648212041472009 0 0.22100796739575951 0.001216664300799794 0 0.21337432104441539 0.026672329963493752 0 0.24190969492169709 0.024768393557462999 0 0.21941368039403211 0.031244957076781411 0 0.24190969492169709 0.024768393557462999 0 0.21941368039403211 0.031244957076781411 0 0.2237082671027216 0.020648212041472009 0 0.24190969492169709 0.024768393557462999 0 0.2237082671027216 0.020648212041472009 0 0.22860778246280219 0.01441509204728152 0 0.21941368039403211 0.031244957076781411 0 0.2237082671027216 0.020648212041472009 0 0.21337432104441539 0.026672329963493752 0 0.2237082671027216 0.020648212041472009 0 0.22860778246280219 0.01441509204728152 0 0.22100796739575951 0.001216664300799794 0 0.23517440673197429 0.0051848507458196356 0 0.22860778246280219 0.01441509204728152 0 0.22100796739575951 0.001216664300799794 0 0.22100796739575951 0.001216664300799794 0 0.21337432104441539 0.026672329963493752 0 0.22100796739575951 0.001216664300799794 0 0.21213365429295861 0.01041237886839381 0 0.21337432104441539 0.026672329963493752 0 0.20938161325362409 0.0025060029461209908 0 0.21213365429295861 0.01041237886839381 0 0.19981118715584381 0.0070254328827108366 0 0.20938161325362409 0.0025060029461209908 0 0.19981118715584381 0.0070254328827108366 0 0.20239897911060981 -0.0049616950454924097 0 0.22100796739575951 0.001216664300799794 0 0.21476518088515931 0.0026345493870347861 0 0.21213365429295861 0.01041237886839381 0 0.20938161325362409 0.0025060029461209908 0 0.21476518088515931 0.0026345493870347861 0 0.21653748859829491 -0.0035968485671754561 0 0.20938161325362409 0.0025060029461209908 0 0.21476518088515931 0.0026345493870347861 0 0.21213365429295861 0.01041237886839381 0 0.22100796739575951 0.001216664300799794 0 0.21476518088515931 0.0026345493870347861 0 0.21653748859829491 -0.0035968485671754561 0 0.21213365429295861 0.01041237886839381 0 0.20775643638324501 0.022418817258943329 0 0.19981118715584381 0.0070254328827108366 0 0.20775643638324501 0.022418817258943329 0 0.19981118715584381 0.0070254328827108366 0 0.21213365429295861 0.01041237886839381 0 0.20775643638324501 0.022418817258943329 0 0.21337432104441539 0.026672329963493752 0 0.20775643638324501 0.022418817258943329 0 0.21337432104441539 0.026672329963493752 0 0.21211661331991941 0.030866365927793071 0 0.21941368039403211 0.031244957076781411 0 0.21337432104441539 0.026672329963493752 0 0.21211661331991941 0.030866365927793071 0 0.21941368039403211 0.031244957076781411 0 0.21337432104441539 0.026672329963493752 0 0.21337432104441539 0.026672329963493752 0 0.21211661331991941 0.030866365927793071 0 0.20775643638324501 0.022418817258943329 0 0.21211661331991941 0.030866365927793071 0 0.2008624239423544 0.027751844864101351 0 0.21211661331991941 0.030866365927793071 0 0.2008624239423544 0.027751844864101351 0 0.21130283169949521 0.033580056331867662 0 0.20775643638324501 0.022418817258943329 0 0.21211661331991941 0.030866365927793071 0 0.20775643638324501 0.022418817258943329 0 0.21337432104441539 0.026672329963493752 0 0.2008624239423544 0.027751844864101351 0 0.1914807756371078 0.039286791852227318 0 0.1874867753674215 0.0231110496262097 0 0.2008624239423544 0.027751844864101351 0 0.19503111124693581 0.017247988187571551 0 0.1874867753674215 0.0231110496262097 0 0.19503111124693581 0.017247988187571551 0 0.18734518720319909 0.015281891910368059 0 0.1874867753674215 0.0231110496262097 0 0.20775643638324501 0.022418817258943329 0 0.2008624239423544 0.027751844864101351 0 0.19503111124693581 0.017247988187571551 0 0.20775643638324501 0.022418817258943329 0 0.19503111124693581 0.017247988187571551 0 0.18660242445042999 0.0064023156866817926 0 0.20775643638324501 0.022418817258943329 0 0.18660242445042999 0.0064023156866817926 0 0.20775643638324501 0.022418817258943329 0 0.1894192936343001 0.0060385698470956234 0 0.19981118715584381 0.0070254328827108366 0 0.20775643638324501 0.022418817258943329 0 0.1894192936343001 0.0060385698470956234 0 0.18660242445042999 0.0064023156866817926 0 0.19503111124693581 0.017247988187571551 0 0.18832376542685261 0.012450231659139751 0 0.18660242445042999 0.0064023156866817926 0 0.19503111124693581 0.017247988187571551 0 0.18832376542685261 0.012450231659139751 0 0.18734518720319909 0.015281891910368059 0 0.1894192936343001 0.0060385698470956234 0 0.19981118715584381 0.0070254328827108366 0 0.1918659379284415 -0.0083679514935210662 0 0.20238686903042469 0.063311819413239129 0 0.22639199231908241 0.060148967164815811 0 0.21464985550632831 0.05254647609126252 0 0.20238686903042469 0.063311819413239129 0 0.22639199231908241 0.060148967164815811 0 0.20238686903042469 0.063311819413239129 0 0.20684485036496281 0.04844593787255428 0 0.21464985550632831 0.05254647609126252 0 0.20238686903042469 0.063311819413239129 0 0.20684485036496281 0.04844593787255428 0 0.20684485036496281 0.04844593787255428 0 0.21464985550632831 0.05254647609126252 0 0.2151241054634794 0.043140718643033253 0 0.22250146035369231 0.047684937362670127 0 0.21464985550632831 0.05254647609126252 0 0.2151241054634794 0.043140718643033253 0 0.20684485036496281 0.04844593787255428 0 0.2151241054634794 0.043140718643033253 0 0.21130283169949521 0.033580056331867662 0 0.20684485036496281 0.04844593787255428 0 0.21130283169949521 0.033580056331867662 0 0.1914807756371078 0.039286791852227318 0 0.2151241054634794 0.043140718643033253 0 0.21130283169949521 0.033580056331867662 0 0.21323078658658201 0.03302500146766809 0 0.22121604545690071 0.040326540279582428 0 0.2151241054634794 0.043140718643033253 0 0.21323078658658201 0.03302500146766809 0 0.22121604545690071 0.040326540279582428 0 0.21941368039403211 0.031244957076781411 0 0.21323078658658201 0.03302500146766809 0 0.21941368039403211 0.031244957076781411 0 0.21211661331991941 0.030866365927793071 0 0.21323078658658201 0.03302500146766809 0 0.21941368039403211 0.031244957076781411 0 0.21323078658658201 0.03302500146766809 0 0.21130283169949521 0.033580056331867662 0 0.21323078658658201 0.03302500146766809 0 0.21211661331991941 0.030866365927793071 0 0.21130283169949521 0.033580056331867662 0 0.21323078658658201 0.03302500146766809 0 0.21211661331991941 0.030866365927793071 0 0.21130283169949521 0.033580056331867662 0 0.21211661331991941 0.030866365927793071 0 0.21323078658658201 0.03302500146766809 0 0.20684485036496281 0.04844593787255428 0 0.21130283169949521 0.033580056331867662 0 0.20684485036496281 0.04844593787255428 0 0.1914807756371078 0.039286791852227318 0 0.1906326876700713 0.052439029979298252 0 0.21130283169949521 0.033580056331867662 0 0.1914807756371078 0.039286791852227318 0 0.2008624239423544 0.027751844864101351 0 0.21130283169949521 0.033580056331867662 0 0.1914807756371078 0.039286791852227318 0 0.20238686903042469 0.063311819413239129 0 0.20684485036496281 0.04844593787255428 0 0.1906326876700713 0.052439029979298252 0 0.20238686903042469 0.063311819413239129 0 0.1906326876700713 0.052439029979298252 0 0.18079222374313991 0.066157073385880324 0 0.1906326876700713 0.052439029979298252 0 0.1716587195747214 0.044993527372590117 0 0.18079222374313991 0.066157073385880324 0 0.1914807756371078 0.039286791852227318 0 0.17895959729017549 0.03270519686463521 0 0.1874867753674215 0.0231110496262097 0 0.1914807756371078 0.039286791852227318 0 0.1906326876700713 0.052439029979298252 0 0.1716587195747214 0.044993527372590117 0 0.1914807756371078 0.039286791852227318 0 0.1716587195747214 0.044993527372590117 0 0.1914807756371078 0.039286791852227318 0 0.17895959729017549 0.03270519686463521 0 0.1716587195747214 0.044993527372590117 0 0.17895959729017549 0.03270519686463521 0 0.1716587195747214 0.044993527372590117 0 0.1692336025848987 0.033942773786365128 0 0.1716587195747214 0.044993527372590117 0 0.1692336025848987 0.033942773786365128 0 0.1566962317421734 0.039838803654011962 0 0.1716587195747214 0.044993527372590117 0 0.1566962317421734 0.039838803654011962 0 0.15183666351233449 0.050700262892952028 0 0.1692336025848987 0.033942773786365128 0 0.1566962317421734 0.039838803654011962 0 0.158601754226253 0.030081739901262169 0 0.1716587195747214 0.044993527372590117 0 0.15183666351233449 0.050700262892952028 0 0.15919757845585511 0.069002327358520896 0 0.1716587195747214 0.044993527372590117 0 0.18079222374313991 0.066157073385880324 0 0.15919757845585511 0.069002327358520896 0 0.1716587195747214 0.044993527372590117 0 0.15183666351233449 0.050700262892952028 0 0.17227434920368959 0.00081991249798677823 0 0.17658810010716819 0.0040568459827444014 0 0.17786282304025339 -0.001583287003114023 0 0.17227434920368959 0.00081991249798677823 0 0.17658810010716819 0.0040568459827444014 0 0.17233771352019589 0.0083561011481188656 0 0.17658810010716819 0.0040568459827444014 0 0.18177514670000741 0.0039010391453388991 0 0.17943453638861959 0.0091511058078182841 0 0.17658810010716819 0.0040568459827444014 0 0.17943453638861959 0.0091511058078182841 0 0.17233771352019589 0.0083561011481188656 0 0.17658810010716819 0.0040568459827444014 0 0.18177514670000741 0.0039010391453388991 0 0.17786282304025339 -0.001583287003114023 0 0.18177514670000741 0.0039010391453388991 0 0.18580903226614379 -0.0011502469314075439 0 0.17786282304025339 -0.001583287003114023 0 0.1894192936343001 0.0060385698470956234 0 0.18660242445042999 0.0064023156866817926 0 0.18580903226614379 -0.0011502469314075439 0 0.18177514670000741 0.0039010391453388991 0 0.18660242445042999 0.0064023156866817926 0 0.18580903226614379 -0.0011502469314075439 0 0.18177514670000741 0.0039010391453388991 0 0.18660242445042999 0.0064023156866817926 0 0.18303211158647559 0.0075807978729441382 0 0.18177514670000741 0.0039010391453388991 0 0.18303211158647559 0.0075807978729441382 0 0.17943453638861959 0.0091511058078182841 0 0.18303211158647559 0.0075807978729441382 0 0.18431633880684531 0.01086873085193758 0 0.17943453638861959 0.0091511058078182841 0 0.18660242445042999 0.0064023156866817926 0 0.18303211158647559 0.0075807978729441382 0 0.18431633880684531 0.01086873085193758 0 0.18832376542685261 0.012450231659139751 0 0.18660242445042999 0.0064023156866817926 0 0.18431633880684531 0.01086873085193758 0 0.18431633880684531 0.01086873085193758 0 0.18734518720319909 0.015281891910368059 0 0.18195036267736389 0.015275800378046231 0 0.18832376542685261 0.012450231659139751 0 0.18431633880684531 0.01086873085193758 0 0.18734518720319909 0.015281891910368059 0 0.18431633880684531 0.01086873085193758 0 0.18195036267736389 0.015275800378046231 0 0.17943453638861959 0.0091511058078182841 0 0.18195036267736389 0.015275800378046231 0 0.1761571917665653 0.013806221612761949 0 0.17943453638861959 0.0091511058078182841 0 0.1761571917665653 0.013806221612761949 0 0.17943453638861959 0.0091511058078182841 0 0.17233771352019589 0.0083561011481188656 0 0.1761571917665653 0.013806221612761949 0 0.17233771352019589 0.0083561011481188656 0 0.1709247624247007 0.01466984692398882 0 0.1761571917665653 0.013806221612761949 0 0.17493811328672779 0.022191841685783802 0 0.1709247624247007 0.01466984692398882 0 0.18195036267736389 0.015275800378046231 0 0.1761571917665653 0.013806221612761949 0 0.17493811328672779 0.022191841685783802 0 0.18734518720319909 0.015281891910368059 0 0.18195036267736389 0.015275800378046231 0 0.1874867753674215 0.0231110496262097 0 0.18195036267736389 0.015275800378046231 0 0.17493811328672779 0.022191841685783802 0 0.1874867753674215 0.0231110496262097 0 0.17895959729017549 0.03270519686463521 0 0.17493811328672779 0.022191841685783802 0 0.1874867753674215 0.0231110496262097 0 0.17895959729017549 0.03270519686463521 0 0.1692336025848987 0.033942773786365128 0 0.17493811328672779 0.022191841685783802 0 0.1692336025848987 0.033942773786365128 0 0.1660519956958274 0.025200646889517071 0 0.158601754226253 0.030081739901262169 0 0.1692336025848987 0.033942773786365128 0 0.17493811328672779 0.022191841685783802 0 0.1660519956958274 0.025200646889517071 0 0.1660519956958274 0.025200646889517071 0 0.158601754226253 0.030081739901262169 0 0.15656323758401319 0.020842958383828041 0 0.15656323758401319 0.020842958383828041 0 0.1655425680131333 0.017645951334422452 0 0.15799820797772829 0.01069464001977203 0 0.1660519956958274 0.025200646889517071 0 0.15656323758401319 0.020842958383828041 0 0.1655425680131333 0.017645951334422452 0 0.17493811328672779 0.022191841685783802 0 0.1660519956958274 0.025200646889517071 0 0.1655425680131333 0.017645951334422452 0 0.17493811328672779 0.022191841685783802 0 0.1655425680131333 0.017645951334422452 0 0.1709247624247007 0.01466984692398882 0 0.17233771352019589 0.0083561011481188656 0 0.1709247624247007 0.01466984692398882 0 0.16528784937855559 0.0099045707114697821 0 0.1655425680131333 0.017645951334422452 0 0.1709247624247007 0.01466984692398882 0 0.16528784937855559 0.0099045707114697821 0 0.1655425680131333 0.017645951334422452 0 0.16528784937855559 0.0099045707114697821 0 0.15799820797772829 0.01069464001977203 0 0.16528784937855559 0.0099045707114697821 0 0.15830422717032419 0.0026668804518291322 0 0.16550177429739321 0.001625335581948511 0 0.16528784937855559 0.0099045707114697821 0 0.15799820797772829 0.01069464001977203 0 0.15830422717032419 0.0026668804518291322 0 0.17233771352019589 0.0083561011481188656 0 0.16528784937855559 0.0099045707114697821 0 0.16550177429739321 0.001625335581948511 0 0.17227434920368959 0.00081991249798677823 0 0.17233771352019589 0.0083561011481188656 0 0.16550177429739321 0.001625335581948511 0 0.14127976741107601 0.00215554095495248 0 0.15230472087545879 0.0045339035350271751 0 0.14873370341600839 0.01190124285016711 0 0.15799820797772829 0.01069464001977203 0 0.15830422717032419 0.0026668804518291322 0 0.15230472087545879 0.0045339035350271751 0 0.14127976741107601 0.00215554095495248 0 0.15230472087545879 0.0045339035350271751 0 0.1552076984021574 -0.0047487866015848753 0 0.15830422717032419 0.0026668804518291322 0 0.15230472087545879 0.0045339035350271751 0 0.1552076984021574 -0.0047487866015848753 0 0.15656323758401319 0.020842958383828041 0 0.15799820797772829 0.01069464001977203 0 0.14873370341600839 0.01190124285016711 0 0.15799820797772829 0.01069464001977203 0 0.15230472087545879 0.0045339035350271751 0 0.14873370341600839 0.01190124285016711 0 0.14873370341600839 0.01190124285016711 0 0.1458857290053831 0.021389540043380069 0 0.13967636330765321 0.013174792475989121 0 0.14127976741107601 0.00215554095495248 0 0.14873370341600839 0.01190124285016711 0 0.13967636330765321 0.013174792475989121 0 0.1458857290053831 0.021389540043380069 0 0.13916191736165201 0.019633136795163032 0 0.13967636330765321 0.013174792475989121 0 0.1458857290053831 0.021389540043380069 0 0.14010063181871271 0.02585166497444577 0 0.13916191736165201 0.019633136795163032 0 0.15656323758401319 0.020842958383828041 0 0.1458857290053831 0.021389540043380069 0 0.15175299049851881 0.02729842449465077 0 0.15656323758401319 0.020842958383828041 0 0.14873370341600839 0.01190124285016711 0 0.1458857290053831 0.021389540043380069 0 0.158601754226253 0.030081739901262169 0 0.15656323758401319 0.020842958383828041 0 0.15175299049851881 0.02729842449465077 0 0.158601754226253 0.030081739901262169 0 0.15175299049851881 0.02729842449465077 0 0.15159127196488009 0.032471007951428398 0 0.15175299049851881 0.02729842449465077 0 0.14523576613563741 0.02976945682372012 0 0.15159127196488009 0.032471007951428398 0 0.1458857290053831 0.021389540043380069 0 0.14523576613563741 0.02976945682372012 0 0.14010063181871271 0.02585166497444577 0 0.14523576613563741 0.02976945682372012 0 0.14010063181871271 0.02585166497444577 0 0.1391322595465444 0.03699933077486834 0 0.1458857290053831 0.021389540043380069 0 0.15175299049851881 0.02729842449465077 0 0.14523576613563741 0.02976945682372012 0 0.1309849453148588 0.01811654968683717 0 0.1391322595465444 0.03699933077486834 0 0.14010063181871271 0.02585166497444577 0 0.1309849453148588 0.01811654968683717 0 0.1391322595465444 0.03699933077486834 0 0.11917198148314 0.002581966002757949 0 0.13034027439662041 0.028127834929059549 0 0.1309849453148588 0.01811654968683717 0 0.13034027439662041 0.028127834929059549 0 0.1309849453148588 0.01811654968683717 0 0.1391322595465444 0.03699933077486834 0 0.1309849453148588 0.01811654968683717 0 0.13916191736165201 0.019633136795163032 0 0.13967636330765321 0.013174792475989121 0 0.14010063181871271 0.02585166497444577 0 0.1309849453148588 0.01811654968683717 0 0.13916191736165201 0.019633136795163032 0 0.14127976741107601 0.00215554095495248 0 0.13362755423293271 0.0080562160832345926 0 0.1228376310831711 -0.00076623140119310329 0 0.1309849453148588 0.01811654968683717 0 0.13362755423293271 0.0080562160832345926 0 0.1228376310831711 -0.00076623140119310329 0 0.1309849453148588 0.01811654968683717 0 0.1228376310831711 -0.00076623140119310329 0 0.1309849453148588 0.01811654968683717 0 0.13362755423293271 0.0080562160832345926 0 0.13967636330765321 0.013174792475989121 0 0.14127976741107601 0.00215554095495248 0 0.13362755423293271 0.0080562160832345926 0 0.13967636330765321 0.013174792475989121 0 0.15183666351233449 0.050700262892952028 0 0.15919757845585511 0.069002327358520896 0 0.15048711395973299 0.060532750562707877 0 0.15183666351233449 0.050700262892952028 0 0.15919757845585511 0.069002327358520896 0 0.14215194880052681 0.055145346777992182 0 0.15048711395973299 0.060532750562707877 0 0.13253998066004699 0.064315925604492674 0 0.1415085673101022 0.053673703855360522 0 0.14215194880052681 0.055145346777992182 0 0.15183666351233449 0.050700262892952028 0 0.1415085673101022 0.053673703855360522 0 0.15183666351233449 0.050700262892952028 0 0.1415085673101022 0.053673703855360522 0 0.15183666351233449 0.050700262892952028 0 0.14453550543306221 0.044729731242042367 0 0.1415085673101022 0.053673703855360522 0 0.14215194880052681 0.055145346777992182 0 0.14215194880052681 0.055145346777992182 0 0.15048711395973299 0.060532750562707877 0 0.15183666351233449 0.050700262892952028 0 0.1415085673101022 0.053673703855360522 0 0.14453550543306221 0.044729731242042367 0 0.1391322595465444 0.03699933077486834 0 0.15183666351233449 0.050700262892952028 0 0.14566961722181801 0.035366614883496988 0 0.1566962317421734 0.039838803654011962 0 0.15183666351233449 0.050700262892952028 0 0.14566961722181801 0.035366614883496988 0 0.1566962317421734 0.039838803654011962 0 0.15159127196488009 0.032471007951428398 0 0.14566961722181801 0.035366614883496988 0 0.1566962317421734 0.039838803654011962 0 0.158601754226253 0.030081739901262169 0 0.15159127196488009 0.032471007951428398 0 0.14566961722181801 0.035366614883496988 0 0.14453550543306221 0.044729731242042367 0 0.1391322595465444 0.03699933077486834 0 0.14523576613563741 0.02976945682372012 0 0.15159127196488009 0.032471007951428398 0 0.14566961722181801 0.035366614883496988 0 0.14523576613563741 0.02976945682372012 0 0.14566961722181801 0.035366614883496988 0 0.1391322595465444 0.03699933077486834 0 0.15183666351233449 0.050700262892952028 0 0.14566961722181801 0.035366614883496988 0 0.14453550543306221 0.044729731242042367 0 0.13034027439662041 0.028127834929059549 0 0.1415085673101022 0.053673703855360522 0 0.13034027439662041 0.028127834929059549 0 0.1415085673101022 0.053673703855360522 0 0.1391322595465444 0.03699933077486834 0 0.12367169586596689 0.04413069599522032 0 0.13034027439662041 0.028127834929059549 0 0.1415085673101022 0.053673703855360522 0 0.11892469151436 0.060175562481194378 0 0.12367169586596689 0.04413069599522032 0 0.1415085673101022 0.053673703855360522 0 0.11892469151436 0.060175562481194378 0 0.1415085673101022 0.053673703855360522 0 0.11892469151436 0.060175562481194378 0 0.1415085673101022 0.053673703855360522 0 0.13253998066004699 0.064315925604492674 0 0.1415085673101022 0.053673703855360522 0 0.14215194880052681 0.055145346777992182 0 0.13253998066004699 0.064315925604492674 0 0.13253998066004699 0.064315925604492674 0 0.13121537104960351 0.072689189806444385 0 0.15446329543616341 0.069626104104570485 0 0.1243405792371938 0.066503547411893488 0 0.13253998066004699 0.064315925604492674 0 0.13121537104960351 0.072689189806444385 0 0.11892469151436 0.060175562481194378 0 0.1243405792371938 0.066503547411893488 0 0.13253998066004699 0.064315925604492674 0 0.13121537104960351 0.072689189806444385 0 0.14336397744542301 0.076431171561807093 0 0.13288821721910599 0.083857800247139097 0 0.15048711395973299 0.060532750562707877 0 0.13253998066004699 0.064315925604492674 0 0.15446329543616341 0.069626104104570485 0 0.13121537104960351 0.072689189806444385 0 0.15446329543616341 0.069626104104570485 0 0.13121537104960351 0.072689189806444385 0 0.14336397744542301 0.076431171561807093 0 0.15446329543616341 0.069626104104570485 0 0.13253998066004699 0.064315925604492674 0 0.15446329543616341 0.069626104104570485 0 0.14336397744542301 0.076431171561807093 0 0.15145508435945571 0.07730097997971673 0 0.15446329543616341 0.069626104104570485 0 0.15145508435945571 0.07730097997971673 0 0.15998651034928929 0.070963915351755544 0 0.15635019231632599 0.084708360937410687 0 0.15145508435945571 0.07730097997971673 0 0.15446329543616341 0.069626104104570485 0 0.15998651034928929 0.070963915351755544 0 0.15048711395973299 0.060532750562707877 0 0.15446329543616341 0.069626104104570485 0 0.15919757845585511 0.069002327358520896 0 0.1449478564828334 0.088262465871273704 0 0.15304430801011831 0.09759233646353245 0 0.15635019231632599 0.084708360937410687 0 0.15145508435945571 0.07730097997971673 0 0.1449478564828334 0.088262465871273704 0 0.15635019231632599 0.084708360937410687 0 0.14336397744542301 0.076431171561807093 0 0.15145508435945571 0.07730097997971673 0 0.1449478564828334 0.088262465871273704 0 0.1449478564828334 0.088262465871273704 0 0.13288821721910599 0.083857800247139097 0 0.1333435253298102 0.095432768439741328 0 0.14336397744542301 0.076431171561807093 0 0.1449478564828334 0.088262465871273704 0 0.13288821721910599 0.083857800247139097 0 0.1225478872688979 0.090713611373926736 0 0.1210037722340596 0.082520495593825793 0 0.13288821721910599 0.083857800247139097 0 0.1210037722340596 0.082520495593825793 0 0.13121537104960351 0.072689189806444385 0 0.13288821721910599 0.083857800247139097 0 0.1225478872688979 0.090713611373926736 0 0.13288821721910599 0.083857800247139097 0 0.1333435253298102 0.095432768439741328 0 0.1449478564828334 0.088262465871273704 0 0.1368974078767736 0.107501873099266 0 0.1333435253298102 0.095432768439741328 0 0.12018819637303869 0.10164151191590461 0 0.1368974078767736 0.107501873099266 0 0.1333435253298102 0.095432768439741328 0 0.12018819637303869 0.10164151191590461 0 0.1225478872688979 0.090713611373926736 0 0.1333435253298102 0.095432768439741328 0 0.11707998843366239 0.12090166170324231 0 0.14061487869327599 0.12738787364596069 0 0.1368974078767736 0.107501873099266 0 0.14061487869327599 0.12738787364596069 0 0.1368974078767736 0.107501873099266 0 0.1574927946018469 0.1127881056222175 0 0.14061487869327599 0.12738787364596069 0 0.16208469833826319 0.13464304631642149 0 0.1574927946018469 0.1127881056222175 0 0.1368974078767736 0.107501873099266 0 0.15304430801011831 0.09759233646353245 0 0.1574927946018469 0.1127881056222175 0 0.1449478564828334 0.088262465871273704 0 0.1368974078767736 0.107501873099266 0 0.15304430801011831 0.09759233646353245 0 0.15304430801011831 0.09759233646353245 0 0.1695332887728116 0.094700876787494351 0 0.1574927946018469 0.1127881056222175 0 0.1695332887728116 0.094700876787494351 0 0.1574927946018469 0.1127881056222175 0 0.1790800671963392 0.1184378382232308 0 0.16208469833826319 0.13464304631642149 0 0.1574927946018469 0.1127881056222175 0 0.1790800671963392 0.1184378382232308 0 0.1885688884481975 0.1093901779912298 0 0.1790800671963392 0.1184378382232308 0 0.1832996600419958 0.1003897382564244 0 0.1885688884481975 0.1093901779912298 0 0.1790800671963392 0.1184378382232308 0 0.1858372065203453 0.1184994265274882 0 0.1885688884481975 0.1093901779912298 0 0.1858372065203453 0.1184994265274882 0 0.1885688884481975 0.1093901779912298 0 0.1790800671963392 0.1184378382232308 0 0.19325819231563421 0.12959887947710741 0 0.1790800671963392 0.1184378382232308 0 0.1858372065203453 0.1184994265274882 0 0.1695332887728116 0.094700876787494351 0 0.1790800671963392 0.1184378382232308 0 0.1695332887728116 0.094700876787494351 0 0.1790800671963392 0.1184378382232308 0 0.1832996600419958 0.1003897382564244 0 0.1695332887728116 0.094700876787494351 0 0.1832996600419958 0.1003897382564244 0 0.18493574174144031 0.087819629641268118 0 0.1929726046438287 0.094705252597794665 0 0.1832996600419958 0.1003897382564244 0 0.18493574174144031 0.087819629641268118 0 0.1973763208394673 0.08002032720436178 0 0.18493574174144031 0.087819629641268118 0 0.17868141559437861 0.075492121278057239 0 0.1695332887728116 0.094700876787494351 0 0.18493574174144031 0.087819629641268118 0 0.17868141559437861 0.075492121278057239 0 0.1973763208394673 0.08002032720436178 0 0.17868141559437861 0.075492121278057239 0 0.18079222374313991 0.066157073385880324 0 0.17868141559437861 0.075492121278057239 0 0.18079222374313991 0.066157073385880324 0 0.15998651034928929 0.070963915351755544 0 0.18079222374313991 0.066157073385880324 0 0.15919757845585511 0.069002327358520896 0 0.18079222374313991 0.066157073385880324 0 0.15919757845585511 0.069002327358520896 0 0.15998651034928929 0.070963915351755544 0 0.17868141559437861 0.075492121278057239 0 0.15998651034928929 0.070963915351755544 0 0.15446329543616341 0.069626104104570485 0 0.15919757845585511 0.069002327358520896 0 0.15998651034928929 0.070963915351755544 0 0.15446329543616341 0.069626104104570485 0 0.15919757845585511 0.069002327358520896 0 0.15446329543616341 0.069626104104570485 0 0.15998651034928929 0.070963915351755544 0 0.15919757845585511 0.069002327358520896 0 0.15998651034928929 0.070963915351755544 0 0.1695332887728116 0.094700876787494351 0 0.17868141559437861 0.075492121278057239 0 0.15998651034928929 0.070963915351755544 0 0.15304430801011831 0.09759233646353245 0 0.1695332887728116 0.094700876787494351 0 0.15635019231632599 0.084708360937410687 0 0.1695332887728116 0.094700876787494351 0 0.15998651034928929 0.070963915351755544 0 0.1695332887728116 0.094700876787494351 0 0.15998651034928929 0.070963915351755544 0 0.15635019231632599 0.084708360937410687 0 0.097740131103692757 0.47211576306312553 0 0.10228396963995549 0.48764264937867408 0 0.092199203719590395 0.48872928857719472 0 0.097740131103692757 0.47211576306312553 0 0.1146358595090817 0.48605788153156299 0 0.097740131103692757 0.47211576306312553 0 0.10228396963995549 0.48764264937867408 0 0.1146358595090817 0.48605788153156299 0 0.1038255785689283 0.5 0 0.10228396963995549 0.48764264937867408 0 0.092199203719590395 0.48872928857719472 0 0.1038255785689283 0.5 0 0.10228396963995549 0.48764264937867408 0 0.1146358595090817 0.48605788153156299 0 0.1146358595090817 0.48605788153156299 0 0.13153158791447089 0.50000000000000033 0 0.1038255785689283 0.5 0 0.1146358595090817 0.48605788153156299 0 0.13153158791447089 0.50000000000000033 0 0.097740131103692757 0.47211576306312553 0 0.1146358595090817 0.48605788153156299 0 0.1160915578241386 0.4641835533930308 0 0.1146358595090817 0.48605788153156299 0 0.1160915578241386 0.4641835533930308 0 0.13792901651589951 0.46760966493884959 0 0.1160915578241386 0.4641835533930308 0 0.1237280261196836 0.44463014715047522 0 0.10202961426548091 0.45002724093957291 0 0.1237280261196836 0.44463014715047522 0 0.1057649319772677 0.43759517983083812 0 0.10202961426548091 0.45002724093957291 0 0.1057649319772677 0.43759517983083812 0 0.10202961426548091 0.45002724093957291 0 0.08764391112498858 0.43163178618934439 0 0.097740131103692757 0.47211576306312553 0 0.1160915578241386 0.4641835533930308 0 0.10202961426548091 0.45002724093957291 0 0.080844402698305312 0.45817364459468618 0 0.076730675362011974 0.47423156549521001 0 0.097740131103692757 0.47211576306312553 0 0.080844402698305312 0.45817364459468618 0 0.097740131103692757 0.47211576306312553 0 0.10202961426548091 0.45002724093957291 0 0.080844402698305312 0.45817364459468618 0 0.097740131103692757 0.47211576306312553 0 0.080844402698305312 0.45817364459468618 0 0.076730675362011974 0.47423156549521001 0 0.080844402698305312 0.45817364459468618 0 0.08764391112498858 0.43163178618934439 0 0.10202961426548091 0.45002724093957291 0 0.080844402698305312 0.45817364459468618 0 0.08764391112498858 0.43163178618934439 0 0.080844402698305312 0.45817364459468618 0 0.07540768018483697 0.44030754071393319 0 0.08764391112498858 0.43163178618934439 0 0.080844402698305312 0.45817364459468618 0 0.07540768018483697 0.44030754071393319 0 0.061556592319121653 0.44225761358074578 0 0.080844402698305312 0.45817364459468618 0 0.061556592319121653 0.44225761358074578 0 0.080844402698305312 0.45817364459468618 0 0.067859653170709522 0.45426422462270638 0 0.061556592319121653 0.44225761358074578 0 0.080844402698305312 0.45817364459468618 0 0.064346854003363874 0.46736183993319841 0 0.076730675362011974 0.47423156549521001 0 0.064346854003363874 0.46736183993319841 0 0.067859653170709522 0.45426422462270638 0 0.056076759981020123 0.44443419347066321 0 0.080844402698305312 0.45817364459468618 0 0.064346854003363874 0.46736183993319841 0 0.067859653170709522 0.45426422462270638 0 0.076730675362011974 0.47423156549521001 0 0.072616948025712127 0.490289486395732 0 0.064346854003363874 0.46736183993319841 0 0.072616948025712127 0.490289486395732 0 0.058055043786226751 0.49051055052906067 0 0.064346854003363874 0.46736183993319841 0 0.072616948025712127 0.490289486395732 0 0.064346854003363874 0.46736183993319841 0 0.076730675362011974 0.47423156549521001 0 0.072616948025712127 0.490289486395732 0 0.076730675362011974 0.47423156549521001 0 0.082075002421626492 0.48449271935339733 0 0.072616948025712127 0.490289486395732 0 0.097740131103692757 0.47211576306312553 0 0.076730675362011974 0.47423156549521001 0 0.082075002421626492 0.48449271935339733 0 0.097740131103692757 0.47211576306312553 0 0.092199203719590395 0.48872928857719472 0 0.082075002421626492 0.48449271935339733 0 0.1038255785689283 0.5 0 0.092199203719590395 0.48872928857719472 0 0.076119569223385697 0.50000000000000089 0 0.092199203719590395 0.48872928857719472 0 0.082075002421626492 0.48449271935339733 0 0.076119569223385697 0.50000000000000089 0 0.072616948025712127 0.490289486395732 0 0.07012930311136284 0.49999999999999661 0 0.076119569223385697 0.50000000000000089 0 0.072616948025712127 0.490289486395732 0 0.07012930311136284 0.49999999999999661 0 0.076119569223385697 0.50000000000000089 0 0.072616948025712127 0.490289486395732 0 0.082075002421626492 0.48449271935339733 0 0.076119569223385697 0.50000000000000089 0 0.072616948025712127 0.490289486395732 0 0.072616948025712127 0.490289486395732 0 0.07012930311136284 0.49999999999999661 0 0.058055043786226751 0.49051055052906067 0 0.058055043786226751 0.49051055052906067 0 0.046280597366186747 0.47957307303049429 0 0.044860440428939378 0.4999999999999995 0 0.07012930311136284 0.49999999999999661 0 0.058055043786226751 0.49051055052906067 0 0.044860440428939378 0.4999999999999995 0 0.064346854003363874 0.46736183993319841 0 0.058055043786226751 0.49051055052906067 0 0.046280597366186747 0.47957307303049429 0 0.046280597366186747 0.47957307303049429 0 0.047700754303434179 0.45914614606098908 0 0.046280597366186747 0.47957307303049429 0 0.029897162037545319 0.4839753813588808 0 0.03521852719449324 0.46736449501777538 0 0.044860440428939378 0.4999999999999995 0 0.01907995414838232 0.5 0 0.029897162037545319 0.4839753813588808 0 0.046280597366186747 0.47957307303049429 0 0.044860440428939378 0.4999999999999995 0 0.046280597366186747 0.47957307303049429 0 0.044860440428939378 0.4999999999999995 0 0.029897162037545319 0.4839753813588808 0 0.01907995414838232 0.5 0 0.029897162037545319 0.4839753813588808 0 0.01223017135109394 0.48399563131022733 0 0.029897162037545319 0.4839753813588808 0 0.02313076419329519 0.4718947066398041 0 0.01223017135109394 0.48399563131022733 0 0.029897162037545319 0.4839753813588808 0 0.02313076419329519 0.4718947066398041 0 0.03521852719449324 0.46736449501777538 0 0.02313076419329519 0.4718947066398041 0 0.01223017135109394 0.48399563131022733 0 0.01319884020628341 0.47022233111689332 0 -0.003880604538310756 0.48346324919380129 0 0.01223017135109394 0.48399563131022733 0 0.0050866533922729329 0.47701524235381432 0 0.01223017135109394 0.48399563131022733 0 0.01319884020628341 0.47022233111689332 0 0.0050866533922729329 0.47701524235381432 0 0.01319884020628341 0.47022233111689332 0 0.0053167838454733218 0.46943384557929257 0 0.0050866533922729329 0.47701524235381432 0 -0.001026908195020756 0.47486914558720472 0 0.0053167838454733218 0.46943384557929257 0 0.0050866533922729329 0.47701524235381432 0 -0.003880604538310756 0.48346324919380129 0 -0.001026908195020756 0.47486914558720472 0 0.0050866533922729329 0.47701524235381432 0 -0.0067005321321746969 0.5 0 0.01907995414838232 0.5 0 0.01223017135109394 0.48399563131022733 0 -0.0067005321321746969 0.5 0 -0.003880604538310756 0.48346324919380129 0 0.01223017135109394 0.48399563131022733 0 0.0094816941431487278 0.45086042579757712 0 0.01399183751309625 0.44462120914047132 0 0.0048617880261327502 0.44584476697033082 0 0.0094816941431487278 0.45086042579757712 0 0.01399183751309625 0.44462120914047132 0 0.016302396861864351 0.45114502888407948 0 0.01049598620797234 0.43767394788706171 0 0.01399183751309625 0.44462120914047132 0 0.0048617880261327502 0.44584476697033082 0 0.01049598620797234 0.43767394788706171 0 0.01399183751309625 0.44462120914047132 0 0.020379531913139331 0.43685778481219928 0 0.01049598620797234 0.43767394788706171 0 0.0048617880261327502 0.44584476697033082 0 0.01049598620797234 0.43767394788706171 0 0.0048617880261327502 0.44584476697033082 0 0.0065189226172944724 0.43188650626448272 0 0.0094816941431487278 0.45086042579757712 0 0.0048617880261327502 0.44584476697033082 0 0.0015605482097463411 0.45063228640423969 0 0.0048617880261327502 0.44584476697033082 0 0.0015605482097463411 0.45063228640423969 0 0.0094816941431487278 0.45086042579757712 0 0.0048617880261327502 0.44584476697033082 0 0.0015605482097463411 0.45063228640423969 0 0.0080738590363113663 0.46132998490476868 0 0.01222090350615627 0.45893997922115709 0 0.0015605482097463411 0.45063228640423969 0 0.01222090350615627 0.45893997922115709 0 -0.0094095992007081283 0.46654139838691122 0 0.0053167838454733218 0.46943384557929257 0 0.0080738590363113663 0.46132998490476868 0 0.0094816941431487278 0.45086042579757712 0 0.0015605482097463411 0.45063228640423969 0 0.01222090350615627 0.45893997922115709 0 -0.0094095992007081283 0.46654139838691122 0 0.0015605482097463411 0.45063228640423969 0 0.0080738590363113663 0.46132998490476868 0 0.0080738590363113663 0.46132998490476868 0 0.01222090350615627 0.45893997922115709 0 0.025557317273330941 0.45611857142262657 0 0.01319884020628341 0.47022233111689332 0 0.0080738590363113663 0.46132998490476868 0 0.025557317273330941 0.45611857142262657 0 0.01319884020628341 0.47022233111689332 0 0.0053167838454733218 0.46943384557929257 0 0.0080738590363113663 0.46132998490476868 0 0.0094816941431487278 0.45086042579757712 0 0.01222090350615627 0.45893997922115709 0 0.016302396861864351 0.45114502888407948 0 0.01222090350615627 0.45893997922115709 0 0.025557317273330941 0.45611857142262657 0 0.016302396861864351 0.45114502888407948 0 0.0080738590363113663 0.46132998490476868 0 0.025557317273330941 0.45611857142262657 0 0.02313076419329519 0.4718947066398041 0 0.01319884020628341 0.47022233111689332 0 0.025557317273330941 0.45611857142262657 0 0.02313076419329519 0.4718947066398041 0 0.025557317273330941 0.45611857142262657 0 0.03521852719449324 0.46736449501777538 0 0.025557317273330941 0.45611857142262657 0 0.029497972404799989 0.4465970104894148 0 0.021231693005787571 0.44530579808828252 0 0.025557317273330941 0.45611857142262657 0 0.016302396861864351 0.45114502888407948 0 0.021231693005787571 0.44530579808828252 0 0.01399183751309625 0.44462120914047132 0 0.016302396861864351 0.45114502888407948 0 0.021231693005787571 0.44530579808828252 0 0.01399183751309625 0.44462120914047132 0 0.021231693005787571 0.44530579808828252 0 0.020379531913139331 0.43685778481219928 0 0.029497972404799989 0.4465970104894148 0 0.021231693005787571 0.44530579808828252 0 0.030311313049230751 0.43763339856834432 0 0.021231693005787571 0.44530579808828252 0 0.030311313049230751 0.43763339856834432 0 0.020379531913139331 0.43685778481219928 0 0.038697605999956301 0.44825738244890739 0 0.047700754303434179 0.45914614606098908 0 0.049120911240681603 0.43871921909148398 0 0.029497972404799989 0.4465970104894148 0 0.038697605999956301 0.44825738244890739 0 0.040333793699140981 0.43958103258297831 0 0.029497972404799989 0.4465970104894148 0 0.030311313049230751 0.43763339856834432 0 0.040333793699140981 0.43958103258297831 0 0.025557317273330941 0.45611857142262657 0 0.029497972404799989 0.4465970104894148 0 0.038697605999956301 0.44825738244890739 0 0.038697605999956301 0.44825738244890739 0 0.040333793699140981 0.43958103258297831 0 0.049120911240681603 0.43871921909148398 0 0.046280597366186747 0.47957307303049429 0 0.03521852719449324 0.46736449501777538 0 0.047700754303434179 0.45914614606098908 0 0.025557317273330941 0.45611857142262657 0 0.038697605999956301 0.44825738244890739 0 0.03521852719449324 0.46736449501777538 0 0.038697605999956301 0.44825738244890739 0 0.03521852719449324 0.46736449501777538 0 0.047700754303434179 0.45914614606098908 0 0.064346854003363874 0.46736183993319841 0 0.056076759981020123 0.44443419347066321 0 0.064346854003363874 0.46736183993319841 0 0.046280597366186747 0.47957307303049429 0 0.047700754303434179 0.45914614606098908 0 0.064346854003363874 0.46736183993319841 0 0.047700754303434179 0.45914614606098908 0 0.056076759981020123 0.44443419347066321 0 0.047700754303434179 0.45914614606098908 0 0.049120911240681603 0.43871921909148398 0 0.056076759981020123 0.44443419347066321 0 0.047700754303434179 0.45914614606098908 0 0.049120911240681603 0.43871921909148398 0 0.067859653170709522 0.45426422462270638 0 0.056076759981020123 0.44443419347066321 0 0.061556592319121653 0.44225761358074578 0 0.056076759981020123 0.44443419347066321 0 0.061556592319121653 0.44225761358074578 0 0.059201111644200437 0.43099696977894508 0 0.056076759981020123 0.44443419347066321 0 0.047806665958676359 0.42150654700812801 0 0.049120911240681603 0.43871921909148398 0 0.056076759981020123 0.44443419347066321 0 0.047806665958676359 0.42150654700812801 0 0.056076759981020123 0.44443419347066321 0 0.059201111644200437 0.43099696977894508 0 0.047806665958676359 0.42150654700812801 0 0.059201111644200437 0.43099696977894508 0 0.058979725365252707 0.4176193763442323 0 0.047806665958676359 0.42150654700812801 0 0.058979725365252707 0.4176193763442323 0 0.039536571936328653 0.39857890054559408 0 0.063240005814886313 0.40658319209587829 0 0.058979725365252707 0.4176193763442323 0 0.047806665958676359 0.42150654700812801 0 0.039536571936328653 0.39857890054559408 0 0.035113551011259521 0.41687403621696922 0 0.02872917033170445 0.40503675834663061 0 0.039536571936328653 0.39857890054559408 0 0.047806665958676359 0.42150654700812801 0 0.039536571936328653 0.39857890054559408 0 0.047806665958676359 0.42150654700812801 0 0.035113551011259521 0.41687403621696922 0 0.039536571936328653 0.39857890054559408 0 0.049120911240681603 0.43871921909148398 0 0.047806665958676359 0.42150654700812801 0 0.039708047704291503 0.4306454839277386 0 0.040333793699140981 0.43958103258297831 0 0.049120911240681603 0.43871921909148398 0 0.039708047704291503 0.4306454839277386 0 0.047806665958676359 0.42150654700812801 0 0.035113551011259521 0.41687403621696922 0 0.039708047704291503 0.4306454839277386 0 0.035113551011259521 0.41687403621696922 0 0.039708047704291503 0.4306454839277386 0 0.028741688689164512 0.42811504149697438 0 0.030311313049230751 0.43763339856834432 0 0.039708047704291503 0.4306454839277386 0 0.028741688689164512 0.42811504149697438 0 0.030311313049230751 0.43763339856834432 0 0.040333793699140981 0.43958103258297831 0 0.039708047704291503 0.4306454839277386 0 0.030311313049230751 0.43763339856834432 0 0.020379531913139331 0.43685778481219928 0 0.028741688689164512 0.42811504149697438 0 0.01049598620797234 0.43767394788706171 0 0.020379531913139331 0.43685778481219928 0 0.01750467301358458 0.42779731369206181 0 0.020379531913139331 0.43685778481219928 0 0.01750467301358458 0.42779731369206181 0 0.028741688689164512 0.42811504149697438 0 0.01750467301358458 0.42779731369206181 0 0.028741688689164512 0.42811504149697438 0 0.02615916144738779 0.41736148597675132 0 0.035113551011259521 0.41687403621696922 0 0.028741688689164512 0.42811504149697438 0 0.02615916144738779 0.41736148597675132 0 0.02615916144738779 0.41736148597675132 0 0.010437450069317761 0.40463061763750507 0 0.02872917033170445 0.40503675834663061 0 0.02615916144738779 0.41736148597675132 0 0.01517065216307991 0.41806138940930709 0 0.010437450069317761 0.40463061763750507 0 0.035113551011259521 0.41687403621696922 0 0.02615916144738779 0.41736148597675132 0 0.02872917033170445 0.40503675834663061 0 0.01750467301358458 0.42779731369206181 0 0.02615916144738779 0.41736148597675132 0 0.01517065216307991 0.41806138940930709 0 -0.003174347114314008 0.41591217031924949 0 0.0065813241220295041 0.42245614033091039 0 0.010437450069317761 0.40463061763750507 0 -0.0064316016559190746 0.3999483233353413 0 -0.003174347114314008 0.41591217031924949 0 0.010437450069317761 0.40463061763750507 0 0.01517065216307991 0.41806138940930709 0 0.0065813241220295041 0.42245614033091039 0 0.010437450069317761 0.40463061763750507 0 -0.003174347114314008 0.41591217031924949 0 0.010437450069317761 0.40463061763750507 0 -0.003174347114314008 0.41591217031924949 0 0.0065813241220295041 0.42245614033091039 0 -0.0026301228576318379 0.42717885202372191 0 -0.003174347114314008 0.41591217031924949 0 0.0065813241220295041 0.42245614033091039 0 -0.0026301228576318379 0.42717885202372191 0 0.0065813241220295041 0.42245614033091039 0 0.0065189226172944724 0.43188650626448272 0 -0.0026301228576318379 0.42717885202372191 0 0.0048617880261327502 0.44584476697033082 0 0.0065189226172944724 0.43188650626448272 0 0.01049598620797234 0.43767394788706171 0 0.01750467301358458 0.42779731369206181 0 0.0065189226172944724 0.43188650626448272 0 0.01750467301358458 0.42779731369206181 0 0.0065813241220295041 0.42245614033091039 0 0.0065189226172944724 0.43188650626448272 0 0.01750467301358458 0.42779731369206181 0 0.01517065216307991 0.41806138940930709 0 0.0065813241220295041 0.42245614033091039 0 -0.0042030409966118051 0.38380869400061962 0 0.01009735409817194 0.38238429504652488 0 0.02404924725294803 0.393349064955759 0 -0.0042030409966118051 0.38380869400061962 0 0.02404924725294803 0.393349064955759 0 0.01009735409817194 0.38238429504652488 0 0.0197357255374827 0.37571737083264412 0 0.011110712074150059 0.37343232972227269 0 -0.001064505034491721 0.37161458349227261 0 0.01009735409817194 0.38238429504652488 0 0.011110712074150059 0.37343232972227269 0 -0.001064505034491721 0.37161458349227261 0 -0.0042030409966118051 0.38380869400061962 0 0.01009735409817194 0.38238429504652488 0 -0.0042030409966118051 0.38380869400061962 0 0.01009735409817194 0.38238429504652488 0 -0.0042030409966118051 0.38380869400061962 0 0.010437450069317761 0.40463061763750507 0 0.02404924725294803 0.393349064955759 0 0.010437450069317761 0.40463061763750507 0 0.02872917033170445 0.40503675834663061 0 0.02404924725294803 0.393349064955759 0 0.010437450069317761 0.40463061763750507 0 0.02404924725294803 0.393349064955759 0 0.02872917033170445 0.40503675834663061 0 0.02404924725294803 0.393349064955759 0 0.039536571936328653 0.39857890054559408 0 0.02404924725294803 0.393349064955759 0 0.034519904376963118 0.38467091111880503 0 0.02404924725294803 0.393349064955759 0 0.0197357255374827 0.37571737083264412 0 0.034519904376963118 0.38467091111880503 0 0.01009735409817194 0.38238429504652488 0 0.02404924725294803 0.393349064955759 0 0.0197357255374827 0.37571737083264412 0 0.034519904376963118 0.38467091111880503 0 0.050307067216076778 0.37158640017128619 0 0.034519904376963118 0.38467091111880503 0 0.039536571936328653 0.39857890054559408 0 0.056773536515482913 0.38908479613358171 0 0.02404924725294803 0.393349064955759 0 0.039536571936328653 0.39857890054559408 0 0.034519904376963118 0.38467091111880503 0 0.039536571936328653 0.39857890054559408 0 0.02404924725294803 0.393349064955759 0 0.034519904376963118 0.38467091111880503 0 0.039536571936328653 0.39857890054559408 0 0.039536571936328653 0.39857890054559408 0 0.063240005814886313 0.40658319209587829 0 0.039536571936328653 0.39857890054559408 0 0.056773536515482913 0.38908479613358171 0 0.063240005814886313 0.40658319209587829 0 0.056773536515482913 0.38908479613358171 0 0.063240005814886313 0.40658319209587829 0 0.056773536515482913 0.38908479613358171 0 0.059721524030669819 0.37431687333309788 0 0.050307067216076778 0.37158640017128619 0 0.056773536515482913 0.38908479613358171 0 0.050307067216076778 0.37158640017128619 0 0.034519904376963118 0.38467091111880503 0 0.056773536515482913 0.38908479613358171 0 0.050307067216076778 0.37158640017128619 0 0.056773536515482913 0.38908479613358171 0 0.069041936002645535 0.37820082441249081 0 0.059721524030669819 0.37431687333309788 0 0.056773536515482913 0.38908479613358171 0 0.069041936002645535 0.37820082441249081 0 0.068225210254675303 0.39186969982647402 0 0.069041936002645535 0.37820082441249081 0 0.078928226936330073 0.3918395352538776 0 0.068225210254675303 0.39186969982647402 0 0.069041936002645535 0.37820082441249081 0 0.087739402474845588 0.37833299208434412 0 0.078928226936330073 0.3918395352538776 0 0.087739402474845588 0.37833299208434412 0 0.078928226936330073 0.3918395352538776 0 0.094443419551670932 0.40508992778400232 0 0.078928226936330073 0.3918395352538776 0 0.080832552055978585 0.40498983155533402 0 0.094443419551670932 0.40508992778400232 0 0.080832552055978585 0.40498983155533402 0 0.073695702888484968 0.40005040040525608 0 0.075088081656536507 0.41058410832735293 0 0.078928226936330073 0.3918395352538776 0 0.080832552055978585 0.40498983155533402 0 0.073695702888484968 0.40005040040525608 0 0.056773536515482913 0.38908479613358171 0 0.068225210254675303 0.39186969982647402 0 0.063240005814886313 0.40658319209587829 0 0.073695702888484968 0.40005040040525608 0 0.063240005814886313 0.40658319209587829 0 0.075088081656536507 0.41058410832735293 0 0.078928226936330073 0.3918395352538776 0 0.073695702888484968 0.40005040040525608 0 0.068225210254675303 0.39186969982647402 0 0.073695702888484968 0.40005040040525608 0 0.068225210254675303 0.39186969982647402 0 0.063240005814886313 0.40658319209587829 0 0.058979725365252707 0.4176193763442323 0 0.063240005814886313 0.40658319209587829 0 0.071585814596931419 0.42916711849095618 0 0.063240005814886313 0.40658319209587829 0 0.075088081656536507 0.41058410832735293 0 0.071585814596931419 0.42916711849095618 0 0.063240005814886313 0.40658319209587829 0 0.071585814596931419 0.42916711849095618 0 0.063240005814886313 0.40658319209587829 0 0.075088081656536507 0.41058410832735293 0 0.075088081656536507 0.41058410832735293 0 0.071585814596931419 0.42916711849095618 0 0.082007329246870417 0.41738518600618091 0 0.061556592319121653 0.44225761358074578 0 0.059201111644200437 0.43099696977894508 0 0.071585814596931419 0.42916711849095618 0 0.07540768018483697 0.44030754071393319 0 0.061556592319121653 0.44225761358074578 0 0.071585814596931419 0.42916711849095618 0 0.059201111644200437 0.43099696977894508 0 0.058979725365252707 0.4176193763442323 0 0.071585814596931419 0.42916711849095618 0 0.07540768018483697 0.44030754071393319 0 0.071585814596931419 0.42916711849095618 0 0.08764391112498858 0.43163178618934439 0 0.071585814596931419 0.42916711849095618 0 0.08764391112498858 0.43163178618934439 0 0.082007329246870417 0.41738518600618091 0 0.08764391112498858 0.43163178618934439 0 0.082007329246870417 0.41738518600618091 0 0.094443419551670932 0.40508992778400232 0 0.08764391112498858 0.43163178618934439 0 0.094443419551670932 0.40508992778400232 0 0.080832552055978585 0.40498983155533402 0 0.075088081656536507 0.41058410832735293 0 0.082007329246870417 0.41738518600618091 0 0.080832552055978585 0.40498983155533402 0 0.082007329246870417 0.41738518600618091 0 0.094443419551670932 0.40508992778400232 0 0.08764391112498858 0.43163178618934439 0 0.1096581763989177 0.42409154504396013 0 0.094443419551670932 0.40508992778400232 0 0.1096581763989177 0.42409154504396013 0 0.11163148259572971 0.40863234267508453 0 0.094443419551670932 0.40508992778400232 0 0.1057649319772677 0.43759517983083812 0 0.08764391112498858 0.43163178618934439 0 0.1096581763989177 0.42409154504396013 0 0.1237280261196836 0.44463014715047522 0 0.1096581763989177 0.42409154504396013 0 0.13502200614688589 0.42010390008240672 0 0.1237280261196836 0.44463014715047522 0 0.1057649319772677 0.43759517983083812 0 0.1096581763989177 0.42409154504396013 0 0.11163148259572971 0.40863234267508453 0 0.1236499924648251 0.3984302041169589 0 0.13502200614688589 0.42010390008240672 0 0.1096581763989177 0.42409154504396013 0 0.11163148259572971 0.40863234267508453 0 0.13502200614688589 0.42010390008240672 0 0.11163148259572971 0.40863234267508453 0 0.1236499924648251 0.3984302041169589 0 0.10863659533572551 0.39290197353284961 0 0.10863659533572551 0.39290197353284961 0 0.114060711710889 0.37342974127053702 0 0.12550685613774351 0.37951055496914998 0 0.1236499924648251 0.3984302041169589 0 0.10863659533572551 0.39290197353284961 0 0.12550685613774351 0.37951055496914998 0 0.1012429279783533 0.37854806937866009 0 0.10863659533572551 0.39290197353284961 0 0.114060711710889 0.37342974127053702 0 0.087739402474845588 0.37833299208434412 0 0.1012429279783533 0.37854806937866009 0 0.094443419551670932 0.40508992778400232 0 0.11163148259572971 0.40863234267508453 0 0.10863659533572551 0.39290197353284961 0 0.094443419551670932 0.40508992778400232 0 0.1012429279783533 0.37854806937866009 0 0.094443419551670932 0.40508992778400232 0 0.1012429279783533 0.37854806937866009 0 0.10863659533572551 0.39290197353284961 0 0.094443419551670932 0.40508992778400232 0 0.10055213054656729 0.36013865237867942 0 0.1100489009895301 0.33374314175173209 0 0.10055213054656729 0.36013865237867942 0 0.1100489009895301 0.33374314175173209 0 0.08625589277749264 0.346999797836966 0 0.1069344999541316 0.36147573913557879 0 0.10055213054656729 0.36013865237867942 0 0.1165634558871128 0.3492406052842485 0 0.10055213054656729 0.36013865237867942 0 0.1165634558871128 0.3492406052842485 0 0.1100489009895301 0.33374314175173209 0 0.087739402474845588 0.37833299208434412 0 0.1012429279783533 0.37854806937866009 0 0.1069344999541316 0.36147573913557879 0 0.1012429279783533 0.37854806937866009 0 0.1069344999541316 0.36147573913557879 0 0.114060711710889 0.37342974127053702 0 0.1069344999541316 0.36147573913557879 0 0.10055213054656729 0.36013865237867942 0 0.081229983254247365 0.36650003300062722 0 0.1069344999541316 0.36147573913557879 0 0.081229983254247365 0.36650003300062722 0 0.114060711710889 0.37342974127053702 0 0.1326390166540157 0.35645144527053041 0 0.12550685613774351 0.37951055496914998 0 0.1069344999541316 0.36147573913557879 0 0.114060711710889 0.37342974127053702 0 0.1326390166540157 0.35645144527053041 0 0.1069344999541316 0.36147573913557879 0 0.1165634558871128 0.3492406052842485 0 0.1326390166540157 0.35645144527053041 0 0.1069344999541316 0.36147573913557879 0 0.1326390166540157 0.35645144527053041 0 0.1165634558871128 0.3492406052842485 0 0.1100489009895301 0.33374314175173209 0 0.13264273129131951 0.33439404788472138 0 0.1100489009895301 0.33374314175173209 0 0.099713977183769634 0.31807175575135088 0 0.11954567143249289 0.30734763112478491 0 0.1100489009895301 0.33374314175173209 0 0.11954567143249289 0.30734763112478491 0 0.13264273129131951 0.33439404788472138 0 0.1100489009895301 0.33374314175173209 0 0.11954567143249289 0.30734763112478491 0 0.1100489009895301 0.33374314175173209 0 0.099713977183769634 0.31807175575135088 0 0.083894735805945045 0.32735700357097808 0 0.1100489009895301 0.33374314175173209 0 0.083894735805945045 0.32735700357097808 0 0.08625589277749264 0.346999797836966 0 0.083894735805945045 0.32735700357097808 0 0.068148884279383815 0.34110740296781622 0 0.08625589277749264 0.346999797836966 0 0.099713977183769634 0.31807175575135088 0 0.083894735805945045 0.32735700357097808 0 0.079241751540062577 0.3091409184095229 0 0.083894735805945045 0.32735700357097808 0 0.067542665246266162 0.32227296773822012 0 0.079241751540062577 0.3091409184095229 0 0.067542665246266162 0.32227296773822012 0 0.068148884279383815 0.34110740296781622 0 0.052098030758102709 0.32848813316288678 0 0.083894735805945045 0.32735700357097808 0 0.067542665246266162 0.32227296773822012 0 0.068148884279383815 0.34110740296781622 0 0.068148884279383815 0.34110740296781622 0 0.072981575438615956 0.35429511825148829 0 0.08625589277749264 0.346999797836966 0 0.068148884279383815 0.34110740296781622 0 0.072981575438615956 0.35429511825148829 0 0.059971533893319953 0.35265308331869138 0 0.072981575438615956 0.35429511825148829 0 0.066555082361941326 0.36578627017444021 0 0.059971533893319953 0.35265308331869138 0 0.10055213054656729 0.36013865237867942 0 0.08625589277749264 0.346999797836966 0 0.081229983254247365 0.36650003300062722 0 0.072981575438615956 0.35429511825148829 0 0.08625589277749264 0.346999797836966 0 0.081229983254247365 0.36650003300062722 0 0.087739402474845588 0.37833299208434412 0 0.1069344999541316 0.36147573913557879 0 0.081229983254247365 0.36650003300062722 0 0.069041936002645535 0.37820082441249081 0 0.087739402474845588 0.37833299208434412 0 0.081229983254247365 0.36650003300062722 0 0.069041936002645535 0.37820082441249081 0 0.081229983254247365 0.36650003300062722 0 0.066555082361941326 0.36578627017444021 0 0.072981575438615956 0.35429511825148829 0 0.081229983254247365 0.36650003300062722 0 0.066555082361941326 0.36578627017444021 0 0.069041936002645535 0.37820082441249081 0 0.066555082361941326 0.36578627017444021 0 0.059721524030669819 0.37431687333309788 0 0.055929998057201551 0.36692607577369102 0 0.050307067216076778 0.37158640017128619 0 0.041108453413194898 0.34669476624024848 0 0.066555082361941326 0.36578627017444021 0 0.059721524030669819 0.37431687333309788 0 0.055929998057201551 0.36692607577369102 0 0.059721524030669819 0.37431687333309788 0 0.055929998057201551 0.36692607577369102 0 0.050307067216076778 0.37158640017128619 0 0.066555082361941326 0.36578627017444021 0 0.055929998057201551 0.36692607577369102 0 0.059971533893319953 0.35265308331869138 0 0.055929998057201551 0.36692607577369102 0 0.050307067216076778 0.37158640017128619 0 0.055929998057201551 0.36692607577369102 0 0.059971533893319953 0.35265308331869138 0 0.041108453413194898 0.34669476624024848 0 0.059971533893319953 0.35265308331869138 0 0.041108453413194898 0.34669476624024848 0 0.053731959496234848 0.34189436452501393 0 0.068148884279383815 0.34110740296781622 0 0.059971533893319953 0.35265308331869138 0 0.053731959496234848 0.34189436452501393 0 0.050307067216076778 0.37158640017128619 0 0.041108453413194898 0.34669476624024848 0 0.036325720293778493 0.35734230210966361 0 0.050307067216076778 0.37158640017128619 0 0.041108453413194898 0.34669476624024848 0 0.041108453413194898 0.34669476624024848 0 0.036325720293778493 0.35734230210966361 0 0.028822601092593811 0.34272768621728472 0 0.034519904376963118 0.38467091111880503 0 0.036565816098641138 0.36791040757449411 0 0.02482466364838485 0.35779225034500489 0 0.034519904376963118 0.38467091111880503 0 0.050307067216076778 0.37158640017128619 0 0.036565816098641138 0.36791040757449411 0 0.050307067216076778 0.37158640017128619 0 0.036325720293778493 0.35734230210966361 0 0.036565816098641138 0.36791040757449411 0 0.036325720293778493 0.35734230210966361 0 0.036565816098641138 0.36791040757449411 0 0.02482466364838485 0.35779225034500489 0 0.034519904376963118 0.38467091111880503 0 0.02482466364838485 0.35779225034500489 0 0.0197357255374827 0.37571737083264412 0 0.034519904376963118 0.38467091111880503 0 0.02482466364838485 0.35779225034500489 0 0.0197357255374827 0.37571737083264412 0 0.015674273695437339 0.36401306951764911 0 0.02482466364838485 0.35779225034500489 0 0.015674273695437339 0.36401306951764911 0 0.02482466364838485 0.35779225034500489 0 0.015768167676543349 0.35713923686247862 0 0.02482466364838485 0.35779225034500489 0 0.01512942291980679 0.33091358957120492 0 0.02482466364838485 0.35779225034500489 0 0.01512942291980679 0.33091358957120492 0 0.028822601092593811 0.34272768621728472 0 0.036325720293778493 0.35734230210966361 0 0.02482466364838485 0.35779225034500489 0 0.028822601092593811 0.34272768621728472 0 0.02482466364838485 0.35779225034500489 0 0.012196298529549159 0.34905700984651278 0 0.01512942291980679 0.33091358957120492 0 0.02482466364838485 0.35779225034500489 0 0.015768167676543349 0.35713923686247862 0 0.012196298529549159 0.34905700984651278 0 0.01037743483280206 0.35769461774074762 0 0.012196298529549159 0.34905700984651278 0 0.0032447233134405931 0.35422125060834359 0 0.015768167676543349 0.35713923686247862 0 0.01037743483280206 0.35769461774074762 0 0.012196298529549159 0.34905700984651278 0 -0.002583240235104544 0.34489224502179239 0 0.012196298529549159 0.34905700984651278 0 0.0065182143906638264 0.33911035096943482 0 -0.002583240235104544 0.34489224502179239 0 0.012196298529549159 0.34905700984651278 0 0.0032447233134405931 0.35422125060834359 0 0.01037743483280206 0.35769461774074762 0 0.0032447233134405931 0.35422125060834359 0 0.0039428335920915006 0.36531030276633031 0 -0.0064988099748367559 0.35299106404641623 0 0.0032447233134405931 0.35422125060834359 0 0.0039428335920915006 0.36531030276633031 0 -0.001064505034491721 0.37161458349227261 0 0.015674273695437339 0.36401306951764911 0 0.0039428335920915006 0.36531030276633031 0 -0.001064505034491721 0.37161458349227261 0 0.015674273695437339 0.36401306951764911 0 0.011110712074150059 0.37343232972227269 0 -0.001064505034491721 0.37161458349227261 0 0.015674273695437339 0.36401306951764911 0 0.0197357255374827 0.37571737083264412 0 0.015674273695437339 0.36401306951764911 0 0.011110712074150059 0.37343232972227269 0 0.015674273695437339 0.36401306951764911 0 0.01037743483280206 0.35769461774074762 0 0.0039428335920915006 0.36531030276633031 0 0.015674273695437339 0.36401306951764911 0 0.015768167676543349 0.35713923686247862 0 0.01037743483280206 0.35769461774074762 0 -0.00058836015198596755 0.32088344941533808 0 0.01512942291980679 0.33091358957120492 0 0.0054341821912287152 0.30403492879740468 0 0.01512942291980679 0.33091358957120492 0 0.0054341821912287152 0.30403492879740468 0 0.01512942291980679 0.33091358957120492 0 0.018796167632194181 0.3134157872639986 0 0.0054341821912287152 0.30403492879740468 0 0.012196298529549159 0.34905700984651278 0 0.01512942291980679 0.33091358957120492 0 0.0065182143906638264 0.33911035096943482 0 -0.0025616559074486049 0.3329031852911295 0 -0.00058836015198596755 0.32088344941533808 0 0.01512942291980679 0.33091358957120492 0 -0.0025616559074486049 0.3329031852911295 0 0.01512942291980679 0.33091358957120492 0 0.0065182143906638264 0.33911035096943482 0 -0.0025616559074486049 0.3329031852911295 0 -0.002583240235104544 0.34489224502179239 0 0.0065182143906638264 0.33911035096943482 0 0.01512942291980679 0.33091358957120492 0 0.028822601092593811 0.34272768621728472 0 0.031909839610312053 0.3218031323092112 0 0.01512942291980679 0.33091358957120492 0 0.018796167632194181 0.3134157872639986 0 0.031909839610312053 0.3218031323092112 0 0.031909839610312053 0.3218031323092112 0 0.052098030758102709 0.32848813316288678 0 0.054329923847836643 0.30527138057989611 0 0.041108453413194898 0.34669476624024848 0 0.031909839610312053 0.3218031323092112 0 0.041108453413194898 0.34669476624024848 0 0.028822601092593811 0.34272768621728472 0 0.031909839610312053 0.3218031323092112 0 0.041108453413194898 0.34669476624024848 0 0.031909839610312053 0.3218031323092112 0 0.052098030758102709 0.32848813316288678 0 0.041108453413194898 0.34669476624024848 0 0.052098030758102709 0.32848813316288678 0 0.053731959496234848 0.34189436452501393 0 0.068148884279383815 0.34110740296781622 0 0.052098030758102709 0.32848813316288678 0 0.053731959496234848 0.34189436452501393 0 0.067542665246266162 0.32227296773822012 0 0.052098030758102709 0.32848813316288678 0 0.054329923847836643 0.30527138057989611 0 0.054329923847836643 0.30527138057989611 0 0.058643640903709077 0.2841886380467647 0 0.070108093408202884 0.28237758711201172 0 0.054329923847836643 0.30527138057989611 0 0.058643640903709077 0.2841886380467647 0 0.046708945964444748 0.28470371633566799 0 0.054329923847836643 0.30527138057989611 0 0.070108093408202884 0.28237758711201172 0 0.033299114928103571 0.2853556706935409 0 0.038381760441483573 0.30030485014671859 0 0.022711225807429191 0.29691149837817382 0 0.054329923847836643 0.30527138057989611 0 0.046708945964444748 0.28470371633566799 0 0.038381760441483573 0.30030485014671859 0 0.046708945964444748 0.28470371633566799 0 0.033299114928103571 0.2853556706935409 0 0.038381760441483573 0.30030485014671859 0 0.031909839610312053 0.3218031323092112 0 0.054329923847836643 0.30527138057989611 0 0.038381760441483573 0.30030485014671859 0 0.031909839610312053 0.3218031323092112 0 0.022711225807429191 0.29691149837817382 0 0.018796167632194181 0.3134157872639986 0 0.031909839610312053 0.3218031323092112 0 0.022711225807429191 0.29691149837817382 0 0.018796167632194181 0.3134157872639986 0 0.022711225807429191 0.29691149837817382 0 0.0054341821912287152 0.30403492879740468 0 0.031909839610312053 0.3218031323092112 0 0.038381760441483573 0.30030485014671859 0 0.022711225807429191 0.29691149837817382 0 0.022711225807429191 0.29691149837817382 0 0.0097135815956244098 0.28932323485025419 0 0.01496997692118909 0.27919024420183391 0 0.033299114928103571 0.2853556706935409 0 0.022711225807429191 0.29691149837817382 0 0.01496997692118909 0.27919024420183391 0 -0.0042610585373493576 0.2771562680236046 0 0.0097135815956244098 0.28932323485025419 0 0.01496997692118909 0.27919024420183391 0 -0.0042610585373493576 0.2771562680236046 0 0.0097135815956244098 0.28932323485025419 0 0.0054341821912287152 0.30403492879740468 0 0.022711225807429191 0.29691149837817382 0 0.0097135815956244098 0.28932323485025419 0 0.0054341821912287152 0.30403492879740468 0 -0.0042610585373493576 0.2771562680236046 0 0.0054341821912287152 0.30403492879740468 0 0.012156823249103331 0.25259817100369902 0 0.0071094060709509964 0.26564087220093879 0 0.023079021189564172 0.26593697868694532 0 -0.0082457657602449386 0.25246627485226031 0 0.012156823249103331 0.25259817100369902 0 0.0071094060709509964 0.26564087220093879 0 0.0071094060709509964 0.26564087220093879 0 0.01496997692118909 0.27919024420183391 0 0.023079021189564172 0.26593697868694532 0 -0.0042610585373493576 0.2771562680236046 0 0.0071094060709509964 0.26564087220093879 0 0.01496997692118909 0.27919024420183391 0 0.033299114928103571 0.2853556706935409 0 0.01496997692118909 0.27919024420183391 0 0.023079021189564172 0.26593697868694532 0 0.012156823249103331 0.25259817100369902 0 0.023079021189564172 0.26593697868694532 0 0.030652172791378579 0.25229956247347313 0 0.023079021189564172 0.26593697868694532 0 0.030652172791378579 0.25229956247347313 0 0.04073495957405681 0.26035892983227987 0 0.044937254539659167 0.2379713478153713 0 0.030652172791378579 0.25229956247347313 0 0.04073495957405681 0.26035892983227987 0 0.033299114928103571 0.2853556706935409 0 0.023079021189564172 0.26593697868694532 0 0.04073495957405681 0.26035892983227987 0 0.033299114928103571 0.2853556706935409 0 0.04073495957405681 0.26035892983227987 0 0.046708945964444748 0.28470371633566799 0 0.033299114928103571 0.2853556706935409 0 0.04073495957405681 0.26035892983227987 0 0.046708945964444748 0.28470371633566799 0 0.04073495957405681 0.26035892983227987 0 0.054656664038459993 0.27221644551962948 0 0.058643640903709077 0.2841886380467647 0 0.046708945964444748 0.28470371633566799 0 0.054656664038459993 0.27221644551962948 0 0.054656664038459993 0.27221644551962948 0 0.05595459183600883 0.25980758553240452 0 0.063151913248908592 0.26702092668087168 0 0.054656664038459993 0.27221644551962948 0 0.063151913248908592 0.26702092668087168 0 0.062868354845155253 0.27542318723842002 0 0.058643640903709077 0.2841886380467647 0 0.054656664038459993 0.27221644551962948 0 0.062868354845155253 0.27542318723842002 0 0.058643640903709077 0.2841886380467647 0 0.062868354845155253 0.27542318723842002 0 0.06481936793225318 0.27971168374165578 0 0.052294646587479003 0.2493466198794505 0 0.04073495957405681 0.26035892983227987 0 0.05595459183600883 0.25980758553240452 0 0.04073495957405681 0.26035892983227987 0 0.054656664038459993 0.27221644551962948 0 0.05595459183600883 0.25980758553240452 0 0.05595459183600883 0.25980758553240452 0 0.066495423171073403 0.25816184380531082 0 0.063151913248908592 0.26702092668087168 0 0.052294646587479003 0.2493466198794505 0 0.05595459183600883 0.25980758553240452 0 0.06034442261467237 0.25120339486286308 0 0.05595459183600883 0.25980758553240452 0 0.06034442261467237 0.25120339486286308 0 0.066495423171073403 0.25816184380531082 0 0.067445722382230539 0.24771064348785149 0 0.066495423171073403 0.25816184380531082 0 0.074707437689247702 0.25389633834412328 0 0.067445722382230539 0.24771064348785149 0 0.06034442261467237 0.25120339486286308 0 0.066495423171073403 0.25816184380531082 0 0.066495423171073403 0.25816184380531082 0 0.070468357435777063 0.2657419037057816 0 0.063151913248908592 0.26702092668087168 0 0.066495423171073403 0.25816184380531082 0 0.074357597956477339 0.26064435546358339 0 0.070468357435777063 0.2657419037057816 0 0.074357597956477339 0.26064435546358339 0 0.075194191089397802 0.26640127341757941 0 0.070468357435777063 0.2657419037057816 0 0.074357597956477339 0.26064435546358339 0 0.080427883817154544 0.25791465254204288 0 0.078852294536213494 0.26175012096666261 0 0.074357597956477339 0.26064435546358339 0 0.078852294536213494 0.26175012096666261 0 0.075194191089397802 0.26640127341757941 0 0.066495423171073403 0.25816184380531082 0 0.074357597956477339 0.26064435546358339 0 0.074707437689247702 0.25389633834412328 0 0.074357597956477339 0.26064435546358339 0 0.074707437689247702 0.25389633834412328 0 0.080427883817154544 0.25791465254204288 0 0.085975255819246227 0.24304742420893821 0 0.080478695998155714 0.25165019938018113 0 0.085886262968569133 0.25948379364412733 0 0.080478695998155714 0.25165019938018113 0 0.080427883817154544 0.25791465254204288 0 0.085886262968569133 0.25948379364412733 0 0.10166443252893551 0.23659000017624271 0 0.085886262968569133 0.25948379364412733 0 0.093061372415253377 0.25945310375487363 0 0.074707437689247702 0.25389633834412328 0 0.080478695998155714 0.25165019938018113 0 0.080427883817154544 0.25791465254204288 0 0.078852294536213494 0.26175012096666261 0 0.085886262968569133 0.25948379364412733 0 0.075194191089397802 0.26640127341757941 0 0.080427883817154544 0.25791465254204288 0 0.078852294536213494 0.26175012096666261 0 0.085886262968569133 0.25948379364412733 0 0.093061372415253377 0.25945310375487363 0 0.088669334409182038 0.27365465257629329 0 0.074192652952093263 0.28111713417870732 0 0.093061372415253377 0.25945310375487363 0 0.074192652952093263 0.28111713417870732 0 0.085886262968569133 0.25948379364412733 0 0.093061372415253377 0.25945310375487363 0 0.074192652952093263 0.28111713417870732 0 0.088669334409182038 0.27365465257629329 0 0.090629520296699906 0.27989165378522829 0 0.096617072050330918 0.27420358010706619 0 0.088669334409182038 0.27365465257629329 0 0.090629520296699906 0.27989165378522829 0 0.083300485689734874 0.28178689503457671 0 0.093061372415253377 0.25945310375487363 0 0.088669334409182038 0.27365465257629329 0 0.097208854645582696 0.26674380090640232 0 0.088669334409182038 0.27365465257629329 0 0.074192652952093263 0.28111713417870732 0 0.083300485689734874 0.28178689503457671 0 0.085886262968569133 0.25948379364412733 0 0.072732619288592745 0.27411268144752271 0 0.070108093408202884 0.28237758711201172 0 0.085886262968569133 0.25948379364412733 0 0.074192652952093263 0.28111713417870732 0 0.070108093408202884 0.28237758711201172 0 0.085886262968569133 0.25948379364412733 0 0.070108093408202884 0.28237758711201172 0 0.085886262968569133 0.25948379364412733 0 0.072732619288592745 0.27411268144752271 0 0.075194191089397802 0.26640127341757941 0 0.072732619288592745 0.27411268144752271 0 0.075194191089397802 0.26640127341757941 0 0.068678803079962825 0.27092621584326698 0 0.075194191089397802 0.26640127341757941 0 0.070468357435777063 0.2657419037057816 0 0.068678803079962825 0.27092621584326698 0 0.068678803079962825 0.27092621584326698 0 0.063151913248908592 0.26702092668087168 0 0.062868354845155253 0.27542318723842002 0 0.070468357435777063 0.2657419037057816 0 0.068678803079962825 0.27092621584326698 0 0.063151913248908592 0.26702092668087168 0 0.072732619288592745 0.27411268144752271 0 0.067657382571945521 0.27685732256942691 0 0.070108093408202884 0.28237758711201172 0 0.067657382571945521 0.27685732256942691 0 0.06481936793225318 0.27971168374165578 0 0.070108093408202884 0.28237758711201172 0 0.072732619288592745 0.27411268144752271 0 0.068678803079962825 0.27092621584326698 0 0.067657382571945521 0.27685732256942691 0 0.067657382571945521 0.27685732256942691 0 0.062868354845155253 0.27542318723842002 0 0.06481936793225318 0.27971168374165578 0 0.068678803079962825 0.27092621584326698 0 0.067657382571945521 0.27685732256942691 0 0.062868354845155253 0.27542318723842002 0 0.058643640903709077 0.2841886380467647 0 0.06481936793225318 0.27971168374165578 0 0.070108093408202884 0.28237758711201172 0 0.054329923847836643 0.30527138057989611 0 0.070108093408202884 0.28237758711201172 0 0.07616196246918229 0.29401120062856562 0 0.070108093408202884 0.28237758711201172 0 0.07616196246918229 0.29401120062856562 0 0.077305327314718786 0.28670206069564769 0 0.074192652952093263 0.28111713417870732 0 0.070108093408202884 0.28237758711201172 0 0.077305327314718786 0.28670206069564769 0 0.054329923847836643 0.30527138057989611 0 0.07616196246918229 0.29401120062856562 0 0.079241751540062577 0.3091409184095229 0 0.067542665246266162 0.32227296773822012 0 0.054329923847836643 0.30527138057989611 0 0.079241751540062577 0.3091409184095229 0 0.07616196246918229 0.29401120062856562 0 0.079241751540062577 0.3091409184095229 0 0.093760017070794913 0.30048783451418309 0 0.099713977183769634 0.31807175575135088 0 0.079241751540062577 0.3091409184095229 0 0.093760017070794913 0.30048783451418309 0 0.07616196246918229 0.29401120062856562 0 0.086675975183887061 0.28808357667035972 0 0.093760017070794913 0.30048783451418309 0 0.074192652952093263 0.28111713417870732 0 0.077305327314718786 0.28670206069564769 0 0.083300485689734874 0.28178689503457671 0 0.077305327314718786 0.28670206069564769 0 0.083300485689734874 0.28178689503457671 0 0.086675975183887061 0.28808357667035972 0 0.07616196246918229 0.29401120062856562 0 0.077305327314718786 0.28670206069564769 0 0.086675975183887061 0.28808357667035972 0 0.090629520296699906 0.27989165378522829 0 0.083300485689734874 0.28178689503457671 0 0.086675975183887061 0.28808357667035972 0 0.090629520296699906 0.27989165378522829 0 0.086675975183887061 0.28808357667035972 0 0.1012207646153751 0.28627192450051492 0 0.086675975183887061 0.28808357667035972 0 0.1012207646153751 0.28627192450051492 0 0.093760017070794913 0.30048783451418309 0 0.099713977183769634 0.31807175575135088 0 0.093760017070794913 0.30048783451418309 0 0.11954567143249289 0.30734763112478491 0 0.1012207646153751 0.28627192450051492 0 0.093760017070794913 0.30048783451418309 0 0.11954567143249289 0.30734763112478491 0 0.11954567143249289 0.30734763112478491 0 0.1141818460752707 0.27714397317686529 0 0.12904244187545569 0.2809521204978378 0 0.1012207646153751 0.28627192450051492 0 0.11954567143249289 0.30734763112478491 0 0.1141818460752707 0.27714397317686529 0 0.11954567143249289 0.30734763112478491 0 0.12904244187545569 0.2809521204978378 0 0.1141818460752707 0.27714397317686529 0 0.11615378911320511 0.26032519799560372 0 0.1048644735931679 0.26655228778042589 0 0.1141818460752707 0.27714397317686529 0 0.11615378911320511 0.26032519799560372 0 0.12904244187545569 0.2809521204978378 0 0.1152979079485152 0.2467056018988516 0 0.1250676346401875 0.24796443701554319 0 0.11615378911320511 0.26032519799560372 0 0.1152979079485152 0.2467056018988516 0 0.11615378911320511 0.26032519799560372 0 0.10650461767427161 0.25132517155921902 0 0.11615378911320511 0.26032519799560372 0 0.1028320207599793 0.25985538031335248 0 0.1048644735931679 0.26655228778042589 0 0.1028320207599793 0.25985538031335248 0 0.097208854645582696 0.26674380090640232 0 0.1048644735931679 0.26655228778042589 0 0.11615378911320511 0.26032519799560372 0 0.1028320207599793 0.25985538031335248 0 0.10650461767427161 0.25132517155921902 0 0.093061372415253377 0.25945310375487363 0 0.1028320207599793 0.25985538031335248 0 0.10650461767427161 0.25132517155921902 0 0.093061372415253377 0.25945310375487363 0 0.1028320207599793 0.25985538031335248 0 0.097208854645582696 0.26674380090640232 0 0.088669334409182038 0.27365465257629329 0 0.097208854645582696 0.26674380090640232 0 0.096617072050330918 0.27420358010706619 0 0.097208854645582696 0.26674380090640232 0 0.096617072050330918 0.27420358010706619 0 0.1048644735931679 0.26655228778042589 0 0.1141818460752707 0.27714397317686529 0 0.096617072050330918 0.27420358010706619 0 0.1048644735931679 0.26655228778042589 0 0.1012207646153751 0.28627192450051492 0 0.1141818460752707 0.27714397317686529 0 0.096617072050330918 0.27420358010706619 0 0.090629520296699906 0.27989165378522829 0 0.1012207646153751 0.28627192450051492 0 0.096617072050330918 0.27420358010706619 0 0.1384713120865835 0.25773302092121009 0 0.12904244187545569 0.2809521204978378 0 0.15915390062653459 0.27760612704708998 0 0.1514273965657848 0.24085309905483679 0 0.1384713120865835 0.25773302092121009 0 0.156278998070083 0.25778272565978 0 0.1384713120865835 0.25773302092121009 0 0.15915390062653459 0.27760612704708998 0 0.156278998070083 0.25778272565978 0 0.1250676346401875 0.24796443701554319 0 0.11615378911320511 0.26032519799560372 0 0.1384713120865835 0.25773302092121009 0 0.11615378911320511 0.26032519799560372 0 0.1384713120865835 0.25773302092121009 0 0.12904244187545569 0.2809521204978378 0 0.11954567143249289 0.30734763112478491 0 0.12904244187545569 0.2809521204978378 0 0.14488164426314301 0.29594920495010729 0 0.11954567143249289 0.30734763112478491 0 0.14488164426314301 0.29594920495010729 0 0.15139514334923471 0.31791608062108467 0 0.14488164426314301 0.29594920495010729 0 0.16637322996135739 0.30016678813796199 0 0.15139514334923471 0.31791608062108467 0 0.12904244187545569 0.2809521204978378 0 0.14488164426314301 0.29594920495010729 0 0.15915390062653459 0.27760612704708998 0 0.14488164426314301 0.29594920495010729 0 0.16637322996135739 0.30016678813796199 0 0.15915390062653459 0.27760612704708998 0 0.16637322996135739 0.30016678813796199 0 0.18265278236186541 0.28020603593405619 0 0.15915390062653459 0.27760612704708998 0 0.16637322996135739 0.30016678813796199 0 0.18588027836364171 0.30417070427619303 0 0.17427563080372541 0.32515257599924119 0 0.16637322996135739 0.30016678813796199 0 0.18588027836364171 0.30417070427619303 0 0.18265278236186541 0.28020603593405619 0 0.18265278236186541 0.28020603593405619 0 0.15915390062653459 0.27760612704708998 0 0.17660728565697029 0.25284173787090108 0 0.18265278236186541 0.28020603593405619 0 0.17660728565697029 0.25284173787090108 0 0.20178717474815569 0.26483037668696541 0 0.1514273965657848 0.24085309905483679 0 0.156278998070083 0.25778272565978 0 0.17660728565697029 0.25284173787090108 0 0.15915390062653459 0.27760612704708998 0 0.156278998070083 0.25778272565978 0 0.17660728565697029 0.25284173787090108 0 0.1971008006350988 0.24422433182354611 0 0.17660728565697029 0.25284173787090108 0 0.20178717474815569 0.26483037668696541 0 0.17660728565697029 0.25284173787090108 0 0.20178717474815569 0.26483037668696541 0 0.18265278236186541 0.28020603593405619 0 0.20178717474815569 0.26483037668696541 0 0.20721699074389299 0.28586320426344869 0 0.20178717474815569 0.26483037668696541 0 0.22696706383934109 0.27681901550302962 0 0.20721699074389299 0.28586320426344869 0 0.20178717474815569 0.26483037668696541 0 0.22696706383934109 0.27681901550302962 0 0.1971008006350988 0.24422433182354611 0 0.20178717474815569 0.26483037668696541 0 0.2257125065402284 0.25431107802280528 0 0.20178717474815569 0.26483037668696541 0 0.2257125065402284 0.25431107802280528 0 0.22696706383934109 0.27681901550302962 0 0.2257125065402284 0.25431107802280528 0 0.23435940432808119 0.2558835225658645 0 0.2376751292839718 0.27741240132337408 0 0.2257125065402284 0.25431107802280528 0 0.22696706383934109 0.27681901550302962 0 0.2376751292839718 0.27741240132337408 0 0.2257125065402284 0.25431107802280528 0 0.2376751292839718 0.27741240132337408 0 0.22696706383934109 0.27681901550302962 0 0.2376751292839718 0.27741240132337408 0 0.2318681827461313 0.28775992326468519 0 0.23435940432808119 0.2558835225658645 0 0.2434397278092077 0.27846069768541332 0 0.2376751292839718 0.27741240132337408 0 0.23435940432808119 0.2558835225658645 0 0.2434397278092077 0.27846069768541332 0 0.23435940432808119 0.2558835225658645 0 0.2434397278092077 0.27846069768541332 0 0.24763005152173001 0.25910176257370959 0 0.2459873280094696 0.23707215699401071 0 0.23435940432808119 0.2558835225658645 0 0.24763005152173001 0.25910176257370959 0 0.24963775202771521 0.30051372462394288 0 0.22557231514573739 0.29747977878921561 0 0.2305146992996441 0.31691702429977642 0 0.2376751292839718 0.27741240132337408 0 0.24963775202771521 0.30051372462394288 0 0.2318681827461313 0.28775992326468519 0 0.2434397278092077 0.27846069768541332 0 0.25252005129033422 0.30103787280496203 0 0.2434397278092077 0.27846069768541332 0 0.2376751292839718 0.27741240132337408 0 0.24963775202771521 0.30051372462394288 0 0.2434397278092077 0.27846069768541332 0 0.24963775202771521 0.30051372462394288 0 0.25252005129033422 0.30103787280496203 0 0.24963775202771521 0.30051372462394288 0 0.2318681827461313 0.28775992326468519 0 0.22557231514573739 0.29747977878921561 0 0.2376751292839718 0.27741240132337408 0 0.24963775202771521 0.30051372462394288 0 0.22696706383934109 0.27681901550302962 0 0.2318681827461313 0.28775992326468519 0 0.22192971392309441 0.28686454206331458 0 0.2318681827461313 0.28775992326468519 0 0.22192971392309441 0.28686454206331458 0 0.22557231514573739 0.29747977878921561 0 0.22557231514573739 0.29747977878921561 0 0.21067009246602381 0.31050760251916348 0 0.2305146992996441 0.31691702429977642 0 0.22557231514573739 0.29747977878921561 0 0.2305146992996441 0.31691702429977642 0 0.22557231514573739 0.29747977878921561 0 0.21067009246602381 0.31050760251916348 0 0.20721699074389299 0.28586320426344869 0 0.22192971392309441 0.28686454206331458 0 0.22557231514573739 0.29747977878921561 0 0.20721699074389299 0.28586320426344869 0 0.22696706383934109 0.27681901550302962 0 0.22192971392309441 0.28686454206331458 0 0.20721699074389299 0.28586320426344869 0 0.18588027836364171 0.30417070427619303 0 0.18265278236186541 0.28020603593405619 0 0.20721699074389299 0.28586320426344869 0 0.18588027836364171 0.30417070427619303 0 0.21067009246602381 0.31050760251916348 0 0.20721699074389299 0.28586320426344869 0 0.18588027836364171 0.30417070427619303 0 0.21067009246602381 0.31050760251916348 0 0.1975742485098208 0.32622361772240582 0 0.1975742485098208 0.32622361772240582 0 0.2097525667536678 0.34137856367538538 0 0.18404805005378369 0.34640285754043382 0 0.1975742485098208 0.32622361772240582 0 0.2097525667536678 0.34137856367538538 0 0.2167937380965417 0.3262762156054137 0 0.21067009246602381 0.31050760251916348 0 0.1975742485098208 0.32622361772240582 0 0.2167937380965417 0.3262762156054137 0 0.21067009246602381 0.31050760251916348 0 0.2167937380965417 0.3262762156054137 0 0.2305146992996441 0.31691702429977642 0 0.2305146992996441 0.31691702429977642 0 0.2354570834535519 0.33635426981033711 0 0.2167937380965417 0.3262762156054137 0 0.2305146992996441 0.31691702429977642 0 0.2354570834535519 0.33635426981033711 0 0.2097525667536678 0.34137856367538538 0 0.2167937380965417 0.3262762156054137 0 0.2354570834535519 0.33635426981033711 0 0.2097525667536678 0.34137856367538538 0 0.2354570834535519 0.33635426981033711 0 0.2097525667536678 0.34137856367538538 0 0.2354570834535519 0.33635426981033711 0 0.22572342153310379 0.35183723080414581 0 0.2354570834535519 0.33635426981033711 0 0.24833100513142109 0.32161764704062729 0 0.26518788721623437 0.33054298393043219 0 0.24963775202771521 0.30051372462394288 0 0.2305146992996441 0.31691702429977642 0 0.24833100513142109 0.32161764704062729 0 0.2305146992996441 0.31691702429977642 0 0.2354570834535519 0.33635426981033711 0 0.24833100513142109 0.32161764704062729 0 0.2354570834535519 0.33635426981033711 0 0.24217950803475169 0.36279199964721098 0 0.25397109136889212 0.34953950795812871 0 0.2354570834535519 0.33635426981033711 0 0.24217950803475169 0.36279199964721098 0 0.22572342153310379 0.35183723080414581 0 0.2354570834535519 0.33635426981033711 0 0.24217950803475169 0.36279199964721098 0 0.24217950803475169 0.36279199964721098 0 0.22572342153310379 0.35183723080414581 0 0.21637712922286109 0.36651385017664678 0 0.24217950803475169 0.36279199964721098 0 0.21637712922286109 0.36651385017664678 0 0.22693728272114971 0.38251641872149622 0 0.2097525667536678 0.34137856367538538 0 0.22572342153310379 0.35183723080414581 0 0.21637712922286109 0.36651385017664678 0 0.2097525667536678 0.34137856367538538 0 0.21637712922286109 0.36651385017664678 0 0.19198276408895759 0.36846918068195189 0 0.2097525667536678 0.34137856367538538 0 0.19198276408895759 0.36846918068195189 0 0.18404805005378369 0.34640285754043382 0 0.2097525667536678 0.34137856367538538 0 0.18404805005378369 0.34640285754043382 0 0.21637712922286109 0.36651385017664678 0 0.19198276408895759 0.36846918068195189 0 0.2008438189570996 0.38963870543367402 0 0.1583435333538997 0.35142715140548209 0 0.18404805005378369 0.34640285754043382 0 0.17157629822801171 0.38002160271682978 0 0.19198276408895759 0.36846918068195189 0 0.18404805005378369 0.34640285754043382 0 0.17157629822801171 0.38002160271682978 0 0.1583435333538997 0.35142715140548209 0 0.14756927440754089 0.37573381366887992 0 0.17157629822801171 0.38002160271682978 0 0.1583435333538997 0.35142715140548209 0 0.18404805005378369 0.34640285754043382 0 0.1583435333538997 0.35142715140548209 0 0.17427563080372541 0.32515257599924119 0 0.15139514334923471 0.31791608062108467 0 0.1975742485098208 0.32622361772240582 0 0.18404805005378369 0.34640285754043382 0 0.17427563080372541 0.32515257599924119 0 0.1583435333538997 0.35142715140548209 0 0.18404805005378369 0.34640285754043382 0 0.17427563080372541 0.32515257599924119 0 0.18588027836364171 0.30417070427619303 0 0.1975742485098208 0.32622361772240582 0 0.17427563080372541 0.32515257599924119 0 0.16637322996135739 0.30016678813796199 0 0.17427563080372541 0.32515257599924119 0 0.15139514334923471 0.31791608062108467 0 0.1583435333538997 0.35142715140548209 0 0.15139514334923471 0.31791608062108467 0 0.13264273129131951 0.33439404788472138 0 0.11954567143249289 0.30734763112478491 0 0.15139514334923471 0.31791608062108467 0 0.13264273129131951 0.33439404788472138 0 0.1165634558871128 0.3492406052842485 0 0.13264273129131951 0.33439404788472138 0 0.1326390166540157 0.35645144527053041 0 0.1326390166540157 0.35645144527053041 0 0.14756927440754089 0.37573381366887992 0 0.12550685613774351 0.37951055496914998 0 0.1583435333538997 0.35142715140548209 0 0.1326390166540157 0.35645144527053041 0 0.14756927440754089 0.37573381366887992 0 0.1583435333538997 0.35142715140548209 0 0.1326390166540157 0.35645144527053041 0 0.1583435333538997 0.35142715140548209 0 0.13264273129131951 0.33439404788472138 0 0.1326390166540157 0.35645144527053041 0 0.1528019220027558 0.40532518960412911 0 0.14756927440754089 0.37573381366887992 0 0.13567422075440499 0.38715007620423969 0 0.14756927440754089 0.37573381366887992 0 0.12550685613774351 0.37951055496914998 0 0.13567422075440499 0.38715007620423969 0 0.1236499924648251 0.3984302041169589 0 0.12550685613774351 0.37951055496914998 0 0.13567422075440499 0.38715007620423969 0 0.1236499924648251 0.3984302041169589 0 0.1528019220027558 0.40532518960412911 0 0.13567422075440499 0.38715007620423969 0 0.1528019220027558 0.40532518960412911 0 0.13502200614688589 0.42010390008240672 0 0.17098438647877001 0.42850314348833868 0 0.13502200614688589 0.42010390008240672 0 0.17098438647877001 0.42850314348833868 0 0.1532788809183856 0.44756588495706878 0 0.1236499924648251 0.3984302041169589 0 0.1528019220027558 0.40532518960412911 0 0.13502200614688589 0.42010390008240672 0 0.1237280261196836 0.44463014715047522 0 0.13502200614688589 0.42010390008240672 0 0.1532788809183856 0.44756588495706878 0 0.1528019220027558 0.40532518960412911 0 0.17098438647877001 0.42850314348833868 0 0.1528019220027558 0.40532518960412911 0 0.17098438647877001 0.42850314348833868 0 0.17902253221663289 0.40492788695933207 0 0.17098438647877001 0.42850314348833868 0 0.19890623541652749 0.42115079355368912 0 0.18916685095478419 0.4516810973725483 0 0.17098438647877001 0.42850314348833868 0 0.17902253221663289 0.40492788695933207 0 0.19890623541652749 0.42115079355368912 0 0.17902253221663289 0.40492788695933207 0 0.17157629822801171 0.38002160271682978 0 0.2008438189570996 0.38963870543367402 0 0.1528019220027558 0.40532518960412911 0 0.17902253221663289 0.40492788695933207 0 0.17157629822801171 0.38002160271682978 0 0.1528019220027558 0.40532518960412911 0 0.14756927440754089 0.37573381366887992 0 0.17157629822801171 0.38002160271682978 0 0.17902253221663289 0.40492788695933207 0 0.2008438189570996 0.38963870543367402 0 0.19890623541652749 0.42115079355368912 0 0.19198276408895759 0.36846918068195189 0 0.17157629822801171 0.38002160271682978 0 0.2008438189570996 0.38963870543367402 0 0.2008438189570996 0.38963870543367402 0 0.22638402477508329 0.40440780886586492 0 0.19890623541652749 0.42115079355368912 0 0.2008438189570996 0.38963870543367402 0 0.22693728272114971 0.38251641872149622 0 0.22638402477508329 0.40440780886586492 0 0.21637712922286109 0.36651385017664678 0 0.2008438189570996 0.38963870543367402 0 0.22693728272114971 0.38251641872149622 0 0.22693728272114971 0.38251641872149622 0 0.22638402477508329 0.40440780886586492 0 0.24890193261595259 0.38922972948408457 0 0.22638402477508329 0.40440780886586492 0 0.24890193261595259 0.38922972948408457 0 0.25562435719715348 0.41566745932095828 0 0.24217950803475169 0.36279199964721098 0 0.24890193261595259 0.38922972948408457 0 0.24217950803475169 0.36279199964721098 0 0.22693728272114971 0.38251641872149622 0 0.24890193261595259 0.38922972948408457 0 0.22638402477508329 0.40440780886586492 0 0.23929670148200641 0.42651558303428039 0 0.25562435719715348 0.41566745932095828 0 0.22638402477508329 0.40440780886586492 0 0.23929670148200641 0.42651558303428039 0 0.21947817947708001 0.42577831055793047 0 0.23929670148200641 0.42651558303428039 0 0.21947817947708001 0.42577831055793047 0 0.23265016418236131 0.44461914726881641 0 0.21947817947708001 0.42577831055793047 0 0.19890623541652749 0.42115079355368912 0 0.21144352365240529 0.44700262568134053 0 0.22638402477508329 0.40440780886586492 0 0.21947817947708001 0.42577831055793047 0 0.19890623541652749 0.42115079355368912 0 0.19890623541652749 0.42115079355368912 0 0.18916685095478419 0.4516810973725483 0 0.21144352365240529 0.44700262568134053 0 0.18916685095478419 0.4516810973725483 0 0.20734931543079829 0.47485905125675792 0 0.18916685095478419 0.4516810973725483 0 0.21144352365240529 0.44700262568134053 0 0.20734931543079829 0.47485905125675792 0 0.21144352365240529 0.44700262568134053 0 0.22111039645288069 0.46392735407830132 0 0.20734931543079829 0.47485905125675792 0 0.21144352365240529 0.44700262568134053 0 0.23265016418236131 0.44461914726881641 0 0.22111039645288069 0.46392735407830132 0 0.21947817947708001 0.42577831055793047 0 0.21144352365240529 0.44700262568134053 0 0.23265016418236131 0.44461914726881641 0 0.23265016418236131 0.44461914726881641 0 0.22111039645288069 0.46392735407830132 0 0.24508980140621781 0.46623513653650361 0 0.22111039645288069 0.46392735407830132 0 0.24508980140621781 0.46623513653650361 0 0.23265016418236131 0.44461914726881641 0 0.24508980140621781 0.46623513653650361 0 0.26234678177835441 0.44210518915783192 0 0.23929670148200641 0.42651558303428039 0 0.23265016418236131 0.44461914726881641 0 0.26234678177835441 0.44210518915783192 0 0.2479606543192433 0.5 0 0.23772208332050199 0.48786840683281429 0 0.2255317799068125 0.49803700514096738 0 0.2479606543192433 0.5 0 0.23772208332050199 0.48786840683281429 0 0.25513941322049821 0.48355515434954122 0 0.24508980140621781 0.46623513653650361 0 0.23688712964706901 0.4763018139788181 0 0.25513941322049821 0.48355515434954122 0 0.23772208332050199 0.48786840683281429 0 0.23688712964706901 0.4763018139788181 0 0.25513941322049821 0.48355515434954122 0 0.22111039645288069 0.46392735407830132 0 0.23688712964706901 0.4763018139788181 0 0.22537395383524639 0.47992301809693011 0 0.22537395383524639 0.47992301809693011 0 0.2255317799068125 0.49803700514096738 0 0.20734931543079829 0.47485905125675792 0 0.23772208332050199 0.48786840683281429 0 0.23688712964706901 0.4763018139788181 0 0.22537395383524639 0.47992301809693011 0 0.22111039645288069 0.46392735407830132 0 0.24508980140621781 0.46623513653650361 0 0.23688712964706901 0.4763018139788181 0 0.23772208332050199 0.48786840683281429 0 0.22537395383524639 0.47992301809693011 0 0.2255317799068125 0.49803700514096738 0 0.2479606543192433 0.5 0 0.21885338771805021 0.5 0 0.2255317799068125 0.49803700514096738 0 0.21885338771805021 0.5 0 0.2255317799068125 0.49803700514096738 0 0.20734931543079829 0.47485905125675792 0 0.21885338771805021 0.5 0 0.20734931543079829 0.47485905125675792 0 0.1897461211168571 0.5 0 0.2255317799068125 0.49803700514096738 0 0.20734931543079829 0.47485905125675792 0 0.22111039645288069 0.46392735407830132 0 0.22537395383524639 0.47992301809693011 0 0.20734931543079829 0.47485905125675792 0 0.18916685095478419 0.4516810973725483 0 0.20734931543079829 0.47485905125675792 0 0.18375498264642379 0.4799820804674747 0 0.20734931543079829 0.47485905125675792 0 0.1897461211168571 0.5 0 0.18375498264642379 0.4799820804674747 0 0.1897461211168571 0.5 0 0.1606388545156639 0.5 0 0.18375498264642379 0.4799820804674747 0 0.1606388545156639 0.5 0 0.16284299929429041 0.47286735670979418 0 0.18375498264642379 0.4799820804674747 0 0.17098438647877001 0.42850314348833868 0 0.18916685095478419 0.4516810973725483 0 0.1532788809183856 0.44756588495706878 0 0.18916685095478419 0.4516810973725483 0 0.16284299929429041 0.47286735670979418 0 0.18375498264642379 0.4799820804674747 0 0.18916685095478419 0.4516810973725483 0 0.16284299929429041 0.47286735670979418 0 0.1532788809183856 0.44756588495706878 0 0.17098438647877001 0.42850314348833868 0 0.18916685095478419 0.4516810973725483 0 0.16284299929429041 0.47286735670979418 0 0.1532788809183856 0.44756588495706878 0 0.13792901651589951 0.46760966493884959 0 0.1160915578241386 0.4641835533930308 0 0.1237280261196836 0.44463014715047522 0 0.13792901651589951 0.46760966493884959 0 0.1237280261196836 0.44463014715047522 0 0.1532788809183856 0.44756588495706878 0 0.13792901651589951 0.46760966493884959 0 0.1146358595090817 0.48605788153156299 0 0.13792901651589951 0.46760966493884959 0 0.14375381424303349 0.48699105670781317 0 0.1146358595090817 0.48605788153156299 0 0.13153158791447089 0.50000000000000033 0 0.14375381424303349 0.48699105670781317 0 0.1606388545156639 0.5 0 0.13153158791447089 0.50000000000000033 0 0.14375381424303349 0.48699105670781317 0 0.1606388545156639 0.5 0 0.16284299929429041 0.47286735670979418 0 0.14375381424303349 0.48699105670781317 0 0.16284299929429041 0.47286735670979418 0 0.13792901651589951 0.46760966493884959 0 0.14375381424303349 0.48699105670781317 0 0.35818797179075601 0.47458138126870081 0 0.34642182508771258 0.48585203466637861 0 0.33573625410597768 0.47071191077640329 0 0.35818797179075601 0.47458138126870081 0 0.34642182508771258 0.48585203466637861 0 0.35839011049240282 0.5 0 0.34642182508771258 0.48585203466637861 0 0.35839011049240282 0.5 0 0.33128271396841408 0.5 0 0.35818797179075601 0.47458138126870081 0 0.35839011049240282 0.5 0 0.37951078222479251 0.47868038482078018 0 0.35839011049240282 0.5 0 0.37951078222479251 0.47868038482078018 0 0.38549750701639152 0.5 0 0.35818797179075601 0.47458138126870081 0 0.37565915938479377 0.45849116020829678 0 0.37951078222479251 0.47868038482078018 0 0.35818797179075601 0.47458138126870081 0 0.35384759317055892 0.4558722467826386 0 0.37565915938479377 0.45849116020829678 0 0.3672128213662551 0.44140310366938379 0 0.35384759317055892 0.4558722467826386 0 0.37565915938479377 0.45849116020829678 0 0.35041805056504127 0.44039830756831011 0 0.35384759317055892 0.4558722467826386 0 0.33587130181052999 0.44964761720473639 0 0.3672128213662551 0.44140310366938379 0 0.35041805056504127 0.44039830756831011 0 0.35384759317055892 0.4558722467826386 0 0.35818797179075601 0.47458138126870081 0 0.35384759317055892 0.4558722467826386 0 0.33573625410597768 0.47071191077640329 0 0.33587130181052999 0.44964761720473639 0 0.32245641590876828 0.45710047073305682 0 0.33573625410597768 0.47071191077640329 0 0.35384759317055892 0.4558722467826386 0 0.33587130181052999 0.44964761720473639 0 0.33573625410597768 0.47071191077640329 0 0.35041805056504127 0.44039830756831011 0 0.33587130181052999 0.44964761720473639 0 0.34011375395909899 0.42827966665244982 0 0.33587130181052999 0.44964761720473639 0 0.32313042491148092 0.43915640659962429 0 0.34011375395909899 0.42827966665244982 0 0.33587130181052999 0.44964761720473639 0 0.32313042491148092 0.43915640659962429 0 0.32245641590876828 0.45710047073305682 0 0.32313042491148092 0.43915640659962429 0 0.32245641590876828 0.45710047073305682 0 0.3069723578181176 0.44921026163567479 0 0.32313042491148092 0.43915640659962429 0 0.3069723578181176 0.44921026163567479 0 0.30967478190587899 0.43248339293908478 0 0.32245641590876828 0.45710047073305682 0 0.31479002533830769 0.47294309924184441 0 0.33573625410597768 0.47071191077640329 0 0.32245641590876828 0.45710047073305682 0 0.31479002533830769 0.47294309924184441 0 0.3069723578181176 0.44921026163567479 0 0.31479002533830769 0.47294309924184441 0 0.33573625410597768 0.47071191077640329 0 0.33128271396841408 0.5 0 0.34642182508771258 0.48585203466637861 0 0.33573625410597768 0.47071191077640329 0 0.33128271396841408 0.5 0 0.31479002533830769 0.47294309924184441 0 0.33128271396841408 0.5 0 0.30417531744442527 0.5 0 0.31479002533830769 0.47294309924184441 0 0.30417531744442527 0.5 0 0.29074220063683293 0.48758109823480927 0 0.31479002533830769 0.47294309924184441 0 0.29192961584893129 0.47074300911827521 0 0.29074220063683293 0.48758109823480927 0 0.31479002533830769 0.47294309924184441 0 0.29192961584893129 0.47074300911827521 0 0.29192961584893129 0.47074300911827521 0 0.29074220063683293 0.48758109823480927 0 0.27306856363999571 0.4842714594973539 0 0.30417531744442527 0.5 0 0.29074220063683293 0.48758109823480927 0 0.27706792092043642 0.500000000000002 0 0.27706792092043642 0.500000000000002 0 0.27306856363999571 0.4842714594973539 0 0.25513941322049821 0.48355515434954122 0 0.29074220063683293 0.48758109823480927 0 0.27706792092043642 0.500000000000002 0 0.27306856363999571 0.4842714594973539 0 0.27706792092043642 0.500000000000002 0 0.27306856363999571 0.4842714594973539 0 0.29192961584893129 0.47074300911827521 0 0.26906920635955489 0.46854291899470579 0 0.27306856363999571 0.4842714594973539 0 0.25513941322049821 0.48355515434954122 0 0.26906920635955489 0.46854291899470579 0 0.29192961584893129 0.47074300911827521 0 0.27306856363999571 0.4842714594973539 0 0.26906920635955489 0.46854291899470579 0 0.27306856363999571 0.4842714594973539 0 0.26906920635955489 0.46854291899470579 0 0.24508980140621781 0.46623513653650361 0 0.25513941322049821 0.48355515434954122 0 0.26906920635955489 0.46854291899470579 0 0.2479606543192433 0.5 0 0.27706792092043642 0.500000000000002 0 0.25513941322049821 0.48355515434954122 0 0.24508980140621781 0.46623513653650361 0 0.26906920635955489 0.46854291899470579 0 0.24508980140621781 0.46623513653650361 0 0.26234678177835441 0.44210518915783192 0 0.26906920635955489 0.46854291899470579 0 0.29192961584893129 0.47074300911827521 0 0.26906920635955489 0.46854291899470579 0 0.2825318911539082 0.44937975844880462 0 0.26234678177835441 0.44210518915783192 0 0.26906920635955489 0.46854291899470579 0 0.26234678177835441 0.44210518915783192 0 0.26906920635955489 0.46854291899470579 0 0.2825318911539082 0.44937975844880462 0 0.26234678177835441 0.44210518915783192 0 0.2825318911539082 0.44937975844880462 0 0.2735489225425754 0.42398780939214897 0 0.2825318911539082 0.44937975844880462 0 0.3069723578181176 0.44921026163567479 0 0.29424437368670248 0.43173942196487358 0 0.29192961584893129 0.47074300911827521 0 0.2825318911539082 0.44937975844880462 0 0.3069723578181176 0.44921026163567479 0 0.31479002533830769 0.47294309924184441 0 0.29192961584893129 0.47074300911827521 0 0.3069723578181176 0.44921026163567479 0 0.3069723578181176 0.44921026163567479 0 0.30967478190587899 0.43248339293908478 0 0.29424437368670248 0.43173942196487358 0 0.30967478190587899 0.43248339293908478 0 0.3045281829251868 0.41996349248923659 0 0.31949857018790712 0.42234738200601463 0 0.30967478190587899 0.43248339293908478 0 0.3045281829251868 0.41996349248923659 0 0.29424437368670248 0.43173942196487358 0 0.31221380766262308 0.41141105291454111 0 0.3045281829251868 0.41996349248923659 0 0.30175255758949709 0.40539483602959481 0 0.31221380766262308 0.41141105291454111 0 0.3045281829251868 0.41996349248923659 0 0.31949857018790712 0.42234738200601463 0 0.3045281829251868 0.41996349248923659 0 0.29116822628179151 0.41527777958226658 0 0.30175255758949709 0.40539483602959481 0 0.29116822628179151 0.41527777958226658 0 0.2735489225425754 0.42398780939214897 0 0.28009549588900451 0.40671294327225221 0 0.29116822628179151 0.41527777958226658 0 0.29046685710439091 0.40365495696152731 0 0.30175255758949709 0.40539483602959481 0 0.29116822628179151 0.41527777958226658 0 0.28009549588900451 0.40671294327225221 0 0.29046685710439091 0.40365495696152731 0 0.29116822628179151 0.41527777958226658 0 0.29424437368670248 0.43173942196487358 0 0.2735489225425754 0.42398780939214897 0 0.3045281829251868 0.41996349248923659 0 0.29116822628179151 0.41527777958226658 0 0.29424437368670248 0.43173942196487358 0 0.2825318911539082 0.44937975844880462 0 0.29424437368670248 0.43173942196487358 0 0.2735489225425754 0.42398780939214897 0 0.2735489225425754 0.42398780939214897 0 0.28009549588900451 0.40671294327225221 0 0.26594594197715632 0.40587542564026857 0 0.2735489225425754 0.42398780939214897 0 0.25562435719715348 0.41566745932095828 0 0.26594594197715632 0.40587542564026857 0 0.26234678177835441 0.44210518915783192 0 0.25562435719715348 0.41566745932095828 0 0.23929670148200641 0.42651558303428039 0 0.26234678177835441 0.44210518915783192 0 0.25562435719715348 0.41566745932095828 0 0.26234678177835441 0.44210518915783192 0 0.2735489225425754 0.42398780939214897 0 0.25562435719715348 0.41566745932095828 0 0.24890193261595259 0.38922972948408457 0 0.27155900164109531 0.39377918673189899 0 0.26817635423288699 0.37969346344739391 0 0.24890193261595259 0.38922972948408457 0 0.26817635423288699 0.37969346344739391 0 0.26082178769032438 0.36496323128775521 0 0.24890193261595259 0.38922972948408457 0 0.25562435719715348 0.41566745932095828 0 0.24890193261595259 0.38922972948408457 0 0.27155900164109531 0.39377918673189899 0 0.26594594197715632 0.40587542564026857 0 0.24890193261595259 0.38922972948408457 0 0.25562435719715348 0.41566745932095828 0 0.26594594197715632 0.40587542564026857 0 0.28009549588900451 0.40671294327225221 0 0.27155900164109531 0.39377918673189899 0 0.26594594197715632 0.40587542564026857 0 0.28009549588900451 0.40671294327225221 0 0.27155900164109531 0.39377918673189899 0 0.2841626669368148 0.39603484022980262 0 0.27155900164109531 0.39377918673189899 0 0.27917556467927279 0.38707504911542251 0 0.2841626669368148 0.39603484022980262 0 0.27917556467927279 0.38707504911542251 0 0.27737653217987568 0.3763299637903077 0 0.28641533258273322 0.38531457319514678 0 0.27155900164109531 0.39377918673189899 0 0.27917556467927279 0.38707504911542251 0 0.26817635423288699 0.37969346344739391 0 0.26817635423288699 0.37969346344739391 0 0.27737653217987568 0.3763299637903077 0 0.26995518240551242 0.36922466410125959 0 0.27917556467927279 0.38707504911542251 0 0.26817635423288699 0.37969346344739391 0 0.27737653217987568 0.3763299637903077 0 0.27917556467927279 0.38707504911542251 0 0.28749669470930389 0.39059918652862902 0 0.28641533258273322 0.38531457319514678 0 0.28749669470930389 0.39059918652862902 0 0.28641533258273322 0.38531457319514678 0 0.29321390271680048 0.38636149671614523 0 0.28641533258273322 0.38531457319514678 0 0.29321390271680048 0.38636149671614523 0 0.29155132770994241 0.38145409056705559 0 0.28749669470930389 0.39059918652862902 0 0.29321390271680048 0.38636149671614523 0 0.2951553388248469 0.39485438569372039 0 0.29321390271680048 0.38636149671614523 0 0.2951553388248469 0.39485438569372039 0 0.30172663999730548 0.38411556817588999 0 0.2951337916801352 0.37545299726164849 0 0.29155132770994241 0.38145409056705559 0 0.29028041611347422 0.37131190521640561 0 0.29650911823343812 0.38027524721939082 0 0.2951337916801352 0.37545299726164849 0 0.29155132770994241 0.38145409056705559 0 0.29321390271680048 0.38636149671614523 0 0.29650911823343812 0.38027524721939082 0 0.29155132770994241 0.38145409056705559 0 0.28009549588900451 0.40671294327225221 0 0.2841626669368148 0.39603484022980262 0 0.29046685710439091 0.40365495696152731 0 0.27917556467927279 0.38707504911542251 0 0.28749669470930389 0.39059918652862902 0 0.2841626669368148 0.39603484022980262 0 0.28749669470930389 0.39059918652862902 0 0.2841626669368148 0.39603484022980262 0 0.2951553388248469 0.39485438569372039 0 0.2841626669368148 0.39603484022980262 0 0.2951553388248469 0.39485438569372039 0 0.29046685710439091 0.40365495696152731 0 0.2951553388248469 0.39485438569372039 0 0.29046685710439091 0.40365495696152731 0 0.30175255758949709 0.40539483602959481 0 0.2951553388248469 0.39485438569372039 0 0.30416997859767031 0.39496190780794832 0 0.30172663999730548 0.38411556817588999 0 0.2951553388248469 0.39485438569372039 0 0.30175255758949709 0.40539483602959481 0 0.30416997859767031 0.39496190780794832 0 0.30416997859767031 0.39496190780794832 0 0.31194754139156228 0.39992908639018659 0 0.31058504665001713 0.38993607806902841 0 0.31221380766262308 0.41141105291454111 0 0.30175255758949709 0.40539483602959481 0 0.31194754139156228 0.39992908639018659 0 0.30175255758949709 0.40539483602959481 0 0.30416997859767031 0.39496190780794832 0 0.31194754139156228 0.39992908639018659 0 0.29650911823343812 0.38027524721939082 0 0.30172663999730548 0.38411556817588999 0 0.30091992906300691 0.3739920833762147 0 0.30172663999730548 0.38411556817588999 0 0.31077839752677883 0.37658419253607489 0 0.30091992906300691 0.3739920833762147 0 0.29650911823343812 0.38027524721939082 0 0.2951337916801352 0.37545299726164849 0 0.30091992906300691 0.3739920833762147 0 0.29321390271680048 0.38636149671614523 0 0.29650911823343812 0.38027524721939082 0 0.30172663999730548 0.38411556817588999 0 0.30416997859767031 0.39496190780794832 0 0.30172663999730548 0.38411556817588999 0 0.31058504665001713 0.38993607806902841 0 0.30172663999730548 0.38411556817588999 0 0.31058504665001713 0.38993607806902841 0 0.31077839752677883 0.37658419253607489 0 0.31077839752677883 0.37658419253607489 0 0.31867525833463911 0.38494833593070971 0 0.32306703930603953 0.37623237809600169 0 0.31058504665001713 0.38993607806902841 0 0.31867525833463911 0.38494833593070971 0 0.31878199461777879 0.39362573130725731 0 0.31058504665001713 0.38993607806902841 0 0.31077839752677883 0.37658419253607489 0 0.31867525833463911 0.38494833593070971 0 0.31867525833463911 0.38494833593070971 0 0.32306703930603953 0.37623237809600169 0 0.32934203852673438 0.38871677178939867 0 0.31867525833463911 0.38494833593070971 0 0.32934203852673438 0.38871677178939867 0 0.31878199461777879 0.39362573130725731 0 0.32306703930603953 0.37623237809600169 0 0.33555471090824662 0.37714848622012531 0 0.32934203852673438 0.38871677178939867 0 0.33555471090824662 0.37714848622012531 0 0.32934203852673438 0.38871677178939867 0 0.34865402358820241 0.38746960960344728 0 0.32934203852673438 0.38871677178939867 0 0.33838050486014071 0.40132571833470809 0 0.34865402358820241 0.38746960960344728 0 0.32934203852673438 0.38871677178939867 0 0.33838050486014071 0.40132571833470809 0 0.32336008818594092 0.40459838435696299 0 0.32934203852673438 0.38871677178939867 0 0.32336008818594092 0.40459838435696299 0 0.31878199461777879 0.39362573130725731 0 0.31194754139156228 0.39992908639018659 0 0.31058504665001713 0.38993607806902841 0 0.31878199461777879 0.39362573130725731 0 0.31221380766262308 0.41141105291454111 0 0.31194754139156228 0.39992908639018659 0 0.32336008818594092 0.40459838435696299 0 0.31194754139156228 0.39992908639018659 0 0.32336008818594092 0.40459838435696299 0 0.31878199461777879 0.39362573130725731 0 0.31221380766262308 0.41141105291454111 0 0.32336008818594092 0.40459838435696299 0 0.31949857018790712 0.42234738200601463 0 0.32336008818594092 0.40459838435696299 0 0.31949857018790712 0.42234738200601463 0 0.33335541567677851 0.41413927737501682 0 0.32313042491148092 0.43915640659962429 0 0.31949857018790712 0.42234738200601463 0 0.34011375395909899 0.42827966665244982 0 0.32313042491148092 0.43915640659962429 0 0.30967478190587899 0.43248339293908478 0 0.31949857018790712 0.42234738200601463 0 0.31949857018790712 0.42234738200601463 0 0.34011375395909899 0.42827966665244982 0 0.33335541567677851 0.41413927737501682 0 0.34011375395909899 0.42827966665244982 0 0.33335541567677851 0.41413927737501682 0 0.35251535500997389 0.4097633894025835 0 0.33838050486014071 0.40132571833470809 0 0.33335541567677851 0.41413927737501682 0 0.35251535500997389 0.4097633894025835 0 0.33838050486014071 0.40132571833470809 0 0.32336008818594092 0.40459838435696299 0 0.33335541567677851 0.41413927737501682 0 0.34011375395909899 0.42827966665244982 0 0.35251535500997389 0.4097633894025835 0 0.3591301267131588 0.42602683944016839 0 0.3672128213662551 0.44140310366938379 0 0.35041805056504127 0.44039830756831011 0 0.3591301267131588 0.42602683944016839 0 0.35041805056504127 0.44039830756831011 0 0.34011375395909899 0.42827966665244982 0 0.3591301267131588 0.42602683944016839 0 0.3672128213662551 0.44140310366938379 0 0.3591301267131588 0.42602683944016839 0 0.37786999239799629 0.42201923841731348 0 0.3591301267131588 0.42602683944016839 0 0.36674031876838431 0.41287021939491358 0 0.37786999239799629 0.42201923841731348 0 0.35251535500997389 0.4097633894025835 0 0.36674031876838431 0.41287021939491358 0 0.36672310374365391 0.3972274770167053 0 0.36674031876838431 0.41287021939491358 0 0.37714557779446961 0.40580011292323048 0 0.37786999239799629 0.42201923841731348 0 0.35251535500997389 0.4097633894025835 0 0.3591301267131588 0.42602683944016839 0 0.36674031876838431 0.41287021939491358 0 0.36674031876838431 0.41287021939491358 0 0.36672310374365391 0.3972274770167053 0 0.37714557779446961 0.40580011292323048 0 0.36672310374365391 0.3972274770167053 0 0.34865402358820241 0.38746960960344728 0 0.36927583114563117 0.37168826674887129 0 0.36672310374365391 0.3972274770167053 0 0.36927583114563117 0.37168826674887129 0 0.38594138320053972 0.39504117240748449 0 0.34865402358820241 0.38746960960344728 0 0.34769055634412588 0.36745966958429022 0 0.36927583114563117 0.37168826674887129 0 0.33555471090824662 0.37714848622012531 0 0.34865402358820241 0.38746960960344728 0 0.34769055634412588 0.36745966958429022 0 0.35251535500997389 0.4097633894025835 0 0.36672310374365391 0.3972274770167053 0 0.34865402358820241 0.38746960960344728 0 0.33838050486014071 0.40132571833470809 0 0.35251535500997389 0.4097633894025835 0 0.34865402358820241 0.38746960960344728 0 0.35261027909072251 0.34833536109025781 0 0.34769055634412588 0.36745966958429022 0 0.33944519881702218 0.35670643516570921 0 0.35261027909072251 0.34833536109025781 0 0.34769055634412588 0.36745966958429022 0 0.36927583114563117 0.37168826674887129 0 0.35261027909072251 0.34833536109025781 0 0.36927583114563117 0.37168826674887129 0 0.35261027909072251 0.34833536109025781 0 0.36927583114563117 0.37168826674887129 0 0.38014707859742553 0.358601566133181 0 0.35261027909072251 0.34833536109025781 0 0.37418757138316661 0.34003979241565702 0 0.38014707859742553 0.358601566133181 0 0.37418757138316661 0.34003979241565702 0 0.36114413796306788 0.32433110896381118 0 0.38634354889032002 0.32367976249598251 0 0.35261027909072251 0.34833536109025781 0 0.37418757138316661 0.34003979241565702 0 0.36114413796306788 0.32433110896381118 0 0.36114413796306788 0.32433110896381118 0 0.38634354889032002 0.32367976249598251 0 0.36114413796306788 0.32433110896381118 0 0.36246687595182442 0.30494518477727961 0 0.38634354889032002 0.32367976249598251 0 0.36114413796306788 0.32433110896381118 0 0.33594472703581602 0.32498245543164278 0 0.36114413796306788 0.32433110896381118 0 0.33594472703581602 0.32498245543164278 0 0.34448717235649018 0.30756264321984922 0 0.35261027909072251 0.34833536109025781 0 0.36114413796306788 0.32433110896381118 0 0.33594472703581602 0.32498245543164278 0 0.35261027909072251 0.34833536109025781 0 0.33594472703581602 0.32498245543164278 0 0.35261027909072251 0.34833536109025781 0 0.33361265820108371 0.33601463685995558 0 0.33594472703581602 0.32498245543164278 0 0.35261027909072251 0.34833536109025781 0 0.33361265820108371 0.33601463685995558 0 0.33117650937159632 0.34590223044488833 0 0.33361265820108371 0.33601463685995558 0 0.33594472703581602 0.32498245543164278 0 0.32592845192929348 0.32524135296818618 0 0.33361265820108371 0.33601463685995558 0 0.32240332357799001 0.33561178436480271 0 0.33117650937159632 0.34590223044488833 0 0.33594472703581602 0.32498245543164278 0 0.32420479997372442 0.30853167071016102 0 0.33594472703581602 0.32498245543164278 0 0.32592845192929348 0.32524135296818618 0 0.32420479997372442 0.30853167071016102 0 0.33594472703581602 0.32498245543164278 0 0.32420479997372442 0.30853167071016102 0 0.34448717235649018 0.30756264321984922 0 0.33594472703581602 0.32498245543164278 0 0.32592845192929348 0.32524135296818618 0 0.32592845192929348 0.32524135296818618 0 0.31778971146991503 0.31788997842391498 0 0.32420479997372442 0.30853167071016102 0 0.32592845192929348 0.32524135296818618 0 0.31591730865868939 0.32743152395768732 0 0.31778971146991503 0.31788997842391498 0 0.31591730865868939 0.32743152395768732 0 0.31778971146991503 0.31788997842391498 0 0.30920411140212778 0.3196886032463338 0 0.32240332357799001 0.33561178436480271 0 0.31863003654071292 0.34601962911411782 0 0.33117650937159632 0.34590223044488833 0 0.33361265820108371 0.33601463685995558 0 0.32592845192929348 0.32524135296818618 0 0.32240332357799001 0.33561178436480271 0 0.32592845192929348 0.32524135296818618 0 0.31591730865868939 0.32743152395768732 0 0.32240332357799001 0.33561178436480271 0 0.31591730865868939 0.32743152395768732 0 0.32240332357799001 0.33561178436480271 0 0.31164832743931292 0.33689503642828789 0 0.32240332357799001 0.33561178436480271 0 0.31863003654071292 0.34601962911411782 0 0.31164832743931292 0.33689503642828789 0 0.31863003654071292 0.34601962911411782 0 0.30992842843050988 0.3457112388019602 0 0.31164832743931292 0.33689503642828789 0 0.31863003654071292 0.34601962911411782 0 0.30992842843050988 0.3457112388019602 0 0.31160887743439081 0.35478490180041172 0 0.32445766980723489 0.35579424438156659 0 0.31686549990355672 0.36548826773678422 0 0.31160887743439081 0.35478490180041172 0 0.31863003654071292 0.34601962911411782 0 0.32445766980723489 0.35579424438156659 0 0.31160887743439081 0.35478490180041172 0 0.31863003654071292 0.34601962911411782 0 0.32445766980723489 0.35579424438156659 0 0.33117650937159632 0.34590223044488833 0 0.35261027909072251 0.34833536109025781 0 0.33117650937159632 0.34590223044488833 0 0.33944519881702218 0.35670643516570921 0 0.32445766980723489 0.35579424438156659 0 0.33117650937159632 0.34590223044488833 0 0.33944519881702218 0.35670643516570921 0 0.33555471090824662 0.37714848622012531 0 0.34769055634412588 0.36745966958429022 0 0.3290198967761308 0.36586400202748842 0 0.34769055634412588 0.36745966958429022 0 0.33944519881702218 0.35670643516570921 0 0.3290198967761308 0.36586400202748842 0 0.32445766980723489 0.35579424438156659 0 0.33944519881702218 0.35670643516570921 0 0.3290198967761308 0.36586400202748842 0 0.32306703930603953 0.37623237809600169 0 0.33555471090824662 0.37714848622012531 0 0.3290198967761308 0.36586400202748842 0 0.32306703930603953 0.37623237809600169 0 0.3290198967761308 0.36586400202748842 0 0.31686549990355672 0.36548826773678422 0 0.32445766980723489 0.35579424438156659 0 0.3290198967761308 0.36586400202748842 0 0.31686549990355672 0.36548826773678422 0 0.31077839752677883 0.37658419253607489 0 0.32306703930603953 0.37623237809600169 0 0.31686549990355672 0.36548826773678422 0 0.31077839752677883 0.37658419253607489 0 0.30653952356419251 0.36486132392814918 0 0.30091992906300691 0.3739920833762147 0 0.31077839752677883 0.37658419253607489 0 0.31686549990355672 0.36548826773678422 0 0.30653952356419251 0.36486132392814918 0 0.31686549990355672 0.36548826773678422 0 0.30653952356419251 0.36486132392814918 0 0.31160887743439081 0.35478490180041172 0 0.30653952356419251 0.36486132392814918 0 0.29956039950038399 0.36055845947794762 0 0.29968882481084308 0.36620473963642819 0 0.30653952356419251 0.36486132392814918 0 0.29956039950038399 0.36055845947794762 0 0.30450437459886343 0.35739179545954242 0 0.29956039950038399 0.36055845947794762 0 0.29968882481084308 0.36620473963642819 0 0.2946843591870788 0.36349444767638139 0 0.29968882481084308 0.36620473963642819 0 0.30091992906300691 0.3739920833762147 0 0.29515321138997108 0.36891281366618561 0 0.30653952356419251 0.36486132392814918 0 0.29968882481084308 0.36620473963642819 0 0.30091992906300691 0.3739920833762147 0 0.2951337916801352 0.37545299726164849 0 0.30091992906300691 0.3739920833762147 0 0.29515321138997108 0.36891281366618561 0 0.30992842843050988 0.3457112388019602 0 0.31160887743439081 0.35478490180041172 0 0.30300584901730271 0.34938636887413438 0 0.30992842843050988 0.3457112388019602 0 0.30300584901730271 0.34938636887413438 0 0.30284961949963451 0.34180688944884569 0 0.31160887743439081 0.35478490180041172 0 0.30450437459886343 0.35739179545954242 0 0.30300584901730271 0.34938636887413438 0 0.30653952356419251 0.36486132392814918 0 0.31160887743439081 0.35478490180041172 0 0.30450437459886343 0.35739179545954242 0 0.30450437459886343 0.35739179545954242 0 0.29772286606791931 0.35422336501427332 0 0.30300584901730271 0.34938636887413438 0 0.29956039950038399 0.36055845947794762 0 0.30450437459886343 0.35739179545954242 0 0.29772286606791931 0.35422336501427332 0 0.29772286606791931 0.35422336501427332 0 0.30300584901730271 0.34938636887413438 0 0.29508057650716829 0.34607515835053693 0 0.30300584901730271 0.34938636887413438 0 0.29508057650716829 0.34607515835053693 0 0.30284961949963451 0.34180688944884569 0 0.29508057650716829 0.34607515835053693 0 0.29128433478161492 0.3514692197730912 0 0.28696318970460172 0.34507386829548542 0 0.29772286606791931 0.35422336501427332 0 0.29508057650716829 0.34607515835053693 0 0.29128433478161492 0.3514692197730912 0 0.29128433478161492 0.3514692197730912 0 0.29260686737414288 0.35803349489433017 0 0.28831593146678952 0.35482697607295582 0 0.29772286606791931 0.35422336501427332 0 0.29128433478161492 0.3514692197730912 0 0.29260686737414288 0.35803349489433017 0 0.29956039950038399 0.36055845947794762 0 0.29772286606791931 0.35422336501427332 0 0.29260686737414288 0.35803349489433017 0 0.29260686737414288 0.35803349489433017 0 0.28714468874269172 0.35854684035017659 0 0.29097547274489571 0.36086700820637557 0 0.29260686737414288 0.35803349489433017 0 0.28714468874269172 0.35854684035017659 0 0.28831593146678952 0.35482697607295582 0 0.28714468874269172 0.35854684035017659 0 0.28946597567566928 0.3633932499046143 0 0.27836960746308909 0.35599853724874359 0 0.28714468874269172 0.35854684035017659 0 0.28392422607346179 0.35383006020545288 0 0.27836960746308909 0.35599853724874359 0 0.28714468874269172 0.35854684035017659 0 0.28392422607346179 0.35383006020545288 0 0.28831593146678952 0.35482697607295582 0 0.28392422607346179 0.35383006020545288 0 0.28273558166129192 0.34922596943765521 0 0.28101653893848899 0.35208327708388421 0 0.28392422607346179 0.35383006020545288 0 0.28831593146678952 0.35482697607295582 0 0.2863539578433606 0.35136140079780598 0 0.29128433478161492 0.3514692197730912 0 0.28831593146678952 0.35482697607295582 0 0.2863539578433606 0.35136140079780598 0 0.29128433478161492 0.3514692197730912 0 0.2863539578433606 0.35136140079780598 0 0.28696318970460172 0.34507386829548542 0 0.2863539578433606 0.35136140079780598 0 0.28273558166129192 0.34922596943765521 0 0.28696318970460172 0.34507386829548542 0 0.28392422607346179 0.35383006020545288 0 0.2863539578433606 0.35136140079780598 0 0.28273558166129192 0.34922596943765521 0 0.28696318970460172 0.34507386829548542 0 0.28013569367420871 0.34584772387197749 0 0.28119375649751349 0.3415044430455576 0 0.28273558166129192 0.34922596943765521 0 0.28696318970460172 0.34507386829548542 0 0.28013569367420871 0.34584772387197749 0 0.29155132770994241 0.38145409056705559 0 0.29028041611347422 0.37131190521640561 0 0.27836960746308909 0.35599853724874359 0 0.28641533258273322 0.38531457319514678 0 0.29155132770994241 0.38145409056705559 0 0.2754302243437341 0.35800137086985789 0 0.29155132770994241 0.38145409056705559 0 0.2754302243437341 0.35800137086985789 0 0.27836960746308909 0.35599853724874359 0 0.29155132770994241 0.38145409056705559 0 0.27836960746308909 0.35599853724874359 0 0.29028041611347422 0.37131190521640561 0 0.29515321138997108 0.36891281366618561 0 0.28946597567566928 0.3633932499046143 0 0.2951337916801352 0.37545299726164849 0 0.29028041611347422 0.37131190521640561 0 0.29515321138997108 0.36891281366618561 0 0.29968882481084308 0.36620473963642819 0 0.29515321138997108 0.36891281366618561 0 0.2946843591870788 0.36349444767638139 0 0.29515321138997108 0.36891281366618561 0 0.2946843591870788 0.36349444767638139 0 0.28946597567566928 0.3633932499046143 0 0.29956039950038399 0.36055845947794762 0 0.29260686737414288 0.35803349489433017 0 0.2946843591870788 0.36349444767638139 0 0.28714468874269172 0.35854684035017659 0 0.29097547274489571 0.36086700820637557 0 0.28946597567566928 0.3633932499046143 0 0.2946843591870788 0.36349444767638139 0 0.29097547274489571 0.36086700820637557 0 0.28946597567566928 0.3633932499046143 0 0.29260686737414288 0.35803349489433017 0 0.2946843591870788 0.36349444767638139 0 0.29097547274489571 0.36086700820637557 0 0.29028041611347422 0.37131190521640561 0 0.28946597567566928 0.3633932499046143 0 0.27836960746308909 0.35599853724874359 0 0.28641533258273322 0.38531457319514678 0 0.2754302243437341 0.35800137086985789 0 0.27737653217987568 0.3763299637903077 0 0.28641533258273322 0.38531457319514678 0 0.2754302243437341 0.35800137086985789 0 0.27737653217987568 0.3763299637903077 0 0.27292546410526491 0.36629585246079138 0 0.2754302243437341 0.35800137086985789 0 0.27737653217987568 0.3763299637903077 0 0.26995518240551242 0.36922466410125959 0 0.27292546410526491 0.36629585246079138 0 0.26817635423288699 0.37969346344739391 0 0.26995518240551242 0.36922466410125959 0 0.26082178769032438 0.36496323128775521 0 0.26995518240551242 0.36922466410125959 0 0.26893991749193752 0.36162741108174062 0 0.26082178769032438 0.36496323128775521 0 0.26893991749193752 0.36162741108174062 0 0.27292546410526491 0.36629585246079138 0 0.2754302243437341 0.35800137086985789 0 0.26995518240551242 0.36922466410125959 0 0.26893991749193752 0.36162741108174062 0 0.27292546410526491 0.36629585246079138 0 0.2754302243437341 0.35800137086985789 0 0.26518788721623437 0.33054298393043219 0 0.2754302243437341 0.35800137086985789 0 0.27836960746308909 0.35599853724874359 0 0.26518788721623437 0.33054298393043219 0 0.2754302243437341 0.35800137086985789 0 0.26469999689944002 0.35285812485780471 0 0.26518788721623437 0.33054298393043219 0 0.27836960746308909 0.35599853724874359 0 0.28101653893848899 0.35208327708388421 0 0.2797945401242129 0.34946851842389731 0 0.28392422607346179 0.35383006020545288 0 0.27836960746308909 0.35599853724874359 0 0.28101653893848899 0.35208327708388421 0 0.27836960746308909 0.35599853724874359 0 0.2797945401242129 0.34946851842389731 0 0.27671527888398562 0.3441870844772259 0 0.28013569367420871 0.34584772387197749 0 0.2797945401242129 0.34946851842389731 0 0.27671527888398562 0.3441870844772259 0 0.28013569367420871 0.34584772387197749 0 0.27671527888398562 0.3441870844772259 0 0.28119375649751349 0.3415044430455576 0 0.28273558166129192 0.34922596943765521 0 0.28013569367420871 0.34584772387197749 0 0.2797945401242129 0.34946851842389731 0 0.28273558166129192 0.34922596943765521 0 0.28101653893848899 0.35208327708388421 0 0.2797945401242129 0.34946851842389731 0 0.26893991749193752 0.36162741108174062 0 0.2754302243437341 0.35800137086985789 0 0.26469999689944002 0.35285812485780471 0 0.26469999689944002 0.35285812485780471 0 0.25397109136889212 0.34953950795812871 0 0.26518788721623437 0.33054298393043219 0 0.26469999689944002 0.35285812485780471 0 0.25397109136889212 0.34953950795812871 0 0.26082178769032438 0.36496323128775521 0 0.24217950803475169 0.36279199964721098 0 0.25397109136889212 0.34953950795812871 0 0.26082178769032438 0.36496323128775521 0 0.24217950803475169 0.36279199964721098 0 0.24890193261595259 0.38922972948408457 0 0.26082178769032438 0.36496323128775521 0 0.26893991749193752 0.36162741108174062 0 0.26469999689944002 0.35285812485780471 0 0.26082178769032438 0.36496323128775521 0 0.26160037477145948 0.32361504792451118 0 0.26961523156275707 0.31863310602586059 0 0.25252005129033422 0.30103787280496203 0 0.24833100513142109 0.32161764704062729 0 0.26160037477145948 0.32361504792451118 0 0.26518788721623437 0.33054298393043219 0 0.24963775202771521 0.30051372462394288 0 0.24833100513142109 0.32161764704062729 0 0.26160037477145948 0.32361504792451118 0 0.26160037477145948 0.32361504792451118 0 0.26518788721623437 0.33054298393043219 0 0.26731122343739822 0.32545953491366858 0 0.26160037477145948 0.32361504792451118 0 0.26518788721623437 0.33054298393043219 0 0.2354570834535519 0.33635426981033711 0 0.26518788721623437 0.33054298393043219 0 0.2354570834535519 0.33635426981033711 0 0.25397109136889212 0.34953950795812871 0 0.26518788721623437 0.33054298393043219 0 0.27836960746308909 0.35599853724874359 0 0.27671527888398562 0.3441870844772259 0 0.26518788721623437 0.33054298393043219 0 0.26518788721623437 0.33054298393043219 0 0.2728414001991406 0.32904700177387047 0 0.26518788721623437 0.33054298393043219 0 0.2728414001991406 0.32904700177387047 0 0.26731122343739822 0.32545953491366858 0 0.27836960746308909 0.35599853724874359 0 0.26518788721623437 0.33054298393043219 0 0.26518788721623437 0.33054298393043219 0 0.2728414001991406 0.32904700177387047 0 0.27786043041236869 0.33471626715991409 0 0.27671527888398562 0.3441870844772259 0 0.26518788721623437 0.33054298393043219 0 0.27786043041236869 0.33471626715991409 0 0.27671527888398562 0.3441870844772259 0 0.28119375649751349 0.3415044430455576 0 0.27786043041236869 0.33471626715991409 0 0.2728414001991406 0.32904700177387047 0 0.27786043041236869 0.33471626715991409 0 0.27936204924768121 0.32498307102898349 0 0.27786043041236869 0.33471626715991409 0 0.27936204924768121 0.32498307102898349 0 0.28525590824973168 0.33019860290154568 0 0.2728414001991406 0.32904700177387047 0 0.27936204924768121 0.32498307102898349 0 0.26961523156275707 0.31863310602586059 0 0.2728414001991406 0.32904700177387047 0 0.26731122343739822 0.32545953491366858 0 0.26961523156275707 0.31863310602586059 0 0.26160037477145948 0.32361504792451118 0 0.26731122343739822 0.32545953491366858 0 0.26961523156275707 0.31863310602586059 0 0.27936204924768121 0.32498307102898349 0 0.26961523156275707 0.31863310602586059 0 0.28133089707177739 0.31565660162935461 0 0.26961523156275707 0.31863310602586059 0 0.28133089707177739 0.31565660162935461 0 0.27162220014601168 0.30819847959926649 0 0.28133089707177739 0.31565660162935461 0 0.28926842799031183 0.32164684668335553 0 0.29289622389348391 0.31173450207074938 0 0.27936204924768121 0.32498307102898349 0 0.28926842799031183 0.32164684668335553 0 0.28525590824973168 0.33019860290154568 0 0.27936204924768121 0.32498307102898349 0 0.28133089707177739 0.31565660162935461 0 0.28926842799031183 0.32164684668335553 0 0.28926842799031183 0.32164684668335553 0 0.29270679870612148 0.33133919612790758 0 0.29864702146159328 0.32643954785611667 0 0.28926842799031183 0.32164684668335553 0 0.28525590824973168 0.33019860290154568 0 0.29270679870612148 0.33133919612790758 0 0.28926842799031183 0.32164684668335553 0 0.30057412006284873 0.3182848580649148 0 0.29864702146159328 0.32643954785611667 0 0.28926842799031183 0.32164684668335553 0 0.30057412006284873 0.3182848580649148 0 0.29289622389348391 0.31173450207074938 0 0.28696318970460172 0.34507386829548542 0 0.28119375649751349 0.3415044430455576 0 0.28563489893157912 0.33697664508827291 0 0.28696318970460172 0.34507386829548542 0 0.28563489893157912 0.33697664508827291 0 0.29440715639490739 0.33866623850310912 0 0.28119375649751349 0.3415044430455576 0 0.27786043041236869 0.33471626715991409 0 0.28563489893157912 0.33697664508827291 0 0.28563489893157912 0.33697664508827291 0 0.28525590824973168 0.33019860290154568 0 0.29270679870612148 0.33133919612790758 0 0.27786043041236869 0.33471626715991409 0 0.28563489893157912 0.33697664508827291 0 0.28525590824973168 0.33019860290154568 0 0.29270679870612148 0.33133919612790758 0 0.29440715639490739 0.33866623850310912 0 0.30302737920860612 0.33410729573504611 0 0.28563489893157912 0.33697664508827291 0 0.29270679870612148 0.33133919612790758 0 0.29440715639490739 0.33866623850310912 0 0.29508057650716829 0.34607515835053693 0 0.28696318970460172 0.34507386829548542 0 0.29440715639490739 0.33866623850310912 0 0.29508057650716829 0.34607515835053693 0 0.29440715639490739 0.33866623850310912 0 0.30284961949963451 0.34180688944884569 0 0.29440715639490739 0.33866623850310912 0 0.30284961949963451 0.34180688944884569 0 0.30302737920860612 0.33410729573504611 0 0.29270679870612148 0.33133919612790758 0 0.30302737920860612 0.33410729573504611 0 0.29864702146159328 0.32643954785611667 0 0.30302737920860612 0.33410729573504611 0 0.29864702146159328 0.32643954785611667 0 0.30648676239126638 0.32698903389663531 0 0.30302737920860612 0.33410729573504611 0 0.31164832743931292 0.33689503642828789 0 0.30648676239126638 0.32698903389663531 0 0.31591730865868939 0.32743152395768732 0 0.31164832743931292 0.33689503642828789 0 0.30648676239126638 0.32698903389663531 0 0.30284961949963451 0.34180688944884569 0 0.30302737920860612 0.33410729573504611 0 0.31164832743931292 0.33689503642828789 0 0.30992842843050988 0.3457112388019602 0 0.30284961949963451 0.34180688944884569 0 0.31164832743931292 0.33689503642828789 0 0.30057412006284873 0.3182848580649148 0 0.3075048900192453 0.30846754722968978 0 0.29289622389348391 0.31173450207074938 0 0.30057412006284873 0.3182848580649148 0 0.29864702146159328 0.32643954785611667 0 0.30648676239126638 0.32698903389663531 0 0.30057412006284873 0.3182848580649148 0 0.30648676239126638 0.32698903389663531 0 0.30920411140212778 0.3196886032463338 0 0.31591730865868939 0.32743152395768732 0 0.30648676239126638 0.32698903389663531 0 0.30920411140212778 0.3196886032463338 0 0.30057412006284873 0.3182848580649148 0 0.30920411140212778 0.3196886032463338 0 0.3075048900192453 0.30846754722968978 0 0.31778971146991503 0.31788997842391498 0 0.30920411140212778 0.3196886032463338 0 0.3075048900192453 0.30846754722968978 0 0.3075048900192453 0.30846754722968978 0 0.29694347339530303 0.29848366127231912 0 0.31246487291163488 0.29208088598867771 0 0.3075048900192453 0.30846754722968978 0 0.29694347339530303 0.29848366127231912 0 0.29289622389348391 0.31173450207074938 0 0.31246487291163488 0.29208088598867771 0 0.29888580149873889 0.28140566667868477 0 0.31966717048778492 0.28020807462702291 0 0.29694347339530303 0.29848366127231912 0 0.31246487291163488 0.29208088598867771 0 0.29888580149873889 0.28140566667868477 0 0.29694347339530303 0.29848366127231912 0 0.29888580149873889 0.28140566667868477 0 0.28532215262680061 0.29218967158653381 0 0.29888580149873889 0.28140566667868477 0 0.28532215262680061 0.29218967158653381 0 0.27597263544757811 0.27926985653850322 0 0.29694347339530303 0.29848366127231912 0 0.29289622389348391 0.31173450207074938 0 0.28421062956037713 0.3046253325656294 0 0.29694347339530303 0.29848366127231912 0 0.28532215262680061 0.29218967158653381 0 0.28421062956037713 0.3046253325656294 0 0.28133089707177739 0.31565660162935461 0 0.29289622389348391 0.31173450207074938 0 0.28421062956037713 0.3046253325656294 0 0.28133089707177739 0.31565660162935461 0 0.28421062956037713 0.3046253325656294 0 0.27162220014601168 0.30819847959926649 0 0.28421062956037713 0.3046253325656294 0 0.27162220014601168 0.30819847959926649 0 0.27073357959762612 0.29469717476731772 0 0.28532215262680061 0.29218967158653381 0 0.28421062956037713 0.3046253325656294 0 0.27073357959762612 0.29469717476731772 0 0.27073357959762612 0.29469717476731772 0 0.25964825064670849 0.2811944406245902 0 0.27597263544757811 0.27926985653850322 0 0.28532215262680061 0.29218967158653381 0 0.27073357959762612 0.29469717476731772 0 0.27597263544757811 0.27926985653850322 0 0.2434397278092077 0.27846069768541332 0 0.25252005129033422 0.30103787280496203 0 0.25964825064670849 0.2811944406245902 0 0.27073357959762612 0.29469717476731772 0 0.25252005129033422 0.30103787280496203 0 0.25964825064670849 0.2811944406245902 0 0.24963775202771521 0.30051372462394288 0 0.26160037477145948 0.32361504792451118 0 0.26160037477145948 0.32361504792451118 0 0.25252005129033422 0.30103787280496203 0 0.24963775202771521 0.30051372462394288 0 0.26160037477145948 0.32361504792451118 0 0.25252005129033422 0.30103787280496203 0 0.27162220014601168 0.30819847959926649 0 0.27073357959762612 0.29469717476731772 0 0.25252005129033422 0.30103787280496203 0 0.26961523156275707 0.31863310602586059 0 0.27162220014601168 0.30819847959926649 0 0.25252005129033422 0.30103787280496203 0 0.26005695654466249 0.26476207857526007 0 0.25877170878786238 0.25302463852503437 0 0.26784118605052742 0.25766384122118591 0 0.26005695654466249 0.26476207857526007 0 0.26877199542094288 0.271185286046489 0 0.26784118605052742 0.25766384122118591 0 0.24763005152173001 0.25910176257370959 0 0.26005695654466249 0.26476207857526007 0 0.25877170878786238 0.25302463852503437 0 0.26005695654466249 0.26476207857526007 0 0.25964825064670849 0.2811944406245902 0 0.26877199542094288 0.271185286046489 0 0.2434397278092077 0.27846069768541332 0 0.26005695654466249 0.26476207857526007 0 0.25964825064670849 0.2811944406245902 0 0.2434397278092077 0.27846069768541332 0 0.24763005152173001 0.25910176257370959 0 0.26005695654466249 0.26476207857526007 0 0.25964825064670849 0.2811944406245902 0 0.26877199542094288 0.271185286046489 0 0.27597263544757811 0.27926985653850322 0 0.26877199542094288 0.271185286046489 0 0.27597263544757811 0.27926985653850322 0 0.27647749418933931 0.26389562134405542 0 0.27597263544757811 0.27926985653850322 0 0.27647749418933931 0.26389562134405542 0 0.28921799240021828 0.26815650339571012 0 0.27647749418933931 0.26389562134405542 0 0.27542464597538868 0.25681776053554017 0 0.28272693040926428 0.25881526167589219 0 0.27647749418933931 0.26389562134405542 0 0.26784118605052742 0.25766384122118591 0 0.27542464597538868 0.25681776053554017 0 0.26877199542094288 0.271185286046489 0 0.27647749418933931 0.26389562134405542 0 0.26784118605052742 0.25766384122118591 0 0.26784118605052742 0.25766384122118591 0 0.27542464597538868 0.25681776053554017 0 0.27283394916361492 0.24742619336605559 0 0.25877170878786238 0.25302463852503437 0 0.26784118605052742 0.25766384122118591 0 0.27283394916361492 0.24742619336605559 0 0.27542464597538868 0.25681776053554017 0 0.28272693040926428 0.25881526167589219 0 0.27283394916361492 0.24742619336605559 0 0.28272693040926428 0.25881526167589219 0 0.29968057031776052 0.25778022973809978 0 0.27283394916361492 0.24742619336605559 0 0.28272693040926428 0.25881526167589219 0 0.28921799240021828 0.26815650339571012 0 0.29968057031776052 0.25778022973809978 0 0.29968057031776052 0.25778022973809978 0 0.27283394916361492 0.24742619336605559 0 0.29968057031776052 0.25778022973809978 0 0.27283394916361492 0.24742619336605559 0 0.3016365876598241 0.24719201463661561 0 0.27647749418933931 0.26389562134405542 0 0.28272693040926428 0.25881526167589219 0 0.28921799240021828 0.26815650339571012 0 0.28921799240021828 0.26815650339571012 0 0.29917140266547992 0.2696271248040239 0 0.29968057031776052 0.25778022973809978 0 0.29888580149873889 0.28140566667868477 0 0.27597263544757811 0.27926985653850322 0 0.28921799240021828 0.26815650339571012 0 0.29888580149873889 0.28140566667868477 0 0.28921799240021828 0.26815650339571012 0 0.29917140266547992 0.2696271248040239 0 0.30890124644520212 0.27116609940360098 0 0.29968057031776052 0.25778022973809978 0 0.32652719147190618 0.26813426611014402 0 0.29888580149873889 0.28140566667868477 0 0.30890124644520212 0.27116609940360098 0 0.31966717048778492 0.28020807462702291 0 0.29888580149873889 0.28140566667868477 0 0.29917140266547992 0.2696271248040239 0 0.30890124644520212 0.27116609940360098 0 0.29917140266547992 0.2696271248040239 0 0.30890124644520212 0.27116609940360098 0 0.29968057031776052 0.25778022973809978 0 0.29968057031776052 0.25778022973809978 0 0.31432639173362298 0.2563396134856944 0 0.3016365876598241 0.24719201463661561 0 0.29968057031776052 0.25778022973809978 0 0.32652719147190618 0.26813426611014402 0 0.29968057031776052 0.25778022973809978 0 0.31432639173362298 0.2563396134856944 0 0.32652719147190618 0.26813426611014402 0 0.31432639173362298 0.2563396134856944 0 0.32946121748500129 0.25225194345791829 0 0.3016365876598241 0.24719201463661561 0 0.31432639173362298 0.2563396134856944 0 0.32946121748500129 0.25225194345791829 0 0.32652719147190618 0.26813426611014402 0 0.32946121748500129 0.25225194345791829 0 0.35728584731017871 0.25731187227922109 0 0.32946121748500129 0.25225194345791829 0 0.33854302537622011 0.27351786473126699 0 0.35728584731017871 0.25731187227922109 0 0.32946121748500129 0.25225194345791829 0 0.33854302537622011 0.27351786473126699 0 0.32652719147190618 0.26813426611014402 0 0.33854302537622011 0.27351786473126699 0 0.32652719147190618 0.26813426611014402 0 0.31966717048778492 0.28020807462702291 0 0.30890124644520212 0.27116609940360098 0 0.32652719147190618 0.26813426611014402 0 0.31966717048778492 0.28020807462702291 0 0.31246487291163488 0.29208088598867771 0 0.31966717048778492 0.28020807462702291 0 0.33172871425663403 0.29269405324557379 0 0.31778971146991503 0.31788997842391498 0 0.3075048900192453 0.30846754722968978 0 0.32420479997372442 0.30853167071016102 0 0.31246487291163488 0.29208088598867771 0 0.32420479997372442 0.30853167071016102 0 0.31246487291163488 0.29208088598867771 0 0.32420479997372442 0.30853167071016102 0 0.33172871425663403 0.29269405324557379 0 0.3075048900192453 0.30846754722968978 0 0.31246487291163488 0.29208088598867771 0 0.32420479997372442 0.30853167071016102 0 0.32420479997372442 0.30853167071016102 0 0.33172871425663403 0.29269405324557379 0 0.34448717235649018 0.30756264321984922 0 0.33854302537622011 0.27351786473126699 0 0.31966717048778492 0.28020807462702291 0 0.33172871425663403 0.29269405324557379 0 0.33172871425663403 0.29269405324557379 0 0.3503635169770366 0.28966006865463678 0 0.34448717235649018 0.30756264321984922 0 0.33854302537622011 0.27351786473126699 0 0.33172871425663403 0.29269405324557379 0 0.3503635169770366 0.28966006865463678 0 0.3503635169770366 0.28966006865463678 0 0.34448717235649018 0.30756264321984922 0 0.36246687595182442 0.30494518477727961 0 0.36114413796306788 0.32433110896381118 0 0.34448717235649018 0.30756264321984922 0 0.36246687595182442 0.30494518477727961 0 0.36246687595182442 0.30494518477727961 0 0.37008896088821891 0.27907488192658342 0 0.38127772340545701 0.29855436992749679 0 0.3503635169770366 0.28966006865463678 0 0.36246687595182442 0.30494518477727961 0 0.37008896088821891 0.27907488192658342 0 0.37008896088821891 0.27907488192658342 0 0.35728584731017871 0.25731187227922109 0 0.35441181453934328 0.27463334472066592 0 0.37008896088821891 0.27907488192658342 0 0.35728584731017871 0.25731187227922109 0 0.38511047713535562 0.2623718011005241 0 0.35728584731017871 0.25731187227922109 0 0.38511047713535562 0.2623718011005241 0 0.37293454716760283 0.2396311516560117 0 0.35728584731017871 0.25731187227922109 0 0.38511047713535562 0.2623718011005241 0 0.33854302537622011 0.27351786473126699 0 0.3503635169770366 0.28966006865463678 0 0.35441181453934328 0.27463334472066592 0 0.33854302537622011 0.27351786473126699 0 0.35728584731017871 0.25731187227922109 0 0.35441181453934328 0.27463334472066592 0 0.3503635169770366 0.28966006865463678 0 0.37008896088821891 0.27907488192658342 0 0.35441181453934328 0.27463334472066592 0 0.4059739891301799 0.26616584566893298 0 0.38511047713535562 0.2623718011005241 0 0.39575362435311728 0.2822497143692822 0 0.4059739891301799 0.26616584566893298 0 0.39575362435311728 0.2822497143692822 0 0.41466985898722469 0.28617745239982811 0 0.4059739891301799 0.26616584566893298 0 0.38511047713535562 0.2623718011005241 0 0.39933451681408499 0.24222051247515669 0 0.4059739891301799 0.26616584566893298 0 0.38511047713535562 0.2623718011005241 0 0.38511047713535562 0.2623718011005241 0 0.37293454716760283 0.2396311516560117 0 0.37008896088821891 0.27907488192658342 0 0.38511047713535562 0.2623718011005241 0 0.39575362435311728 0.2822497143692822 0 0.38511047713535562 0.2623718011005241 0 0.39575362435311728 0.2822497143692822 0 0.37008896088821891 0.27907488192658342 0 0.38127772340545701 0.29855436992749679 0 0.39575362435311728 0.2822497143692822 0 0.38127772340545701 0.29855436992749679 0 0.39341545683502421 0.31015448597301559 0 0.38634354889032002 0.32367976249598251 0 0.38127772340545701 0.29855436992749679 0 0.38634354889032002 0.32367976249598251 0 0.36246687595182442 0.30494518477727961 0 0.38127772340545701 0.29855436992749679 0 0.38634354889032002 0.32367976249598251 0 0.38127772340545701 0.29855436992749679 0 0.39341545683502421 0.31015448597301559 0 0.40639677157087911 0.30212762763804019 0 0.39341545683502421 0.31015448597301559 0 0.40639677157087911 0.30212762763804019 0 0.4081981699382346 0.3139513768470385 0 0.39575362435311728 0.2822497143692822 0 0.40639677157087911 0.30212762763804019 0 0.38127772340545701 0.29855436992749679 0 0.39575362435311728 0.2822497143692822 0 0.40639677157087911 0.30212762763804019 0 0.39575362435311728 0.2822497143692822 0 0.41466985898722469 0.28617745239982811 0 0.40639677157087911 0.30212762763804019 0 0.41466985898722469 0.28617745239982811 0 0.40639677157087911 0.30212762763804019 0 0.42063747895650733 0.30228076741981708 0 0.40639677157087911 0.30212762763804019 0 0.417039918788641 0.32200554090679828 0 0.40639677157087911 0.30212762763804019 0 0.42063747895650733 0.30228076741981708 0 0.41590325438833858 0.31571238371771643 0 0.42063747895650733 0.30228076741981708 0 0.43554340190627211 0.31006971119553528 0 0.43241978878766019 0.29428086906555412 0 0.42063747895650733 0.30228076741981708 0 0.43554340190627211 0.31006971119553528 0 0.41590325438833858 0.31571238371771643 0 0.43241978878766019 0.29428086906555412 0 0.42683750112500368 0.26995989023734401 0 0.43795337608323548 0.28151673092589807 0 0.41466985898722469 0.28617745239982811 0 0.43241978878766019 0.29428086906555412 0 0.42683750112500368 0.26995989023734401 0 0.43241978878766019 0.29428086906555412 0 0.42683750112500368 0.26995989023734401 0 0.41466985898722469 0.28617745239982811 0 0.42063747895650733 0.30228076741981708 0 0.43241978878766019 0.29428086906555412 0 0.4059739891301799 0.26616584566893298 0 0.42683750112500368 0.26995989023734401 0 0.4059739891301799 0.26616584566893298 0 0.41466985898722469 0.28617745239982811 0 0.42683750112500368 0.26995989023734401 0 0.4059739891301799 0.26616584566893298 0 0.42683750112500368 0.26995989023734401 0 0.42092918023873821 0.24421844589255121 0 0.4059739891301799 0.26616584566893298 0 0.39933451681408499 0.24222051247515669 0 0.42092918023873821 0.24421844589255121 0 0.42683750112500368 0.26995989023734401 0 0.44089414042045799 0.25771217685885472 0 0.42092918023873821 0.24421844589255121 0 0.42683750112500368 0.26995989023734401 0 0.42092918023873821 0.24421844589255121 0 0.44089414042045799 0.25771217685885472 0 0.45301423403414209 0.26007999789895508 0 0.4569230610569987 0.24819013429900669 0 0.44089414042045799 0.25771217685885472 0 0.45301423403414209 0.26007999789895508 0 0.44973892600361531 0.27412453072026172 0 0.42683750112500368 0.26995989023734401 0 0.44089414042045799 0.25771217685885472 0 0.44973892600361531 0.27412453072026172 0 0.42683750112500368 0.26995989023734401 0 0.44973892600361531 0.27412453072026172 0 0.43795337608323548 0.28151673092589807 0 0.42683750112500368 0.26995989023734401 0 0.44973892600361531 0.27412453072026172 0 0.44973892600361531 0.27412453072026172 0 0.46478170596961249 0.26323965275109401 0 0.47264035088222628 0.27828917120318131 0 0.44973892600361531 0.27412453072026172 0 0.47264035088222628 0.27828917120318131 0 0.44973892600361531 0.27412453072026172 0 0.47264035088222628 0.27828917120318131 0 0.46226850420995219 0.28814127863090738 0 0.45301423403414209 0.26007999789895508 0 0.44973892600361531 0.27412453072026172 0 0.46478170596961249 0.26323965275109401 0 0.46478170596961249 0.26323965275109401 0 0.47264035088222628 0.27828917120318131 0 0.46478170596961249 0.26323965275109401 0 0.4569230610569987 0.24819013429900669 0 0.45301423403414209 0.26007999789895508 0 0.46478170596961249 0.26323965275109401 0 0.4569230610569987 0.24819013429900669 0 0.46478170596961249 0.26323965275109401 0 0.46750550623703407 0.25349570762290419 0 0.47341939214644252 0.26170481890296848 0 0.46478170596961249 0.26323965275109401 0 0.46750550623703407 0.25349570762290419 0 0.4569230610569987 0.24819013429900669 0 0.47341939214644252 0.26170481890296848 0 0.48489893488970792 0.25686202981026901 0 0.47278153852907701 0.24486280325581439 0 0.46750550623703407 0.25349570762290419 0 0.47341939214644252 0.26170481890296848 0 0.47278153852907701 0.24486280325581439 0 0.47341939214644252 0.26170481890296848 0 0.47278153852907701 0.24486280325581439 0 0.47341939214644252 0.26170481890296848 0 0.48000757765913032 0.26759533659828072 0 0.48489893488970792 0.25686202981026901 0 0.47341939214644252 0.26170481890296848 0 0.47405724576380859 0.27854683455012252 0 0.48000757765913032 0.26759533659828072 0 0.47341939214644252 0.26170481890296848 0 0.47264035088222628 0.27828917120318131 0 0.47405724576380859 0.27854683455012252 0 0.46478170596961249 0.26323965275109401 0 0.47341939214644252 0.26170481890296848 0 0.47264035088222628 0.27828917120318131 0 0.47405724576380859 0.27854683455012252 0 0.47415752390174082 0.28119459874267072 0 0.50000000000001354 0.28326454295050368 0 0.47341939214644252 0.26170481890296848 0 0.47405724576380859 0.27854683455012252 0 0.47264035088222628 0.27828917120318131 0 0.47405724576380859 0.27854683455012252 0 0.47405724576380859 0.27854683455012252 0 0.47415752390174082 0.28119459874267072 0 0.47264035088222628 0.27828917120318131 0 0.47405724576380859 0.27854683455012252 0 0.47415752390174082 0.28119459874267072 0 0.47264035088222628 0.27828917120318131 0 0.47415752390174082 0.28119459874267072 0 0.47405724576380859 0.27854683455012252 0 0.48000757765913032 0.26759533659828072 0 0.48909471086131839 0.26954423778064313 0 0.47405724576380859 0.27854683455012252 0 0.50000000000001354 0.28326454295050368 0 0.47405724576380859 0.27854683455012252 0 0.48909471086131839 0.26954423778064313 0 0.50000000000001354 0.28326454295050368 0 0.48909471086131839 0.26954423778064313 0 0.5 0.25553121794514477 0 0.50000000000001354 0.28326454295050368 0 0.5 0.25553121794514477 0 0.48489893488970792 0.25686202981026901 0 0.48903365503734891 0.24299047468837701 0 0.48909471086131839 0.26954423778064313 0 0.5 0.25553121794514477 0 0.48489893488970792 0.25686202981026901 0 0.48000757765913032 0.26759533659828072 0 0.48909471086131839 0.26954423778064313 0 0.48489893488970792 0.25686202981026901 0 0.48223131843763373 0.29665613456690521 0 0.49274985611107969 0.31679941989990179 0 0.48223131843763373 0.29665613456690521 0 0.49274985611107969 0.31679941989990179 0 0.48532411314893581 0.31403081790115361 0 0.49298554246438231 0.30475618362627349 0 0.48223131843763373 0.29665613456690521 0 0.49274985611107969 0.31679941989990179 0 0.49298554246438231 0.30475618362627349 0 0.4969609953088156 0.2924242547978898 0 0.5 0.31314492524039728 0 0.49298554246438231 0.30475618362627349 0 0.4969609953088156 0.2924242547978898 0 0.48223131843763373 0.29665613456690521 0 0.49298554246438231 0.30475618362627349 0 0.49274985611107969 0.31679941989990179 0 0.5 0.31314492524039728 0 0.4969609953088156 0.2924242547978898 0 0.50000000000001354 0.28326454295050368 0 0.5 0.31314492524039728 0 0.47415752390174082 0.28119459874267072 0 0.4969609953088156 0.2924242547978898 0 0.50000000000001354 0.28326454295050368 0 0.47415752390174082 0.28119459874267072 0 0.4969609953088156 0.2924242547978898 0 0.48223131843763373 0.29665613456690521 0 0.4969609953088156 0.2924242547978898 0 0.48223131843763373 0.29665613456690521 0 0.47415752390174082 0.28119459874267072 0 0.47482369694213911 0.29878436615117387 0 0.47415752390174082 0.28119459874267072 0 0.47482369694213911 0.29878436615117387 0 0.46226850420995219 0.28814127863090738 0 0.47415752390174082 0.28119459874267072 0 0.48223131843763373 0.29665613456690521 0 0.47482369694213911 0.29878436615117387 0 0.47415752390174082 0.28119459874267072 0 0.48223131843763373 0.29665613456690521 0 0.47264035088222628 0.27828917120318131 0 0.47415752390174082 0.28119459874267072 0 0.46226850420995219 0.28814127863090738 0 0.48223131843763373 0.29665613456690521 0 0.48022688714188239 0.30485617861310249 0 0.48532411314893581 0.31403081790115361 0 0.47482369694213911 0.29878436615117387 0 0.4785284200388214 0.30995339583317788 0 0.47567910166728178 0.32137064515506791 0 0.47482369694213911 0.29878436615117387 0 0.46683928615616721 0.31034493157342358 0 0.47567910166728178 0.32137064515506791 0 0.47482369694213911 0.29878436615117387 0 0.47567910166728178 0.32137064515506791 0 0.47482369694213911 0.29878436615117387 0 0.48022688714188239 0.30485617861310249 0 0.4785284200388214 0.30995339583317788 0 0.48223131843763373 0.29665613456690521 0 0.47482369694213911 0.29878436615117387 0 0.48022688714188239 0.30485617861310249 0 0.48223131843763373 0.29665613456690521 0 0.47482369694213911 0.29878436615117387 0 0.48022688714188239 0.30485617861310249 0 0.4785284200388214 0.30995339583317788 0 0.48532411314893581 0.31403081790115361 0 0.47482369694213911 0.29878436615117387 0 0.46683928615616721 0.31034493157342358 0 0.45518354942420552 0.3044270386733543 0 0.47482369694213911 0.29878436615117387 0 0.45518354942420552 0.3044270386733543 0 0.46683928615616721 0.31034493157342358 0 0.45518354942420552 0.3044270386733543 0 0.46090063033065398 0.31457074158430443 0 0.47482369694213911 0.29878436615117387 0 0.45518354942420552 0.3044270386733543 0 0.46226850420995219 0.28814127863090738 0 0.45518354942420552 0.3044270386733543 0 0.46226850420995219 0.28814127863090738 0 0.44650245416143669 0.29205179777212908 0 0.44973892600361531 0.27412453072026172 0 0.46226850420995219 0.28814127863090738 0 0.44650245416143669 0.29205179777212908 0 0.44973892600361531 0.27412453072026172 0 0.44650245416143669 0.29205179777212908 0 0.43795337608323548 0.28151673092589807 0 0.43241978878766019 0.29428086906555412 0 0.44650245416143669 0.29205179777212908 0 0.43795337608323548 0.28151673092589807 0 0.43554340190627211 0.31006971119553528 0 0.45518354942420552 0.3044270386733543 0 0.44650245416143669 0.29205179777212908 0 0.43554340190627211 0.31006971119553528 0 0.43241978878766019 0.29428086906555412 0 0.44650245416143669 0.29205179777212908 0 0.43554340190627211 0.31006971119553528 0 0.45518354942420552 0.3044270386733543 0 0.44590058407496119 0.32214035093537202 0 0.43554340190627211 0.31006971119553528 0 0.45518354942420552 0.3044270386733543 0 0.44438162939182968 0.33527616080122319 0 0.43941431748234389 0.34697694962204328 0 0.43138153093963261 0.33684778794266318 0 0.44438162939182968 0.33527616080122319 0 0.43138153093963261 0.33684778794266318 0 0.43736796180383269 0.33070162376080392 0 0.44590058407496119 0.32214035093537202 0 0.44438162939182968 0.33527616080122319 0 0.43736796180383269 0.33070162376080392 0 0.44590058407496119 0.32214035093537202 0 0.44438162939182968 0.33527616080122319 0 0.45938090137280319 0.33331169935871768 0 0.44438162939182968 0.33527616080122319 0 0.45466128638888681 0.34537342559846479 0 0.43941431748234389 0.34697694962204328 0 0.44438162939182968 0.33527616080122319 0 0.45938090137280319 0.33331169935871768 0 0.45466128638888681 0.34537342559846479 0 0.45938090137280319 0.33331169935871768 0 0.47648750655815691 0.34271593104932652 0 0.45466128638888681 0.34537342559846479 0 0.45518354942420552 0.3044270386733543 0 0.44590058407496119 0.32214035093537202 0 0.46090063033065398 0.31457074158430443 0 0.44590058407496119 0.32214035093537202 0 0.47567910166728178 0.32137064515506791 0 0.44590058407496119 0.32214035093537202 0 0.45938090137280319 0.33331169935871768 0 0.47567910166728178 0.32137064515506791 0 0.44590058407496119 0.32214035093537202 0 0.46090063033065398 0.31457074158430443 0 0.47567910166728178 0.32137064515506791 0 0.46683928615616721 0.31034493157342358 0 0.46090063033065398 0.31457074158430443 0 0.47567910166728178 0.32137064515506791 0 0.4785284200388214 0.30995339583317788 0 0.48037384835626529 0.31664076505113292 0 0.47567910166728178 0.32137064515506791 0 0.48037384835626529 0.31664076505113292 0 0.48196375857002199 0.32120820131513239 0 0.47567910166728178 0.32137064515506791 0 0.48037384835626529 0.31664076505113292 0 0.48196375857002199 0.32120820131513239 0 0.48532411314893581 0.31403081790115361 0 0.4785284200388214 0.30995339583317788 0 0.48037384835626529 0.31664076505113292 0 0.48532411314893581 0.31403081790115361 0 0.48196375857002199 0.32120820131513239 0 0.48271443300740718 0.32966898805558448 0 0.48700966075600671 0.32276244140519528 0 0.48196375857002199 0.32120820131513239 0 0.47567910166728178 0.32137064515506791 0 0.48271443300740718 0.32966898805558448 0 0.48196375857002199 0.32120820131513239 0 0.47567910166728178 0.32137064515506791 0 0.47567910166728178 0.32137064515506791 0 0.47648750655815691 0.34271593104932652 0 0.47567910166728178 0.32137064515506791 0 0.47648750655815691 0.34271593104932652 0 0.48271443300740718 0.32966898805558448 0 0.45938090137280319 0.33331169935871768 0 0.47567910166728178 0.32137064515506791 0 0.47648750655815691 0.34271593104932652 0 0.47648750655815691 0.34271593104932652 0 0.48271443300740718 0.32966898805558448 0 0.49227852706914571 0.3310448133387906 0 0.47648750655815691 0.34271593104932652 0 0.5 0.34302530753029081 0 0.49227852706914571 0.3310448133387906 0 0.5 0.34302530753029081 0 0.49227852706914571 0.3310448133387906 0 0.5 0.31314492524039728 0 0.49227852706914571 0.3310448133387906 0 0.49274985611107969 0.31679941989990179 0 0.5 0.31314492524039728 0 0.48196375857002199 0.32120820131513239 0 0.48532411314893581 0.31403081790115361 0 0.48700966075600671 0.32276244140519528 0 0.49274985611107969 0.31679941989990179 0 0.48532411314893581 0.31403081790115361 0 0.48700966075600671 0.32276244140519528 0 0.48271443300740718 0.32966898805558448 0 0.49227852706914571 0.3310448133387906 0 0.48700966075600671 0.32276244140519528 0 0.49227852706914571 0.3310448133387906 0 0.49274985611107969 0.31679941989990179 0 0.48700966075600671 0.32276244140519528 0 0.5 0.37290568982018429 0 0.48906820236105919 0.3579654986752378 0 0.48477613844387402 0.38021688004838439 0 0.47648750655815691 0.34271593104932652 0 0.5 0.34302530753029081 0 0.48906820236105919 0.3579654986752378 0 0.5 0.34302530753029081 0 0.5 0.37290568982018429 0 0.48906820236105919 0.3579654986752378 0 0.47648750655815691 0.34271593104932652 0 0.4736556537454587 0.3678330253399309 0 0.4628011452372443 0.35721885356897543 0 0.47648750655815691 0.34271593104932652 0 0.48906820236105919 0.3579654986752378 0 0.4736556537454587 0.3678330253399309 0 0.48906820236105919 0.3579654986752378 0 0.4736556537454587 0.3678330253399309 0 0.48477613844387402 0.38021688004838439 0 0.4736556537454587 0.3678330253399309 0 0.45151374504626951 0.36758660991241321 0 0.46980882541715813 0.38208294099771128 0 0.4736556537454587 0.3678330253399309 0 0.4628011452372443 0.35721885356897543 0 0.45151374504626951 0.36758660991241321 0 0.47648750655815691 0.34271593104932652 0 0.4628011452372443 0.35721885356897543 0 0.45466128638888681 0.34537342559846479 0 0.4628011452372443 0.35721885356897543 0 0.45466128638888681 0.34537342559846479 0 0.45151374504626951 0.36758660991241321 0 0.43941431748234389 0.34697694962204328 0 0.45151374504626951 0.36758660991241321 0 0.43248649325656402 0.35912170041613489 0 0.45466128638888681 0.34537342559846479 0 0.43941431748234389 0.34697694962204328 0 0.45151374504626951 0.36758660991241321 0 0.45151374504626951 0.36758660991241321 0 0.4343808670510142 0.37207818795490849 0 0.43248649325656402 0.35912170041613489 0 0.4343808670510142 0.37207818795490849 0 0.41565945607251759 0.36236511110304392 0 0.42235721568131929 0.38220686924127689 0 0.4343808670510142 0.37207818795490849 0 0.41565945607251759 0.36236511110304392 0 0.43248649325656402 0.35912170041613489 0 0.41565945607251759 0.36236511110304392 0 0.40683499004542412 0.37566900985645529 0 0.42235721568131929 0.38220686924127689 0 0.41565945607251759 0.36236511110304392 0 0.42423344021441339 0.3469403641650044 0 0.40881868850316022 0.34319093436892228 0 0.41565945607251759 0.36236511110304392 0 0.40881868850316022 0.34319093436892228 0 0.40255325820206211 0.35440744329028528 0 0.41565945607251759 0.36236511110304392 0 0.42423344021441339 0.3469403641650044 0 0.43248649325656402 0.35912170041613489 0 0.43941431748234389 0.34697694962204328 0 0.42423344021441339 0.3469403641650044 0 0.43248649325656402 0.35912170041613489 0 0.43941431748234389 0.34697694962204328 0 0.42423344021441339 0.3469403641650044 0 0.43138153093963261 0.33684778794266318 0 0.43138153093963261 0.33684778794266318 0 0.43736796180383269 0.33070162376080392 0 0.42780810280890752 0.32854219536395729 0 0.43138153093963261 0.33684778794266318 0 0.42780810280890752 0.32854219536395729 0 0.41974391964010321 0.33544292333485398 0 0.42780810280890752 0.32854219536395729 0 0.41816216709540432 0.32913892271221878 0 0.41974391964010321 0.33544292333485398 0 0.42423344021441339 0.3469403641650044 0 0.43138153093963261 0.33684778794266318 0 0.41974391964010321 0.33544292333485398 0 0.44590058407496119 0.32214035093537202 0 0.417039918788641 0.32200554090679828 0 0.43554340190627211 0.31006971119553528 0 0.42610184512817068 0.31856760869421968 0 0.41590325438833858 0.31571238371771643 0 0.44590058407496119 0.32214035093537202 0 0.42610184512817068 0.31856760869421968 0 0.417039918788641 0.32200554090679828 0 0.44590058407496119 0.32214035093537202 0 0.42780810280890752 0.32854219536395729 0 0.417039918788641 0.32200554090679828 0 0.44590058407496119 0.32214035093537202 0 0.43736796180383269 0.33070162376080392 0 0.42780810280890752 0.32854219536395729 0 0.43554340190627211 0.31006971119553528 0 0.41590325438833858 0.31571238371771643 0 0.43554340190627211 0.31006971119553528 0 0.44590058407496119 0.32214035093537202 0 0.42610184512817068 0.31856760869421968 0 0.40639677157087911 0.30212762763804019 0 0.417039918788641 0.32200554090679828 0 0.4081981699382346 0.3139513768470385 0 0.40639677157087911 0.30212762763804019 0 0.41590325438833858 0.31571238371771643 0 0.417039918788641 0.32200554090679828 0 0.42610184512817068 0.31856760869421968 0 0.41590325438833858 0.31571238371771643 0 0.417039918788641 0.32200554090679828 0 0.417039918788641 0.32200554090679828 0 0.41816216709540432 0.32913892271221878 0 0.41176425843116088 0.33156610519561941 0 0.42780810280890752 0.32854219536395729 0 0.417039918788641 0.32200554090679828 0 0.41816216709540432 0.32913892271221878 0 0.42423344021441339 0.3469403641650044 0 0.41974391964010321 0.33544292333485398 0 0.40881868850316022 0.34319093436892228 0 0.41816216709540432 0.32913892271221878 0 0.41974391964010321 0.33544292333485398 0 0.41176425843116088 0.33156610519561941 0 0.417039918788641 0.32200554090679828 0 0.41176425843116088 0.33156610519561941 0 0.40171431040203109 0.33103781916521291 0 0.41176425843116088 0.33156610519561941 0 0.40881868850316022 0.34319093436892228 0 0.40171431040203109 0.33103781916521291 0 0.41974391964010321 0.33544292333485398 0 0.41176425843116088 0.33156610519561941 0 0.40881868850316022 0.34319093436892228 0 0.40171431040203109 0.33103781916521291 0 0.38634354889032002 0.32367976249598251 0 0.39069281237429682 0.34525116339505252 0 0.40881868850316022 0.34319093436892228 0 0.40171431040203109 0.33103781916521291 0 0.39069281237429682 0.34525116339505252 0 0.417039918788641 0.32200554090679828 0 0.40171431040203109 0.33103781916521291 0 0.38634354889032002 0.32367976249598251 0 0.417039918788641 0.32200554090679828 0 0.4081981699382346 0.3139513768470385 0 0.38634354889032002 0.32367976249598251 0 0.39341545683502421 0.31015448597301559 0 0.4081981699382346 0.3139513768470385 0 0.38634354889032002 0.32367976249598251 0 0.417039918788641 0.32200554090679828 0 0.38634354889032002 0.32367976249598251 0 0.38634354889032002 0.32367976249598251 0 0.39069281237429682 0.34525116339505252 0 0.37418757138316661 0.34003979241565702 0 0.38634354889032002 0.32367976249598251 0 0.39069281237429682 0.34525116339505252 0 0.37418757138316661 0.34003979241565702 0 0.38014707859742553 0.358601566133181 0 0.39069281237429682 0.34525116339505252 0 0.38014707859742553 0.358601566133181 0 0.39504207585827378 0.36682256429412252 0 0.39069281237429682 0.34525116339505252 0 0.36927583114563117 0.37168826674887129 0 0.38014707859742553 0.358601566133181 0 0.3861818138235471 0.37714139125663793 0 0.38014707859742553 0.358601566133181 0 0.39504207585827378 0.36682256429412252 0 0.3861818138235471 0.37714139125663793 0 0.41565945607251759 0.36236511110304392 0 0.39504207585827378 0.36682256429412252 0 0.40683499004542412 0.37566900985645529 0 0.41565945607251759 0.36236511110304392 0 0.39504207585827378 0.36682256429412252 0 0.40255325820206211 0.35440744329028528 0 0.39504207585827378 0.36682256429412252 0 0.40255325820206211 0.35440744329028528 0 0.39069281237429682 0.34525116339505252 0 0.40881868850316022 0.34319093436892228 0 0.40255325820206211 0.35440744329028528 0 0.39069281237429682 0.34525116339505252 0 0.39504207585827378 0.36682256429412252 0 0.39069281237429682 0.34525116339505252 0 0.3993913393422508 0.38839396519319253 0 0.39020643165102042 0.40750290438779102 0 0.40342788129008578 0.41136751416027151 0 0.3993913393422508 0.38839396519319253 0 0.40342788129008578 0.41136751416027151 0 0.41247484703898341 0.39668929567888889 0 0.3993913393422508 0.38839396519319253 0 0.38594138320053972 0.39504117240748449 0 0.39020643165102042 0.40750290438779102 0 0.39504207585827378 0.36682256429412252 0 0.3993913393422508 0.38839396519319253 0 0.40683499004542412 0.37566900985645529 0 0.39504207585827378 0.36682256429412252 0 0.3993913393422508 0.38839396519319253 0 0.39504207585827378 0.36682256429412252 0 0.3993913393422508 0.38839396519319253 0 0.3861818138235471 0.37714139125663793 0 0.3993913393422508 0.38839396519319253 0 0.41247484703898341 0.39668929567888889 0 0.40683499004542412 0.37566900985645529 0 0.36927583114563117 0.37168826674887129 0 0.38594138320053972 0.39504117240748449 0 0.3993913393422508 0.38839396519319253 0 0.3861818138235471 0.37714139125663793 0 0.38594138320053972 0.39504117240748449 0 0.36927583114563117 0.37168826674887129 0 0.3861818138235471 0.37714139125663793 0 0.38594138320053972 0.39504117240748449 0 0.36672310374365391 0.3972274770167053 0 0.38594138320053972 0.39504117240748449 0 0.37714557779446961 0.40580011292323048 0 0.38594138320053972 0.39504117240748449 0 0.37714557779446961 0.40580011292323048 0 0.39020643165102042 0.40750290438779102 0 0.37714557779446961 0.40580011292323048 0 0.39020643165102042 0.40750290438779102 0 0.37786999239799629 0.42201923841731348 0 0.39020643165102042 0.40750290438779102 0 0.37786999239799629 0.42201923841731348 0 0.39620875860206523 0.42610388639599522 0 0.3672128213662551 0.44140310366938379 0 0.37786999239799629 0.42201923841731348 0 0.38861509636247821 0.44175005125570632 0 0.37786999239799629 0.42201923841731348 0 0.39620875860206523 0.42610388639599522 0 0.38861509636247821 0.44175005125570632 0 0.39620875860206523 0.42610388639599522 0 0.40342788129008578 0.41136751416027151 0 0.4165515890159211 0.43106581875832262 0 0.39020643165102042 0.40750290438779102 0 0.39620875860206523 0.42610388639599522 0 0.40342788129008578 0.41136751416027151 0 0.40342788129008578 0.41136751416027151 0 0.4194649070479346 0.41075775866906961 0 0.4165515890159211 0.43106581875832262 0 0.40342788129008578 0.41136751416027151 0 0.4194649070479346 0.41075775866906961 0 0.41247484703898341 0.39668929567888889 0 0.39620875860206523 0.42610388639599522 0 0.4165515890159211 0.43106581875832262 0 0.40679533173472487 0.44514780784289609 0 0.4165515890159211 0.43106581875832262 0 0.44107028692003247 0.43153611533185032 0 0.4165515890159211 0.43106581875832262 0 0.43527838440837918 0.41507327228856877 0 0.44107028692003247 0.43153611533185032 0 0.4194649070479346 0.41075775866906961 0 0.4165515890159211 0.43106581875832262 0 0.43527838440837918 0.41507327228856877 0 0.4194649070479346 0.41075775866906961 0 0.43527838440837918 0.41507327228856877 0 0.42844040697821201 0.39890611008127758 0 0.43527838440837918 0.41507327228856877 0 0.42844040697821201 0.39890611008127758 0 0.44356544647064411 0.40084295107477419 0 0.42844040697821201 0.39890611008127758 0 0.43978627658039499 0.38550810048347522 0 0.44356544647064411 0.40084295107477419 0 0.4194649070479346 0.41075775866906961 0 0.42844040697821201 0.39890611008127758 0 0.41247484703898341 0.39668929567888889 0 0.42844040697821201 0.39890611008127758 0 0.41247484703898341 0.39668929567888889 0 0.42235721568131929 0.38220686924127689 0 0.41247484703898341 0.39668929567888889 0 0.40683499004542412 0.37566900985645529 0 0.42235721568131929 0.38220686924127689 0 0.4343808670510142 0.37207818795490849 0 0.42235721568131929 0.38220686924127689 0 0.43978627658039499 0.38550810048347522 0 0.42844040697821201 0.39890611008127758 0 0.42235721568131929 0.38220686924127689 0 0.43978627658039499 0.38550810048347522 0 0.45151374504626951 0.36758660991241321 0 0.4343808670510142 0.37207818795490849 0 0.43978627658039499 0.38550810048347522 0 0.45151374504626951 0.36758660991241321 0 0.43978627658039499 0.38550810048347522 0 0.45722528454721961 0.3906654768237981 0 0.43978627658039499 0.38550810048347522 0 0.44356544647064411 0.40084295107477419 0 0.45722528454721961 0.3906654768237981 0 0.44356544647064411 0.40084295107477419 0 0.45722528454721961 0.3906654768237981 0 0.45594545333092312 0.41337501331873322 0 0.45722528454721961 0.3906654768237981 0 0.47568108772685191 0.39367102650606373 0 0.46881626912638691 0.40427363304328218 0 0.45722528454721961 0.3906654768237981 0 0.46881626912638691 0.40427363304328218 0 0.45594545333092312 0.41337501331873322 0 0.45151374504626951 0.36758660991241321 0 0.45722528454721961 0.3906654768237981 0 0.46980882541715813 0.38208294099771128 0 0.45722528454721961 0.3906654768237981 0 0.46980882541715813 0.38208294099771128 0 0.47568108772685191 0.39367102650606373 0 0.4736556537454587 0.3678330253399309 0 0.46980882541715813 0.38208294099771128 0 0.48477613844387402 0.38021688004838439 0 0.47568108772685191 0.39367102650606373 0 0.48702766555901961 0.39491075051184021 0 0.48477613844387402 0.38021688004838439 0 0.46980882541715813 0.38208294099771128 0 0.47568108772685191 0.39367102650606373 0 0.48477613844387402 0.38021688004838439 0 0.47568108772685191 0.39367102650606373 0 0.46881626912638691 0.40427363304328218 0 0.48151606592710777 0.40452093291302588 0 0.47568108772685191 0.39367102650606373 0 0.48151606592710777 0.40452093291302588 0 0.48702766555901961 0.39491075051184021 0 0.48702766555901961 0.39491075051184021 0 0.49874079622209128 0.38660437256818281 0 0.49442423947517328 0.40954054052354433 0 0.5 0.40278607211007789 0 0.49874079622209128 0.38660437256818281 0 0.49442423947517328 0.40954054052354433 0 0.49874079622209128 0.38660437256818281 0 0.49442423947517328 0.40954054052354433 0 0.48151606592710777 0.40452093291302588 0 0.48702766555901961 0.39491075051184021 0 0.49442423947517328 0.40954054052354433 0 0.5 0.37290568982018429 0 0.5 0.40278607211007789 0 0.49874079622209128 0.38660437256818281 0 0.5 0.37290568982018429 0 0.49874079622209128 0.38660437256818281 0 0.48477613844387402 0.38021688004838439 0 0.48702766555901961 0.39491075051184021 0 0.49874079622209128 0.38660437256818281 0 0.48477613844387402 0.38021688004838439 0 0.49010768272825528 0.43247670847890568 0 0.49999999999999839 0.43266645439997159 0 0.49442423947517328 0.40954054052354433 0 0.49010768272825528 0.43247670847890568 0 0.49999999999999839 0.43266645439997159 0 0.5 0.40278607211007789 0 0.49999999999999839 0.43266645439997159 0 0.49442423947517328 0.40954054052354433 0 0.49010768272825528 0.43247670847890568 0 0.49442423947517328 0.40954054052354433 0 0.47768739680387268 0.41777805257305989 0 0.48151606592710777 0.40452093291302588 0 0.49442423947517328 0.40954054052354433 0 0.47768739680387268 0.41777805257305989 0 0.49010768272825528 0.43247670847890568 0 0.49442423947517328 0.40954054052354433 0 0.46881626912638691 0.40427363304328218 0 0.48151606592710777 0.40452093291302588 0 0.47768739680387268 0.41777805257305989 0 0.49010768272825528 0.43247670847890568 0 0.47768739680387268 0.41777805257305989 0 0.4655889848241439 0.43200641190537797 0 0.49010768272825528 0.43247670847890568 0 0.4655889848241439 0.43200641190537797 0 0.47536631759922843 0.44556886167195853 0 0.49010768272825528 0.43247670847890568 0 0.4655889848241439 0.43200641190537797 0 0.4655889848241439 0.43200641190537797 0 0.44107028692003247 0.43153611533185032 0 0.4655889848241439 0.43200641190537797 0 0.45594545333092312 0.41337501331873322 0 0.44107028692003247 0.43153611533185032 0 0.4655889848241439 0.43200641190537797 0 0.44107028692003247 0.43153611533185032 0 0.4606865760628292 0.44801704672434101 0 0.47768739680387268 0.41777805257305989 0 0.4655889848241439 0.43200641190537797 0 0.45594545333092312 0.41337501331873322 0 0.46881626912638691 0.40427363304328218 0 0.47768739680387268 0.41777805257305989 0 0.45594545333092312 0.41337501331873322 0 0.43527838440837918 0.41507327228856877 0 0.45594545333092312 0.41337501331873322 0 0.44107028692003247 0.43153611533185032 0 0.43527838440837918 0.41507327228856877 0 0.44356544647064411 0.40084295107477419 0 0.45594545333092312 0.41337501331873322 0 0.49999999999999839 0.43266645439997159 0 0.48505572566105232 0.45932045051458531 0 0.5 0.5 0 0.44107028692003247 0.43153611533185032 0 0.44376664188615123 0.45979150936037488 0 0.4606865760628292 0.44801704672434101 0 0.44376664188615123 0.45979150936037488 0 0.46112241578244989 0.46478661640483648 0 0.45121200239437631 0.4807671998253365 0 0.44376664188615123 0.45979150936037488 0 0.46112241578244989 0.46478661640483648 0 0.4606865760628292 0.44801704672434101 0 0.46112241578244989 0.46478661640483648 0 0.4606865760628292 0.44801704672434101 0 0.47539261871986088 0.45602369073658289 0 0.4655889848241439 0.43200641190537797 0 0.4606865760628292 0.44801704672434101 0 0.47536631759922843 0.44556886167195853 0 0.49010768272825528 0.43247670847890568 0 0.47536631759922843 0.44556886167195853 0 0.48505572566105232 0.45932045051458531 0 0.4606865760628292 0.44801704672434101 0 0.47536631759922843 0.44556886167195853 0 0.47539261871986088 0.45602369073658289 0 0.47539261871986088 0.45602369073658289 0 0.47110615765410929 0.47801184536829172 0 0.47539261871986088 0.45602369073658289 0 0.48505572566105232 0.45932045051458531 0 0.47110615765410929 0.47801184536829172 0 0.46112241578244989 0.46478661640483648 0 0.47539261871986088 0.45602369073658289 0 0.47110615765410929 0.47801184536829172 0 0.47536631759922843 0.44556886167195853 0 0.47539261871986088 0.45602369073658289 0 0.48505572566105232 0.45932045051458531 0 0.49010768272825528 0.43247670847890568 0 0.48505572566105232 0.45932045051458531 0 0.49010768272825528 0.43247670847890568 0 0.49999999999999839 0.43266645439997159 0 0.48505572566105232 0.45932045051458531 0 0.48505572566105232 0.45932045051458531 0 0.5 0.5 0 0.48000376859384941 0.48616419255026477 0 0.5 0.5 0 0.48000376859384941 0.48616419255026477 0 0.46681969658835759 0.50000000000000044 0 0.48505572566105232 0.45932045051458531 0 0.47110615765410929 0.47801184536829172 0 0.48000376859384941 0.48616419255026477 0 0.48505572566105232 0.45932045051458531 0 0.48000376859384941 0.48616419255026477 0 0.47110615765410929 0.47801184536829172 0 0.46681969658835759 0.50000000000000044 0 0.47110615765410929 0.47801184536829172 0 0.48000376859384941 0.48616419255026477 0 0.46681969658835759 0.50000000000000044 0 0.47110615765410929 0.47801184536829172 0 0.46681969658835759 0.50000000000000044 0 0.45121200239437631 0.4807671998253365 0 0.46112241578244989 0.46478661640483648 0 0.47110615765410929 0.47801184536829172 0 0.45121200239437631 0.4807671998253365 0 0.44376664188615123 0.45979150936037488 0 0.45121200239437631 0.4807671998253365 0 0.42408561830569141 0.47732830779616442 0 0.46681969658835759 0.50000000000000044 0 0.45121200239437631 0.4807671998253365 0 0.43971230006436901 0.5 0 0.45121200239437631 0.4807671998253365 0 0.43971230006436901 0.5 0 0.42408561830569141 0.47732830779616442 0 0.43971230006436901 0.5 0 0.41260490354038032 0.5 0 0.42408561830569141 0.47732830779616442 0 0.41260490354038032 0.5 0 0.42408561830569141 0.47732830779616442 0 0.40044085355502113 0.48368683573266119 0 0.42408561830569141 0.47732830779616442 0 0.40050545668784993 0.46242548604636152 0 0.40044085355502113 0.48368683573266119 0 0.44376664188615123 0.45979150936037488 0 0.42408561830569141 0.47732830779616442 0 0.42267709028742451 0.45339185591380432 0 0.44107028692003247 0.43153611533185032 0 0.44376664188615123 0.45979150936037488 0 0.42267709028742451 0.45339185591380432 0 0.4165515890159211 0.43106581875832262 0 0.44107028692003247 0.43153611533185032 0 0.42267709028742451 0.45339185591380432 0 0.4165515890159211 0.43106581875832262 0 0.42267709028742451 0.45339185591380432 0 0.40679533173472487 0.44514780784289609 0 0.42408561830569141 0.47732830779616442 0 0.42267709028742451 0.45339185591380432 0 0.40050545668784993 0.46242548604636152 0 0.42267709028742451 0.45339185591380432 0 0.40679533173472487 0.44514780784289609 0 0.40050545668784993 0.46242548604636152 0 0.40679533173472487 0.44514780784289609 0 0.40050545668784993 0.46242548604636152 0 0.38861509636247821 0.44175005125570632 0 0.39620875860206523 0.42610388639599522 0 0.40679533173472487 0.44514780784289609 0 0.38861509636247821 0.44175005125570632 0 0.3672128213662551 0.44140310366938379 0 0.38861509636247821 0.44175005125570632 0 0.37565915938479377 0.45849116020829678 0 0.40050545668784993 0.46242548604636152 0 0.37565915938479377 0.45849116020829678 0 0.37951078222479251 0.47868038482078018 0 0.40050545668784993 0.46242548604636152 0 0.38861509636247821 0.44175005125570632 0 0.37565915938479377 0.45849116020829678 0 0.37951078222479251 0.47868038482078018 0 0.38549750701639152 0.5 0 0.40044085355502113 0.48368683573266119 0 0.41260490354038032 0.5 0 0.38549750701639152 0.5 0 0.40044085355502113 0.48368683573266119 0 0.40050545668784993 0.46242548604636152 0 0.37951078222479251 0.47868038482078018 0 0.40044085355502113 0.48368683573266119 0 0.3285700774521132 0.069227507684709172 0 0.34376262838779448 0.090160381808613591 0 0.3285700774521132 0.069227507684709172 0 0.34376262838779448 0.090160381808613591 0 0.3570119940846016 0.07655140493877155 0 0.3285700774521132 0.069227507684709172 0 0.31851483003181857 0.089032350953859848 0 0.34376262838779448 0.090160381808613591 0 0.3285700774521132 0.069227507684709172 0 0.31851483003181857 0.089032350953859848 0 0.30262144479489489 0.063472250579192202 0 0.31851483003181857 0.089032350953859848 0 0.32257158209111758 0.11034462767622299 0 0.33741607394213652 0.1036774965936159 0 0.31851483003181857 0.089032350953859848 0 0.32257158209111758 0.11034462767622299 0 0.29867863108980142 0.1045573716884185 0 0.32257158209111758 0.11034462767622299 0 0.32933038512457441 0.1245201253257071 0 0.3207185438207466 0.1263919595033525 0 0.32257158209111758 0.11034462767622299 0 0.31156748461804079 0.12537242366950921 0 0.3207185438207466 0.1263919595033525 0 0.32933038512457441 0.1245201253257071 0 0.34646453309243358 0.11613188366402739 0 0.34441400131097022 0.1288917011053414 0 0.32257158209111758 0.11034462767622299 0 0.33741607394213652 0.1036774965936159 0 0.34646453309243358 0.11613188366402739 0 0.32257158209111758 0.11034462767622299 0 0.34646453309243358 0.11613188366402739 0 0.32257158209111758 0.11034462767622299 0 0.32933038512457441 0.1245201253257071 0 0.34646453309243358 0.11613188366402739 0 0.31851483003181857 0.089032350953859848 0 0.33741607394213652 0.1036774965936159 0 0.34376262838779448 0.090160381808613591 0 0.35895517932347593 0.111093255932518 0 0.36286728541875429 0.096218484345557367 0 0.34376262838779448 0.090160381808613591 0 0.33741607394213652 0.1036774965936159 0 0.35895517932347593 0.111093255932518 0 0.34376262838779448 0.090160381808613591 0 0.35895517932347593 0.111093255932518 0 0.34376262838779448 0.090160381808613591 0 0.34646453309243358 0.11613188366402739 0 0.35895517932347593 0.111093255932518 0 0.37035748409374952 0.12191913965183331 0 0.34646453309243358 0.11613188366402739 0 0.37035748409374952 0.12191913965183331 0 0.33741607394213652 0.1036774965936159 0 0.34646453309243358 0.11613188366402739 0 0.35895517932347593 0.111093255932518 0 0.34646453309243358 0.11613188366402739 0 0.37035748409374952 0.12191913965183331 0 0.34441400131097022 0.1288917011053414 0 0.35895517932347593 0.111093255932518 0 0.36901916600157941 0.1100142775002767 0 0.37035748409374952 0.12191913965183331 0 0.36901916600157941 0.1100142775002767 0 0.37035748409374952 0.12191913965183331 0 0.37815432920295677 0.1109533992790251 0 0.37035748409374952 0.12191913965183331 0 0.37511757494472903 0.123072110010257 0 0.37035748409374952 0.12191913965183331 0 0.37169283910029199 0.12815165521797289 0 0.37511757494472903 0.123072110010257 0 0.36286728541875429 0.096218484345557367 0 0.37455144446510141 0.10193275935197101 0 0.37400882161871279 0.083619613235024759 0 0.35895517932347593 0.111093255932518 0 0.36901916600157941 0.1100142775002767 0 0.36286728541875429 0.096218484345557367 0 0.36901916600157941 0.1100142775002767 0 0.36286728541875429 0.096218484345557367 0 0.37455144446510141 0.10193275935197101 0 0.36901916600157941 0.1100142775002767 0 0.37455144446510141 0.10193275935197101 0 0.37815432920295677 0.1109533992790251 0 0.36286728541875429 0.096218484345557367 0 0.37400882161871279 0.083619613235024759 0 0.3570119940846016 0.07655140493877155 0 0.36286728541875429 0.096218484345557367 0 0.34376262838779448 0.090160381808613591 0 0.3570119940846016 0.07655140493877155 0 0.3285700774521132 0.069227507684709172 0 0.3570119940846016 0.07655140493877155 0 0.3540274811898364 0.057481719132925622 0 0.37400882161871279 0.083619613235024759 0 0.3570119940846016 0.07655140493877155 0 0.37883567044039879 0.062600723425798879 0 0.3570119940846016 0.07655140493877155 0 0.3540274811898364 0.057481719132925622 0 0.37883567044039879 0.062600723425798879 0 0.36884998715724038 0.048654936693666287 0 0.3540274811898364 0.057481719132925622 0 0.37883567044039879 0.062600723425798879 0 0.36884998715724038 0.048654936693666287 0 0.36096242836060388 0.032492650360987897 0 0.3540274811898364 0.057481719132925622 0 0.36884998715724038 0.048654936693666287 0 0.36096242836060388 0.032492650360987897 0 0.38366251926208489 0.041581833616573027 0 0.36096242836060388 0.032492650360987897 0 0.3540274811898364 0.057481719132925622 0 0.33343548863743699 0.044422356914628619 0 0.36096242836060388 0.032492650360987897 0 0.34150772405548108 0.025325389551572871 0 0.33343548863743699 0.044422356914628619 0 0.36096242836060388 0.032492650360987897 0 0.33343548863743699 0.044422356914628619 0 0.36934971840039982 0.01412264887454192 0 0.38120377069012762 0.010554394007073271 0 0.36845156083710567 -0.0060515153414843056 0 0.36934971840039982 0.01412264887454192 0 0.35188933009005469 0.012921367503740049 0 0.36845156083710567 -0.0060515153414843056 0 0.36096242836060388 0.032492650360987897 0 0.38848936808377088 0.020562943807347231 0 0.36096242836060388 0.032492650360987897 0 0.36934971840039982 0.01412264887454192 0 0.35188933009005469 0.012921367503740049 0 0.36096242836060388 0.032492650360987897 0 0.36934971840039982 0.01412264887454192 0 0.38848936808377088 0.020562943807347231 0 0.36096242836060388 0.032492650360987897 0 0.35188933009005469 0.012921367503740049 0 0.34150772405548108 0.025325389551572871 0 0.35188933009005469 0.012921367503740049 0 0.36845156083710567 -0.0060515153414843056 0 0.34114057903213352 -0.00099436838624600288 0 0.32992396985460443 0.01263339996306794 0 0.31382959722716158 0.0040627785689932028 0 0.34114057903213352 -0.00099436838624600288 0 0.35188933009005469 0.012921367503740049 0 0.32992396985460443 0.01263339996306794 0 0.34114057903213352 -0.00099436838624600288 0 0.32992396985460443 0.01263339996306794 0 0.34150772405548108 0.025325389551572871 0 0.32077834005703848 0.02927741351548363 0 0.35188933009005469 0.012921367503740049 0 0.32992396985460443 0.01263339996306794 0 0.34150772405548108 0.025325389551572871 0 0.32992396985460443 0.01263339996306794 0 0.32077834005703848 0.02927741351548363 0 0.31391214704691389 0.015516024244919061 0 0.32992396985460443 0.01263339996306794 0 0.31391214704691389 0.015516024244919061 0 0.31382959722716158 0.0040627785689932028 0 0.31382959722716158 0.0040627785689932028 0 0.34183048761771712 -0.0039986291523161147 0 0.31382959722716158 0.0040627785689932028 0 0.34114057903213352 -0.00099436838624600288 0 0.31382959722716158 0.0040627785689932028 0 0.30752965714041391 0.0058765203804442539 0 0.32194573769061952 -0.0077676308935595512 0 0.3285700774521132 0.069227507684709172 0 0.3540274811898364 0.057481719132925622 0 0.33343548863743699 0.044422356914628619 0 0.34150772405548108 0.025325389551572871 0 0.32077834005703848 0.02927741351548363 0 0.33343548863743699 0.044422356914628619 0 0.32077834005703848 0.02927741351548363 0 0.33343548863743699 0.044422356914628619 0 0.31337752651643169 0.04829463356080467 0 0.3285700774521132 0.069227507684709172 0 0.31337752651643169 0.04829463356080467 0 0.3285700774521132 0.069227507684709172 0 0.33343548863743699 0.044422356914628619 0 0.31337752651643169 0.04829463356080467 0 0.3285700774521132 0.069227507684709172 0 0.31337752651643169 0.04829463356080467 0 0.30262144479489489 0.063472250579192202 0 0.31337752651643169 0.04829463356080467 0 0.29190445549758398 0.041801895735158197 0 0.30262144479489489 0.063472250579192202 0 0.31337752651643169 0.04829463356080467 0 0.29818497558074802 0.027361759436901809 0 0.31337752651643169 0.04829463356080467 0 0.29190445549758398 0.041801895735158197 0 0.29818497558074802 0.027361759436901809 0 0.32077834005703848 0.02927741351548363 0 0.31337752651643169 0.04829463356080467 0 0.29818497558074802 0.027361759436901809 0 0.29190445549758398 0.041801895735158197 0 0.29818497558074802 0.027361759436901809 0 0.28149235485467722 0.028426230672526639 0 0.29190445549758398 0.041801895735158197 0 0.28562393541442521 0.056242032033416753 0 0.26921605588191849 0.040519794607793452 0 0.29190445549758398 0.041801895735158197 0 0.29818497558074802 0.027361759436901809 0 0.29190445549758398 0.041801895735158197 0 0.28562393541442521 0.056242032033416753 0 0.29190445549758398 0.041801895735158197 0 0.28562393541442521 0.056242032033416753 0 0.30262144479489489 0.063472250579192202 0 0.2978295874258669 0.0070254842464454832 0 0.30752965714041391 0.0058765203804442539 0 0.2978295874258669 0.0070254842464454832 0 0.30752965714041391 0.0058765203804442539 0 0.29396858594285019 -0.001032612778502764 0 0.31382959722716158 0.0040627785689932028 0 0.30752965714041391 0.0058765203804442539 0 0.31391214704691389 0.015516024244919061 0 0.30752965714041391 0.0058765203804442539 0 0.30398999522707459 0.014014891057021139 0 0.30752965714041391 0.0058765203804442539 0 0.30398999522707459 0.014014891057021139 0 0.31391214704691389 0.015516024244919061 0 0.31382959722716158 0.0040627785689932028 0 0.30752965714041391 0.0058765203804442539 0 0.2978295874258669 0.0070254842464454832 0 0.30752965714041391 0.0058765203804442539 0 0.30398999522707459 0.014014891057021139 0 0.2978295874258669 0.0070254842464454832 0 0.30398999522707459 0.014014891057021139 0 0.31391214704691389 0.015516024244919061 0 0.30398999522707459 0.014014891057021139 0 0.29818497558074802 0.027361759436901809 0 0.32077834005703848 0.02927741351548363 0 0.31391214704691389 0.015516024244919061 0 0.29818497558074802 0.027361759436901809 0 0.30398999522707459 0.014014891057021139 0 0.29818497558074802 0.027361759436901809 0 0.30398999522707459 0.014014891057021139 0 0.29818497558074802 0.027361759436901809 0 0.28690172397702512 0.011815266518820099 0 0.29818497558074802 0.027361759436901809 0 0.28149235485467722 0.028426230672526639 0 0.28690172397702512 0.011815266518820099 0 0.29818497558074802 0.027361759436901809 0 0.28690172397702512 0.011815266518820099 0 0.28690172397702512 0.011815266518820099 0 0.28687677889875068 0.001725005618485562 0 0.27267603034966698 -0.0077854348569651906 0 0.2978295874258669 0.0070254842464454832 0 0.30398999522707459 0.014014891057021139 0 0.28690172397702512 0.011815266518820099 0 0.2978295874258669 0.0070254842464454832 0 0.28690172397702512 0.011815266518820099 0 0.29376575238797509 0.0077779804816672602 0 0.2978295874258669 0.0070254842464454832 0 0.28690172397702512 0.011815266518820099 0 0.2978295874258669 0.0070254842464454832 0 0.28687677889875068 0.001725005618485562 0 0.29376575238797509 0.0077779804816672602 0 0.28690172397702512 0.011815266518820099 0 0.28687677889875068 0.001725005618485562 0 0.29376575238797509 0.0077779804816672602 0 0.2978295874258669 0.0070254842464454832 0 0.29376575238797509 0.0077779804816672602 0 0.28690172397702512 0.011815266518820099 0 0.26939274767164711 0.0040745279013861191 0 0.27267603034966698 -0.0077854348569651906 0 0.28690172397702512 0.011815266518820099 0 0.26440570944936082 0.018291830038140541 0 0.28690172397702512 0.011815266518820099 0 0.26939274767164711 0.0040745279013861191 0 0.26440570944936082 0.018291830038140541 0 0.28690172397702512 0.011815266518820099 0 0.27267603034966698 -0.0077854348569651906 0 0.28149235485467722 0.028426230672526639 0 0.26440570944936082 0.018291830038140541 0 0.26921605588191849 0.040519794607793452 0 0.28149235485467722 0.028426230672526639 0 0.28690172397702512 0.011815266518820099 0 0.26440570944936082 0.018291830038140541 0 0.24190969492169709 0.024768393557462999 0 0.26440570944936082 0.018291830038140541 0 0.2485551203034157 0.0102848256948572 0 0.24190969492169709 0.024768393557462999 0 0.26440570944936082 0.018291830038140541 0 0.24190969492169709 0.024768393557462999 0 0.26440570944936082 0.018291830038140541 0 0.25291178968964928 0.037547667281027097 0 0.2485551203034157 0.0102848256948572 0 0.26440570944936082 0.018291830038140541 0 0.25894279220913391 0.003459445712386486 0 0.26939274767164711 0.0040745279013861191 0 0.26440570944936082 0.018291830038140541 0 0.25894279220913391 0.003459445712386486 0 0.2485551203034157 0.0102848256948572 0 0.25894279220913391 0.003459445712386486 0 0.2479891295484222 -0.0022684572774312019 0 0.26939274767164711 0.0040745279013861191 0 0.25894279220913391 0.003459445712386486 0 0.26317147738524183 -0.0038637327990410169 0 0.28562393541442521 0.056242032033416753 0 0.27026274557325353 0.056119745337220257 0 0.26921605588191849 0.040519794607793452 0 0.28562393541442521 0.056242032033416753 0 0.27026274557325353 0.056119745337220257 0 0.27167623587568768 0.070814912161459326 0 0.29190445549758398 0.041801895735158197 0 0.28149235485467722 0.028426230672526639 0 0.26921605588191849 0.040519794607793452 0 0.26921605588191849 0.040519794607793452 0 0.25291178968964928 0.037547667281027097 0 0.25425538404847059 0.057624927133231481 0 0.26440570944936082 0.018291830038140541 0 0.26921605588191849 0.040519794607793452 0 0.25291178968964928 0.037547667281027097 0 0.27026274557325353 0.056119745337220257 0 0.26921605588191849 0.040519794607793452 0 0.25425538404847059 0.057624927133231481 0 0.27026274557325353 0.056119745337220257 0 0.25425538404847059 0.057624927133231481 0 0.27167623587568768 0.070814912161459326 0 0.25425538404847059 0.057624927133231481 0 0.27167623587568768 0.070814912161459326 0 0.25282536794073712 0.073272794188635415 0 0.26618138576237349 0.084067315497028519 0 0.27167623587568768 0.070814912161459326 0 0.25425538404847059 0.057624927133231481 0 0.25282536794073712 0.073272794188635415 0 0.27167623587568768 0.070814912161459326 0 0.25089272908716931 0.092982859712809007 0 0.26618138576237349 0.084067315497028519 0 0.27478568008848531 0.098770115700614086 0 0.25282536794073712 0.073272794188635415 0 0.25089272908716931 0.092982859712809007 0 0.26618138576237349 0.084067315497028519 0 0.26618138576237349 0.084067315497028519 0 0.28181267844286689 0.084890460016538952 0 0.27478568008848531 0.098770115700614086 0 0.26618138576237349 0.084067315497028519 0 0.27167623587568768 0.070814912161459326 0 0.28181267844286689 0.084890460016538952 0 0.27167623587568768 0.070814912161459326 0 0.2870451550563029 0.071072764848292863 0 0.28181267844286689 0.084890460016538952 0 0.2870451550563029 0.071072764848292863 0 0.29673814540623761 0.08207029957157172 0 0.30262144479489489 0.063472250579192202 0 0.28562393541442521 0.056242032033416753 0 0.2870451550563029 0.071072764848292863 0 0.30262144479489489 0.063472250579192202 0 0.28562393541442521 0.056242032033416753 0 0.27167623587568768 0.070814912161459326 0 0.2870451550563029 0.071072764848292863 0 0.2870451550563029 0.071072764848292863 0 0.28181267844286689 0.084890460016538952 0 0.29673814540623761 0.08207029957157172 0 0.28181267844286689 0.084890460016538952 0 0.29673814540623761 0.08207029957157172 0 0.29867863108980142 0.1045573716884185 0 0.31851483003181857 0.089032350953859848 0 0.29673814540623761 0.08207029957157172 0 0.30262144479489489 0.063472250579192202 0 0.31851483003181857 0.089032350953859848 0 0.29673814540623761 0.08207029957157172 0 0.29867863108980142 0.1045573716884185 0 0.2991284260398443 0.1226428311133997 0 0.29867863108980142 0.1045573716884185 0 0.31156748461804079 0.12537242366950921 0 0.32257158209111758 0.11034462767622299 0 0.29867863108980142 0.1045573716884185 0 0.31156748461804079 0.12537242366950921 0 0.32257158209111758 0.11034462767622299 0 0.29867863108980142 0.1045573716884185 0 0.29867863108980142 0.1045573716884185 0 0.27478568008848531 0.098770115700614086 0 0.29867863108980142 0.1045573716884185 0 0.27783009132198788 0.1122622341296569 0 0.27478568008848531 0.098770115700614086 0 0.28181267844286689 0.084890460016538952 0 0.29867863108980142 0.1045573716884185 0 0.27478568008848531 0.098770115700614086 0 0.2991284260398443 0.1226428311133997 0 0.29867863108980142 0.1045573716884185 0 0.28707615928971691 0.1208096883177448 0 0.29867863108980142 0.1045573716884185 0 0.28707615928971691 0.1208096883177448 0 0.27783009132198788 0.1122622341296569 0 0.2991284260398443 0.1226428311133997 0 0.28707615928971691 0.1208096883177448 0 0.29671346303214241 0.12961196471325551 0 0.26302281242735981 0.111198171579071 0 0.27515289576754948 0.1294134834453334 0 0.28707615928971691 0.1208096883177448 0 0.27783009132198788 0.1122622341296569 0 0.27515289576754948 0.1294134834453334 0 0.27783009132198788 0.1122622341296569 0 0.26302281242735981 0.111198171579071 0 0.27515289576754948 0.1294134834453334 0 0.26302281242735981 0.111198171579071 0 0.26007351669183237 0.1253037732749688 0 0.27515289576754948 0.1294134834453334 0 0.27783009132198788 0.1122622341296569 0 0.27478568008848531 0.098770115700614086 0 0.26302281242735981 0.111198171579071 0 0.25089272908716931 0.092982859712809007 0 0.26302281242735981 0.111198171579071 0 0.2496952397761337 0.1160329650041991 0 0.25089272908716931 0.092982859712809007 0 0.26302281242735981 0.111198171579071 0 0.25089272908716931 0.092982859712809007 0 0.27478568008848531 0.098770115700614086 0 0.26302281242735981 0.111198171579071 0 0.25089272908716931 0.092982859712809007 0 0.27478568008848531 0.098770115700614086 0 0.2471064899150823 0.133463067737116 0 0.2496952397761337 0.1160329650041991 0 0.26007351669183237 0.1253037732749688 0 0.2496952397761337 0.1160329650041991 0 0.26302281242735981 0.111198171579071 0 0.26007351669183237 0.1253037732749688 0 0.2471064899150823 0.133463067737116 0 0.26212056590251792 0.13860634342131159 0 0.25227113898158787 0.14916335431643429 0 0.2471064899150823 0.133463067737116 0 0.26212056590251792 0.13860634342131159 0 0.26007351669183237 0.1253037732749688 0 0.27515289576754948 0.1294134834453334 0 0.28728297910773942 0.14762879531159581 0 0.27515289576754948 0.1294134834453334 0 0.27408945104382287 0.14431330872834849 0 0.28728297910773942 0.14762879531159581 0 0.26212056590251792 0.13860634342131159 0 0.26007351669183237 0.1253037732749688 0 0.27515289576754948 0.1294134834453334 0 0.26212056590251792 0.13860634342131159 0 0.27515289576754948 0.1294134834453334 0 0.27408945104382287 0.14431330872834849 0 0.27408945104382287 0.14431330872834849 0 0.27716137478162928 0.15889869399298601 0 0.28728297910773942 0.14762879531159581 0 0.26212056590251792 0.13860634342131159 0 0.27408945104382287 0.14431330872834849 0 0.26493391480523859 0.14953421755469451 0 0.27408945104382287 0.14431330872834849 0 0.26493391480523859 0.14953421755469451 0 0.27716137478162928 0.15889869399298601 0 0.26493391480523859 0.14953421755469451 0 0.25227113898158787 0.14916335431643429 0 0.25784869618064837 0.16117632967822779 0 0.26212056590251792 0.13860634342131159 0 0.26493391480523859 0.14953421755469451 0 0.25227113898158787 0.14916335431643429 0 0.24342118736862761 0.16410875332904781 0 0.25227113898158787 0.14916335431643429 0 0.25784869618064837 0.16117632967822779 0 0.24342118736862761 0.16410875332904781 0 0.25784869618064837 0.16117632967822779 0 0.25421457754785548 0.17528354573505059 0 0.25784869618064837 0.16117632967822779 0 0.25421457754785548 0.17528354573505059 0 0.26798999978846311 0.16999528723303189 0 0.25421457754785548 0.17528354573505059 0 0.26688833639653942 0.18474270353269559 0 0.25113643024109478 0.19094495075723769 0 0.25421457754785548 0.17528354573505059 0 0.26688833639653942 0.18474270353269559 0 0.26798999978846311 0.16999528723303189 0 0.26688833639653942 0.18474270353269559 0 0.27899922157627788 0.1740987885831469 0 0.26798999978846311 0.16999528723303189 0 0.26688833639653942 0.18474270353269559 0 0.27899922157627788 0.1740987885831469 0 0.28165513110548479 0.1855437801635878 0 0.25784869618064837 0.16117632967822779 0 0.26798999978846311 0.16999528723303189 0 0.27716137478162928 0.15889869399298601 0 0.26493391480523859 0.14953421755469451 0 0.25784869618064837 0.16117632967822779 0 0.27716137478162928 0.15889869399298601 0 0.27899922157627788 0.1740987885831469 0 0.26798999978846311 0.16999528723303189 0 0.27716137478162928 0.15889869399298601 0 0.27716137478162928 0.15889869399298601 0 0.28838527260411961 0.16768800255462621 0 0.29642958482603432 0.1586868689393966 0 0.27899922157627788 0.1740987885831469 0 0.27716137478162928 0.15889869399298601 0 0.28838527260411961 0.16768800255462621 0 0.28838527260411961 0.16768800255462621 0 0.29642958482603432 0.1586868689393966 0 0.2990812202460017 0.16972771789266669 0 0.28165513110548479 0.1855437801635878 0 0.29057456817046978 0.17841330338653549 0 0.29442149412013968 0.19018242885082931 0 0.27899922157627788 0.1740987885831469 0 0.28165513110548479 0.1855437801635878 0 0.29057456817046978 0.17841330338653549 0 0.27899922157627788 0.1740987885831469 0 0.28838527260411961 0.16768800255462621 0 0.29057456817046978 0.17841330338653549 0 0.28838527260411961 0.16768800255462621 0 0.29057456817046978 0.17841330338653549 0 0.2990812202460017 0.16972771789266669 0 0.29057456817046978 0.17841330338653549 0 0.30085032626191438 0.18018504882584371 0 0.2990812202460017 0.16972771789266669 0 0.29057456817046978 0.17841330338653549 0 0.30085032626191438 0.18018504882584371 0 0.29442149412013968 0.19018242885082931 0 0.30085032626191438 0.18018504882584371 0 0.29442149412013968 0.19018242885082931 0 0.3080553032197017 0.1887293017033026 0 0.30085032626191438 0.18018504882584371 0 0.31056514142368619 0.1744383831500049 0 0.2990812202460017 0.16972771789266669 0 0.30085032626191438 0.18018504882584371 0 0.31056514142368619 0.1744383831500049 0 0.3080553032197017 0.1887293017033026 0 0.29642958482603432 0.1586868689393966 0 0.30747502192119819 0.16230778928688711 0 0.30151933753066762 0.14970454816787401 0 0.29642958482603432 0.1586868689393966 0 0.2990812202460017 0.16972771789266669 0 0.30747502192119819 0.16230778928688711 0 0.31056514142368619 0.1744383831500049 0 0.2990812202460017 0.16972771789266669 0 0.30747502192119819 0.16230778928688711 0 0.30747502192119819 0.16230778928688711 0 0.30151933753066762 0.14970454816787401 0 0.3129765302581462 0.1494710021231663 0 0.30151933753066762 0.14970454816787401 0 0.29882590938581222 0.14264553562683399 0 0.30718649112507979 0.14443915855455869 0 0.30151933753066762 0.14970454816787401 0 0.30718649112507979 0.14443915855455869 0 0.3129765302581462 0.1494710021231663 0 0.29882590938581222 0.14264553562683399 0 0.30718649112507979 0.14443915855455869 0 0.31229822968882548 0.13781435906697939 0 0.30718649112507979 0.14443915855455869 0 0.31229822968882548 0.13781435906697939 0 0.3129765302581462 0.1494710021231663 0 0.31229822968882548 0.13781435906697939 0 0.28502845800881449 0.13413009067030229 0 0.31229822968882548 0.13781435906697939 0 0.29671346303214241 0.12961196471325551 0 0.28502845800881449 0.13413009067030229 0 0.29882590938581222 0.14264553562683399 0 0.31229822968882548 0.13781435906697939 0 0.28502845800881449 0.13413009067030229 0 0.2991284260398443 0.1226428311133997 0 0.31156748461804079 0.12537242366950921 0 0.30438347209902411 0.12928289016934871 0 0.31229822968882548 0.13781435906697939 0 0.31156748461804079 0.12537242366950921 0 0.30438347209902411 0.12928289016934871 0 0.31229822968882548 0.13781435906697939 0 0.30438347209902411 0.12928289016934871 0 0.29671346303214241 0.12961196471325551 0 0.2991284260398443 0.1226428311133997 0 0.30438347209902411 0.12928289016934871 0 0.29671346303214241 0.12961196471325551 0 0.27515289576754948 0.1294134834453334 0 0.28502845800881449 0.13413009067030229 0 0.28728297910773942 0.14762879531159581 0 0.28707615928971691 0.1208096883177448 0 0.29671346303214241 0.12961196471325551 0 0.28502845800881449 0.13413009067030229 0 0.28707615928971691 0.1208096883177448 0 0.27515289576754948 0.1294134834453334 0 0.28502845800881449 0.13413009067030229 0 0.27716137478162928 0.15889869399298601 0 0.29642958482603432 0.1586868689393966 0 0.28728297910773942 0.14762879531159581 0 0.29642958482603432 0.1586868689393966 0 0.30151933753066762 0.14970454816787401 0 0.28728297910773942 0.14762879531159581 0 0.30151933753066762 0.14970454816787401 0 0.29882590938581222 0.14264553562683399 0 0.28728297910773942 0.14762879531159581 0 0.29882590938581222 0.14264553562683399 0 0.28502845800881449 0.13413009067030229 0 0.28728297910773942 0.14762879531159581 0 0.2459873280094696 0.23707215699401071 0 0.27381195783464701 0.24213208581531279 0 0.2459873280094696 0.23707215699401071 0 0.27381195783464701 0.24213208581531279 0 0.27283394916361492 0.24742619336605559 0 0.2459873280094696 0.23707215699401071 0 0.27283394916361492 0.24742619336605559 0 0.2459873280094696 0.23707215699401071 0 0.25877170878786238 0.25302463852503437 0 0.27283394916361492 0.24742619336605559 0 0.2459873280094696 0.23707215699401071 0 0.24763005152173001 0.25910176257370959 0 0.25877170878786238 0.25302463852503437 0 0.24332195560292991 0.2175119837032847 0 0.2459873280094696 0.23707215699401071 0 0.26947725056793032 0.22188821543332771 0 0.2459873280094696 0.23707215699401071 0 0.27381195783464701 0.24213208581531279 0 0.26947725056793032 0.22188821543332771 0 0.24332195560292991 0.2175119837032847 0 0.26947725056793032 0.22188821543332771 0 0.27381195783464701 0.24213208581531279 0 0.26947725056793032 0.22188821543332771 0 0.29563254553293061 0.22626444716337071 0 0.26947725056793032 0.22188821543332771 0 0.26383894902510108 0.20488334565775601 0 0.28252807440433819 0.20448568929014271 0 0.24828008483854189 0.20295934428596721 0 0.24332195560292991 0.2175119837032847 0 0.26383894902510108 0.20488334565775601 0 0.24332195560292991 0.2175119837032847 0 0.26947725056793032 0.22188821543332771 0 0.26383894902510108 0.20488334565775601 0 0.26688833639653942 0.18474270353269559 0 0.26383894902510108 0.20488334565775601 0 0.25113643024109478 0.19094495075723769 0 0.24828008483854189 0.20295934428596721 0 0.26383894902510108 0.20488334565775601 0 0.25113643024109478 0.19094495075723769 0 0.26688833639653942 0.18474270353269559 0 0.26383894902510108 0.20488334565775601 0 0.27369942293731819 0.19569303942008121 0 0.26383894902510108 0.20488334565775601 0 0.27369942293731819 0.19569303942008121 0 0.28252807440433819 0.20448568929014271 0 0.28165513110548479 0.1855437801635878 0 0.27369942293731819 0.19569303942008121 0 0.28252807440433819 0.20448568929014271 0 0.26688833639653942 0.18474270353269559 0 0.28165513110548479 0.1855437801635878 0 0.27369942293731819 0.19569303942008121 0 0.28165513110548479 0.1855437801635878 0 0.29442149412013968 0.19018242885082931 0 0.28252807440433819 0.20448568929014271 0 0.29442149412013968 0.19018242885082931 0 0.30168066081365352 0.2029210297493958 0 0.28252807440433819 0.20448568929014271 0 0.29442149412013968 0.19018242885082931 0 0.3080553032197017 0.1887293017033026 0 0.30168066081365352 0.2029210297493958 0 0.3080553032197017 0.1887293017033026 0 0.30168066081365352 0.2029210297493958 0 0.31674655555173881 0.19902842766084339 0 0.30168066081365352 0.2029210297493958 0 0.29563254553293061 0.22626444716337071 0 0.31377845179643721 0.21458276756770189 0 0.30168066081365352 0.2029210297493958 0 0.31377845179643721 0.21458276756770189 0 0.31674655555173881 0.19902842766084339 0 0.30168066081365352 0.2029210297493958 0 0.28252807440433819 0.20448568929014271 0 0.29563254553293061 0.22626444716337071 0 0.26947725056793032 0.22188821543332771 0 0.28252807440433819 0.20448568929014271 0 0.29563254553293061 0.22626444716337071 0 0.26947725056793032 0.22188821543332771 0 0.29563254553293061 0.22626444716337071 0 0.29563254553293061 0.22626444716337071 0 0.3217878404979308 0.23064067889341369 0 0.31377845179643721 0.21458276756770189 0 0.29563254553293061 0.22626444716337071 0 0.3217878404979308 0.23064067889341369 0 0.29563254553293061 0.22626444716337071 0 0.3016365876598241 0.24719201463661561 0 0.3217878404979308 0.23064067889341369 0 0.27381195783464701 0.24213208581531279 0 0.29563254553293061 0.22626444716337071 0 0.3016365876598241 0.24719201463661561 0 0.27381195783464701 0.24213208581531279 0 0.3016365876598241 0.24719201463661561 0 0.27381195783464701 0.24213208581531279 0 0.27283394916361492 0.24742619336605559 0 0.3016365876598241 0.24719201463661561 0 0.32946121748500129 0.25225194345791829 0 0.3217878404979308 0.23064067889341369 0 0.34556910970536658 0.23921390462248199 0 0.32946121748500129 0.25225194345791829 0 0.3016365876598241 0.24719201463661561 0 0.3217878404979308 0.23064067889341369 0 0.32946121748500129 0.25225194345791829 0 0.3016365876598241 0.24719201463661561 0 0.3217878404979308 0.23064067889341369 0 0.33460182177363001 0.21999966289075409 0 0.31377845179643721 0.21458276756770189 0 0.3217878404979308 0.23064067889341369 0 0.33460182177363001 0.21999966289075409 0 0.34556910970536658 0.23921390462248199 0 0.33460182177363001 0.21999966289075409 0 0.3278776259658665 0.2076214509036243 0 0.34419695055865512 0.20542025302645439 0 0.33460182177363001 0.21999966289075409 0 0.31377845179643721 0.21458276756770189 0 0.3278776259658665 0.2076214509036243 0 0.31377845179643721 0.21458276756770189 0 0.3278776259658665 0.2076214509036243 0 0.31674655555173881 0.19902842766084339 0 0.3278776259658665 0.2076214509036243 0 0.31674655555173881 0.19902842766084339 0 0.32893527636844411 0.194937601908272 0 0.3080553032197017 0.1887293017033026 0 0.31674655555173881 0.19902842766084339 0 0.32122387935841612 0.1836610840160959 0 0.31674655555173881 0.19902842766084339 0 0.32893527636844411 0.194937601908272 0 0.32122387935841612 0.1836610840160959 0 0.32893527636844411 0.194937601908272 0 0.34419695055865512 0.20542025302645439 0 0.33967484433078321 0.18584068278097349 0 0.32893527636844411 0.194937601908272 0 0.32122387935841612 0.1836610840160959 0 0.33967484433078321 0.18584068278097349 0 0.3278776259658665 0.2076214509036243 0 0.32893527636844411 0.194937601908272 0 0.34419695055865512 0.20542025302645439 0 0.35368837148756882 0.19334260062126429 0 0.34419695055865512 0.20542025302645439 0 0.33967484433078321 0.18584068278097349 0 0.35368837148756882 0.19334260062126429 0 0.36735815001373812 0.20351917688449569 0 0.34419695055865512 0.20542025302645439 0 0.36735815001373812 0.20351917688449569 0 0.36699199379966768 0.18628457072029089 0 0.38367398474104891 0.18179268717308689 0 0.35368837148756882 0.19334260062126429 0 0.36735815001373812 0.20351917688449569 0 0.36699199379966768 0.18628457072029089 0 0.36735815001373812 0.20351917688449569 0 0.35440095211752448 0.2225189223308488 0 0.37280151553833601 0.22024831863616021 0 0.36735815001373812 0.20351917688449569 0 0.37280151553833601 0.22024831863616021 0 0.38406378734192298 0.20777210545990279 0 0.36735815001373812 0.20351917688449569 0 0.34419695055865512 0.20542025302645439 0 0.35440095211752448 0.2225189223308488 0 0.33460182177363001 0.21999966289075409 0 0.34419695055865512 0.20542025302645439 0 0.35440095211752448 0.2225189223308488 0 0.35440095211752448 0.2225189223308488 0 0.37293454716760283 0.2396311516560117 0 0.34556910970536658 0.23921390462248199 0 0.33460182177363001 0.21999966289075409 0 0.35440095211752448 0.2225189223308488 0 0.34556910970536658 0.23921390462248199 0 0.35440095211752448 0.2225189223308488 0 0.37280151553833601 0.22024831863616021 0 0.37293454716760283 0.2396311516560117 0 0.32946121748500129 0.25225194345791829 0 0.35728584731017871 0.25731187227922109 0 0.34556910970536658 0.23921390462248199 0 0.35728584731017871 0.25731187227922109 0 0.37293454716760283 0.2396311516560117 0 0.34556910970536658 0.23921390462248199 0 0.33789665254535572 0.15537308983460499 0 0.33956800136883641 0.14149862746365649 0 0.32484504322689201 0.150618498474763 0 0.33789665254535572 0.15537308983460499 0 0.32484504322689201 0.150618498474763 0 0.32925575641373173 0.1625602653078303 0 0.33789665254535572 0.15537308983460499 0 0.33956800136883641 0.14149862746365649 0 0.35085012880757988 0.15547460686614431 0 0.31847051852819058 0.13586426255884801 0 0.34441400131097022 0.1288917011053414 0 0.32933038512457441 0.1245201253257071 0 0.31847051852819058 0.13586426255884801 0 0.34441400131097022 0.1288917011053414 0 0.33956800136883641 0.14149862746365649 0 0.31847051852819058 0.13586426255884801 0 0.34441400131097022 0.1288917011053414 0 0.31229822968882548 0.13781435906697939 0 0.33956800136883641 0.14149862746365649 0 0.31229822968882548 0.13781435906697939 0 0.33956800136883641 0.14149862746365649 0 0.31847051852819058 0.13586426255884801 0 0.32933038512457441 0.1245201253257071 0 0.3207185438207466 0.1263919595033525 0 0.31847051852819058 0.13586426255884801 0 0.31156748461804079 0.12537242366950921 0 0.3207185438207466 0.1263919595033525 0 0.31847051852819058 0.13586426255884801 0 0.31229822968882548 0.13781435906697939 0 0.31156748461804079 0.12537242366950921 0 0.31847051852819058 0.13586426255884801 0 0.31229822968882548 0.13781435906697939 0 0.33956800136883641 0.14149862746365649 0 0.32484504322689201 0.150618498474763 0 0.31229822968882548 0.13781435906697939 0 0.32484504322689201 0.150618498474763 0 0.3129765302581462 0.1494710021231663 0 0.32484504322689201 0.150618498474763 0 0.3129765302581462 0.1494710021231663 0 0.31772009751989111 0.15842714336302041 0 0.30747502192119819 0.16230778928688711 0 0.3129765302581462 0.1494710021231663 0 0.31772009751989111 0.15842714336302041 0 0.30747502192119819 0.16230778928688711 0 0.31772009751989111 0.15842714336302041 0 0.32080742045079952 0.16866520015094741 0 0.31056514142368619 0.1744383831500049 0 0.30747502192119819 0.16230778928688711 0 0.32080742045079952 0.16866520015094741 0 0.32080742045079952 0.16866520015094741 0 0.33131907253280629 0.1738795647946571 0 0.32925575641373173 0.1625602653078303 0 0.32484504322689201 0.150618498474763 0 0.31772009751989111 0.15842714336302041 0 0.32925575641373173 0.1625602653078303 0 0.31772009751989111 0.15842714336302041 0 0.32080742045079952 0.16866520015094741 0 0.32925575641373173 0.1625602653078303 0 0.31056514142368619 0.1744383831500049 0 0.3080553032197017 0.1887293017033026 0 0.32122387935841612 0.1836610840160959 0 0.31056514142368619 0.1744383831500049 0 0.32080742045079952 0.16866520015094741 0 0.32122387935841612 0.1836610840160959 0 0.32080742045079952 0.16866520015094741 0 0.32122387935841612 0.1836610840160959 0 0.33131907253280629 0.1738795647946571 0 0.33131907253280629 0.1738795647946571 0 0.33967484433078321 0.18584068278097349 0 0.34294625220664587 0.1683980952289891 0 0.32122387935841612 0.1836610840160959 0 0.33131907253280629 0.1738795647946571 0 0.33967484433078321 0.18584068278097349 0 0.33131907253280629 0.1738795647946571 0 0.32925575641373173 0.1625602653078303 0 0.34294625220664587 0.1683980952289891 0 0.33789665254535572 0.15537308983460499 0 0.32925575641373173 0.1625602653078303 0 0.34294625220664587 0.1683980952289891 0 0.34294625220664587 0.1683980952289891 0 0.35531914635495271 0.16562513299740311 0 0.35085012880757988 0.15547460686614431 0 0.33789665254535572 0.15537308983460499 0 0.34294625220664587 0.1683980952289891 0 0.35085012880757988 0.15547460686614431 0 0.34294625220664587 0.1683980952289891 0 0.35531914635495271 0.16562513299740311 0 0.35387202203434698 0.17803066266241011 0 0.35531914635495271 0.16562513299740311 0 0.35387202203434698 0.17803066266241011 0 0.36550295271590683 0.1690726970215666 0 0.35531914635495271 0.16562513299740311 0 0.36342437601028388 0.15714960320790561 0 0.35085012880757988 0.15547460686614431 0 0.33967484433078321 0.18584068278097349 0 0.34294625220664587 0.1683980952289891 0 0.35387202203434698 0.17803066266241011 0 0.35368837148756882 0.19334260062126429 0 0.33967484433078321 0.18584068278097349 0 0.35387202203434698 0.17803066266241011 0 0.35368837148756882 0.19334260062126429 0 0.35387202203434698 0.17803066266241011 0 0.36699199379966768 0.18628457072029089 0 0.37486327834919952 0.17324080595030389 0 0.36699199379966768 0.18628457072029089 0 0.36550295271590683 0.1690726970215666 0 0.35387202203434698 0.17803066266241011 0 0.36699199379966768 0.18628457072029089 0 0.36550295271590683 0.1690726970215666 0 0.36342437601028388 0.15714960320790561 0 0.36550295271590683 0.1690726970215666 0 0.38328418214017468 0.15581326888627101 0 0.37486327834919952 0.17324080595030389 0 0.36550295271590683 0.1690726970215666 0 0.38328418214017468 0.15581326888627101 0 0.35531914635495271 0.16562513299740311 0 0.36342437601028388 0.15714960320790561 0 0.36550295271590683 0.1690726970215666 0 0.36342437601028388 0.15714960320790561 0 0.36683777304884752 0.14518289586033359 0 0.38328418214017468 0.15581326888627101 0 0.36342437601028388 0.15714960320790561 0 0.36683777304884752 0.14518289586033359 0 0.35085012880757988 0.15547460686614431 0 0.33956800136883641 0.14149862746365649 0 0.36683777304884752 0.14518289586033359 0 0.33956800136883641 0.14149862746365649 0 0.36683777304884752 0.14518289586033359 0 0.35085012880757988 0.15547460686614431 0 0.37035748409374952 0.12191913965183331 0 0.34441400131097022 0.1288917011053414 0 0.33956800136883641 0.14149862746365649 0 0.34441400131097022 0.1288917011053414 0 0.35985245571789548 0.13256521397634091 0 0.37035748409374952 0.12191913965183331 0 0.34441400131097022 0.1288917011053414 0 0.35985245571789548 0.13256521397634091 0 0.33956800136883641 0.14149862746365649 0 0.36683777304884752 0.14518289586033359 0 0.35985245571789548 0.13256521397634091 0 0.36683777304884752 0.14518289586033359 0 0.37024230120578611 0.13336796185197819 0 0.3828943795393005 0.1298338505994551 0 0.36683777304884752 0.14518289586033359 0 0.35985245571789548 0.13256521397634091 0 0.37024230120578611 0.13336796185197819 0 0.35985245571789548 0.13256521397634091 0 0.37024230120578611 0.13336796185197819 0 0.37169283910029199 0.12815165521797289 0 0.37024230120578611 0.13336796185197819 0 0.37169283910029199 0.12815165521797289 0 0.3828943795393005 0.1298338505994551 0 0.37035748409374952 0.12191913965183331 0 0.35985245571789548 0.13256521397634091 0 0.37169283910029199 0.12815165521797289 0 0.37169283910029199 0.12815165521797289 0 0.3828943795393005 0.1298338505994551 0 0.37511757494472903 0.123072110010257 0 0.3828943795393005 0.1298338505994551 0 0.39816792615439378 0.12760480203569169 0 0.39443703245191569 0.14316330482662179 0 0.39816792615439378 0.12760480203569169 0 0.39443703245191569 0.14316330482662179 0 0.40813897635800228 0.13879757292358971 0 0.40355831469332321 0.14905262061052801 0 0.39443703245191569 0.14316330482662179 0 0.39831584160420508 0.1589856433255693 0 0.39443703245191569 0.14316330482662179 0 0.38328418214017468 0.15581326888627101 0 0.39831584160420508 0.1589856433255693 0 0.40355831469332321 0.14905262061052801 0 0.39831584160420508 0.1589856433255693 0 0.41313230378900101 0.1549252007201132 0 0.40355831469332321 0.14905262061052801 0 0.39443703245191569 0.14316330482662179 0 0.40813897635800228 0.13879757292358971 0 0.3828943795393005 0.1298338505994551 0 0.39443703245191569 0.14316330482662179 0 0.38328418214017468 0.15581326888627101 0 0.36683777304884752 0.14518289586033359 0 0.3828943795393005 0.1298338505994551 0 0.38328418214017468 0.15581326888627101 0 0.3828943795393005 0.1298338505994551 0 0.38328418214017468 0.15581326888627101 0 0.38328418214017468 0.15581326888627101 0 0.38367398474104891 0.18179268717308689 0 0.37486327834919952 0.17324080595030389 0 0.38328418214017468 0.15581326888627101 0 0.38367398474104891 0.18179268717308689 0 0.38328418214017468 0.15581326888627101 0 0.38367398474104891 0.18179268717308689 0 0.39626047774709761 0.17356948839180519 0 0.37486327834919952 0.17324080595030389 0 0.36699199379966768 0.18628457072029089 0 0.38367398474104891 0.18179268717308689 0 0.38367398474104891 0.18179268717308689 0 0.39626047774709761 0.17356948839180519 0 0.39402839101454218 0.18926537882500041 0 0.41201559310989622 0.1717711692121752 0 0.39402839101454218 0.18926537882500041 0 0.40911253846621609 0.1927355572029634 0 0.41201559310989622 0.1717711692121752 0 0.39402839101454218 0.18926537882500041 0 0.39626047774709761 0.17356948839180519 0 0.41201559310989622 0.1717711692121752 0 0.39402839101454218 0.18926537882500041 0 0.38328418214017468 0.15581326888627101 0 0.39626047774709761 0.17356948839180519 0 0.39831584160420508 0.1589856433255693 0 0.39626047774709761 0.17356948839180519 0 0.39831584160420508 0.1589856433255693 0 0.41201559310989622 0.1717711692121752 0 0.39831584160420508 0.1589856433255693 0 0.41201559310989622 0.1717711692121752 0 0.41313230378900101 0.1549252007201132 0 0.41201559310989622 0.1717711692121752 0 0.43000279520525009 0.1542769595993502 0 0.41201559310989622 0.1717711692121752 0 0.43000279520525009 0.1542769595993502 0 0.41313230378900101 0.1549252007201132 0 0.41201559310989622 0.1717711692121752 0 0.42496471626184562 0.18478050847474101 0 0.40911253846621609 0.1927355572029634 0 0.42496471626184562 0.18478050847474101 0 0.42886790669691233 0.1683305758749721 0 0.44390934378202151 0.1869955505783234 0 0.41201559310989622 0.1717711692121752 0 0.42496471626184562 0.18478050847474101 0 0.42886790669691233 0.1683305758749721 0 0.42886790669691233 0.1683305758749721 0 0.44390934378202151 0.1869955505783234 0 0.41201559310989622 0.1717711692121752 0 0.42886790669691233 0.1683305758749721 0 0.43000279520525009 0.1542769595993502 0 0.42886790669691233 0.1683305758749721 0 0.43000279520525009 0.1542769595993502 0 0.44221599041969212 0.16183818438693329 0 0.43000279520525009 0.1542769595993502 0 0.42332430940078591 0.1392784445062823 0 0.4479899973006039 0.1367827499865252 0 0.43000279520525009 0.1542769595993502 0 0.42332430940078591 0.1392784445062823 0 0.41313230378900101 0.1549252007201132 0 0.429848517254516 0.1255917524949702 0 0.42332430940078591 0.1392784445062823 0 0.41384889774502859 0.12525543762671809 0 0.429848517254516 0.1255917524949702 0 0.42332430940078591 0.1392784445062823 0 0.4479899973006039 0.1367827499865252 0 0.39816792615439378 0.12760480203569169 0 0.41384889774502859 0.12525543762671809 0 0.40813897635800228 0.13879757292358971 0 0.42332430940078591 0.1392784445062823 0 0.41384889774502859 0.12525543762671809 0 0.40813897635800228 0.13879757292358971 0 0.40355831469332321 0.14905262061052801 0 0.40813897635800228 0.13879757292358971 0 0.41313230378900101 0.1549252007201132 0 0.42332430940078591 0.1392784445062823 0 0.40813897635800228 0.13879757292358971 0 0.41313230378900101 0.1549252007201132 0 0.38511047713535562 0.2623718011005241 0 0.37293454716760283 0.2396311516560117 0 0.39933451681408499 0.24222051247515669 0 0.37293454716760283 0.2396311516560117 0 0.39933451681408499 0.24222051247515669 0 0.39045396999845727 0.2225958518425987 0 0.37280151553833601 0.22024831863616021 0 0.37293454716760283 0.2396311516560117 0 0.39045396999845727 0.2225958518425987 0 0.39933451681408499 0.24222051247515669 0 0.39045396999845727 0.2225958518425987 0 0.41502085935247712 0.2184770015477572 0 0.39045396999845727 0.2225958518425987 0 0.39965272480706299 0.2061417744041574 0 0.38406378734192298 0.20777210545990279 0 0.39045396999845727 0.2225958518425987 0 0.39965272480706299 0.2061417744041574 0 0.41502085935247712 0.2184770015477572 0 0.37280151553833601 0.22024831863616021 0 0.39045396999845727 0.2225958518425987 0 0.38406378734192298 0.20777210545990279 0 0.36735815001373812 0.20351917688449569 0 0.38367398474104891 0.18179268717308689 0 0.38406378734192298 0.20777210545990279 0 0.38367398474104891 0.18179268717308689 0 0.38406378734192298 0.20777210545990279 0 0.38367398474104891 0.18179268717308689 0 0.38406378734192298 0.20777210545990279 0 0.39402839101454218 0.18926537882500041 0 0.39965272480706299 0.2061417744041574 0 0.38406378734192298 0.20777210545990279 0 0.39402839101454218 0.18926537882500041 0 0.39965272480706299 0.2061417744041574 0 0.39402839101454218 0.18926537882500041 0 0.40911253846621609 0.1927355572029634 0 0.42496471626184562 0.18478050847474101 0 0.40911253846621609 0.1927355572029634 0 0.43133039545531981 0.20312972213906441 0 0.42496471626184562 0.18478050847474101 0 0.43133039545531981 0.20312972213906441 0 0.44390934378202151 0.1869955505783234 0 0.43133039545531981 0.20312972213906441 0 0.41502085935247712 0.2184770015477572 0 0.43839838412078092 0.2247149777195776 0 0.40911253846621609 0.1927355572029634 0 0.41502085935247712 0.2184770015477572 0 0.40911253846621609 0.1927355572029634 0 0.43133039545531981 0.20312972213906441 0 0.41502085935247712 0.2184770015477572 0 0.39965272480706299 0.2061417744041574 0 0.40911253846621609 0.1927355572029634 0 0.41502085935247712 0.2184770015477572 0 0.41502085935247712 0.2184770015477572 0 0.42092918023873821 0.24421844589255121 0 0.41502085935247712 0.2184770015477572 0 0.42092918023873821 0.24421844589255121 0 0.43839838412078092 0.2247149777195776 0 0.42092918023873821 0.24421844589255121 0 0.44272868649399699 0.2414724783298311 0 0.43839838412078092 0.2247149777195776 0 0.44089414042045799 0.25771217685885472 0 0.42092918023873821 0.24421844589255121 0 0.44272868649399699 0.2414724783298311 0 0.39933451681408499 0.24222051247515669 0 0.41502085935247712 0.2184770015477572 0 0.42092918023873821 0.24421844589255121 0 0.46750550623703407 0.25349570762290419 0 0.4569230610569987 0.24819013429900669 0 0.47278153852907701 0.24486280325581439 0 0.4569230610569987 0.24819013429900669 0 0.45723446189795819 0.23161380727854039 0 0.47278153852907701 0.24486280325581439 0 0.4569230610569987 0.24819013429900669 0 0.44272868649399699 0.2414724783298311 0 0.45723446189795819 0.23161380727854039 0 0.44089414042045799 0.25771217685885472 0 0.4569230610569987 0.24819013429900669 0 0.44272868649399699 0.2414724783298311 0 0.43839838412078092 0.2247149777195776 0 0.45723446189795819 0.23161380727854039 0 0.45895078086713059 0.20566052528167461 0 0.44272868649399699 0.2414724783298311 0 0.43839838412078092 0.2247149777195776 0 0.45723446189795819 0.23161380727854039 0 0.45723446189795819 0.23161380727854039 0 0.47399221795223978 0.22432549998502579 0 0.47278153852907701 0.24486280325581439 0 0.45723446189795819 0.23161380727854039 0 0.45895078086713059 0.20566052528167461 0 0.47399221795223978 0.22432549998502579 0 0.45895078086713059 0.20566052528167461 0 0.47399221795223978 0.22432549998502579 0 0.43133039545531981 0.20312972213906441 0 0.43839838412078092 0.2247149777195776 0 0.45895078086713059 0.20566052528167461 0 0.43133039545531981 0.20312972213906441 0 0.45895078086713059 0.20566052528167461 0 0.44390934378202151 0.1869955505783234 0 0.45895078086713059 0.20566052528167461 0 0.44390934378202151 0.1869955505783234 0 0.45895078086713059 0.20566052528167461 0 0.44390934378202151 0.1869955505783234 0 0.47471792995388828 0.18435875067661631 0 0.45895078086713059 0.20566052528167461 0 0.47967819324703809 0.2043502093285503 0 0.47471792995388828 0.18435875067661631 0 0.5 0.20006456793442701 0 0.47967819324703809 0.2043502093285503 0 0.47471792995388828 0.18435875067661631 0 0.5 0.20006456793442701 0 0.48813206750880261 0.21755351138133391 0 0.47967819324703809 0.2043502093285503 0 0.5 0.20006456793442701 0 0.48813206750880261 0.21755351138133391 0 0.5 0.22779789293978581 0 0.45895078086713059 0.20566052528167461 0 0.47967819324703809 0.2043502093285503 0 0.47399221795223978 0.22432549998502579 0 0.48813206750880261 0.21755351138133391 0 0.47967819324703809 0.2043502093285503 0 0.47399221795223978 0.22432549998502579 0 0.48813206750880261 0.21755351138133391 0 0.47399221795223978 0.22432549998502579 0 0.48903365503734891 0.24299047468837701 0 0.47399221795223978 0.22432549998502579 0 0.48903365503734891 0.24299047468837701 0 0.48813206750880261 0.21755351138133391 0 0.5 0.22779789293978581 0 0.48903365503734891 0.24299047468837701 0 0.5 0.25553121794514477 0 0.5 0.22779789293978581 0 0.48903365503734891 0.24299047468837701 0 0.48489893488970792 0.25686202981026901 0 0.48903365503734891 0.24299047468837701 0 0.47278153852907701 0.24486280325581439 0 0.47399221795223978 0.22432549998502579 0 0.48903365503734891 0.24299047468837701 0 0.47278153852907701 0.24486280325581439 0 0.4479899973006039 0.1367827499865252 0 0.46030990911367259 0.16280508589549539 0 0.47332178232586258 0.14483424446409521 0 0.4479899973006039 0.1367827499865252 0 0.47332178232586258 0.14483424446409521 0 0.46597719939595772 0.11928854037370019 0 0.4479899973006039 0.1367827499865252 0 0.46597719939595772 0.11928854037370019 0 0.429848517254516 0.1255917524949702 0 0.4479899973006039 0.1367827499865252 0 0.44441253831551758 0.1138689947079024 0 0.43000279520525009 0.1542769595993502 0 0.4479899973006039 0.1367827499865252 0 0.44221599041969212 0.16183818438693329 0 0.43000279520525009 0.1542769595993502 0 0.4479899973006039 0.1367827499865252 0 0.4479899973006039 0.1367827499865252 0 0.44221599041969212 0.16183818438693329 0 0.46030990911367259 0.16280508589549539 0 0.44221599041969212 0.16183818438693329 0 0.44390934378202151 0.1869955505783234 0 0.46030990911367259 0.16280508589549539 0 0.42886790669691233 0.1683305758749721 0 0.44221599041969212 0.16183818438693329 0 0.44390934378202151 0.1869955505783234 0 0.44390934378202151 0.1869955505783234 0 0.46030990911367259 0.16280508589549539 0 0.47471792995388828 0.18435875067661631 0 0.46030990911367259 0.16280508589549539 0 0.48162298028441808 0.16304382698580119 0 0.47332178232586258 0.14483424446409521 0 0.46030990911367259 0.16280508589549539 0 0.48162298028441808 0.16304382698580119 0 0.47471792995388828 0.18435875067661631 0 0.5 0.20006456793442701 0 0.47471792995388828 0.18435875067661631 0 0.5 0.17233124292906801 0 0.48162298028441808 0.16304382698580119 0 0.47471792995388828 0.18435875067661631 0 0.5 0.17233124292906801 0 0.48162298028441808 0.16304382698580119 0 0.5 0.17233124292906801 0 0.5 0.14459791792370899 0 0.48162298028441808 0.16304382698580119 0 0.5 0.14459791792370899 0 0.47332178232586258 0.14483424446409521 0 0.47332178232586258 0.14483424446409521 0 0.48369720064842647 0.1280225697211729 0 0.46597719939595772 0.11928854037370019 0 0.5 0.14459791792370899 0 0.48369720064842647 0.1280225697211729 0 0.5 0.1168645929183502 0 0.5 0.14459791792370899 0 0.47332178232586258 0.14483424446409521 0 0.48369720064842647 0.1280225697211729 0 0.48369720064842647 0.1280225697211729 0 0.5 0.1168645929183502 0 0.47911227232856668 0.09907818001940101 0 0.5 0.1168645929183502 0 0.47911227232856668 0.09907818001940101 0 0.5 0.089131267912991197 0 0.48369720064842647 0.1280225697211729 0 0.47911227232856668 0.09907818001940101 0 0.46597719939595772 0.11928854037370019 0 0.48592231416185638 0.0752646054103117 0 0.5 0.089131267912991197 0 0.5 0.06139794290763223 0 0.47911227232856668 0.09907818001940101 0 0.48592231416185638 0.0752646054103117 0 0.5 0.089131267912991197 0 0.47911227232856668 0.09907818001940101 0 0.48592231416185638 0.0752646054103117 0 0.46599422920766509 0.071585542922595516 0 0.48592231416185638 0.0752646054103117 0 0.46599422920766509 0.071585542922595516 0 0.47969083044660421 0.050503904472553283 0 0.47911227232856668 0.09907818001940101 0 0.46599422920766509 0.071585542922595516 0 0.45660210543223351 0.096238293732025512 0 0.46599422920766509 0.071585542922595516 0 0.44319262383460789 0.070531660330671375 0 0.45660210543223351 0.096238293732025512 0 0.44319262383460789 0.070531660330671375 0 0.45660210543223351 0.096238293732025512 0 0.43559540491542181 0.095634413362833848 0 0.46597719939595772 0.11928854037370019 0 0.45660210543223351 0.096238293732025512 0 0.44441253831551758 0.1138689947079024 0 0.47911227232856668 0.09907818001940101 0 0.46597719939595772 0.11928854037370019 0 0.45660210543223351 0.096238293732025512 0 0.45660210543223351 0.096238293732025512 0 0.44441253831551758 0.1138689947079024 0 0.43559540491542181 0.095634413362833848 0 0.4479899973006039 0.1367827499865252 0 0.46597719939595772 0.11928854037370019 0 0.44441253831551758 0.1138689947079024 0 0.429848517254516 0.1255917524949702 0 0.44441253831551758 0.1138689947079024 0 0.42416274095453271 0.1101558860989641 0 0.429848517254516 0.1255917524949702 0 0.41384889774502859 0.12525543762671809 0 0.42416274095453271 0.1101558860989641 0 0.41384889774502859 0.12525543762671809 0 0.42416274095453271 0.1101558860989641 0 0.40716605829359193 0.1120264799895512 0 0.39816792615439378 0.12760480203569169 0 0.41384889774502859 0.12525543762671809 0 0.40716605829359193 0.1120264799895512 0 0.40716605829359193 0.1120264799895512 0 0.41525133388600899 0.093407911538609431 0 0.39656535672550852 0.092974877928873267 0 0.42416274095453271 0.1101558860989641 0 0.40716605829359193 0.1120264799895512 0 0.41525133388600899 0.093407911538609431 0 0.42416274095453271 0.1101558860989641 0 0.43559540491542181 0.095634413362833848 0 0.41525133388600899 0.093407911538609431 0 0.44441253831551758 0.1138689947079024 0 0.42416274095453271 0.1101558860989641 0 0.43559540491542181 0.095634413362833848 0 0.43559540491542181 0.095634413362833848 0 0.4195547633014628 0.073570994746074828 0 0.41525133388600899 0.093407911538609431 0 0.43559540491542181 0.095634413362833848 0 0.4195547633014628 0.073570994746074828 0 0.44319262383460789 0.070531660330671375 0 0.43559540491542181 0.095634413362833848 0 0.4195547633014628 0.073570994746074828 0 0.44319262383460789 0.070531660330671375 0 0.4195547633014628 0.073570994746074828 0 0.42728191937221521 0.050914286525162993 0 0.4195547633014628 0.073570994746074828 0 0.39780951386322527 0.071813900777571313 0 0.40351412168750378 0.051507576129315842 0 0.4195547633014628 0.073570994746074828 0 0.40351412168750378 0.051507576129315842 0 0.4195547633014628 0.073570994746074828 0 0.41525133388600899 0.093407911538609431 0 0.39780951386322527 0.071813900777571313 0 0.41525133388600899 0.093407911538609431 0 0.39656535672550852 0.092974877928873267 0 0.39780951386322527 0.071813900777571313 0 0.37400882161871279 0.083619613235024759 0 0.37883567044039879 0.062600723425798879 0 0.39780951386322527 0.071813900777571313 0 0.37883567044039879 0.062600723425798879 0 0.3909554563133032 0.056876008487314757 0 0.37400882161871279 0.083619613235024759 0 0.39780951386322527 0.071813900777571313 0 0.37883567044039879 0.062600723425798879 0 0.37400882161871279 0.083619613235024759 0 0.39656535672550852 0.092974877928873267 0 0.38808178026068268 0.10392801007035141 0 0.37400882161871279 0.083619613235024759 0 0.39656535672550852 0.092974877928873267 0 0.39780951386322527 0.071813900777571313 0 0.37455144446510141 0.10193275935197101 0 0.37400882161871279 0.083619613235024759 0 0.38808178026068268 0.10392801007035141 0 0.37455144446510141 0.10193275935197101 0 0.38808178026068268 0.10392801007035141 0 0.37815432920295677 0.1109533992790251 0 0.37035748409374952 0.12191913965183331 0 0.38876177119367089 0.116972809820693 0 0.37035748409374952 0.12191913965183331 0 0.37511757494472903 0.123072110010257 0 0.38876177119367089 0.116972809820693 0 0.37035748409374952 0.12191913965183331 0 0.37815432920295677 0.1109533992790251 0 0.38876177119367089 0.116972809820693 0 0.3828943795393005 0.1298338505994551 0 0.37511757494472903 0.123072110010257 0 0.38876177119367089 0.116972809820693 0 0.3828943795393005 0.1298338505994551 0 0.39816792615439378 0.12760480203569169 0 0.38876177119367089 0.116972809820693 0 0.38808178026068268 0.10392801007035141 0 0.37815432920295677 0.1109533992790251 0 0.38876177119367089 0.116972809820693 0 0.40716605829359193 0.1120264799895512 0 0.38876177119367089 0.116972809820693 0 0.39816792615439378 0.12760480203569169 0 0.40716605829359193 0.1120264799895512 0 0.38876177119367089 0.116972809820693 0 0.40716605829359193 0.1120264799895512 0 0.38808178026068268 0.10392801007035141 0 0.38876177119367089 0.116972809820693 0 0.40716605829359193 0.1120264799895512 0 0.39656535672550852 0.092974877928873267 0 0.38808178026068268 0.10392801007035141 0 0.39895333728429933 0.027539300906755181 0 0.38848936808377088 0.020562943807347231 0 0.4122691541308795 0.010257189796790951 0 0.39895333728429933 0.027539300906755181 0 0.38848936808377088 0.020562943807347231 0 0.38747348007354487 0.029444157512556919 0 0.39212595536292472 0.0047271407553128551 0 0.4122691541308795 0.010257189796790951 0 0.40542454288086849 -0.004070234290400764 0 0.38848936808377088 0.020562943807347231 0 0.4122691541308795 0.010257189796790951 0 0.39212595536292472 0.0047271407553128551 0 0.38848936808377088 0.020562943807347231 0 0.4122691541308795 0.010257189796790951 0 0.39212595536292472 0.0047271407553128551 0 0.38120377069012762 0.010554394007073271 0 0.36845156083710567 -0.0060515153414843056 0 0.36934971840039982 0.01412264887454192 0 0.38120377069012762 0.010554394007073271 0 0.38848936808377088 0.020562943807347231 0 0.39212595536292472 0.0047271407553128551 0 0.38120377069012762 0.010554394007073271 0 0.38848936808377088 0.020562943807347231 0 0.39212595536292472 0.0047271407553128551 0 0.38848936808377088 0.020562943807347231 0 0.38848936808377088 0.020562943807347231 0 0.38747348007354487 0.029444157512556919 0 0.38366251926208489 0.041581833616573027 0 0.38848936808377088 0.020562943807347231 0 0.38366251926208489 0.041581833616573027 0 0.36096242836060388 0.032492650360987897 0 0.38848936808377088 0.020562943807347231 0 0.38366251926208489 0.041581833616573027 0 0.37883567044039879 0.062600723425798879 0 0.38366251926208489 0.041581833616573027 0 0.3909554563133032 0.056876008487314757 0 0.37883567044039879 0.062600723425798879 0 0.38366251926208489 0.041581833616573027 0 0.36884998715724038 0.048654936693666287 0 0.37883567044039879 0.062600723425798879 0 0.38366251926208489 0.041581833616573027 0 0.38366251926208489 0.041581833616573027 0 0.40351412168750378 0.051507576129315842 0 0.3909554563133032 0.056876008487314757 0 0.39780951386322527 0.071813900777571313 0 0.40351412168750378 0.051507576129315842 0 0.3909554563133032 0.056876008487314757 0 0.38747348007354487 0.029444157512556919 0 0.40351412168750378 0.051507576129315842 0 0.39895333728429933 0.027539300906755181 0 0.40351412168750378 0.051507576129315842 0 0.40867742594100492 0.02913313449165824 0 0.39895333728429933 0.027539300906755181 0 0.38747348007354487 0.029444157512556919 0 0.40351412168750378 0.051507576129315842 0 0.38747348007354487 0.029444157512556919 0 0.38366251926208489 0.041581833616573027 0 0.40351412168750378 0.051507576129315842 0 0.40351412168750378 0.051507576129315842 0 0.41712069737947322 0.039684074088297272 0 0.40867742594100492 0.02913313449165824 0 0.41712069737947322 0.039684074088297272 0 0.42900932251716922 0.027181299207052031 0 0.40867742594100492 0.02913313449165824 0 0.40351412168750378 0.051507576129315842 0 0.41712069737947322 0.039684074088297272 0 0.42728191937221521 0.050914286525162993 0 0.4195547633014628 0.073570994746074828 0 0.40351412168750378 0.051507576129315842 0 0.42728191937221521 0.050914286525162993 0 0.41712069737947322 0.039684074088297272 0 0.42728191937221521 0.050914286525162993 0 0.42900932251716922 0.027181299207052031 0 0.42728191937221521 0.050914286525162993 0 0.42900932251716922 0.027181299207052031 0 0.45357816737839107 0.043281393992262968 0 0.42900932251716922 0.027181299207052031 0 0.40867742594100492 0.02913313449165824 0 0.4122691541308795 0.010257189796790951 0 0.39895333728429933 0.027539300906755181 0 0.40867742594100492 0.02913313449165824 0 0.4122691541308795 0.010257189796790951 0 0.4122691541308795 0.010257189796790951 0 0.42733427856619571 -0.0085863840744332814 0 0.43604894017798812 -4.8564213765240817e-05 0 0.42900932251716922 0.027181299207052031 0 0.4122691541308795 0.010257189796790951 0 0.43604894017798812 -4.8564213765240817e-05 0 0.4122691541308795 0.010257189796790951 0 0.43604894017798812 -4.8564213765240817e-05 0 0.45021491583924189 0.016350560368503721 0 0.45982872622509668 -0.01035431822432146 0 0.43604894017798812 -4.8564213765240817e-05 0 0.42900932251716922 0.027181299207052031 0 0.45021491583924189 0.016350560368503721 0 0.43604894017798812 -4.8564213765240817e-05 0 0.42900932251716922 0.027181299207052031 0 0.45021491583924189 0.016350560368503721 0 0.45357816737839107 0.043281393992262968 0 0.45021491583924189 0.016350560368503721 0 0.45357816737839107 0.043281393992262968 0 0.47265027193171238 0.017829323700243871 0 0.45021491583924189 0.016350560368503721 0 0.47265027193171238 0.017829323700243871 0 0.45982872622509668 -0.01035431822432146 0 0.45357816737839107 0.043281393992262968 0 0.47969083044660421 0.050503904472553283 0 0.47265027193171238 0.017829323700243871 0 0.44319262383460789 0.070531660330671375 0 0.42728191937221521 0.050914286525162993 0 0.45357816737839107 0.043281393992262968 0 0.46599422920766509 0.071585542922595516 0 0.44319262383460789 0.070531660330671375 0 0.45357816737839107 0.043281393992262968 0 0.46599422920766509 0.071585542922595516 0 0.45357816737839107 0.043281393992262968 0 0.47969083044660421 0.050503904472553283 0 0.47969083044660421 0.050503904472553283 0 0.5 0.033664617902273368 0 0.47265027193171238 0.017829323700243871 0 0.48592231416185638 0.0752646054103117 0 0.47969083044660421 0.050503904472553283 0 0.5 0.06139794290763223 0 0.47969083044660421 0.050503904472553283 0 0.5 0.033664617902273368 0 0.5 0.06139794290763223 0 0.5 0.033664617902273368 0 0.47265027193171238 0.017829323700243871 0 0.5 0.0059312928969145204 0 0.47265027193171238 0.017829323700243871 0 0.5 0.0059312928969145204 0 0.48261795830076532 -0.0084137270416950408 0 0.5 0.0059312928969145204 0 0.48261795830076532 -0.0084137270416950408 0 0.5 -0.021802032108444391 0 0.47265027193171238 0.017829323700243871 0 0.48261795830076532 -0.0084137270416950408 0 0.45982872622509668 -0.01035431822432146 0 0.48261795830076532 -0.0084137270416950408 0 0.48385521188952352 -0.03103713942335571 0 0.45982872622509668 -0.01035431822432146 0 0.48385521188952352 -0.03103713942335571 0 0.46768790053651399 -0.040232759786602873 0 0.45982872622509668 -0.01035431822432146 0 0.48261795830076532 -0.0084137270416950408 0 0.48385521188952352 -0.03103713942335571 0 0.5 -0.021802032108444391 0 0.48385521188952352 -0.03103713942335571 0 0.49518245524492172 -0.045789595090724652 0 0.49482530481253351 -0.04804557135493729 0 0.5 -0.021802032108444391 0 0.49518245524492172 -0.045789595090724652 0 0.49999999999998263 -0.049535357113803247 0 0.48385521188952352 -0.03103713942335571 0 0.5 -0.021802032108444391 0 0.49518245524492172 -0.045789595090724652 0 0.49482530481253351 -0.04804557135493729 0 0.47636674367150789 -0.060588545727567042 0 0.49016972248203172 -0.07745302065780417 0 0.49999999999998263 -0.049535357113803247 0 0.49482530481253351 -0.04804557135493729 0 0.49016972248203172 -0.07745302065780417 0 0.49999999999998263 -0.049535357113803247 0 0.49482530481253351 -0.04804557135493729 0 0.49518245524492172 -0.045789595090724652 0 0.49999999999998263 -0.049535357113803247 0 0.49482530481253351 -0.04804557135493729 0 0.49518245524492172 -0.045789595090724652 0 0.49482530481253351 -0.04804557135493729 0 0.49482530481253351 -0.04804557135493729 0 0.47636674367150789 -0.060588545727567042 0 0.46768790053651399 -0.040232759786602873 0 0.49482530481253351 -0.04804557135493729 0 0.46768790053651399 -0.040232759786602873 0 0.48385521188952352 -0.03103713942335571 0 0.49482530481253351 -0.04804557135493729 0 0.46768790053651399 -0.040232759786602873 0 0.46768790053651399 -0.040232759786602873 0 0.44055049626049481 -0.03241994821826754 0 0.47636674367150789 -0.060588545727567042 0 0.46768790053651399 -0.040232759786602873 0 0.44971823816913109 -0.058611894661768998 0 0.46768790053651399 -0.040232759786602873 0 0.44971823816913109 -0.058611894661768998 0 0.44055049626049481 -0.03241994821826754 0 0.44971823816913109 -0.058611894661768998 0 0.44055049626049481 -0.03241994821826754 0 0.42776585910878662 -0.047462582859365887 0 0.44055049626049481 -0.03241994821826754 0 0.43862233638968018 -0.01433991032473066 0 0.45982872622509668 -0.01035431822432146 0 0.45982872622509668 -0.01035431822432146 0 0.43604894017798812 -4.8564213765240817e-05 0 0.43862233638968018 -0.01433991032473066 0 0.45982872622509668 -0.01035431822432146 0 0.43604894017798812 -4.8564213765240817e-05 0 0.46768790053651399 -0.040232759786602873 0 0.44055049626049481 -0.03241994821826754 0 0.45982872622509668 -0.01035431822432146 0 0.47499259514944292 -0.1202547269832886 0 0.48551414015152222 -0.10686046996066979 0 0.48085855782101261 -0.13626791926353529 0 0.47418157221881441 -0.11112465676427991 0 0.47528951870947961 -0.09927779745641295 0 0.46093003486481321 -0.11810563265674839 0 0.48551414015152222 -0.10686046996066979 0 0.48085855782101261 -0.13626791926353529 0 0.47499259514944292 -0.1202547269832886 0 0.46093003486481321 -0.11810563265674839 0 0.47239045088042492 -0.13005034139104371 0 0.47499259514944292 -0.1202547269832886 0 0.47418157221881441 -0.11112465676427991 0 0.46093003486481321 -0.11810563265674839 0 0.47499259514944292 -0.1202547269832886 0 0.47418157221881441 -0.11112465676427991 0 0.48551414015152222 -0.10686046996066979 0 0.48986304781109291 -0.1242692167884092 0 0.49384429699065369 -0.1173080088948287 0 0.48551414015152222 -0.10686046996066979 0 0.48986304781109291 -0.1242692167884092 0 0.48551414015152222 -0.10686046996066979 0 0.48085855782101261 -0.13626791926353529 0 0.49384429699065369 -0.1173080088948287 0 0.5 -0.1051480109548549 0 0.5 -0.13295433787538069 0 0.48986304781109291 -0.1242692167884092 0 0.49384429699065369 -0.1173080088948287 0 0.5 -0.13295433787538069 0 0.49384429699065369 -0.1173080088948287 0 0.48551414015152222 -0.10686046996066979 0 0.5 -0.1051480109548549 0 0.48551414015152222 -0.10686046996066979 0 0.5 -0.1051480109548549 0 0.49016972248203172 -0.07745302065780417 0 0.48551414015152222 -0.10686046996066979 0 0.47528951870947961 -0.09927779745641295 0 0.4786949329242487 -0.090297096352784045 0 0.47418157221881441 -0.11112465676427991 0 0.48551414015152222 -0.10686046996066979 0 0.47528951870947961 -0.09927779745641295 0 0.47494193394216588 -0.078729965701305249 0 0.4786949329242487 -0.090297096352784045 0 0.46755934933604398 -0.089164227987728051 0 0.47528951870947961 -0.09927779745641295 0 0.4786949329242487 -0.090297096352784045 0 0.46755934933604398 -0.089164227987728051 0 0.47494193394216588 -0.078729965701305249 0 0.4786949329242487 -0.090297096352784045 0 0.49016972248203172 -0.07745302065780417 0 0.48551414015152222 -0.10686046996066979 0 0.49016972248203172 -0.07745302065780417 0 0.5 -0.1051480109548549 0 0.49016972248203172 -0.07745302065780417 0 0.5 -0.077341684034329061 0 0.48551414015152222 -0.10686046996066979 0 0.4786949329242487 -0.090297096352784045 0 0.49016972248203172 -0.07745302065780417 0 0.49999999999998263 -0.049535357113803247 0 0.49016972248203172 -0.07745302065780417 0 0.5 -0.077341684034329061 0 0.49482530481253351 -0.04804557135493729 0 0.49016972248203172 -0.07745302065780417 0 0.47636674367150789 -0.060588545727567042 0 0.47494193394216588 -0.078729965701305249 0 0.49016972248203172 -0.07745302065780417 0 0.47636674367150789 -0.060588545727567042 0 0.47494193394216588 -0.078729965701305249 0 0.4592808493329405 -0.078369632624057675 0 0.47636674367150789 -0.060588545727567042 0 0.44971823816913109 -0.058611894661768998 0 0.4592808493329405 -0.078369632624057675 0 0.47636674367150789 -0.060588545727567042 0 0.4592808493329405 -0.078369632624057675 0 0.44971823816913109 -0.058611894661768998 0 0.44126951216661869 -0.079236189142810429 0 0.42731029070553322 -0.068277018127587574 0 0.44971823816913109 -0.058611894661768998 0 0.44126951216661869 -0.079236189142810429 0 0.4592808493329405 -0.078369632624057675 0 0.4592808493329405 -0.078369632624057675 0 0.44219495499437311 -0.096150719520548239 0 0.44126951216661869 -0.079236189142810429 0 0.4592808493329405 -0.078369632624057675 0 0.44219495499437311 -0.096150719520548239 0 0.47494193394216588 -0.078729965701305249 0 0.4592808493329405 -0.078369632624057675 0 0.46755934933604398 -0.089164227987728051 0 0.4592808493329405 -0.078369632624057675 0 0.46755934933604398 -0.089164227987728051 0 0.44219495499437311 -0.096150719520548239 0 0.46755934933604398 -0.089164227987728051 0 0.46093003486481321 -0.11810563265674839 0 0.46755934933604398 -0.089164227987728051 0 0.44219495499437311 -0.096150719520548239 0 0.46093003486481321 -0.11810563265674839 0 0.47528951870947961 -0.09927779745641295 0 0.46755934933604398 -0.089164227987728051 0 0.46093003486481321 -0.11810563265674839 0 0.441730170532879 -0.1159420230490274 0 0.46093003486481321 -0.11810563265674839 0 0.44582693855797939 -0.1311402400572215 0 0.44219495499437311 -0.096150719520548239 0 0.441730170532879 -0.1159420230490274 0 0.46093003486481321 -0.11810563265674839 0 0.42510906065580589 -0.11393180641703871 0 0.40802316631723889 -0.13171289331352951 0 0.40725115801851319 -0.1169919833964142 0 0.42510906065580589 -0.11393180641703871 0 0.40802316631723889 -0.13171289331352951 0 0.40725115801851319 -0.1169919833964142 0 0.42510906065580589 -0.11393180641703871 0 0.4147200547274239 -0.1079547067436207 0 0.40725115801851319 -0.1169919833964142 0 0.4147200547274239 -0.1079547067436207 0 0.40692444267373179 -0.1088204768843429 0 0.441730170532879 -0.1159420230490274 0 0.42510906065580589 -0.11393180641703871 0 0.43087782981676859 -0.131879285754128 0 0.44219495499437311 -0.096150719520548239 0 0.42510906065580589 -0.11393180641703871 0 0.44219495499437311 -0.096150719520548239 0 0.441730170532879 -0.1159420230490274 0 0.42510906065580589 -0.11393180641703871 0 0.44219495499437311 -0.096150719520548239 0 0.42510906065580589 -0.11393180641703871 0 0.4234909377050316 -0.092737982748798881 0 0.42510906065580589 -0.11393180641703871 0 0.4147200547274239 -0.1079547067436207 0 0.4234909377050316 -0.092737982748798881 0 0.4147200547274239 -0.1079547067436207 0 0.40904120664506322 -0.09935874077938342 0 0.4234909377050316 -0.092737982748798881 0 0.4147200547274239 -0.1079547067436207 0 0.40692444267373179 -0.1088204768843429 0 0.40904120664506322 -0.09935874077938342 0 0.40904120664506322 -0.09935874077938342 0 0.4234909377050316 -0.092737982748798881 0 0.40226126486411301 -0.082186696628613137 0 0.4234909377050316 -0.092737982748798881 0 0.42731029070553322 -0.068277018127587574 0 0.40226126486411301 -0.082186696628613137 0 0.44126951216661869 -0.079236189142810429 0 0.4234909377050316 -0.092737982748798881 0 0.42731029070553322 -0.068277018127587574 0 0.44126951216661869 -0.079236189142810429 0 0.44219495499437311 -0.096150719520548239 0 0.4234909377050316 -0.092737982748798881 0 0.42731029070553322 -0.068277018127587574 0 0.40226126486411301 -0.082186696628613137 0 0.40783717842429862 -0.053396916639273179 0 0.40226126486411301 -0.082186696628613137 0 0.40783717842429862 -0.053396916639273179 0 0.38429333219820472 -0.067131704106828338 0 0.40226126486411301 -0.082186696628613137 0 0.40783717842429862 -0.053396916639273179 0 0.38429333219820472 -0.067131704106828338 0 0.38199460798391838 -0.085246791459625215 0 0.40226126486411301 -0.082186696628613137 0 0.38199460798391838 -0.085246791459625215 0 0.40226126486411301 -0.082186696628613137 0 0.39106825526090561 -0.1007030293946076 0 0.40226126486411301 -0.082186696628613137 0 0.39106825526090561 -0.1007030293946076 0 0.39668535130392929 -0.1109764766179535 0 0.40904120664506322 -0.09935874077938342 0 0.40226126486411301 -0.082186696628613137 0 0.39668535130392929 -0.1109764766179535 0 0.40226126486411301 -0.082186696628613137 0 0.39668535130392929 -0.1109764766179535 0 0.40692444267373179 -0.1088204768843429 0 0.40904120664506322 -0.09935874077938342 0 0.39668535130392929 -0.1109764766179535 0 0.39106825526090561 -0.1007030293946076 0 0.39668535130392929 -0.1109764766179535 0 0.39106825526090561 -0.1007030293946076 0 0.3799934613124491 -0.1141351934829782 0 0.39668535130392929 -0.1109764766179535 0 0.38199460798391838 -0.085246791459625215 0 0.39106825526090561 -0.1007030293946076 0 0.37706007999693841 -0.1011775095245466 0 0.39106825526090561 -0.1007030293946076 0 0.37706007999693841 -0.1011775095245466 0 0.3799934613124491 -0.1141351934829782 0 0.3799934613124491 -0.1141351934829782 0 0.39668535130392929 -0.1109764766179535 0 0.3932705088567644 -0.1286081277708763 0 0.3799934613124491 -0.1141351934829782 0 0.37104303648388809 -0.1272612894930944 0 0.3932705088567644 -0.1286081277708763 0 0.40224748518751269 -0.1211494002184121 0 0.3932705088567644 -0.1286081277708763 0 0.39668535130392929 -0.1109764766179535 0 0.3932705088567644 -0.1286081277708763 0 0.39668535130392929 -0.1109764766179535 0 0.40224748518751269 -0.1211494002184121 0 0.3932705088567644 -0.1286081277708763 0 0.40725115801851319 -0.1169919833964142 0 0.39668535130392929 -0.1109764766179535 0 0.40224748518751269 -0.1211494002184121 0 0.39668535130392929 -0.1109764766179535 0 0.40224748518751269 -0.1211494002184121 0 0.40725115801851319 -0.1169919833964142 0 0.40692444267373179 -0.1088204768843429 0 0.39668535130392929 -0.1109764766179535 0 0.40725115801851319 -0.1169919833964142 0 0.40224748518751269 -0.1211494002184121 0 0.40725115801851319 -0.1169919833964142 0 0.40224748518751269 -0.1211494002184121 0 0.40802316631723889 -0.13171289331352951 0 0.42156842614681772 -0.015954947998216139 0 0.41341309198447568 -0.024607136649931451 0 0.42934924071862562 -0.02029033689286578 0 0.41341309198447568 -0.024607136649931451 0 0.41617709331797431 -0.010335934375633319 0 0.42156842614681772 -0.015954947998216139 0 0.41341309198447568 -0.024607136649931451 0 0.41617709331797431 -0.010335934375633319 0 0.41341309198447568 -0.024607136649931451 0 0.40231254689356027 -0.037392070823486202 0 0.40309603266908228 -0.02802239201193971 0 0.41341309198447568 -0.024607136649931451 0 0.41078796895048542 -0.01389090533175278 0 0.39783226839882679 -0.020121444594939791 0 0.41341309198447568 -0.024607136649931451 0 0.41078796895048542 -0.01389090533175278 0 0.41617709331797431 -0.010335934375633319 0 0.41078796895048542 -0.01389090533175278 0 0.41617709331797431 -0.010335934375633319 0 0.40542454288086849 -0.004070234290400764 0 0.4122691541308795 0.010257189796790951 0 0.41617709331797431 -0.010335934375633319 0 0.40542454288086849 -0.004070234290400764 0 0.4122691541308795 0.010257189796790951 0 0.41617709331797431 -0.010335934375633319 0 0.42733427856619571 -0.0085863840744332814 0 0.42156842614681772 -0.015954947998216139 0 0.41617709331797431 -0.010335934375633319 0 0.42733427856619571 -0.0085863840744332814 0 0.42156842614681772 -0.015954947998216139 0 0.42733427856619571 -0.0085863840744332814 0 0.42934924071862562 -0.02029033689286578 0 0.43862233638968018 -0.01433991032473066 0 0.42733427856619571 -0.0085863840744332814 0 0.43604894017798812 -4.8564213765240817e-05 0 0.43862233638968018 -0.01433991032473066 0 0.42733427856619571 -0.0085863840744332814 0 0.42934924071862562 -0.02029033689286578 0 0.44055049626049481 -0.03241994821826754 0 0.43862233638968018 -0.01433991032473066 0 0.42934924071862562 -0.02029033689286578 0 0.44055049626049481 -0.03241994821826754 0 0.41341309198447568 -0.024607136649931451 0 0.42934924071862562 -0.02029033689286578 0 0.44055049626049481 -0.03241994821826754 0 0.41341309198447568 -0.024607136649931451 0 0.44055049626049481 -0.03241994821826754 0 0.41341309198447568 -0.024607136649931451 0 0.42776585910878662 -0.047462582859365887 0 0.44971823816913109 -0.058611894661768998 0 0.42731029070553322 -0.068277018127587574 0 0.42776585910878662 -0.047462582859365887 0 0.42731029070553322 -0.068277018127587574 0 0.42776585910878662 -0.047462582859365887 0 0.40783717842429862 -0.053396916639273179 0 0.41341309198447568 -0.024607136649931451 0 0.42776585910878662 -0.047462582859365887 0 0.40783717842429862 -0.053396916639273179 0 0.41341309198447568 -0.024607136649931451 0 0.40783717842429862 -0.053396916639273179 0 0.40231254689356027 -0.037392070823486202 0 0.41341309198447568 -0.024607136649931451 0 0.40783717842429862 -0.053396916639273179 0 0.40231254689356027 -0.037392070823486202 0 0.3981973431289102 -0.028872790202489229 0 0.40309603266908228 -0.02802239201193971 0 0.40231254689356027 -0.037392070823486202 0 0.38732801778773829 -0.04651698367670077 0 0.38934459454031273 -0.029067224222560958 0 0.40783717842429862 -0.053396916639273179 0 0.40231254689356027 -0.037392070823486202 0 0.38732801778773829 -0.04651698367670077 0 0.40231254689356027 -0.037392070823486202 0 0.38934459454031273 -0.029067224222560958 0 0.3981973431289102 -0.028872790202489229 0 0.38429333219820472 -0.067131704106828338 0 0.40783717842429862 -0.053396916639273179 0 0.38732801778773829 -0.04651698367670077 0 0.38429333219820472 -0.067131704106828338 0 0.38732801778773829 -0.04651698367670077 0 0.37042415964797237 -0.053058901563766692 0 0.38732801778773829 -0.04651698367670077 0 0.37068698927403948 -0.035605583580554698 0 0.37042415964797237 -0.053058901563766692 0 0.38732801778773829 -0.04651698367670077 0 0.38934459454031273 -0.029067224222560958 0 0.37068698927403948 -0.035605583580554698 0 0.38934459454031273 -0.029067224222560958 0 0.36983137800827248 -0.01206003687362641 0 0.37068698927403948 -0.035605583580554698 0 0.38934459454031273 -0.029067224222560958 0 0.39783226839882679 -0.020121444594939791 0 0.36983137800827248 -0.01206003687362641 0 0.39783226839882679 -0.020121444594939791 0 0.36983137800827248 -0.01206003687362641 0 0.38934459454031273 -0.029067224222560958 0 0.3981973431289102 -0.028872790202489229 0 0.39783226839882679 -0.020121444594939791 0 0.41341309198447568 -0.024607136649931451 0 0.39783226839882679 -0.020121444594939791 0 0.41341309198447568 -0.024607136649931451 0 0.39783226839882679 -0.020121444594939791 0 0.40309603266908228 -0.02802239201193971 0 0.3981973431289102 -0.028872790202489229 0 0.39783226839882679 -0.020121444594939791 0 0.40309603266908228 -0.02802239201193971 0 0.39212595536292472 0.0047271407553128551 0 0.39576254264207811 -0.011108662296721609 0 0.39212595536292472 0.0047271407553128551 0 0.40542454288086849 -0.004070234290400764 0 0.39576254264207811 -0.011108662296721609 0 0.41078796895048542 -0.01389090533175278 0 0.39783226839882679 -0.020121444594939791 0 0.39576254264207811 -0.011108662296721609 0 0.41078796895048542 -0.01389090533175278 0 0.39576254264207811 -0.011108662296721609 0 0.41078796895048542 -0.01389090533175278 0 0.40542454288086849 -0.004070234290400764 0 0.39576254264207811 -0.011108662296721609 0 0.39783226839882679 -0.020121444594939791 0 0.39576254264207811 -0.011108662296721609 0 0.39576254264207811 -0.011108662296721609 0 0.36983137800827248 -0.01206003687362641 0 0.36845156083710567 -0.0060515153414843056 0 0.39576254264207811 -0.011108662296721609 0 0.36845156083710567 -0.0060515153414843056 0 0.39212595536292472 0.0047271407553128551 0 0.39576254264207811 -0.011108662296721609 0 0.36845156083710567 -0.0060515153414843056 0 0.39783226839882679 -0.020121444594939791 0 0.39576254264207811 -0.011108662296721609 0 0.36983137800827248 -0.01206003687362641 0 0.36983137800827248 -0.01206003687362641 0 0.36845156083710567 -0.0060515153414843056 0 0.34183048761771712 -0.0039986291523161147 0 0.36983137800827248 -0.01206003687362641 0 0.35223914962217417 -0.02278106829858554 0 0.37068698927403948 -0.035605583580554698 0 0.36983137800827248 -0.01206003687362641 0 0.35223914962217417 -0.02278106829858554 0 0.34183048761771712 -0.0039986291523161147 0 0.36983137800827248 -0.01206003687362641 0 0.34183048761771712 -0.0039986291523161147 0 0.36845156083710567 -0.0060515153414843056 0 0.34114057903213352 -0.00099436838624600288 0 0.36845156083710567 -0.0060515153414843056 0 0.34183048761771712 -0.0039986291523161147 0 0.34114057903213352 -0.00099436838624600288 0 0.35223914962217417 -0.02278106829858554 0 0.34183048761771712 -0.0039986291523161147 0 0.33977780877024261 -0.017668132193127541 0 0.31382959722716158 0.0040627785689932028 0 0.34183048761771712 -0.0039986291523161147 0 0.34114057903213352 -0.00099436838624600288 0 0.34183048761771712 -0.0039986291523161147 0 0.33574973546384762 -0.01167659105592548 0 0.32194573769061952 -0.0077676308935595512 0 0.34183048761771712 -0.0039986291523161147 0 0.33574973546384762 -0.01167659105592548 0 0.33977780877024261 -0.017668132193127541 0 0.35223914962217417 -0.02278106829858554 0 0.33977780877024261 -0.017668132193127541 0 0.33879793226643329 -0.029417681387060649 0 0.33574973546384762 -0.01167659105592548 0 0.3302717388810405 -0.020466691071749941 0 0.3196214637881436 -0.021924893160697439 0 0.33977780877024261 -0.017668132193127541 0 0.33879793226643329 -0.029417681387060649 0 0.3302717388810405 -0.020466691071749941 0 0.33879793226643329 -0.029417681387060649 0 0.32862271298124018 -0.028919582591936679 0 0.3302717388810405 -0.020466691071749941 0 0.33574973546384762 -0.01167659105592548 0 0.33977780877024261 -0.017668132193127541 0 0.3302717388810405 -0.020466691071749941 0 0.3302717388810405 -0.020466691071749941 0 0.32526768976560849 -0.02407540610795475 0 0.3196214637881436 -0.021924893160697439 0 0.33574973546384762 -0.01167659105592548 0 0.3196214637881436 -0.021924893160697439 0 0.32862271298124018 -0.028919582591936679 0 0.3302717388810405 -0.020466691071749941 0 0.32526768976560849 -0.02407540610795475 0 0.32862271298124018 -0.028919582591936679 0 0.32095671603858011 -0.024994897592425049 0 0.3231679364015333 -0.033306441836977792 0 0.32862271298124018 -0.028919582591936679 0 0.32526768976560849 -0.02407540610795475 0 0.32095671603858011 -0.024994897592425049 0 0.32526768976560849 -0.02407540610795475 0 0.32095671603858011 -0.024994897592425049 0 0.3196214637881436 -0.021924893160697439 0 0.32095671603858011 -0.024994897592425049 0 0.3196214637881436 -0.021924893160697439 0 0.31660160940309118 -0.035871797032442469 0 0.32095671603858011 -0.024994897592425049 0 0.3196214637881436 -0.021924893160697439 0 0.33574973546384762 -0.01167659105592548 0 0.3196214637881436 -0.021924893160697439 0 0.32194573769061952 -0.0077676308935595512 0 0.30752965714041391 0.0058765203804442539 0 0.3196214637881436 -0.021924893160697439 0 0.32194573769061952 -0.0077676308935595512 0 0.31382959722716158 0.0040627785689932028 0 0.34183048761771712 -0.0039986291523161147 0 0.32194573769061952 -0.0077676308935595512 0 0.30752965714041391 0.0058765203804442539 0 0.3196214637881436 -0.021924893160697439 0 0.31292981148517318 -0.054457989835630861 0 0.33951515654934239 -0.057829064589421393 0 0.331762206516936 -0.074199649102278678 0 0.31292981148517318 -0.054457989835630861 0 0.32943454752299528 -0.042779626289088678 0 0.31292981148517318 -0.054457989835630861 0 0.32943454752299528 -0.042779626289088678 0 0.33951515654934239 -0.057829064589421393 0 0.31292981148517318 -0.054457989835630861 0 0.31660160940309118 -0.035871797032442469 0 0.32943454752299528 -0.042779626289088678 0 0.32095671603858011 -0.024994897592425049 0 0.31660160940309118 -0.035871797032442469 0 0.3231679364015333 -0.033306441836977792 0 0.32862271298124018 -0.028919582591936679 0 0.3231679364015333 -0.033306441836977792 0 0.32943454752299528 -0.042779626289088678 0 0.31660160940309118 -0.035871797032442469 0 0.3231679364015333 -0.033306441836977792 0 0.32943454752299528 -0.042779626289088678 0 0.33879793226643329 -0.029417681387060649 0 0.32943454752299528 -0.042779626289088678 0 0.35178468962230941 -0.045374559850196158 0 0.33879793226643329 -0.029417681387060649 0 0.32862271298124018 -0.028919582591936679 0 0.32943454752299528 -0.042779626289088678 0 0.32943454752299528 -0.042779626289088678 0 0.33951515654934239 -0.057829064589421393 0 0.35178468962230941 -0.045374559850196158 0 0.33951515654934239 -0.057829064589421393 0 0.35178468962230941 -0.045374559850196158 0 0.35802776935757019 -0.070665676604553529 0 0.35223914962217417 -0.02278106829858554 0 0.35178468962230941 -0.045374559850196158 0 0.37068698927403948 -0.035605583580554698 0 0.35223914962217417 -0.02278106829858554 0 0.33879793226643329 -0.029417681387060649 0 0.35178468962230941 -0.045374559850196158 0 0.35178468962230941 -0.045374559850196158 0 0.37068698927403948 -0.035605583580554698 0 0.37042415964797237 -0.053058901563766692 0 0.35178468962230941 -0.045374559850196158 0 0.37042415964797237 -0.053058901563766692 0 0.35802776935757019 -0.070665676604553529 0 0.38429333219820472 -0.067131704106828338 0 0.38199460798391838 -0.085246791459625215 0 0.35802776935757019 -0.070665676604553529 0 0.38429333219820472 -0.067131704106828338 0 0.37042415964797237 -0.053058901563766692 0 0.35802776935757019 -0.070665676604553529 0 0.38429333219820472 -0.067131704106828338 0 0.35802776935757019 -0.070665676604553529 0 0.38199460798391838 -0.085246791459625215 0 0.36577500316168848 -0.093055365242956031 0 0.35802776935757019 -0.070665676604553529 0 0.38199460798391838 -0.085246791459625215 0 0.37706007999693841 -0.1011775095245466 0 0.36577500316168848 -0.093055365242956031 0 0.35802776935757019 -0.070665676604553529 0 0.34487393367809682 -0.095216741312257352 0 0.331762206516936 -0.074199649102278678 0 0.36577500316168848 -0.093055365242956031 0 0.35802776935757019 -0.070665676604553529 0 0.34487393367809682 -0.095216741312257352 0 0.35802776935757019 -0.070665676604553529 0 0.331762206516936 -0.074199649102278678 0 0.3799934613124491 -0.1141351934829782 0 0.36192545204167298 -0.11208328153174781 0 0.37104303648388809 -0.1272612894930944 0 0.36192545204167298 -0.11208328153174781 0 0.35551888896884759 -0.1297027680154724 0 0.37104303648388809 -0.1272612894930944 0 0.37706007999693841 -0.1011775095245466 0 0.3799934613124491 -0.1141351934829782 0 0.36192545204167298 -0.11208328153174781 0 0.37706007999693841 -0.1011775095245466 0 0.36577500316168848 -0.093055365242956031 0 0.36192545204167298 -0.11208328153174781 0 0.36192545204167298 -0.11208328153174781 0 0.34487393367809682 -0.095216741312257352 0 0.34014121552940491 -0.1203166258242544 0 0.36577500316168848 -0.093055365242956031 0 0.36192545204167298 -0.11208328153174781 0 0.34487393367809682 -0.095216741312257352 0 0.36192545204167298 -0.11208328153174781 0 0.34014121552940491 -0.1203166258242544 0 0.35551888896884759 -0.1297027680154724 0 0.34014121552940491 -0.1203166258242544 0 0.32517348349888747 -0.118580130041643 0 0.32373683991627678 -0.1342707635111336 0 0.34014121552940491 -0.1203166258242544 0 0.32895182275083351 -0.1060869523066566 0 0.32517348349888747 -0.118580130041643 0 0.34487393367809682 -0.095216741312257352 0 0.34014121552940491 -0.1203166258242544 0 0.32895182275083351 -0.1060869523066566 0 0.34487393367809682 -0.095216741312257352 0 0.32895182275083351 -0.1060869523066566 0 0.32681031061177879 -0.089772122834636051 0 0.32895182275083351 -0.1060869523066566 0 0.31743464692623941 -0.099981704590172707 0 0.32681031061177879 -0.089772122834636051 0 0.31743464692623941 -0.099981704590172707 0 0.31638799147784608 -0.1118713826410174 0 0.30885616350321549 -0.1072846913931271 0 0.32895182275083351 -0.1060869523066566 0 0.31743464692623941 -0.099981704590172707 0 0.31638799147784608 -0.1118713826410174 0 0.32895182275083351 -0.1060869523066566 0 0.31638799147784608 -0.1118713826410174 0 0.32517348349888747 -0.118580130041643 0 0.31638799147784608 -0.1118713826410174 0 0.31399575267335023 -0.12250180558336519 0 0.30853123694459123 -0.1170064061326217 0 0.31638799147784608 -0.1118713826410174 0 0.31399575267335023 -0.12250180558336519 0 0.32517348349888747 -0.118580130041643 0 0.33951515654934239 -0.057829064589421393 0 0.35802776935757019 -0.070665676604553529 0 0.331762206516936 -0.074199649102278678 0 0.34487393367809682 -0.095216741312257352 0 0.331762206516936 -0.074199649102278678 0 0.32681031061177879 -0.089772122834636051 0 0.32681031061177879 -0.089772122834636051 0 0.30549664367630158 -0.077733621600003855 0 0.31220284993755582 -0.090742102146006851 0 0.331762206516936 -0.074199649102278678 0 0.32681031061177879 -0.089772122834636051 0 0.30549664367630158 -0.077733621600003855 0 0.31743464692623941 -0.099981704590172707 0 0.32681031061177879 -0.089772122834636051 0 0.31220284993755582 -0.090742102146006851 0 0.31292981148517318 -0.054457989835630861 0 0.331762206516936 -0.074199649102278678 0 0.30549664367630158 -0.077733621600003855 0 0.331762206516936 -0.074199649102278678 0 0.30549664367630158 -0.077733621600003855 0 0.31292981148517318 -0.054457989835630861 0 0.30549664367630158 -0.077733621600003855 0 0.29642507544735103 -0.06613635338217283 0 0.30549664367630158 -0.077733621600003855 0 0.29743178973804058 -0.092817056036521225 0 0.29642507544735103 -0.06613635338217283 0 0.29743178973804058 -0.092817056036521225 0 0.29642507544735103 -0.06613635338217283 0 0.31220284993755582 -0.090742102146006851 0 0.30524841693787119 -0.089877123387424693 0 0.30586238439958702 -0.098215713767166868 0 0.30549664367630158 -0.077733621600003855 0 0.31220284993755582 -0.090742102146006851 0 0.30524841693787119 -0.089877123387424693 0 0.30524841693787119 -0.089877123387424693 0 0.29743178973804058 -0.092817056036521225 0 0.30586238439958702 -0.098215713767166868 0 0.30549664367630158 -0.077733621600003855 0 0.30524841693787119 -0.089877123387424693 0 0.29743178973804058 -0.092817056036521225 0 0.29430385704143641 -0.093334685648855456 0 0.28333646668855839 -0.1038254721913715 0 0.27844545300264117 -0.078858311907156253 0 0.29743178973804058 -0.092817056036521225 0 0.29430385704143641 -0.093334685648855456 0 0.29347904805936648 -0.068220893163732282 0 0.29430385704143641 -0.093334685648855456 0 0.29347904805936648 -0.068220893163732282 0 0.27844545300264117 -0.078858311907156253 0 0.29430385704143641 -0.093334685648855456 0 0.29347904805936648 -0.068220893163732282 0 0.29743178973804058 -0.092817056036521225 0 0.29642507544735103 -0.06613635338217283 0 0.29347904805936648 -0.068220893163732282 0 0.28521560802072671 -0.062721316040594208 0 0.29347904805936648 -0.068220893163732282 0 0.27844545300264117 -0.078858311907156253 0 0.29347904805936648 -0.068220893163732282 0 0.27844545300264117 -0.078858311907156253 0 0.29642507544735103 -0.06613635338217283 0 0.29347904805936648 -0.068220893163732282 0 0.29301224914481439 -0.054007794946804598 0 0.29642507544735103 -0.06613635338217283 0 0.29347904805936648 -0.068220893163732282 0 0.29743178973804058 -0.092817056036521225 0 0.29843850402873079 -0.11949775869086959 0 0.29512866602350563 -0.1184484781339787 0 0.29843850402873079 -0.11949775869086959 0 0.29512866602350563 -0.1184484781339787 0 0.30010147488007238 -0.1276093355582181 0 0.29843850402873079 -0.11949775869086959 0 0.30554459793957989 -0.1238630007756472 0 0.30853123694459123 -0.1170064061326217 0 0.29843850402873079 -0.11949775869086959 0 0.30554459793957989 -0.1238630007756472 0 0.30010147488007238 -0.1276093355582181 0 0.31399575267335023 -0.12250180558336519 0 0.30554459793957989 -0.1238630007756472 0 0.30853123694459123 -0.1170064061326217 0 0.29843850402873079 -0.11949775869086959 0 0.30853123694459123 -0.1170064061326217 0 0.30885616350321549 -0.1072846913931271 0 0.31638799147784608 -0.1118713826410174 0 0.30853123694459123 -0.1170064061326217 0 0.30885616350321549 -0.1072846913931271 0 0.29843850402873079 -0.11949775869086959 0 0.30885616350321549 -0.1072846913931271 0 0.30586238439958702 -0.098215713767166868 0 0.29743178973804058 -0.092817056036521225 0 0.29843850402873079 -0.11949775869086959 0 0.30586238439958702 -0.098215713767166868 0 0.29743178973804058 -0.092817056036521225 0 0.29843850402873079 -0.11949775869086959 0 0.31743464692623941 -0.099981704590172707 0 0.30885616350321549 -0.1072846913931271 0 0.30586238439958702 -0.098215713767166868 0 0.31743464692623941 -0.099981704590172707 0 0.31220284993755582 -0.090742102146006851 0 0.30586238439958702 -0.098215713767166868 0 0.29430385704143641 -0.093334685648855456 0 0.29512866602350563 -0.1184484781339787 0 0.29430385704143641 -0.093334685648855456 0 0.28333646668855839 -0.1038254721913715 0 0.29512866602350563 -0.1184484781339787 0 0.29743178973804058 -0.092817056036521225 0 0.29430385704143641 -0.093334685648855456 0 0.29512866602350563 -0.1184484781339787 0 0.28333646668855839 -0.1038254721913715 0 0.29512866602350563 -0.1184484781339787 0 0.28822748037447399 -0.12879263247558709 0 0.28333646668855839 -0.1038254721913715 0 0.28822748037447399 -0.12879263247558709 0 0.26621118532108262 -0.1119181791838486 0 0.25741251913389712 -0.1305951081492244 0 0.28822748037447399 -0.12879263247558709 0 0.28333646668855839 -0.1038254721913715 0 0.26621118532108262 -0.1119181791838486 0 0.28822748037447399 -0.12879263247558709 0 0.28333646668855839 -0.1038254721913715 0 0.26621118532108262 -0.1119181791838486 0 0.26565518081306061 -0.08790840808238623 0 0.26621118532108262 -0.1119181791838486 0 0.25154255280112903 -0.1006059983499779 0 0.24954668948061209 -0.11284283178631641 0 0.26621118532108262 -0.1119181791838486 0 0.25154255280112903 -0.1006059983499779 0 0.26565518081306061 -0.08790840808238623 0 0.26621118532108262 -0.1119181791838486 0 0.25741251913389712 -0.1305951081492244 0 0.24954668948061209 -0.11284283178631641 0 0.27844545300264117 -0.078858311907156253 0 0.2741393958395883 -0.056877179510702792 0 0.28007443442101287 -0.061799103716356343 0 0.27844545300264117 -0.078858311907156253 0 0.2741393958395883 -0.056877179510702792 0 0.26628957168076178 -0.070692469674316694 0 0.27844545300264117 -0.078858311907156253 0 0.2741393958395883 -0.056877179510702792 0 0.28521560802072671 -0.062721316040594208 0 0.27844545300264117 -0.078858311907156253 0 0.28007443442101287 -0.061799103716356343 0 0.26628957168076178 -0.070692469674316694 0 0.27844545300264117 -0.078858311907156253 0 0.26565518081306061 -0.08790840808238623 0 0.28333646668855839 -0.1038254721913715 0 0.27844545300264117 -0.078858311907156253 0 0.26565518081306061 -0.08790840808238623 0 0.28333646668855839 -0.1038254721913715 0 0.27844545300264117 -0.078858311907156253 0 0.27844545300264117 -0.078858311907156253 0 0.26565518081306061 -0.08790840808238623 0 0.25154255280112903 -0.1006059983499779 0 0.25664035233608162 -0.078361863555500011 0 0.24390890644978661 -0.075150332687283522 0 0.25154255280112903 -0.1006059983499779 0 0.26565518081306061 -0.08790840808238623 0 0.25664035233608162 -0.078361863555500011 0 0.26628957168076178 -0.070692469674316694 0 0.26565518081306061 -0.08790840808238623 0 0.25664035233608162 -0.078361863555500011 0 0.25664035233608162 -0.078361863555500011 0 0.25256726729664603 -0.064532785491330763 0 0.24390890644978661 -0.075150332687283522 0 0.26628957168076178 -0.070692469674316694 0 0.25256726729664603 -0.064532785491330763 0 0.2741393958395883 -0.056877179510702792 0 0.26628957168076178 -0.070692469674316694 0 0.25664035233608162 -0.078361863555500011 0 0.25256726729664603 -0.064532785491330763 0 0.25256726729664603 -0.064532785491330763 0 0.25164978009717781 -0.053061021673298493 0 0.24617004458672351 -0.058202332164817121 0 0.25256726729664603 -0.064532785491330763 0 0.26131371929964131 -0.050907379716302707 0 0.27395317434556299 -0.0509436520349522 0 0.25256726729664603 -0.064532785491330763 0 0.25164978009717781 -0.053061021673298493 0 0.26131371929964131 -0.050907379716302707 0 0.25256726729664603 -0.064532785491330763 0 0.27395317434556299 -0.0509436520349522 0 0.25164978009717781 -0.053061021673298493 0 0.26131371929964131 -0.050907379716302707 0 0.2539732262079259 -0.044675773385505282 0 0.26131371929964131 -0.050907379716302707 0 0.26227784506780882 -0.045421506107560787 0 0.2539732262079259 -0.044675773385505282 0 0.26131371929964131 -0.050907379716302707 0 0.26742863268251632 -0.045985676557136583 0 0.26227784506780882 -0.045421506107560787 0 0.25256726729664603 -0.064532785491330763 0 0.27395317434556299 -0.0509436520349522 0 0.2741393958395883 -0.056877179510702792 0 0.26131371929964131 -0.050907379716302707 0 0.27395317434556299 -0.0509436520349522 0 0.26742863268251632 -0.045985676557136583 0 0.27395317434556299 -0.0509436520349522 0 0.2741393958395883 -0.056877179510702792 0 0.28351618772518777 -0.053458991616202503 0 0.2741393958395883 -0.056877179510702792 0 0.28007443442101287 -0.061799103716356343 0 0.28351618772518777 -0.053458991616202503 0 0.2807394014679111 -0.038000872253349499 0 0.27361436003936901 -0.034999677146069851 0 0.27240238673917438 -0.042113497984529957 0 0.2807394014679111 -0.038000872253349499 0 0.27361436003936901 -0.034999677146069851 0 0.28248009054126683 -0.027824818882371601 0 0.27395317434556299 -0.0509436520349522 0 0.2807394014679111 -0.038000872253349499 0 0.27240238673917438 -0.042113497984529957 0 0.27395317434556299 -0.0509436520349522 0 0.27240238673917438 -0.042113497984529957 0 0.26742863268251632 -0.045985676557136583 0 0.27361436003936901 -0.034999677146069851 0 0.27240238673917438 -0.042113497984529957 0 0.26639580208115188 -0.040117194771298603 0 0.27240238673917438 -0.042113497984529957 0 0.26742863268251632 -0.045985676557136583 0 0.26639580208115188 -0.040117194771298603 0 0.27361436003936901 -0.034999677146069851 0 0.26639580208115188 -0.040117194771298603 0 0.26859201328057281 -0.027442020841521631 0 0.2539732262079259 -0.044675773385505282 0 0.25845033672230949 -0.02738613623275089 0 0.26859201328057281 -0.027442020841521631 0 0.2539732262079259 -0.044675773385505282 0 0.25845033672230949 -0.02738613623275089 0 0.24422464309495209 -0.046986837608536558 0 0.25845033672230949 -0.02738613623275089 0 0.24422464309495209 -0.046986837608536558 0 0.26639580208115188 -0.040117194771298603 0 0.2539732262079259 -0.044675773385505282 0 0.26859201328057281 -0.027442020841521631 0 0.2539732262079259 -0.044675773385505282 0 0.26859201328057281 -0.027442020841521631 0 0.26639580208115188 -0.040117194771298603 0 0.26227784506780882 -0.045421506107560787 0 0.2539732262079259 -0.044675773385505282 0 0.26742863268251632 -0.045985676557136583 0 0.26639580208115188 -0.040117194771298603 0 0.26227784506780882 -0.045421506107560787 0 0.25013504981522988 -0.025019616072594848 0 0.25845033672230949 -0.02738613623275089 0 0.24524507923365879 -0.0330622213940093 0 0.25845033672230949 -0.02738613623275089 0 0.27267603034966698 -0.0077854348569651906 0 0.25845033672230949 -0.02738613623275089 0 0.25886508985187012 -0.013172853544477199 0 0.27267603034966698 -0.0077854348569651906 0 0.25013504981522988 -0.025019616072594848 0 0.25247407830029878 -0.019873092178793648 0 0.25845033672230949 -0.02738613623275089 0 0.25247407830029878 -0.019873092178793648 0 0.25845033672230949 -0.02738613623275089 0 0.25886508985187012 -0.013172853544477199 0 0.25598072684389089 -0.0058943492075353007 0 0.25006914023697918 -0.01208141302270524 0 0.2479891295484222 -0.0022684572774312019 0 0.25894279220913391 0.003459445712386486 0 0.25598072684389089 -0.0058943492075353007 0 0.2479891295484222 -0.0022684572774312019 0 0.25598072684389089 -0.0058943492075353007 0 0.25006914023697918 -0.01208141302270524 0 0.25886508985187012 -0.013172853544477199 0 0.25247407830029878 -0.019873092178793648 0 0.25006914023697918 -0.01208141302270524 0 0.25886508985187012 -0.013172853544477199 0 0.25886508985187012 -0.013172853544477199 0 0.26317147738524183 -0.0038637327990410169 0 0.27267603034966698 -0.0077854348569651906 0 0.25598072684389089 -0.0058943492075353007 0 0.25886508985187012 -0.013172853544477199 0 0.26317147738524183 -0.0038637327990410169 0 0.25894279220913391 0.003459445712386486 0 0.25598072684389089 -0.0058943492075353007 0 0.26317147738524183 -0.0038637327990410169 0 0.27267603034966698 -0.0077854348569651906 0 0.26859201328057281 -0.027442020841521631 0 0.28321080035321983 -0.010208268297538009 0 0.26939274767164711 0.0040745279013861191 0 0.26317147738524183 -0.0038637327990410169 0 0.27267603034966698 -0.0077854348569651906 0 0.28687677889875068 0.001725005618485562 0 0.27267603034966698 -0.0077854348569651906 0 0.28321080035321983 -0.010208268297538009 0 0.26859201328057281 -0.027442020841521631 0 0.28321080035321983 -0.010208268297538009 0 0.25845033672230949 -0.02738613623275089 0 0.27267603034966698 -0.0077854348569651906 0 0.26859201328057281 -0.027442020841521631 0 0.26859201328057281 -0.027442020841521631 0 0.28248009054126683 -0.027824818882371601 0 0.28321080035321983 -0.010208268297538009 0 0.27361436003936901 -0.034999677146069851 0 0.26859201328057281 -0.027442020841521631 0 0.28248009054126683 -0.027824818882371601 0 0.29465383366866438 -0.01919356567853802 0 0.28248009054126683 -0.027824818882371601 0 0.29533908139447967 -0.037354518578573179 0 0.29465383366866438 -0.01919356567853802 0 0.28248009054126683 -0.027824818882371601 0 0.28321080035321983 -0.010208268297538009 0 0.29465383366866438 -0.01919356567853802 0 0.29533908139447967 -0.037354518578573179 0 0.2978295874258669 0.0070254842464454832 0 0.28321080035321983 -0.010208268297538009 0 0.29396858594285019 -0.001032612778502764 0 0.2978295874258669 0.0070254842464454832 0 0.28687677889875068 0.001725005618485562 0 0.28321080035321983 -0.010208268297538009 0 0.29465383366866438 -0.01919356567853802 0 0.28321080035321983 -0.010208268297538009 0 0.29396858594285019 -0.001032612778502764 0 0.2978295874258669 0.0070254842464454832 0 0.28321080035321983 -0.010208268297538009 0 0.29465383366866438 -0.01919356567853802 0 0.29396858594285019 -0.001032612778502764 0 0.30752965714041391 0.0058765203804442539 0 0.29465383366866438 -0.01919356567853802 0 0.29396858594285019 -0.001032612778502764 0 0.30752965714041391 0.0058765203804442539 0 0.3196214637881436 -0.021924893160697439 0 0.29465383366866438 -0.01919356567853802 0 0.3196214637881436 -0.021924893160697439 0 0.29465383366866438 -0.01919356567853802 0 0.29533908139447967 -0.037354518578573179 0 0.3196214637881436 -0.021924893160697439 0 0.29533908139447967 -0.037354518578573179 0 0.3196214637881436 -0.021924893160697439 0 0.31660160940309118 -0.035871797032442469 0 0.29533908139447967 -0.037354518578573179 0 0.31292981148517318 -0.054457989835630861 0 0.31660160940309118 -0.035871797032442469 0 0.29533908139447967 -0.037354518578573179 0 0.31292981148517318 -0.054457989835630861 0 0.29642507544735103 -0.06613635338217283 0 0.31292981148517318 -0.054457989835630861 0 0.29642507544735103 -0.06613635338217283 0 0.29533908139447967 -0.037354518578573179 0 0.29642507544735103 -0.06613635338217283 0 0.29301224914481439 -0.054007794946804598 0 0.29533908139447967 -0.037354518578573179 0 0.27395317434556299 -0.0509436520349522 0 0.28351618772518777 -0.053458991616202503 0 0.29533908139447967 -0.037354518578573179 0 0.29301224914481439 -0.054007794946804598 0 0.28351618772518777 -0.053458991616202503 0 0.29533908139447967 -0.037354518578573179 0 0.29642507544735103 -0.06613635338217283 0 0.29533908139447967 -0.037354518578573179 0 0.29347904805936648 -0.068220893163732282 0 0.29301224914481439 -0.054007794946804598 0 0.28521560802072671 -0.062721316040594208 0 0.29347904805936648 -0.068220893163732282 0 0.29301224914481439 -0.054007794946804598 0 0.28521560802072671 -0.062721316040594208 0 0.29301224914481439 -0.054007794946804598 0 0.28351618772518777 -0.053458991616202503 0 0.28521560802072671 -0.062721316040594208 0 0.28007443442101287 -0.061799103716356343 0 0.28351618772518777 -0.053458991616202503 0 0.27395317434556299 -0.0509436520349522 0 0.29533908139447967 -0.037354518578573179 0 0.27395317434556299 -0.0509436520349522 0 0.2807394014679111 -0.038000872253349499 0 0.29533908139447967 -0.037354518578573179 0 0.2807394014679111 -0.038000872253349499 0 0.28248009054126683 -0.027824818882371601 0 0.29533908139447967 -0.037354518578573179 0 0.30290052143222262 -0.20369411332823331 0 0.28158405213751547 -0.22140539282722879 0 0.30290052143222262 -0.20369411332823331 0 0.28158405213751547 -0.22140539282722879 0 0.27747759048209231 -0.20168759245952969 0 0.28632476970011178 -0.18938030831719929 0 0.30290052143222262 -0.20369411332823331 0 0.2980095077463053 -0.17872695304401809 0 0.28632476970011178 -0.18938030831719929 0 0.30290052143222262 -0.20369411332823331 0 0.27747759048209231 -0.20168759245952969 0 0.30290052143222262 -0.20369411332823331 0 0.2980095077463053 -0.17872695304401809 0 0.32549301828835953 -0.18492261693889581 0 0.30290052143222262 -0.20369411332823331 0 0.2980095077463053 -0.17872695304401809 0 0.30290052143222262 -0.20369411332823331 0 0.30715254712033069 -0.22539943122446929 0 0.28158405213751547 -0.22140539282722879 0 0.30290052143222262 -0.20369411332823331 0 0.30715254712033069 -0.22539943122446929 0 0.30290052143222262 -0.20369411332823331 0 0.30715254712033069 -0.22539943122446929 0 0.32148368101975677 -0.2112815477794289 0 0.31140457280844042 -0.24710474912070499 0 0.29234931722919649 -0.23956849287787771 0 0.29718577407036301 -0.25519814195989071 0 0.30715254712033069 -0.22539943122446929 0 0.31140457280844042 -0.24710474912070499 0 0.29234931722919649 -0.23956849287787771 0 0.30715254712033069 -0.22539943122446929 0 0.31140457280844042 -0.24710474912070499 0 0.29234931722919649 -0.23956849287787771 0 0.27362138757170362 -0.2426007269765893 0 0.28009493911397709 -0.25531812806766069 0 0.29234931722919649 -0.23956849287787771 0 0.28158405213751547 -0.22140539282722879 0 0.27362138757170362 -0.2426007269765893 0 0.30715254712033069 -0.22539943122446929 0 0.29234931722919649 -0.23956849287787771 0 0.28158405213751547 -0.22140539282722879 0 0.28158405213751547 -0.22140539282722879 0 0.26621460642996558 -0.23052855599088379 0 0.27362138757170362 -0.2426007269765893 0 0.28158405213751547 -0.22140539282722879 0 0.26621460642996558 -0.23052855599088379 0 0.26307381511529532 -0.2143756044194241 0 0.26621460642996558 -0.23052855599088379 0 0.27362138757170362 -0.2426007269765893 0 0.26034160768121078 -0.2422716922893062 0 0.27362138757170362 -0.2426007269765893 0 0.26034160768121078 -0.2422716922893062 0 0.26515279713901752 -0.25474276698909742 0 0.26034160768121078 -0.2422716922893062 0 0.26515279713901752 -0.25474276698909742 0 0.25575058308532189 -0.25269357128633052 0 0.26034160768121078 -0.2422716922893062 0 0.25134951441318748 -0.22920843539767929 0 0.2499607574480687 -0.24385609709525671 0 0.25575058308532189 -0.25269357128633052 0 0.2462907050713771 -0.25204034373521428 0 0.2499607574480687 -0.24385609709525671 0 0.26034160768121078 -0.2422716922893062 0 0.25575058308532189 -0.25269357128633052 0 0.2499607574480687 -0.24385609709525671 0 0.26621460642996558 -0.23052855599088379 0 0.25134951441318748 -0.22920843539767929 0 0.26307381511529532 -0.2143756044194241 0 0.26621460642996558 -0.23052855599088379 0 0.26034160768121078 -0.2422716922893062 0 0.25134951441318748 -0.22920843539767929 0 0.25134951441318748 -0.22920843539767929 0 0.26307381511529532 -0.2143756044194241 0 0.24314545538918961 -0.20571013864437751 0 0.26307381511529532 -0.2143756044194241 0 0.2593871514889205 -0.19799184377322379 0 0.24314545538918961 -0.20571013864437751 0 0.26307381511529532 -0.2143756044194241 0 0.27747759048209231 -0.20168759245952969 0 0.2593871514889205 -0.19799184377322379 0 0.28158405213751547 -0.22140539282722879 0 0.26307381511529532 -0.2143756044194241 0 0.27747759048209231 -0.20168759245952969 0 0.27747759048209231 -0.20168759245952969 0 0.2593871514889205 -0.19799184377322379 0 0.269221803856454 -0.185599514949991 0 0.28632476970011178 -0.18938030831719929 0 0.27747759048209231 -0.20168759245952969 0 0.269221803856454 -0.185599514949991 0 0.2593871514889205 -0.19799184377322379 0 0.269221803856454 -0.185599514949991 0 0.2437278363918948 -0.18195096812212239 0 0.260919387449559 -0.16579352929295721 0 0.269221803856454 -0.185599514949991 0 0.2437278363918948 -0.18195096812212239 0 0.260919387449559 -0.16579352929295721 0 0.28401442498348639 -0.17719336780422379 0 0.260919387449559 -0.16579352929295721 0 0.27757308642867828 -0.16101723958663619 0 0.28401442498348639 -0.17719336780422379 0 0.260919387449559 -0.16579352929295721 0 0.27757308642867828 -0.16101723958663619 0 0.27224003922127837 -0.1473222684895614 0 0.260919387449559 -0.16579352929295721 0 0.269221803856454 -0.185599514949991 0 0.28401442498348639 -0.17719336780422379 0 0.28632476970011178 -0.18938030831719929 0 0.269221803856454 -0.185599514949991 0 0.28401442498348639 -0.17719336780422379 0 0.260919387449559 -0.16579352929295721 0 0.25452239946831973 -0.14829655140993131 0 0.27224003922127837 -0.1473222684895614 0 0.260919387449559 -0.16579352929295721 0 0.25452239946831973 -0.14829655140993131 0 0.23782434991563151 -0.15439369078169049 0 0.25741251913389712 -0.1305951081492244 0 0.25452239946831973 -0.14829655140993131 0 0.27224003922127837 -0.1473222684895614 0 0.27757308642867828 -0.16101723958663619 0 0.27224003922127837 -0.1473222684895614 0 0.2931184940603897 -0.15375979275980259 0 0.25741251913389712 -0.1305951081492244 0 0.27224003922127837 -0.1473222684895614 0 0.28822748037447399 -0.12879263247558709 0 0.29512866602350563 -0.1184484781339787 0 0.2959534750055749 -0.1435622706191019 0 0.29512866602350563 -0.1184484781339787 0 0.28822748037447399 -0.12879263247558709 0 0.2959534750055749 -0.1435622706191019 0 0.2959534750055749 -0.1435622706191019 0 0.2931184940603897 -0.15375979275980259 0 0.29606782433269818 -0.16881524064208181 0 0.28822748037447399 -0.12879263247558709 0 0.2959534750055749 -0.1435622706191019 0 0.2931184940603897 -0.15375979275980259 0 0.28822748037447399 -0.12879263247558709 0 0.2931184940603897 -0.15375979275980259 0 0.27224003922127837 -0.1473222684895614 0 0.28822748037447399 -0.12879263247558709 0 0.2931184940603897 -0.15375979275980259 0 0.2959534750055749 -0.1435622706191019 0 0.29606782433269818 -0.16881524064208181 0 0.2959534750055749 -0.1435622706191019 0 0.30786991093933941 -0.1327242262548293 0 0.31334084787329858 -0.14560100496875439 0 0.2959534750055749 -0.1435622706191019 0 0.30589655906226038 -0.156608858018214 0 0.31334084787329858 -0.14560100496875439 0 0.30589655906226038 -0.156608858018214 0 0.31666093946419188 -0.15748088094218049 0 0.31334084787329858 -0.14560100496875439 0 0.29512866602350563 -0.1184484781339787 0 0.2959534750055749 -0.1435622706191019 0 0.30010147488007238 -0.1276093355582181 0 0.2959534750055749 -0.1435622706191019 0 0.30786991093933941 -0.1327242262548293 0 0.30010147488007238 -0.1276093355582181 0 0.31399575267335023 -0.12250180558336519 0 0.30554459793957989 -0.1238630007756472 0 0.30786991093933941 -0.1327242262548293 0 0.30554459793957989 -0.1238630007756472 0 0.30786991093933941 -0.1327242262548293 0 0.30010147488007238 -0.1276093355582181 0 0.28401442498348639 -0.17719336780422379 0 0.29606782433269818 -0.16881524064208181 0 0.2980095077463053 -0.17872695304401809 0 0.28632476970011178 -0.18938030831719929 0 0.28401442498348639 -0.17719336780422379 0 0.2980095077463053 -0.17872695304401809 0 0.27757308642867828 -0.16101723958663619 0 0.2931184940603897 -0.15375979275980259 0 0.28401442498348639 -0.17719336780422379 0 0.2931184940603897 -0.15375979275980259 0 0.28401442498348639 -0.17719336780422379 0 0.29606782433269818 -0.16881524064208181 0 0.2931184940603897 -0.15375979275980259 0 0.29606782433269818 -0.16881524064208181 0 0.29606782433269818 -0.16881524064208181 0 0.30589655906226038 -0.156608858018214 0 0.31145366373618227 -0.1686264437044486 0 0.2959534750055749 -0.1435622706191019 0 0.29606782433269818 -0.16881524064208181 0 0.30589655906226038 -0.156608858018214 0 0.30589655906226038 -0.156608858018214 0 0.31145366373618227 -0.1686264437044486 0 0.31666093946419188 -0.15748088094218049 0 0.31145366373618227 -0.1686264437044486 0 0.2980095077463053 -0.17872695304401809 0 0.32549301828835953 -0.18492261693889581 0 0.29606782433269818 -0.16881524064208181 0 0.31145366373618227 -0.1686264437044486 0 0.2980095077463053 -0.17872695304401809 0 0.29606782433269818 -0.16881524064208181 0 0.2980095077463053 -0.17872695304401809 0 0.31145366373618227 -0.1686264437044486 0 0.32549301828835953 -0.18492261693889581 0 0.32738776678709508 -0.16545123116759969 0 0.31145366373618227 -0.1686264437044486 0 0.32738776678709508 -0.16545123116759969 0 0.31666093946419188 -0.15748088094218049 0 0.32738776678709508 -0.16545123116759969 0 0.31666093946419188 -0.15748088094218049 0 0.32968898845727718 -0.1497650634196834 0 0.32738776678709508 -0.16545123116759969 0 0.32968898845727718 -0.1497650634196834 0 0.34808551514449421 -0.1661511205495555 0 0.32549301828835953 -0.18492261693889581 0 0.32738776678709508 -0.16545123116759969 0 0.34808551514449421 -0.1661511205495555 0 0.32549301828835953 -0.18492261693889581 0 0.34808551514449421 -0.1661511205495555 0 0.32549301828835953 -0.18492261693889581 0 0.34808551514449421 -0.1661511205495555 0 0.34521429895780248 -0.1968392362703156 0 0.30786991093933941 -0.1327242262548293 0 0.32373683991627678 -0.1342707635111336 0 0.31334084787329858 -0.14560100496875439 0 0.31399575267335023 -0.12250180558336519 0 0.32517348349888747 -0.118580130041643 0 0.32373683991627678 -0.1342707635111336 0 0.31399575267335023 -0.12250180558336519 0 0.30786991093933941 -0.1327242262548293 0 0.32373683991627678 -0.1342707635111336 0 0.32373683991627678 -0.1342707635111336 0 0.31334084787329858 -0.14560100496875439 0 0.32968898845727718 -0.1497650634196834 0 0.31666093946419188 -0.15748088094218049 0 0.31334084787329858 -0.14560100496875439 0 0.32968898845727718 -0.1497650634196834 0 0.32373683991627678 -0.1342707635111336 0 0.32968898845727718 -0.1497650634196834 0 0.34485783347551252 -0.1433779188078016 0 0.32968898845727718 -0.1497650634196834 0 0.34485783347551252 -0.1433779188078016 0 0.34808551514449421 -0.1661511205495555 0 0.34014121552940491 -0.1203166258242544 0 0.32373683991627678 -0.1342707635111336 0 0.34485783347551252 -0.1433779188078016 0 0.34014121552940491 -0.1203166258242544 0 0.35551888896884759 -0.1297027680154724 0 0.34485783347551252 -0.1433779188078016 0 0.35551888896884759 -0.1297027680154724 0 0.34485783347551252 -0.1433779188078016 0 0.37067801200062889 -0.1473796241602153 0 0.34485783347551252 -0.1433779188078016 0 0.37067801200062889 -0.1473796241602153 0 0.34808551514449421 -0.1661511205495555 0 0.35551888896884759 -0.1297027680154724 0 0.37067801200062889 -0.1473796241602153 0 0.37104303648388809 -0.1272612894930944 0 0.34808551514449421 -0.1661511205495555 0 0.36752808638216261 -0.17990459429682831 0 0.34521429895780248 -0.1968392362703156 0 0.34808551514449421 -0.1661511205495555 0 0.37072349948513561 -0.1630779710757761 0 0.36752808638216261 -0.17990459429682831 0 0.37067801200062889 -0.1473796241602153 0 0.34808551514449421 -0.1661511205495555 0 0.37072349948513561 -0.1630779710757761 0 0.37067801200062889 -0.1473796241602153 0 0.34808551514449421 -0.1661511205495555 0 0.37072349948513561 -0.1630779710757761 0 0.36752808638216261 -0.17990459429682831 0 0.38565700028273392 -0.16791849986101029 0 0.36752808638216261 -0.17990459429682831 0 0.36890805570422369 -0.19954003101511669 0 0.34521429895780248 -0.1968392362703156 0 0.36752808638216261 -0.17990459429682831 0 0.36890805570422369 -0.19954003101511669 0 0.38551481473406651 -0.18910273675150999 0 0.36890805570422369 -0.19954003101511669 0 0.35851964138810982 -0.2171827375251118 0 0.37645297458065691 -0.21353851220024839 0 0.35851964138810982 -0.2171827375251118 0 0.34521429895780248 -0.1968392362703156 0 0.33865146772119931 -0.2184974665014994 0 0.36890805570422369 -0.19954003101511669 0 0.35851964138810982 -0.2171827375251118 0 0.34521429895780248 -0.1968392362703156 0 0.32549301828835953 -0.18492261693889581 0 0.34521429895780248 -0.1968392362703156 0 0.32148368101975677 -0.2112815477794289 0 0.34521429895780248 -0.1968392362703156 0 0.33865146772119931 -0.2184974665014994 0 0.32148368101975677 -0.2112815477794289 0 0.30290052143222262 -0.20369411332823331 0 0.32549301828835953 -0.18492261693889581 0 0.32148368101975677 -0.2112815477794289 0 0.30290052143222262 -0.20369411332823331 0 0.32549301828835953 -0.18492261693889581 0 0.31140457280844042 -0.24710474912070499 0 0.32841487832378857 -0.23419691532036521 0 0.32909477526671738 -0.25319804842994992 0 0.30715254712033069 -0.22539943122446929 0 0.31140457280844042 -0.24710474912070499 0 0.32841487832378857 -0.23419691532036521 0 0.30715254712033069 -0.22539943122446929 0 0.32148368101975677 -0.2112815477794289 0 0.32841487832378857 -0.23419691532036521 0 0.33865146772119931 -0.2184974665014994 0 0.32841487832378857 -0.23419691532036521 0 0.34678876975393269 -0.23153157971564481 0 0.33865146772119931 -0.2184974665014994 0 0.32148368101975677 -0.2112815477794289 0 0.32841487832378857 -0.23419691532036521 0 0.32841487832378857 -0.23419691532036521 0 0.34542116247921317 -0.24786541093840589 0 0.32909477526671738 -0.25319804842994992 0 0.32841487832378857 -0.23419691532036521 0 0.34542116247921317 -0.24786541093840589 0 0.34678876975393269 -0.23153157971564481 0 0.34542116247921317 -0.24786541093840589 0 0.36282952759798831 -0.23490181410806829 0 0.36211004630048071 -0.25874315800932568 0 0.34542116247921317 -0.24786541093840589 0 0.34678876975393269 -0.23153157971564481 0 0.36282952759798831 -0.23490181410806829 0 0.35851964138810982 -0.2171827375251118 0 0.33865146772119931 -0.2184974665014994 0 0.34678876975393269 -0.23153157971564481 0 0.35851964138810982 -0.2171827375251118 0 0.34678876975393269 -0.23153157971564481 0 0.36282952759798831 -0.23490181410806829 0 0.35851964138810982 -0.2171827375251118 0 0.37179579398026102 -0.22561915142401329 0 0.36282952759798831 -0.23490181410806829 0 0.35851964138810982 -0.2171827375251118 0 0.37179579398026102 -0.22561915142401329 0 0.37645297458065691 -0.21353851220024839 0 0.37179579398026102 -0.22561915142401329 0 0.36282952759798831 -0.23490181410806829 0 0.37754581309809132 -0.23651361028518689 0 0.36282952759798831 -0.23490181410806829 0 0.36876625398544938 -0.24898888889403961 0 0.36211004630048071 -0.25874315800932568 0 0.36282952759798831 -0.23490181410806829 0 0.36211004630048071 -0.25874315800932568 0 0.36282952759798831 -0.23490181410806829 0 0.36876625398544938 -0.24898888889403961 0 0.37754581309809132 -0.23651361028518689 0 0.37754581309809132 -0.23651361028518689 0 0.39300219267510322 -0.23842714914515989 0 0.3871149211879113 -0.25548270742864421 0 0.39300219267510322 -0.23842714914515989 0 0.3871149211879113 -0.25548270742864421 0 0.40207495352916539 -0.25113417058953519 0 0.39300219267510322 -0.23842714914515989 0 0.40723458142941671 -0.23497076085713389 0 0.40207495352916539 -0.25113417058953519 0 0.39851670543712209 -0.2244771902628257 0 0.41039622944065363 -0.2185270516157129 0 0.40723458142941671 -0.23497076085713389 0 0.39300219267510322 -0.23842714914515989 0 0.39851670543712209 -0.2244771902628257 0 0.40723458142941671 -0.23497076085713389 0 0.39300219267510322 -0.23842714914515989 0 0.39851670543712209 -0.2244771902628257 0 0.38505811203634721 -0.22522643630241351 0 0.39851670543712209 -0.2244771902628257 0 0.38505811203634721 -0.22522643630241351 0 0.39303519244684892 -0.21278300449704671 0 0.37754581309809132 -0.23651361028518689 0 0.39300219267510322 -0.23842714914515989 0 0.38505811203634721 -0.22522643630241351 0 0.37179579398026102 -0.22561915142401329 0 0.37754581309809132 -0.23651361028518689 0 0.38505811203634721 -0.22522643630241351 0 0.37179579398026102 -0.22561915142401329 0 0.38505811203634721 -0.22522643630241351 0 0.37645297458065691 -0.21353851220024839 0 0.38505811203634721 -0.22522643630241351 0 0.37645297458065691 -0.21353851220024839 0 0.39303519244684892 -0.21278300449704671 0 0.36890805570422369 -0.19954003101511669 0 0.37645297458065691 -0.21353851220024839 0 0.38544293285627962 -0.20314808770867229 0 0.37645297458065691 -0.21353851220024839 0 0.38544293285627962 -0.20314808770867229 0 0.39303519244684892 -0.21278300449704671 0 0.36890805570422369 -0.19954003101511669 0 0.38544293285627962 -0.20314808770867229 0 0.38551481473406651 -0.18910273675150999 0 0.38544293285627962 -0.20314808770867229 0 0.38551481473406651 -0.18910273675150999 0 0.40330362681560211 -0.20077615407943949 0 0.38551481473406651 -0.18910273675150999 0 0.40330362681560211 -0.20077615407943949 0 0.39995041381356911 -0.1868338584648204 0 0.40330362681560211 -0.20077615407943949 0 0.4125958117473455 -0.19170302267586259 0 0.39995041381356911 -0.1868338584648204 0 0.40330362681560211 -0.20077615407943949 0 0.39303519244684892 -0.21278300449704671 0 0.41039622944065363 -0.2185270516157129 0 0.38544293285627962 -0.20314808770867229 0 0.40330362681560211 -0.20077615407943949 0 0.39303519244684892 -0.21278300449704671 0 0.39851670543712209 -0.2244771902628257 0 0.39303519244684892 -0.21278300449704671 0 0.41039622944065363 -0.2185270516157129 0 0.40330362681560211 -0.20077615407943949 0 0.41039622944065363 -0.2185270516157129 0 0.42189732607146729 -0.20211324892629831 0 0.41039622944065363 -0.2185270516157129 0 0.42189732607146729 -0.20211324892629831 0 0.42790605200351661 -0.22140108800821251 0 0.40330362681560211 -0.20077615407943949 0 0.4125958117473455 -0.19170302267586259 0 0.42189732607146729 -0.20211324892629831 0 0.4125958117473455 -0.19170302267586259 0 0.42189732607146729 -0.20211324892629831 0 0.42233780496578233 -0.18319904235883591 0 0.42189732607146729 -0.20211324892629831 0 0.43389642119060762 -0.191962199940241 0 0.42233780496578233 -0.18319904235883591 0 0.42189732607146729 -0.20211324892629831 0 0.43389642119060762 -0.191962199940241 0 0.43723926749718739 -0.20471492206911249 0 0.43723926749718739 -0.20471492206911249 0 0.42790605200351661 -0.22140108800821251 0 0.44233814121790038 -0.22173902575952509 0 0.42189732607146729 -0.20211324892629831 0 0.43723926749718739 -0.20471492206911249 0 0.42790605200351661 -0.22140108800821251 0 0.43048550082884018 -0.24614270293406881 0 0.44233814121790038 -0.22173902575952509 0 0.42790605200351661 -0.22140108800821251 0 0.43048550082884018 -0.24614270293406881 0 0.44233814121790038 -0.22173902575952509 0 0.42790605200351661 -0.22140108800821251 0 0.43048550082884018 -0.24614270293406881 0 0.42088007225406548 -0.23367140350055049 0 0.43048550082884018 -0.24614270293406881 0 0.44582088554477811 -0.24525862245079941 0 0.43357426810421817 -0.25015303326672972 0 0.43048550082884018 -0.24614270293406881 0 0.42846035594967069 -0.25031232086228522 0 0.43357426810421817 -0.25015303326672972 0 0.43048550082884018 -0.24614270293406881 0 0.43357426810421817 -0.25015303326672972 0 0.43048550082884018 -0.24614270293406881 0 0.418537335240391 -0.2435876000290193 0 0.42846035594967069 -0.25031232086228522 0 0.43048550082884018 -0.24614270293406881 0 0.42846035594967069 -0.25031232086228522 0 0.43048550082884018 -0.24614270293406881 0 0.42088007225406548 -0.23367140350055049 0 0.43048550082884018 -0.24614270293406881 0 0.418537335240391 -0.2435876000290193 0 0.42088007225406548 -0.23367140350055049 0 0.418537335240391 -0.2435876000290193 0 0.40723458142941671 -0.23497076085713389 0 0.42088007225406548 -0.23367140350055049 0 0.418537335240391 -0.2435876000290193 0 0.40723458142941671 -0.23497076085713389 0 0.40207495352916539 -0.25113417058953519 0 0.418537335240391 -0.2435876000290193 0 0.40207495352916539 -0.25113417058953519 0 0.42846035594967069 -0.25031232086228522 0 0.41039622944065363 -0.2185270516157129 0 0.40723458142941671 -0.23497076085713389 0 0.42088007225406548 -0.23367140350055049 0 0.41039622944065363 -0.2185270516157129 0 0.42790605200351661 -0.22140108800821251 0 0.42088007225406548 -0.23367140350055049 0 0.3932705088567644 -0.1286081277708763 0 0.38946375456974969 -0.1482633138159434 0 0.40032650034539519 -0.13972272199131119 0 0.3932705088567644 -0.1286081277708763 0 0.38946375456974969 -0.1482633138159434 0 0.40224748518751269 -0.1211494002184121 0 0.40802316631723889 -0.13171289331352951 0 0.40224748518751269 -0.1211494002184121 0 0.40096691517672778 -0.13029828582353201 0 0.3932705088567644 -0.1286081277708763 0 0.40224748518751269 -0.1211494002184121 0 0.40096691517672778 -0.13029828582353201 0 0.40802316631723889 -0.13171289331352951 0 0.40096691517672778 -0.13029828582353201 0 0.40032650034539519 -0.13972272199131119 0 0.40802316631723889 -0.13171289331352951 0 0.40032650034539519 -0.13972272199131119 0 0.40802316631723889 -0.13171289331352951 0 0.40096691517672778 -0.13029828582353201 0 0.40032650034539519 -0.13972272199131119 0 0.3932705088567644 -0.1286081277708763 0 0.37067801200062889 -0.1473796241602153 0 0.37104303648388809 -0.1272612894930944 0 0.3932705088567644 -0.1286081277708763 0 0.37067801200062889 -0.1473796241602153 0 0.3932705088567644 -0.1286081277708763 0 0.37067801200062889 -0.1473796241602153 0 0.37072349948513561 -0.1630779710757761 0 0.38946375456974969 -0.1482633138159434 0 0.37067801200062889 -0.1473796241602153 0 0.3932705088567644 -0.1286081277708763 0 0.38946375456974969 -0.1482633138159434 0 0.40032650034539519 -0.13972272199131119 0 0.38946375456974969 -0.1482633138159434 0 0.40103769468862932 -0.15735650722112959 0 0.38946375456974969 -0.1482633138159434 0 0.40103769468862932 -0.15735650722112959 0 0.38565700028273392 -0.16791849986101029 0 0.40103769468862932 -0.15735650722112959 0 0.38565700028273392 -0.16791849986101029 0 0.40804365254297231 -0.17415516972609171 0 0.37072349948513561 -0.1630779710757761 0 0.38946375456974969 -0.1482633138159434 0 0.38565700028273392 -0.16791849986101029 0 0.38946375456974969 -0.1482633138159434 0 0.38565700028273392 -0.16791849986101029 0 0.38551481473406651 -0.18910273675150999 0 0.38565700028273392 -0.16791849986101029 0 0.39995041381356911 -0.1868338584648204 0 0.36752808638216261 -0.17990459429682831 0 0.38551481473406651 -0.18910273675150999 0 0.38565700028273392 -0.16791849986101029 0 0.38565700028273392 -0.16791849986101029 0 0.39995041381356911 -0.1868338584648204 0 0.40804365254297231 -0.17415516972609171 0 0.4125958117473455 -0.19170302267586259 0 0.40804365254297231 -0.17415516972609171 0 0.42233780496578233 -0.18319904235883591 0 0.4125958117473455 -0.19170302267586259 0 0.39995041381356911 -0.1868338584648204 0 0.40804365254297231 -0.17415516972609171 0 0.42233780496578233 -0.18319904235883591 0 0.43537196508735049 -0.18173276810905351 0 0.42169756570229522 -0.15672283071129131 0 0.43389642119060762 -0.191962199940241 0 0.42233780496578233 -0.18319904235883591 0 0.43537196508735049 -0.18173276810905351 0 0.43537196508735049 -0.18173276810905351 0 0.42169756570229522 -0.15672283071129131 0 0.43537196508735049 -0.18173276810905351 0 0.42169756570229522 -0.15672283071129131 0 0.44011919579772352 -0.15902857640534751 0 0.40804365254297231 -0.17415516972609171 0 0.42233780496578233 -0.18319904235883591 0 0.42169756570229522 -0.15672283071129131 0 0.40103769468862932 -0.15735650722112959 0 0.40804365254297231 -0.17415516972609171 0 0.42169756570229522 -0.15672283071129131 0 0.40032650034539519 -0.13972272199131119 0 0.40103769468862932 -0.15735650722112959 0 0.42169756570229522 -0.15672283071129131 0 0.42169756570229522 -0.15672283071129131 0 0.40802316631723889 -0.13171289331352951 0 0.40032650034539519 -0.13972272199131119 0 0.42169756570229522 -0.15672283071129131 0 0.40802316631723889 -0.13171289331352951 0 0.42169756570229522 -0.15672283071129131 0 0.43087782981676859 -0.131879285754128 0 0.44052259681213413 -0.14512254840888281 0 0.42169756570229522 -0.15672283071129131 0 0.44052259681213413 -0.14512254840888281 0 0.44011919579772352 -0.15902857640534751 0 0.42510906065580589 -0.11393180641703871 0 0.43087782981676859 -0.131879285754128 0 0.40802316631723889 -0.13171289331352951 0 0.42169756570229522 -0.15672283071129131 0 0.43087782981676859 -0.131879285754128 0 0.40802316631723889 -0.13171289331352951 0 0.46093003486481321 -0.11810563265674839 0 0.46623847963083442 -0.1374076686568538 0 0.47239045088042492 -0.13005034139104371 0 0.46093003486481321 -0.11810563265674839 0 0.45430072039358249 -0.1470470373257684 0 0.46093003486481321 -0.11810563265674839 0 0.46623847963083442 -0.1374076686568538 0 0.45430072039358249 -0.1470470373257684 0 0.46093003486481321 -0.11810563265674839 0 0.44582693855797939 -0.1311402400572215 0 0.45430072039358249 -0.1470470373257684 0 0.441730170532879 -0.1159420230490274 0 0.43087782981676859 -0.131879285754128 0 0.44582693855797939 -0.1311402400572215 0 0.43087782981676859 -0.131879285754128 0 0.44582693855797939 -0.1311402400572215 0 0.44052259681213413 -0.14512254840888281 0 0.44582693855797939 -0.1311402400572215 0 0.44052259681213413 -0.14512254840888281 0 0.45430072039358249 -0.1470470373257684 0 0.44052259681213413 -0.14512254840888281 0 0.45430072039358249 -0.1470470373257684 0 0.44011919579772352 -0.15902857640534751 0 0.46623847963083442 -0.1374076686568538 0 0.45430072039358249 -0.1470470373257684 0 0.46795215833203208 -0.14958538313512479 0 0.45430072039358249 -0.1470470373257684 0 0.46795215833203208 -0.14958538313512479 0 0.46249654728105127 -0.15875526896169859 0 0.46249654728105127 -0.15875526896169859 0 0.44767140592235177 -0.17598844199478861 0 0.4590637049386419 -0.17656280063954849 0 0.46795215833203208 -0.14958538313512479 0 0.46765797362325351 -0.16960743348544691 0 0.46249654728105127 -0.15875526896169859 0 0.46765797362325351 -0.16960743348544691 0 0.46249654728105127 -0.15875526896169859 0 0.4590637049386419 -0.17656280063954849 0 0.45430072039358249 -0.1470470373257684 0 0.46249654728105127 -0.15875526896169859 0 0.44767140592235177 -0.17598844199478861 0 0.46249654728105127 -0.15875526896169859 0 0.4590637049386419 -0.17656280063954849 0 0.45430072039358249 -0.1470470373257684 0 0.44011919579772352 -0.15902857640534751 0 0.44767140592235177 -0.17598844199478861 0 0.45430072039358249 -0.1470470373257684 0 0.44767140592235177 -0.17598844199478861 0 0.44767140592235177 -0.17598844199478861 0 0.45131049953134228 -0.18433764364674099 0 0.4590637049386419 -0.17656280063954849 0 0.43537196508735049 -0.18173276810905351 0 0.44011919579772352 -0.15902857640534751 0 0.44767140592235177 -0.17598844199478861 0 0.43389642119060762 -0.191962199940241 0 0.43537196508735049 -0.18173276810905351 0 0.44405046135624082 -0.18412940313962539 0 0.43537196508735049 -0.18173276810905351 0 0.44767140592235177 -0.17598844199478861 0 0.44405046135624082 -0.18412940313962539 0 0.44405046135624082 -0.18412940313962539 0 0.45131049953134228 -0.18433764364674099 0 0.4501360628432447 -0.19063724014234421 0 0.44767140592235177 -0.17598844199478861 0 0.44405046135624082 -0.18412940313962539 0 0.45131049953134228 -0.18433764364674099 0 0.46765797362325351 -0.16960743348544691 0 0.4590637049386419 -0.17656280063954849 0 0.45563086259623248 -0.19437033231739831 0 0.4590637049386419 -0.17656280063954849 0 0.45563086259623248 -0.19437033231739831 0 0.46765797362325351 -0.16960743348544691 0 0.45563086259623248 -0.19437033231739831 0 0.46765797362325351 -0.16960743348544691 0 0.46817453342310178 -0.17984984725849121 0 0.45563086259623248 -0.19437033231739831 0 0.45131049953134228 -0.18433764364674099 0 0.4590637049386419 -0.17656280063954849 0 0.45563086259623248 -0.19437033231739831 0 0.46817453342310178 -0.17984984725849121 0 0.47868008644015098 -0.18364062408913809 0 0.4864423059537345 -0.17561039486471769 0 0.46817453342310178 -0.17984984725849121 0 0.47868008644015098 -0.18364062408913809 0 0.47427671796452459 -0.19390449174425081 0 0.4864423059537345 -0.17561039486471769 0 0.5 -0.16076066479590659 0 0.5 -0.1885669917164324 0 0.47868008644015098 -0.18364062408913809 0 0.4864423059537345 -0.17561039486471769 0 0.5 -0.1885669917164324 0 0.4864423059537345 -0.17561039486471769 0 0.5 -0.16076066479590659 0 0.4874204893839118 -0.1629257968797283 0 0.5 -0.16076066479590659 0 0.4874204893839118 -0.1629257968797283 0 0.48836632050416018 -0.15319142364385391 0 0.46765797362325351 -0.16960743348544691 0 0.47968508465027437 -0.14484453465349531 0 0.46817453342310178 -0.17984984725849121 0 0.4864423059537345 -0.17561039486471769 0 0.47621222687475862 -0.15989320835224299 0 0.46765797362325351 -0.16960743348544691 0 0.46817453342310178 -0.17984984725849121 0 0.47621222687475862 -0.15989320835224299 0 0.4864423059537345 -0.17561039486471769 0 0.4874204893839118 -0.1629257968797283 0 0.47621222687475862 -0.15989320835224299 0 0.46817453342310178 -0.17984984725849121 0 0.47621222687475862 -0.15989320835224299 0 0.4874204893839118 -0.1629257968797283 0 0.47621222687475862 -0.15989320835224299 0 0.48836632050416018 -0.15319142364385391 0 0.46765797362325351 -0.16960743348544691 0 0.47621222687475862 -0.15989320835224299 0 0.47968508465027437 -0.14484453465349531 0 0.47621222687475862 -0.15989320835224299 0 0.48424992032641551 -0.13993656944599481 0 0.47621222687475862 -0.15989320835224299 0 0.48836632050416018 -0.15319142364385391 0 0.48424992032641551 -0.13993656944599481 0 0.46795215833203208 -0.14958538313512479 0 0.46765797362325351 -0.16960743348544691 0 0.47968508465027437 -0.14484453465349531 0 0.47621222687475862 -0.15989320835224299 0 0.47968508465027437 -0.14484453465349531 0 0.48424992032641551 -0.13993656944599481 0 0.46623847963083442 -0.1374076686568538 0 0.46795215833203208 -0.14958538313512479 0 0.47424994269801352 -0.1397372940967013 0 0.46795215833203208 -0.14958538313512479 0 0.47968508465027437 -0.14484453465349531 0 0.47424994269801352 -0.1397372940967013 0 0.47968508465027437 -0.14484453465349531 0 0.47994759956173211 -0.14051186616834291 0 0.47424994269801352 -0.1397372940967013 0 0.47968508465027437 -0.14484453465349531 0 0.48424992032641551 -0.13993656944599481 0 0.47994759956173211 -0.14051186616834291 0 0.5 -0.16076066479590659 0 0.48836632050416018 -0.15319142364385391 0 0.5 -0.13295433787538069 0 0.48836632050416018 -0.15319142364385391 0 0.5 -0.13295433787538069 0 0.48424992032641551 -0.13993656944599481 0 0.48916266477234061 -0.13224727383335569 0 0.48085855782101261 -0.13626791926353529 0 0.48424992032641551 -0.13993656944599481 0 0.5 -0.13295433787538069 0 0.48916266477234061 -0.13224727383335569 0 0.48424992032641551 -0.13993656944599481 0 0.48986304781109291 -0.1242692167884092 0 0.5 -0.13295433787538069 0 0.48916266477234061 -0.13224727383335569 0 0.48986304781109291 -0.1242692167884092 0 0.48916266477234061 -0.13224727383335569 0 0.48085855782101261 -0.13626791926353529 0 0.47499259514944292 -0.1202547269832886 0 0.48085855782101261 -0.13626791926353529 0 0.47239045088042492 -0.13005034139104371 0 0.48085855782101261 -0.13626791926353529 0 0.48424992032641551 -0.13993656944599481 0 0.47994759956173211 -0.14051186616834291 0 0.48085855782101261 -0.13626791926353529 0 0.47994759956173211 -0.14051186616834291 0 0.47424994269801352 -0.1397372940967013 0 0.48085855782101261 -0.13626791926353529 0 0.47424994269801352 -0.1397372940967013 0 0.47239045088042492 -0.13005034139104371 0 0.46623847963083442 -0.1374076686568538 0 0.47424994269801352 -0.1397372940967013 0 0.47239045088042492 -0.13005034139104371 0 0.45735248248792831 -0.2263504469462593 0 0.45606595353113982 -0.2348942090935259 0 0.45040787416373163 -0.22146407059246401 0 0.4593659812364308 -0.22004368230368379 0 0.45735248248792831 -0.2263504469462593 0 0.45040787416373163 -0.22146407059246401 0 0.4593659812364308 -0.22004368230368379 0 0.45735248248792831 -0.2263504469462593 0 0.47005683011064803 -0.22590290220369119 0 0.4593659812364308 -0.22004368230368379 0 0.46586242272604061 -0.21273545752659301 0 0.47005683011064803 -0.22590290220369119 0 0.45735248248792831 -0.2263504469462593 0 0.45606595353113982 -0.2348942090935259 0 0.47005683011064803 -0.22590290220369119 0 0.46661169077989217 -0.2415165845456661 0 0.45606595353113982 -0.2348942090935259 0 0.47005683011064803 -0.22590290220369119 0 0.46661169077989217 -0.2415165845456661 0 0.45571617873614662 -0.24946335937342859 0 0.47785808936807489 -0.24877368548012899 0 0.45571617873614662 -0.24946335937342859 0 0.47785808936807489 -0.24877368548012899 0 0.46661169077989217 -0.2415165845456661 0 0.45518121600666411 -0.24259067484840299 0 0.45571617873614662 -0.24946335937342859 0 0.46661169077989217 -0.2415165845456661 0 0.45518121600666411 -0.24259067484840299 0 0.45606595353113982 -0.2348942090935259 0 0.45571617873614662 -0.24946335937342859 0 0.43357426810421817 -0.25015303326672972 0 0.43048550082884018 -0.24614270293406881 0 0.44582088554477811 -0.24525862245079941 0 0.44233814121790038 -0.22173902575952509 0 0.45571617873614662 -0.24946335937342859 0 0.44582088554477811 -0.24525862245079941 0 0.43357426810421817 -0.25015303326672972 0 0.45518121600666411 -0.24259067484840299 0 0.45606595353113982 -0.2348942090935259 0 0.44582088554477811 -0.24525862245079941 0 0.45518121600666411 -0.24259067484840299 0 0.45571617873614662 -0.24946335937342859 0 0.44582088554477811 -0.24525862245079941 0 0.44582088554477811 -0.24525862245079941 0 0.44233814121790038 -0.22173902575952509 0 0.45040787416373163 -0.22146407059246401 0 0.44582088554477811 -0.24525862245079941 0 0.45040787416373163 -0.22146407059246401 0 0.45606595353113982 -0.2348942090935259 0 0.44582088554477811 -0.24525862245079941 0 0.45040787416373163 -0.22146407059246401 0 0.43723926749718739 -0.20471492206911249 0 0.44233814121790038 -0.22173902575952509 0 0.45499486278268447 -0.1976695187341285 0 0.45040787416373163 -0.22146407059246401 0 0.45499486278268447 -0.1976695187341285 0 0.44233814121790038 -0.22173902575952509 0 0.45040787416373163 -0.22146407059246401 0 0.45499486278268447 -0.1976695187341285 0 0.44233814121790038 -0.22173902575952509 0 0.45499486278268447 -0.1976695187341285 0 0.43723926749718739 -0.20471492206911249 0 0.44395992212319679 -0.19308347956624619 0 0.45499486278268447 -0.1976695187341285 0 0.43389642119060762 -0.191962199940241 0 0.44405046135624082 -0.18412940313962539 0 0.44395992212319679 -0.19308347956624619 0 0.43389642119060762 -0.191962199940241 0 0.43723926749718739 -0.20471492206911249 0 0.44395992212319679 -0.19308347956624619 0 0.44395992212319679 -0.19308347956624619 0 0.45499486278268447 -0.1976695187341285 0 0.45131049953134228 -0.18433764364674099 0 0.4501360628432447 -0.19063724014234421 0 0.45563086259623248 -0.19437033231739831 0 0.44395992212319679 -0.19308347956624619 0 0.4501360628432447 -0.19063724014234421 0 0.45499486278268447 -0.1976695187341285 0 0.44405046135624082 -0.18412940313962539 0 0.44395992212319679 -0.19308347956624619 0 0.4501360628432447 -0.19063724014234421 0 0.46817453342310178 -0.17984984725849121 0 0.46013683997144489 -0.19980648616473931 0 0.47427671796452459 -0.19390449174425081 0 0.46817453342310178 -0.17984984725849121 0 0.46013683997144489 -0.19980648616473931 0 0.46817453342310178 -0.17984984725849121 0 0.45563086259623248 -0.19437033231739831 0 0.46013683997144489 -0.19980648616473931 0 0.4501360628432447 -0.19063724014234421 0 0.45563086259623248 -0.19437033231739831 0 0.45499486278268447 -0.1976695187341285 0 0.45499486278268447 -0.1976695187341285 0 0.46013683997144489 -0.19980648616473931 0 0.45563086259623248 -0.19437033231739831 0 0.45499486278268447 -0.1976695187341285 0 0.45563086259623248 -0.19437033231739831 0 0.45499486278268447 -0.1976695187341285 0 0.46013683997144489 -0.19980648616473931 0 0.46013683997144489 -0.19980648616473931 0 0.46586242272604061 -0.21273545752659301 0 0.48006841998572208 -0.20808990240084899 0 0.45040787416373163 -0.22146407059246401 0 0.45499486278268447 -0.1976695187341285 0 0.4548395438527213 -0.21295904373074681 0 0.4593659812364308 -0.22004368230368379 0 0.45040787416373163 -0.22146407059246401 0 0.4548395438527213 -0.21295904373074681 0 0.4593659812364308 -0.22004368230368379 0 0.4548395438527213 -0.21295904373074681 0 0.46586242272604061 -0.21273545752659301 0 0.46013683997144489 -0.19980648616473931 0 0.4548395438527213 -0.21295904373074681 0 0.45499486278268447 -0.1976695187341285 0 0.46013683997144489 -0.19980648616473931 0 0.4548395438527213 -0.21295904373074681 0 0.46013683997144489 -0.19980648616473931 0 0.4548395438527213 -0.21295904373074681 0 0.46586242272604061 -0.21273545752659301 0 0.46013683997144489 -0.19980648616473931 0 0.48006841998572208 -0.20808990240084899 0 0.46586242272604061 -0.21273545752659301 0 0.48006841998572208 -0.20808990240084899 0 0.47005683011064803 -0.22590290220369119 0 0.46013683997144489 -0.19980648616473931 0 0.48006841998572208 -0.20808990240084899 0 0.47427671796452459 -0.19390449174425081 0 0.47868008644015098 -0.18364062408913809 0 0.47427671796452459 -0.19390449174425081 0 0.5 -0.1885669917164324 0 0.48006841998572208 -0.20808990240084899 0 0.47427671796452459 -0.19390449174425081 0 0.5 -0.1885669917164324 0 0.48006841998572208 -0.20808990240084899 0 0.5 -0.1885669917164324 0 0.49999999999999961 -0.21637331863695819 0 0.48006841998572208 -0.20808990240084899 0 0.49999999999999961 -0.21637331863695819 0 0.48006841998572208 -0.20808990240084899 0 0.49999999999999961 -0.21637331863695819 0 0.4862545149737133 -0.22430099187442659 0 0.49999999999999961 -0.21637331863695819 0 0.5 -0.2322286651118938 0 0.4862545149737133 -0.22430099187442659 0 0.5 -0.2322286651118938 0 0.4862545149737133 -0.22430099187442659 0 0.48731543898686108 -0.23834171508702701 0 0.4862545149737133 -0.22430099187442659 0 0.47005683011064803 -0.22590290220369119 0 0.48731543898686108 -0.23834171508702701 0 0.48006841998572208 -0.20808990240084899 0 0.4862545149737133 -0.22430099187442659 0 0.47005683011064803 -0.22590290220369119 0 0.46661169077989217 -0.2415165845456661 0 0.47005683011064803 -0.22590290220369119 0 0.48731543898686108 -0.23834171508702701 0 0.46661169077989217 -0.2415165845456661 0 0.47785808936807489 -0.24877368548012899 0 0.48731543898686108 -0.23834171508702701 0 0.47785808936807489 -0.24877368548012899 0 0.50000000000000333 -0.24808401158682941 0 0.48731543898686108 -0.23834171508702701 0 0.5 -0.2322286651118938 0 0.50000000000000333 -0.24808401158682941 0 0.48731543898686108 -0.23834171508702701 0 0.47785808936807489 -0.24877368548012899 0 0.50000000000000333 -0.24808401158682941 0 0.50000000000000333 -0.24808401158682941 0 0.48656724266228879 -0.26126228076250718 0 0.5 -0.26842994380811291 0 0.47785808936807489 -0.24877368548012899 0 0.50000000000000333 -0.24808401158682941 0 0.48656724266228879 -0.26126228076250718 0 0.5 -0.26842994380811291 0 0.48208681399926079 -0.27581357356502773 0 0.50000000000000111 -0.28877587602939642 0 0.48656724266228879 -0.26126228076250718 0 0.5 -0.26842994380811291 0 0.48208681399926079 -0.27581357356502773 0 0.48208681399926079 -0.27581357356502773 0 0.46068671901070851 -0.28535474144655731 0 0.48208681399926079 -0.27581357356502773 0 0.46768981413575761 -0.2649492641288182 0 0.46068671901070851 -0.28535474144655731 0 0.48656724266228879 -0.26126228076250718 0 0.48208681399926079 -0.27581357356502773 0 0.46768981413575761 -0.2649492641288182 0 0.47785808936807489 -0.24877368548012899 0 0.48656724266228879 -0.26126228076250718 0 0.46768981413575761 -0.2649492641288182 0 0.45571617873614662 -0.24946335937342859 0 0.47785808936807489 -0.24877368548012899 0 0.46768981413575761 -0.2649492641288182 0 0.45571617873614662 -0.24946335937342859 0 0.46768981413575761 -0.2649492641288182 0 0.44713049355746243 -0.26775388735664418 0 0.46768981413575761 -0.2649492641288182 0 0.44713049355746243 -0.26775388735664418 0 0.46068671901070851 -0.28535474144655731 0 0.44713049355746243 -0.26775388735664418 0 0.46068671901070851 -0.28535474144655731 0 0.45571617873614662 -0.24946335937342859 0 0.44713049355746243 -0.26775388735664418 0 0.43357426810421817 -0.25015303326672972 0 0.44713049355746243 -0.26775388735664418 0 0.43357426810421817 -0.25015303326672972 0 0.43808872290812301 -0.29542998993102848 0 0.44582747314286902 -0.31276753443956201 0 0.43031487288344161 -0.31703067604683871 0 0.43808872290812301 -0.29542998993102848 0 0.45932525709009708 -0.30194153040829069 0 0.44582747314286902 -0.31276753443956201 0 0.43808872290812301 -0.29542998993102848 0 0.46068671901070851 -0.28535474144655731 0 0.45932525709009708 -0.30194153040829069 0 0.43808872290812301 -0.29542998993102848 0 0.46068671901070851 -0.28535474144655731 0 0.44713049355746243 -0.26775388735664418 0 0.43808872290812301 -0.29542998993102848 0 0.46068671901070851 -0.28535474144655731 0 0.46068671901070851 -0.28535474144655731 0 0.47654280981399377 -0.30594164756046982 0 0.46068671901070851 -0.28535474144655731 0 0.45932525709009708 -0.30194153040829069 0 0.47654280981399377 -0.30594164756046982 0 0.45932525709009708 -0.30194153040829069 0 0.46020140703816609 -0.31790014661013011 0 0.44582747314286902 -0.31276753443956201 0 0.47654280981399377 -0.30594164756046982 0 0.46020140703816609 -0.31790014661013011 0 0.45932525709009708 -0.30194153040829069 0 0.47654280981399377 -0.30594164756046982 0 0.46020140703816609 -0.31790014661013011 0 0.47654280981399377 -0.30594164756046982 0 0.48452590656705868 -0.31630657706248883 0 0.48208681399926079 -0.27581357356502773 0 0.46068671901070851 -0.28535474144655731 0 0.47654280981399377 -0.30594164756046982 0 0.48208681399926079 -0.27581357356502773 0 0.47654280981399377 -0.30594164756046982 0 0.50000000000000111 -0.28877587602939642 0 0.50000000000000111 -0.28877587602939642 0 0.5 -0.31627016595707702 0 0.48452590656705868 -0.31630657706248883 0 0.47654280981399377 -0.30594164756046982 0 0.50000000000000111 -0.28877587602939642 0 0.47654280981399377 -0.30594164756046982 0 0.50000000000000111 -0.28877587602939642 0 0.48452590656705868 -0.31630657706248883 0 0.5 -0.31627016595707702 0 0.48452590656705868 -0.31630657706248883 0 0.4798244965011923 -0.33203805400226027 0 0.5 -0.31627016595707702 0 0.4798244965011923 -0.33203805400226027 0 0.5 -0.34376445588475768 0 0.4798244965011923 -0.33203805400226027 0 0.46847105179670839 -0.34389899480205388 0 0.46020140703816609 -0.31790014661013011 0 0.47654280981399377 -0.30594164756046982 0 0.47527365498010271 -0.31804660630883719 0 0.46020140703816609 -0.31790014661013011 0 0.48452590656705868 -0.31630657706248883 0 0.4798244965011923 -0.33203805400226027 0 0.47527365498010271 -0.31804660630883719 0 0.4798244965011923 -0.33203805400226027 0 0.47527365498010271 -0.31804660630883719 0 0.46020140703816609 -0.31790014661013011 0 0.47654280981399377 -0.30594164756046982 0 0.48452590656705868 -0.31630657706248883 0 0.47527365498010271 -0.31804660630883719 0 0.49999999999999711 -0.37125874581243851 0 0.48806042456369142 -0.35612155968098341 0 0.47674069655525092 -0.3698978429939776 0 0.4798244965011923 -0.33203805400226027 0 0.48806042456369142 -0.35612155968098341 0 0.5 -0.34376445588475768 0 0.49999999999999711 -0.37125874581243851 0 0.48806042456369142 -0.35612155968098341 0 0.5 -0.34376445588475768 0 0.4798244965011923 -0.33203805400226027 0 0.48806042456369142 -0.35612155968098341 0 0.46847105179670839 -0.34389899480205388 0 0.48806042456369142 -0.35612155968098341 0 0.47674069655525092 -0.3698978429939776 0 0.46847105179670839 -0.34389899480205388 0 0.47674069655525092 -0.3698978429939776 0 0.46847105179670839 -0.34389899480205388 0 0.47674069655525092 -0.3698978429939776 0 0.45392603783110008 -0.37108838658624999 0 0.46847105179670839 -0.34389899480205388 0 0.45392603783110008 -0.37108838658624999 0 0.46847105179670839 -0.34389899480205388 0 0.44672977628043381 -0.35017364189741718 0 0.45392603783110008 -0.37108838658624999 0 0.44672977628043381 -0.35017364189741718 0 0.42785183481717409 -0.36595316276467199 0 0.45392603783110008 -0.37108838658624999 0 0.42785183481717409 -0.36595316276467199 0 0.43242581624588322 -0.38730115333965082 0 0.46847105179670839 -0.34389899480205388 0 0.46020140703816609 -0.31790014661013011 0 0.46847105179670839 -0.34389899480205388 0 0.46020140703816609 -0.31790014661013011 0 0.45431986664039198 -0.33607192194780172 0 0.46847105179670839 -0.34389899480205388 0 0.44672977628043381 -0.35017364189741718 0 0.45431986664039198 -0.33607192194780172 0 0.44672977628043381 -0.35017364189741718 0 0.44127539957872802 -0.33175003730325792 0 0.42823689835664952 -0.34636857782623809 0 0.44672977628043381 -0.35017364189741718 0 0.45431986664039198 -0.33607192194780172 0 0.44127539957872802 -0.33175003730325792 0 0.46020140703816609 -0.31790014661013011 0 0.45431986664039198 -0.33607192194780172 0 0.44127539957872802 -0.33175003730325792 0 0.44127539957872802 -0.33175003730325792 0 0.44582747314286902 -0.31276753443956201 0 0.43031487288344161 -0.31703067604683871 0 0.46020140703816609 -0.31790014661013011 0 0.44127539957872802 -0.33175003730325792 0 0.46020140703816609 -0.31790014661013011 0 0.44127539957872802 -0.33175003730325792 0 0.44582747314286902 -0.31276753443956201 0 0.44127539957872802 -0.33175003730325792 0 0.43031487288344161 -0.31703067604683871 0 0.41707429101309201 -0.3297381436533145 0 0.44127539957872802 -0.33175003730325792 0 0.41707429101309201 -0.3297381436533145 0 0.42823689835664952 -0.34636857782623809 0 0.41707429101309201 -0.3297381436533145 0 0.42823689835664952 -0.34636857782623809 0 0.40866613474490449 -0.35252068697126149 0 0.41707429101309201 -0.3297381436533145 0 0.39289273070295128 -0.31558048689996993 0 0.41549072680553711 -0.30550523841549909 0 0.43031487288344161 -0.31703067604683871 0 0.41707429101309201 -0.3297381436533145 0 0.41549072680553711 -0.30550523841549909 0 0.44672977628043381 -0.35017364189741718 0 0.42785183481717409 -0.36595316276467199 0 0.42823689835664952 -0.34636857782623809 0 0.42785183481717409 -0.36595316276467199 0 0.40866613474490449 -0.35252068697126149 0 0.42785183481717409 -0.36595316276467199 0 0.42823689835664952 -0.34636857782623809 0 0.40866613474490449 -0.35252068697126149 0 0.42785183481717409 -0.36595316276467199 0 0.4111933065081313 -0.36805982019164402 0 0.41287057948892703 -0.38518927514730122 0 0.42785183481717409 -0.36595316276467199 0 0.40866613474490449 -0.35252068697126149 0 0.4111933065081313 -0.36805982019164402 0 0.39290052262193498 -0.35565000096393579 0 0.38249634533461108 -0.36797477098799591 0 0.39650622041158878 -0.3765742856902482 0 0.4111933065081313 -0.36805982019164402 0 0.39290052262193498 -0.35565000096393579 0 0.39650622041158878 -0.3765742856902482 0 0.40866613474490449 -0.35252068697126149 0 0.39290052262193498 -0.35565000096393579 0 0.38948043467263488 -0.33908821117785082 0 0.40866613474490449 -0.35252068697126149 0 0.38948043467263488 -0.33908821117785082 0 0.40866613474490449 -0.35252068697126149 0 0.4111933065081313 -0.36805982019164402 0 0.39290052262193498 -0.35565000096393579 0 0.39290052262193498 -0.35565000096393579 0 0.37818146540529818 -0.34934783795600571 0 0.38249634533461108 -0.36797477098799591 0 0.39290052262193498 -0.35565000096393579 0 0.37818146540529818 -0.34934783795600571 0 0.38948043467263488 -0.33908821117785082 0 0.37818146540529818 -0.34934783795600571 0 0.38249634533461108 -0.36797477098799591 0 0.37305712147220338 -0.36102055586376819 0 0.41707429101309201 -0.3297381436533145 0 0.40866613474490449 -0.35252068697126149 0 0.38948043467263488 -0.33908821117785082 0 0.41707429101309201 -0.3297381436533145 0 0.39289273070295128 -0.31558048689996993 0 0.38948043467263488 -0.33908821117785082 0 0.37818146540529818 -0.34934783795600571 0 0.38948043467263488 -0.33908821117785082 0 0.37212478857772979 -0.33864880005647208 0 0.38948043467263488 -0.33908821117785082 0 0.37029473460036533 -0.32565573538444043 0 0.38948043467263488 -0.33908821117785082 0 0.37029473460036533 -0.32565573538444043 0 0.37212478857772979 -0.33864880005647208 0 0.39289273070295128 -0.31558048689996993 0 0.38064079273778262 -0.31288188218018531 0 0.37029473460036533 -0.32565573538444043 0 0.39289273070295128 -0.31558048689996993 0 0.37029473460036533 -0.32565573538444043 0 0.39289273070295128 -0.31558048689996993 0 0.38948043467263488 -0.33908821117785082 0 0.37029473460036533 -0.32565573538444043 0 0.38064079273778262 -0.31288188218018531 0 0.37804720550635529 -0.30651687721429538 0 0.38870969627640167 -0.30439929484627132 0 0.38064079273778262 -0.31288188218018531 0 0.37804720550635529 -0.30651687721429538 0 0.37325959660283969 -0.31225701655594912 0 0.37804720550635529 -0.30651687721429538 0 0.38032829646105881 -0.29636137241382532 0 0.36761344479238373 -0.29508033606196837 0 0.37804720550635529 -0.30651687721429538 0 0.38870969627640167 -0.30439929484627132 0 0.38032829646105881 -0.29636137241382532 0 0.38870969627640167 -0.30439929484627132 0 0.3879772147484597 -0.29176707856862888 0 0.38032829646105881 -0.29636137241382532 0 0.39289273070295128 -0.31558048689996993 0 0.38064079273778262 -0.31288188218018531 0 0.38870969627640167 -0.30439929484627132 0 0.39289273070295128 -0.31558048689996993 0 0.39985527598894161 -0.30920798579428682 0 0.41549072680553711 -0.30550523841549909 0 0.39985527598894161 -0.30920798579428682 0 0.39681295496079538 -0.29611275996065012 0 0.40939030264251791 -0.28957609748361951 0 0.39985527598894161 -0.30920798579428682 0 0.40939030264251791 -0.28957609748361951 0 0.39289273070295128 -0.31558048689996993 0 0.41549072680553711 -0.30550523841549909 0 0.39289273070295128 -0.31558048689996993 0 0.38870969627640167 -0.30439929484627132 0 0.39985527598894161 -0.30920798579428682 0 0.38870969627640167 -0.30439929484627132 0 0.39681295496079538 -0.29611275996065012 0 0.3879772147484597 -0.29176707856862888 0 0.38870969627640167 -0.30439929484627132 0 0.39985527598894161 -0.30920798579428682 0 0.39681295496079538 -0.29611275996065012 0 0.39922652050867191 -0.28295197323892363 0 0.39681295496079538 -0.29611275996065012 0 0.40939030264251791 -0.28957609748361951 0 0.39922652050867191 -0.28295197323892363 0 0.39681295496079538 -0.29611275996065012 0 0.3879772147484597 -0.29176707856862888 0 0.39922652050867191 -0.28295197323892363 0 0.3879772147484597 -0.29176707856862888 0 0.38840358504398731 -0.28029486931936831 0 0.3879772147484597 -0.29176707856862888 0 0.37929392098169401 -0.28404327537796259 0 0.38840358504398731 -0.28029486931936831 0 0.38032829646105881 -0.29636137241382532 0 0.37929392098169401 -0.28404327537796259 0 0.36761344479238373 -0.29508033606196837 0 0.3879772147484597 -0.29176707856862888 0 0.38032829646105881 -0.29636137241382532 0 0.37929392098169401 -0.28404327537796259 0 0.37929392098169401 -0.28404327537796259 0 0.38326599173650672 -0.27147868498013239 0 0.3725796289452375 -0.26579697317357759 0 0.37929392098169401 -0.28404327537796259 0 0.38326599173650672 -0.27147868498013239 0 0.38840358504398731 -0.28029486931936831 0 0.38326599173650672 -0.27147868498013239 0 0.38840358504398731 -0.28029486931936831 0 0.39544519547575041 -0.26880031542545191 0 0.37754581309809132 -0.23651361028518689 0 0.3725796289452375 -0.26579697317357759 0 0.37754581309809132 -0.23651361028518689 0 0.3871149211879113 -0.25548270742864421 0 0.3725796289452375 -0.26579697317357759 0 0.38326599173650672 -0.27147868498013239 0 0.3871149211879113 -0.25548270742864421 0 0.39544519547575041 -0.26880031542545191 0 0.38326599173650672 -0.27147868498013239 0 0.3871149211879113 -0.25548270742864421 0 0.3725796289452375 -0.26579697317357759 0 0.3871149211879113 -0.25548270742864421 0 0.40207495352916539 -0.25113417058953519 0 0.39544519547575041 -0.26880031542545191 0 0.40207495352916539 -0.25113417058953519 0 0.39544519547575041 -0.26880031542545191 0 0.41892532929609411 -0.26994420917295231 0 0.39922652050867191 -0.28295197323892363 0 0.39544519547575041 -0.26880031542545191 0 0.41892532929609411 -0.26994420917295231 0 0.39922652050867191 -0.28295197323892363 0 0.38840358504398731 -0.28029486931936831 0 0.39544519547575041 -0.26880031542545191 0 0.41892532929609411 -0.26994420917295231 0 0.40939030264251791 -0.28957609748361951 0 0.41892532929609411 -0.26994420917295231 0 0.42674472615619141 -0.28201696019190231 0 0.40939030264251791 -0.28957609748361951 0 0.39922652050867191 -0.28295197323892363 0 0.41892532929609411 -0.26994420917295231 0 0.40939030264251791 -0.28957609748361951 0 0.40207495352916539 -0.25113417058953519 0 0.41892532929609411 -0.26994420917295231 0 0.42846035594967069 -0.25031232086228522 0 0.40207495352916539 -0.25113417058953519 0 0.42846035594967069 -0.25031232086228522 0 0.44713049355746243 -0.26775388735664418 0 0.4314427817274139 -0.26389233879167029 0 0.43357426810421817 -0.25015303326672972 0 0.41892532929609411 -0.26994420917295231 0 0.42846035594967069 -0.25031232086228522 0 0.41892532929609411 -0.26994420917295231 0 0.42846035594967069 -0.25031232086228522 0 0.4314427817274139 -0.26389233879167029 0 0.42846035594967069 -0.25031232086228522 0 0.4314427817274139 -0.26389233879167029 0 0.43357426810421817 -0.25015303326672972 0 0.42846035594967069 -0.25031232086228522 0 0.43357426810421817 -0.25015303326672972 0 0.41892532929609411 -0.26994420917295231 0 0.4314427817274139 -0.26389233879167029 0 0.42674472615619141 -0.28201696019190231 0 0.44713049355746243 -0.26775388735664418 0 0.4314427817274139 -0.26389233879167029 0 0.42674472615619141 -0.28201696019190231 0 0.43808872290812301 -0.29542998993102848 0 0.42674472615619141 -0.28201696019190231 0 0.41549072680553711 -0.30550523841549909 0 0.44713049355746243 -0.26775388735664418 0 0.43808872290812301 -0.29542998993102848 0 0.42674472615619141 -0.28201696019190231 0 0.43808872290812301 -0.29542998993102848 0 0.43031487288344161 -0.31703067604683871 0 0.41549072680553711 -0.30550523841549909 0 0.43808872290812301 -0.29542998993102848 0 0.41549072680553711 -0.30550523841549909 0 0.39985527598894161 -0.30920798579428682 0 0.41549072680553711 -0.30550523841549909 0 0.40939030264251791 -0.28957609748361951 0 0.42674472615619141 -0.28201696019190231 0 0.41549072680553711 -0.30550523841549909 0 0.40939030264251791 -0.28957609748361951 0 0.43773802119989941 -0.49999999999999978 0 0.45890943729545802 -0.4823892052391901 0 0.4796611806106722 -0.48718440019654963 0 0.43773802119989941 -0.49999999999999978 0 0.44535189907423273 -0.48425652050154361 0 0.43773802119989941 -0.49999999999999978 0 0.44535189907423273 -0.48425652050154361 0 0.45890943729545802 -0.4823892052391901 0 0.43920548674920379 -0.47249175324936749 0 0.44535189907423273 -0.48425652050154361 0 0.45296577694856682 -0.46851304100308783 0 0.43920548674920379 -0.47249175324936749 0 0.44535189907423273 -0.48425652050154361 0 0.42866409193048188 -0.47676758270227471 0 0.44535189907423273 -0.48425652050154361 0 0.45589009982111051 -0.4775459799915327 0 0.45296577694856682 -0.46851304100308783 0 0.44535189907423273 -0.48425652050154361 0 0.45296577694856682 -0.46851304100308783 0 0.45589009982111051 -0.4775459799915327 0 0.45890943729545802 -0.4823892052391901 0 0.46145872075250199 -0.4714816097570898 0 0.44535189907423273 -0.48425652050154361 0 0.45589009982111051 -0.4775459799915327 0 0.45890943729545802 -0.4823892052391901 0 0.45890943729545802 -0.4823892052391901 0 0.46145872075250199 -0.4714816097570898 0 0.47563876839417468 -0.4748936591889994 0 0.46145872075250199 -0.4714816097570898 0 0.45296577694856682 -0.46851304100308783 0 0.45589009982111051 -0.4775459799915327 0 0.46145872075250199 -0.4714816097570898 0 0.45296577694856682 -0.46851304100308783 0 0.43773802119989941 -0.49999999999999978 0 0.4796611806106722 -0.48718440019654963 0 0.5 -0.5 0 0.4796611806106722 -0.48718440019654963 0 0.5 -0.5 0 0.5 -0.47026069904804169 0 0.5 -0.47026069904804169 0 0.47563876839417468 -0.4748936591889994 0 0.47905351322328699 -0.46315238170412548 0 0.4796611806106722 -0.48718440019654963 0 0.5 -0.47026069904804169 0 0.47563876839417468 -0.4748936591889994 0 0.46145872075250199 -0.4714816097570898 0 0.47563876839417468 -0.4748936591889994 0 0.47905351322328699 -0.46315238170412548 0 0.45890943729545802 -0.4823892052391901 0 0.4796611806106722 -0.48718440019654963 0 0.47563876839417468 -0.4748936591889994 0 0.47905351322328699 -0.46315238170412548 0 0.45899603635761982 -0.45604406436020939 0 0.47905351322328699 -0.46315238170412548 0 0.4788951805990147 -0.44564391983896778 0 0.45899603635761982 -0.45604406436020939 0 0.5 -0.47026069904804169 0 0.47905351322328699 -0.46315238170412548 0 0.5 -0.44373220895607401 0 0.5 -0.47026069904804169 0 0.47905351322328699 -0.46315238170412548 0 0.5 -0.44373220895607401 0 0.4788951805990147 -0.44564391983896778 0 0.48552804520920678 -0.42799216931292611 0 0.47905351322328699 -0.46315238170412548 0 0.5 -0.44373220895607401 0 0.4788951805990147 -0.44564391983896778 0 0.4788951805990147 -0.44564391983896778 0 0.45899603635761982 -0.45604406436020939 0 0.46924702726821282 -0.43484773472326599 0 0.45899603635761982 -0.45604406436020939 0 0.46924702726821282 -0.43484773472326599 0 0.45899603635761982 -0.45604406436020939 0 0.44838303037477362 -0.43447900987216292 0 0.46924702726821282 -0.43484773472326599 0 0.46145872075250199 -0.4714816097570898 0 0.47905351322328699 -0.46315238170412548 0 0.45899603635761982 -0.45604406436020939 0 0.46145872075250199 -0.4714816097570898 0 0.45899603635761982 -0.45604406436020939 0 0.45296577694856682 -0.46851304100308783 0 0.45899603635761982 -0.45604406436020939 0 0.45296577694856682 -0.46851304100308783 0 0.44562172027540892 -0.45801600689332289 0 0.45296577694856682 -0.46851304100308783 0 0.42984017904353489 -0.46042986879056458 0 0.43920548674920379 -0.47249175324936749 0 0.45296577694856682 -0.46851304100308783 0 0.42984017904353489 -0.46042986879056458 0 0.44562172027540892 -0.45801600689332289 0 0.43764883001816302 -0.44847867026387339 0 0.42984017904353489 -0.46042986879056458 0 0.45899603635761982 -0.45604406436020939 0 0.44562172027540892 -0.45801600689332289 0 0.45296577694856682 -0.46851304100308783 0 0.45296577694856682 -0.46851304100308783 0 0.42984017904353489 -0.46042986879056458 0 0.45899603635761982 -0.45604406436020939 0 0.44562172027540892 -0.45801600689332289 0 0.43764883001816302 -0.44847867026387339 0 0.45899603635761982 -0.45604406436020939 0 0.43764883001816302 -0.44847867026387339 0 0.44838303037477362 -0.43447900987216292 0 0.43764883001816302 -0.44847867026387339 0 0.44838303037477362 -0.43447900987216292 0 0.43199803478474752 -0.43480066315574151 0 0.45899603635761982 -0.45604406436020939 0 0.43764883001816302 -0.44847867026387339 0 0.44838303037477362 -0.43447900987216292 0 0.43524810038533429 -0.42324892749070769 0 0.43199803478474752 -0.43480066315574151 0 0.44838303037477362 -0.43447900987216292 0 0.45481320319103757 -0.41743251132042969 0 0.43524810038533429 -0.42324892749070769 0 0.45481320319103757 -0.41743251132042969 0 0.43477646914432833 -0.40550992295969079 0 0.43524810038533429 -0.42324892749070769 0 0.45481320319103757 -0.41743251132042969 0 0.46680969583490778 -0.41274858841526157 0 0.46924702726821282 -0.43484773472326599 0 0.45481320319103757 -0.41743251132042969 0 0.46680969583490778 -0.41274858841526157 0 0.46697148891275431 -0.40002921638500172 0 0.44838303037477362 -0.43447900987216292 0 0.45481320319103757 -0.41743251132042969 0 0.46924702726821282 -0.43484773472326599 0 0.5 -0.44373220895607401 0 0.48552804520920678 -0.42799216931292611 0 0.5 -0.40208557795999961 0 0.46924702726821282 -0.43484773472326599 0 0.48552804520920678 -0.42799216931292611 0 0.47949801817880677 -0.41365140508632309 0 0.4788951805990147 -0.44564391983896778 0 0.46924702726821282 -0.43484773472326599 0 0.48552804520920678 -0.42799216931292611 0 0.46924702726821282 -0.43484773472326599 0 0.47949801817880677 -0.41365140508632309 0 0.48552804520920678 -0.42799216931292611 0 0.47949801817880677 -0.41365140508632309 0 0.5 -0.40208557795999961 0 0.46680969583490778 -0.41274858841526157 0 0.46924702726821282 -0.43484773472326599 0 0.47949801817880677 -0.41365140508632309 0 0.46680969583490778 -0.41274858841526157 0 0.47949801817880677 -0.41365140508632309 0 0.47485796399023311 -0.40328323013715978 0 0.47949801817880677 -0.41365140508632309 0 0.47485796399023311 -0.40328323013715978 0 0.48501034131379339 -0.39589669118590137 0 0.46680969583490778 -0.41274858841526157 0 0.47485796399023311 -0.40328323013715978 0 0.46697148891275431 -0.40002921638500172 0 0.47485796399023311 -0.40328323013715978 0 0.47548297721973709 -0.39513831255209197 0 0.46697148891275431 -0.40002921638500172 0 0.47548297721973709 -0.39513831255209197 0 0.47310568845609052 -0.38536867418522291 0 0.46697148891275431 -0.40002921638500172 0 0.47548297721973709 -0.39513831255209197 0 0.48501034131379339 -0.39589669118590137 0 0.47310568845609052 -0.38536867418522291 0 0.47485796399023311 -0.40328323013715978 0 0.47548297721973709 -0.39513831255209197 0 0.48501034131379339 -0.39589669118590137 0 0.47949801817880677 -0.41365140508632309 0 0.48974900908940078 -0.39245507544938019 0 0.47949801817880677 -0.41365140508632309 0 0.5 -0.40208557795999961 0 0.48974900908940078 -0.39245507544938019 0 0.47949801817880677 -0.41365140508632309 0 0.48974900908940078 -0.39245507544938019 0 0.48501034131379339 -0.39589669118590137 0 0.49999999999999711 -0.37125874581243851 0 0.5 -0.40208557795999961 0 0.48974900908940078 -0.39245507544938019 0 0.49999999999999711 -0.37125874581243851 0 0.47674069655525092 -0.3698978429939776 0 0.48974900908940078 -0.39245507544938019 0 0.49999999999999711 -0.37125874581243851 0 0.48974900908940078 -0.39245507544938019 0 0.47674069655525092 -0.3698978429939776 0 0.48501034131379339 -0.39589669118590137 0 0.47310568845609052 -0.38536867418522291 0 0.47674069655525092 -0.3698978429939776 0 0.48974900908940078 -0.39245507544938019 0 0.48501034131379339 -0.39589669118590137 0 0.47674069655525092 -0.3698978429939776 0 0.48501034131379339 -0.39589669118590137 0 0.45392603783110008 -0.37108838658624999 0 0.47310568845609052 -0.38536867418522291 0 0.45155556879862868 -0.3944603689424081 0 0.47674069655525092 -0.3698978429939776 0 0.45392603783110008 -0.37108838658624999 0 0.47310568845609052 -0.38536867418522291 0 0.45481320319103757 -0.41743251132042969 0 0.46697148891275431 -0.40002921638500172 0 0.45155556879862868 -0.3944603689424081 0 0.47310568845609052 -0.38536867418522291 0 0.46697148891275431 -0.40002921638500172 0 0.45155556879862868 -0.3944603689424081 0 0.45481320319103757 -0.41743251132042969 0 0.45155556879862868 -0.3944603689424081 0 0.43477646914432833 -0.40550992295969079 0 0.45155556879862868 -0.3944603689424081 0 0.43242581624588322 -0.38730115333965082 0 0.43477646914432833 -0.40550992295969079 0 0.45392603783110008 -0.37108838658624999 0 0.45155556879862868 -0.3944603689424081 0 0.43242581624588322 -0.38730115333965082 0 0.42785183481717409 -0.36595316276467199 0 0.43242581624588322 -0.38730115333965082 0 0.41287057948892703 -0.38518927514730122 0 0.43242581624588322 -0.38730115333965082 0 0.43477646914432833 -0.40550992295969079 0 0.41749483707519452 -0.40538692165420498 0 0.43242581624588322 -0.38730115333965082 0 0.41749483707519452 -0.40538692165420498 0 0.41287057948892703 -0.38518927514730122 0 0.41749483707519452 -0.40538692165420498 0 0.41287057948892703 -0.38518927514730122 0 0.40336078828097621 -0.40362515372992341 0 0.4111933065081313 -0.36805982019164402 0 0.41287057948892703 -0.38518927514730122 0 0.39650622041158878 -0.3765742856902482 0 0.41287057948892703 -0.38518927514730122 0 0.39650622041158878 -0.3765742856902482 0 0.39372170841196569 -0.3925803949292499 0 0.38249634533461108 -0.36797477098799591 0 0.39650622041158878 -0.3765742856902482 0 0.37900977316023637 -0.39091548517495972 0 0.39650622041158878 -0.3765742856902482 0 0.37900977316023637 -0.39091548517495972 0 0.39372170841196569 -0.3925803949292499 0 0.38249634533461108 -0.36797477098799591 0 0.37900977316023637 -0.39091548517495972 0 0.36724772315424481 -0.38247146420994571 0 0.37900977316023637 -0.39091548517495972 0 0.39372170841196569 -0.3925803949292499 0 0.37842665921942997 -0.40887405987875969 0 0.37900977316023637 -0.39091548517495972 0 0.37842665921942997 -0.40887405987875969 0 0.36824105802713031 -0.4000969440192842 0 0.39372170841196569 -0.3925803949292499 0 0.39194747191700757 -0.41402513481906722 0 0.37842665921942997 -0.40887405987875969 0 0.41287057948892703 -0.38518927514730122 0 0.39372170841196569 -0.3925803949292499 0 0.40336078828097621 -0.40362515372992341 0 0.39372170841196569 -0.3925803949292499 0 0.40336078828097621 -0.40362515372992341 0 0.39194747191700757 -0.41402513481906722 0 0.40336078828097621 -0.40362515372992341 0 0.39194747191700757 -0.41402513481906722 0 0.41036500379586138 -0.42217021861448573 0 0.39194747191700757 -0.41402513481906722 0 0.37842665921942997 -0.40887405987875969 0 0.3754845505291648 -0.42231636227288599 0 0.39194747191700757 -0.41402513481906722 0 0.38276612650569841 -0.43173139982273478 0 0.39495441733924969 -0.43334788207120151 0 0.39194747191700757 -0.41402513481906722 0 0.3754845505291648 -0.42231636227288599 0 0.38276612650569841 -0.43173139982273478 0 0.38276612650569841 -0.43173139982273478 0 0.39495441733924969 -0.43334788207120151 0 0.38358898323347101 -0.44426352436551808 0 0.39495441733924969 -0.43334788207120151 0 0.41630162367870638 -0.44091327616753739 0 0.39194747191700757 -0.41402513481906722 0 0.39495441733924969 -0.43334788207120151 0 0.41036500379586138 -0.42217021861448573 0 0.41036500379586138 -0.42217021861448573 0 0.42295569064062533 -0.42699492369753778 0 0.41630162367870638 -0.44091327616753739 0 0.39495441733924969 -0.43334788207120151 0 0.41036500379586138 -0.42217021861448573 0 0.41630162367870638 -0.44091327616753739 0 0.41749483707519452 -0.40538692165420498 0 0.40336078828097621 -0.40362515372992341 0 0.41036500379586138 -0.42217021861448573 0 0.41749483707519452 -0.40538692165420498 0 0.41036500379586138 -0.42217021861448573 0 0.42458756094721539 -0.41613405657310448 0 0.41036500379586138 -0.42217021861448573 0 0.42458756094721539 -0.41613405657310448 0 0.42295569064062533 -0.42699492369753778 0 0.43477646914432833 -0.40550992295969079 0 0.41749483707519452 -0.40538692165420498 0 0.42458756094721539 -0.41613405657310448 0 0.43477646914432833 -0.40550992295969079 0 0.42458756094721539 -0.41613405657310448 0 0.43524810038533429 -0.42324892749070769 0 0.43199803478474752 -0.43480066315574151 0 0.42295569064062533 -0.42699492369753778 0 0.41630162367870638 -0.44091327616753739 0 0.43524810038533429 -0.42324892749070769 0 0.43199803478474752 -0.43480066315574151 0 0.42295569064062533 -0.42699492369753778 0 0.42458756094721539 -0.41613405657310448 0 0.43524810038533429 -0.42324892749070769 0 0.42295569064062533 -0.42699492369753778 0 0.43764883001816302 -0.44847867026387339 0 0.41630162367870638 -0.44091327616753739 0 0.43764883001816302 -0.44847867026387339 0 0.42984017904353489 -0.46042986879056458 0 0.41630162367870638 -0.44091327616753739 0 0.43764883001816302 -0.44847867026387339 0 0.43199803478474752 -0.43480066315574151 0 0.41630162367870638 -0.44091327616753739 0 0.42984017904353489 -0.46042986879056458 0 0.41583716859034447 -0.46620520778226737 0 0.42866409193048188 -0.47676758270227471 0 0.42984017904353489 -0.46042986879056458 0 0.4067145811385029 -0.45234669657804139 0 0.42984017904353489 -0.46042986879056458 0 0.41583716859034447 -0.46620520778226737 0 0.4067145811385029 -0.45234669657804139 0 0.41583716859034447 -0.46620520778226737 0 0.4067145811385029 -0.45234669657804139 0 0.40148396946935899 -0.46677367853588281 0 0.42984017904353489 -0.46042986879056458 0 0.4067145811385029 -0.45234669657804139 0 0.41630162367870638 -0.44091327616753739 0 0.4067145811385029 -0.45234669657804139 0 0.38358898323347101 -0.44426352436551808 0 0.39182712026942329 -0.45690385307896481 0 0.39495441733924969 -0.43334788207120151 0 0.4067145811385029 -0.45234669657804139 0 0.41630162367870638 -0.44091327616753739 0 0.39495441733924969 -0.43334788207120151 0 0.4067145811385029 -0.45234669657804139 0 0.38358898323347101 -0.44426352436551808 0 0.4067145811385029 -0.45234669657804139 0 0.38358898323347101 -0.44426352436551808 0 0.38358898323347101 -0.44426352436551808 0 0.37514595674159079 -0.45476526552439389 0 0.39182712026942329 -0.45690385307896481 0 0.38276612650569841 -0.43173139982273478 0 0.38358898323347101 -0.44426352436551808 0 0.36596817218281208 -0.43846752572535042 0 0.37514595674159079 -0.45476526552439389 0 0.38538716437757631 -0.46842775420537441 0 0.39182712026942329 -0.45690385307896481 0 0.37514595674159079 -0.45476526552439389 0 0.38538716437757631 -0.46842775420537441 0 0.37212180294075042 -0.46808428500039262 0 0.38538716437757631 -0.46842775420537441 0 0.39182712026942329 -0.45690385307896481 0 0.40148396946935899 -0.46677367853588281 0 0.4067145811385029 -0.45234669657804139 0 0.39182712026942329 -0.45690385307896481 0 0.40148396946935899 -0.46677367853588281 0 0.39434508200087892 -0.48168095957978257 0 0.4057717135424021 -0.48929931529832937 0 0.41138522724611992 -0.47610642689805982 0 0.38538716437757631 -0.46842775420537441 0 0.40148396946935899 -0.46677367853588281 0 0.39434508200087892 -0.48168095957978257 0 0.40148396946935899 -0.46677367853588281 0 0.39434508200087892 -0.48168095957978257 0 0.41138522724611992 -0.47610642689805982 0 0.38538716437757631 -0.46842775420537441 0 0.39434508200087892 -0.48168095957978257 0 0.37586822855092661 -0.48439202442808083 0 0.38538716437757631 -0.46842775420537441 0 0.37586822855092661 -0.48439202442808083 0 0.37212180294075042 -0.46808428500039262 0 0.39434508200087892 -0.48168095957978257 0 0.37586822855092661 -0.48439202442808083 0 0.39289039342582149 -0.5 0 0.37586822855092661 -0.48439202442808083 0 0.39289039342582149 -0.5 0 0.3704665795387827 -0.49999999999999961 0 0.39434508200087892 -0.48168095957978257 0 0.39289039342582149 -0.5 0 0.4057717135424021 -0.48929931529832937 0 0.39289039342582149 -0.5 0 0.4057717135424021 -0.48929931529832937 0 0.41531420731286051 -0.5 0 0.4057717135424021 -0.48929931529832937 0 0.41138522724611992 -0.47610642689805982 0 0.425256426736628 -0.48969697811313823 0 0.4057717135424021 -0.48929931529832937 0 0.41531420731286051 -0.5 0 0.425256426736628 -0.48969697811313823 0 0.41583716859034447 -0.46620520778226737 0 0.41138522724611992 -0.47610642689805982 0 0.42866409193048188 -0.47676758270227471 0 0.41138522724611992 -0.47610642689805982 0 0.42866409193048188 -0.47676758270227471 0 0.425256426736628 -0.48969697811313823 0 0.41583716859034447 -0.46620520778226737 0 0.40148396946935899 -0.46677367853588281 0 0.41138522724611992 -0.47610642689805982 0 0.44535189907423273 -0.48425652050154361 0 0.42866409193048188 -0.47676758270227471 0 0.425256426736628 -0.48969697811313823 0 0.43920548674920379 -0.47249175324936749 0 0.42984017904353489 -0.46042986879056458 0 0.42866409193048188 -0.47676758270227471 0 0.43773802119989941 -0.49999999999999978 0 0.44535189907423273 -0.48425652050154361 0 0.425256426736628 -0.48969697811313823 0 0.43773802119989941 -0.49999999999999978 0 0.41531420731286051 -0.5 0 0.425256426736628 -0.48969697811313823 0 0.32577547594680167 -0.48549728563522948 0 0.313100747974287 -0.5 0 0.34178366375653479 -0.5 0 0.32577547594680167 -0.48549728563522948 0 0.33309118936964399 -0.46704031311580291 0 0.30810638268294871 -0.47012115952174682 0 0.353331436476917 -0.48488928282810861 0 0.33309118936964399 -0.46704031311580291 0 0.32577547594680167 -0.48549728563522948 0 0.353331436476917 -0.48488928282810861 0 0.33309118936964399 -0.46704031311580291 0 0.32577547594680167 -0.48549728563522948 0 0.353331436476917 -0.48488928282810861 0 0.32577547594680167 -0.48549728563522948 0 0.34178366375653479 -0.5 0 0.353331436476917 -0.48488928282810861 0 0.34178366375653479 -0.5 0 0.353331436476917 -0.48488928282810861 0 0.3704665795387827 -0.49999999999999961 0 0.353331436476917 -0.48488928282810861 0 0.3704665795387827 -0.49999999999999961 0 0.37586822855092661 -0.48439202442808083 0 0.353331436476917 -0.48488928282810861 0 0.37586822855092661 -0.48439202442808083 0 0.353331436476917 -0.48488928282810861 0 0.3704665795387827 -0.49999999999999961 0 0.37586822855092661 -0.48439202442808083 0 0.353331436476917 -0.48488928282810861 0 0.36174609683149922 -0.47333229839911978 0 0.37586822855092661 -0.48439202442808083 0 0.36174609683149922 -0.47333229839911978 0 0.37212180294075042 -0.46808428500039262 0 0.353331436476917 -0.48488928282810861 0 0.3511187368843669 -0.46644655109408317 0 0.33309118936964399 -0.46704031311580291 0 0.353331436476917 -0.48488928282810861 0 0.36174609683149922 -0.47333229839911978 0 0.3511187368843669 -0.46644655109408317 0 0.3511187368843669 -0.46644655109408317 0 0.34821094164401439 -0.44963138573543099 0 0.33309118936964399 -0.46704031311580291 0 0.3511187368843669 -0.46644655109408317 0 0.36000734278227892 -0.4581682973830864 0 0.34821094164401439 -0.44963138573543099 0 0.36174609683149922 -0.47333229839911978 0 0.3511187368843669 -0.46644655109408317 0 0.36000734278227892 -0.4581682973830864 0 0.36174609683149922 -0.47333229839911978 0 0.36000734278227892 -0.4581682973830864 0 0.37212180294075042 -0.46808428500039262 0 0.37514595674159079 -0.45476526552439389 0 0.36000734278227892 -0.4581682973830864 0 0.37212180294075042 -0.46808428500039262 0 0.38358898323347101 -0.44426352436551808 0 0.37514595674159079 -0.45476526552439389 0 0.36596817218281208 -0.43846752572535042 0 0.37514595674159079 -0.45476526552439389 0 0.36000734278227892 -0.4581682973830864 0 0.36596817218281208 -0.43846752572535042 0 0.36596817218281208 -0.43846752572535042 0 0.34821094164401439 -0.44963138573543099 0 0.34622956703096991 -0.43300533851794337 0 0.36000734278227892 -0.4581682973830864 0 0.36596817218281208 -0.43846752572535042 0 0.34821094164401439 -0.44963138573543099 0 0.34821094164401439 -0.44963138573543099 0 0.33295970409203041 -0.44505156475946112 0 0.34622956703096991 -0.43300533851794337 0 0.34821094164401439 -0.44963138573543099 0 0.33295970409203041 -0.44505156475946112 0 0.33309118936964399 -0.46704031311580291 0 0.33295970409203041 -0.44505156475946112 0 0.33309118936964399 -0.46704031311580291 0 0.31285094226236981 -0.44919134340349842 0 0.33309118936964399 -0.46704031311580291 0 0.31285094226236981 -0.44919134340349842 0 0.33309118936964399 -0.46704031311580291 0 0.31285094226236981 -0.44919134340349842 0 0.30810638268294871 -0.47012115952174682 0 0.33295970409203041 -0.44505156475946112 0 0.31285094226236981 -0.44919134340349842 0 0.32443481461114221 -0.42819348402864749 0 0.31285094226236981 -0.44919134340349842 0 0.32443481461114221 -0.42819348402864749 0 0.30716585811758268 -0.42152601893676211 0 0.32443481461114221 -0.42819348402864749 0 0.3377381929345476 -0.41993594981441068 0 0.31826237910007699 -0.40611857650776678 0 0.32443481461114221 -0.42819348402864749 0 0.31826237910007699 -0.40611857650776678 0 0.30716585811758268 -0.42152601893676211 0 0.3377381929345476 -0.41993594981441068 0 0.33955155732169001 -0.40481801647484189 0 0.31826237910007699 -0.40611857650776678 0 0.32443481461114221 -0.42819348402864749 0 0.3377381929345476 -0.41993594981441068 0 0.34622956703096991 -0.43300533851794337 0 0.33295970409203041 -0.44505156475946112 0 0.32443481461114221 -0.42819348402864749 0 0.34622956703096991 -0.43300533851794337 0 0.3377381929345476 -0.41993594981441068 0 0.34622956703096991 -0.43300533851794337 0 0.35818280584871282 -0.41603879828427831 0 0.36596817218281208 -0.43846752572535042 0 0.34622956703096991 -0.43300533851794337 0 0.35818280584871282 -0.41603879828427831 0 0.3754845505291648 -0.42231636227288599 0 0.36596817218281208 -0.43846752572535042 0 0.35818280584871282 -0.41603879828427831 0 0.3754845505291648 -0.42231636227288599 0 0.38276612650569841 -0.43173139982273478 0 0.36596817218281208 -0.43846752572535042 0 0.37842665921942997 -0.40887405987875969 0 0.3754845505291648 -0.42231636227288599 0 0.35818280584871282 -0.41603879828427831 0 0.37842665921942997 -0.40887405987875969 0 0.35818280584871282 -0.41603879828427831 0 0.36824105802713031 -0.4000969440192842 0 0.3377381929345476 -0.41993594981441068 0 0.35818280584871282 -0.41603879828427831 0 0.33955155732169001 -0.40481801647484189 0 0.35818280584871282 -0.41603879828427831 0 0.35120943534252291 -0.3914849644630724 0 0.33955155732169001 -0.40481801647484189 0 0.35818280584871282 -0.41603879828427831 0 0.35120943534252291 -0.3914849644630724 0 0.36824105802713031 -0.4000969440192842 0 0.37900977316023637 -0.39091548517495972 0 0.36824105802713031 -0.4000969440192842 0 0.36724772315424481 -0.38247146420994571 0 0.35120943534252291 -0.3914849644630724 0 0.36824105802713031 -0.4000969440192842 0 0.36724772315424481 -0.38247146420994571 0 0.36724772315424481 -0.38247146420994571 0 0.3553956415560332 -0.375446985373177 0 0.36664078794155069 -0.36853845970684512 0 0.35120943534252291 -0.3914849644630724 0 0.3553956415560332 -0.375446985373177 0 0.34024068493209042 -0.37145909403295352 0 0.35120943534252291 -0.3914849644630724 0 0.36724772315424481 -0.38247146420994571 0 0.3553956415560332 -0.375446985373177 0 0.35120943534252291 -0.3914849644630724 0 0.33045907805143321 -0.38798152631774108 0 0.34024068493209042 -0.37145909403295352 0 0.33045907805143321 -0.38798152631774108 0 0.34024068493209042 -0.37145909403295352 0 0.32473595581008968 -0.36877041147622941 0 0.33045907805143321 -0.38798152631774108 0 0.33955155732169001 -0.40481801647484189 0 0.31826237910007699 -0.40611857650776678 0 0.35120943534252291 -0.3914849644630724 0 0.33045907805143321 -0.38798152631774108 0 0.33955155732169001 -0.40481801647484189 0 0.33045907805143321 -0.38798152631774108 0 0.31826237910007699 -0.40611857650776678 0 0.30852465471842783 -0.38296478278532459 0 0.33045907805143321 -0.38798152631774108 0 0.30852465471842783 -0.38296478278532459 0 0.32473595581008968 -0.36877041147622941 0 0.30852465471842783 -0.38296478278532459 0 0.30157177088572762 -0.39984768184154418 0 0.28524522637625171 -0.38748256695808048 0 0.31826237910007699 -0.40611857650776678 0 0.30852465471842783 -0.38296478278532459 0 0.30157177088572762 -0.39984768184154418 0 0.30157177088572762 -0.39984768184154418 0 0.28524522637625171 -0.38748256695808048 0 0.28909827497095891 -0.41314244090476959 0 0.30852465471842783 -0.38296478278532459 0 0.28524522637625171 -0.38748256695808048 0 0.29576167506738288 -0.36584798696867898 0 0.28524522637625171 -0.38748256695808048 0 0.26194523537769671 -0.38343407302417171 0 0.27628411724202862 -0.36524783617958329 0 0.26194523537769671 -0.38343407302417171 0 0.2677956642119742 -0.40840362680373948 0 0.24730388124056729 -0.40448370284608931 0 0.28524522637625171 -0.38748256695808048 0 0.26194523537769671 -0.38343407302417171 0 0.2677956642119742 -0.40840362680373948 0 0.28524522637625171 -0.38748256695808048 0 0.2677956642119742 -0.40840362680373948 0 0.28909827497095891 -0.41314244090476959 0 0.2677956642119742 -0.40840362680373948 0 0.27472650047210662 -0.43131219108599711 0 0.28909827497095891 -0.41314244090476959 0 0.2677956642119742 -0.40840362680373948 0 0.24845486683426421 -0.43056678600332871 0 0.24730388124056729 -0.40448370284608931 0 0.2677956642119742 -0.40840362680373948 0 0.27472650047210662 -0.43131219108599711 0 0.24845486683426421 -0.43056678600332871 0 0.27472650047210662 -0.43131219108599711 0 0.26710508502781599 -0.44926171113960661 0 0.24845486683426421 -0.43056678600332871 0 0.27472650047210662 -0.43131219108599711 0 0.29418269027227539 -0.43431919247607059 0 0.28909827497095891 -0.41314244090476959 0 0.29418269027227539 -0.43431919247607059 0 0.28909827497095891 -0.41314244090476959 0 0.30716585811758268 -0.42152601893676211 0 0.31826237910007699 -0.40611857650776678 0 0.30157177088572762 -0.39984768184154418 0 0.30716585811758268 -0.42152601893676211 0 0.30157177088572762 -0.39984768184154418 0 0.28909827497095891 -0.41314244090476959 0 0.30716585811758268 -0.42152601893676211 0 0.31285094226236981 -0.44919134340349842 0 0.29418269027227539 -0.43431919247607059 0 0.30716585811758268 -0.42152601893676211 0 0.31285094226236981 -0.44919134340349842 0 0.29418269027227539 -0.43431919247607059 0 0.28597809560131299 -0.4567624239266439 0 0.31285094226236981 -0.44919134340349842 0 0.28597809560131299 -0.4567624239266439 0 0.30810638268294871 -0.47012115952174682 0 0.28597809560131299 -0.4567624239266439 0 0.27356505094757272 -0.46654042127887851 0 0.28658471780149791 -0.47429793876749549 0 0.28597809560131299 -0.4567624239266439 0 0.28658471780149791 -0.47429793876749549 0 0.30810638268294871 -0.47012115952174682 0 0.27472650047210662 -0.43131219108599711 0 0.29418269027227539 -0.43431919247607059 0 0.28597809560131299 -0.4567624239266439 0 0.27472650047210662 -0.43131219108599711 0 0.28597809560131299 -0.4567624239266439 0 0.26710508502781599 -0.44926171113960661 0 0.26710508502781599 -0.44926171113960661 0 0.25055382002994903 -0.45112655962101422 0 0.24845486683426421 -0.43056678600332871 0 0.25055382002994903 -0.45112655962101422 0 0.25749380142066591 -0.46566674131117769 0 0.24452211955108941 -0.47321082899062988 0 0.26710508502781599 -0.44926171113960661 0 0.25055382002994903 -0.45112655962101422 0 0.25749380142066591 -0.46566674131117769 0 0.26710508502781599 -0.44926171113960661 0 0.25749380142066591 -0.46566674131117769 0 0.27356505094757272 -0.46654042127887851 0 0.28597809560131299 -0.4567624239266439 0 0.26710508502781599 -0.44926171113960661 0 0.27356505094757272 -0.46654042127887851 0 0.25749380142066591 -0.46566674131117769 0 0.27356505094757272 -0.46654042127887851 0 0.27066355488657068 -0.48671329124946883 0 0.27356505094757272 -0.46654042127887851 0 0.27066355488657068 -0.48671329124946883 0 0.28658471780149791 -0.47429793876749549 0 0.27066355488657068 -0.48671329124946883 0 0.24310759435645521 -0.48732129405658853 0 0.24452211955108941 -0.47321082899062988 0 0.25749380142066591 -0.46566674131117769 0 0.27066355488657068 -0.48671329124946883 0 0.24452211955108941 -0.47321082899062988 0 0.25573491640979129 -0.5 0 0.27066355488657068 -0.48671329124946883 0 0.24310759435645521 -0.48732129405658853 0 0.27066355488657068 -0.48671329124946883 0 0.24310759435645521 -0.48732129405658853 0 0.25573491640979129 -0.5 0 0.27066355488657068 -0.48671329124946883 0 0.2844178321920392 -0.5 0 0.27066355488657068 -0.48671329124946883 0 0.2844178321920392 -0.5 0 0.29821951541668618 -0.48610528844234918 0 0.27066355488657068 -0.48671329124946883 0 0.29821951541668618 -0.48610528844234918 0 0.27066355488657068 -0.48671329124946883 0 0.28658471780149791 -0.47429793876749549 0 0.29821951541668618 -0.48610528844234918 0 0.28658471780149791 -0.47429793876749549 0 0.30810638268294871 -0.47012115952174682 0 0.29821951541668618 -0.48610528844234918 0 0.32577547594680167 -0.48549728563522948 0 0.30810638268294871 -0.47012115952174682 0 0.29821951541668618 -0.48610528844234918 0 0.313100747974287 -0.5 0 0.2844178321920392 -0.5 0 0.29821951541668618 -0.48610528844234918 0 0.32577547594680167 -0.48549728563522948 0 0.29821951541668618 -0.48610528844234918 0 0.32577547594680167 -0.48549728563522948 0 0.313100747974287 -0.5 0 0.29821951541668618 -0.48610528844234918 0 0.330274064289036 -0.28402767586280209 0 0.34332234684577362 -0.29793808318023329 0 0.34457666422559302 -0.26801309975333321 0 0.330274064289036 -0.28402767586280209 0 0.34332234684577362 -0.29793808318023329 0 0.32977293544345387 -0.30596193421111573 0 0.34332234684577362 -0.29793808318023329 0 0.32977293544345387 -0.30596193421111573 0 0.34206802946595682 -0.32786306660713371 0 0.31744302567780058 -0.29875438106107682 0 0.32081511337912821 -0.31891284763754968 0 0.29956219729229971 -0.30996262866796498 0 0.32977293544345387 -0.30596193421111573 0 0.31744302567780058 -0.29875438106107682 0 0.32081511337912821 -0.31891284763754968 0 0.31744302567780058 -0.29875438106107682 0 0.315203972569992 -0.28599406388836862 0 0.30893165249025939 -0.29458973757352408 0 0.330274064289036 -0.28402767586280209 0 0.32977293544345387 -0.30596193421111573 0 0.31744302567780058 -0.29875438106107682 0 0.330274064289036 -0.28402767586280209 0 0.31744302567780058 -0.29875438106107682 0 0.315203972569992 -0.28599406388836862 0 0.31616400359283131 -0.27140021809428472 0 0.31565659849655159 -0.26881006701694032 0 0.34457666422559302 -0.26801309975333321 0 0.31616400359283131 -0.27140021809428472 0 0.31565659849655159 -0.26881006701694032 0 0.330274064289036 -0.28402767586280209 0 0.315203972569992 -0.28599406388836862 0 0.31616400359283131 -0.27140021809428472 0 0.31140457280844042 -0.24710474912070499 0 0.31565659849655159 -0.26881006701694032 0 0.31140457280844042 -0.24710474912070499 0 0.31565659849655159 -0.26881006701694032 0 0.32909477526671738 -0.25319804842994992 0 0.34542116247921317 -0.24786541093840589 0 0.32909477526671738 -0.25319804842994992 0 0.34457666422559302 -0.26801309975333321 0 0.31565659849655159 -0.26881006701694032 0 0.32909477526671738 -0.25319804842994992 0 0.34457666422559302 -0.26801309975333321 0 0.31565659849655159 -0.26881006701694032 0 0.34457666422559302 -0.26801309975333321 0 0.330274064289036 -0.28402767586280209 0 0.31616400359283131 -0.27140021809428472 0 0.34457666422559302 -0.26801309975333321 0 0.35327842571551671 -0.2677733001931194 0 0.36211004630048071 -0.25874315800932568 0 0.36139056500297317 -0.28258450191058321 0 0.34457666422559302 -0.26801309975333321 0 0.35327842571551671 -0.2677733001931194 0 0.36139056500297317 -0.28258450191058321 0 0.34457666422559302 -0.26801309975333321 0 0.35327842571551671 -0.2677733001931194 0 0.34542116247921317 -0.24786541093840589 0 0.35327842571551671 -0.2677733001931194 0 0.36211004630048071 -0.25874315800932568 0 0.34542116247921317 -0.24786541093840589 0 0.34457666422559302 -0.26801309975333321 0 0.34542116247921317 -0.24786541093840589 0 0.34457666422559302 -0.26801309975333321 0 0.35327842571551671 -0.2677733001931194 0 0.36876625398544938 -0.24898888889403961 0 0.37754581309809132 -0.23651361028518689 0 0.3725796289452375 -0.26579697317357759 0 0.36876625398544938 -0.24898888889403961 0 0.36211004630048071 -0.25874315800932568 0 0.3725796289452375 -0.26579697317357759 0 0.36211004630048071 -0.25874315800932568 0 0.36139056500297317 -0.28258450191058321 0 0.36211004630048071 -0.25874315800932568 0 0.3725796289452375 -0.26579697317357759 0 0.36139056500297317 -0.28258450191058321 0 0.3725796289452375 -0.26579697317357759 0 0.36761344479238373 -0.29508033606196837 0 0.3725796289452375 -0.26579697317357759 0 0.36139056500297317 -0.28258450191058321 0 0.36761344479238373 -0.29508033606196837 0 0.36139056500297317 -0.28258450191058321 0 0.36067108370546558 -0.30642584581184062 0 0.36139056500297317 -0.28258450191058321 0 0.36761344479238373 -0.29508033606196837 0 0.36067108370546558 -0.30642584581184062 0 0.37929392098169401 -0.28404327537796259 0 0.3725796289452375 -0.26579697317357759 0 0.36761344479238373 -0.29508033606196837 0 0.34332234684577362 -0.29793808318023329 0 0.36139056500297317 -0.28258450191058321 0 0.36067108370546558 -0.30642584581184062 0 0.34332234684577362 -0.29793808318023329 0 0.34457666422559302 -0.26801309975333321 0 0.34332234684577362 -0.29793808318023329 0 0.34457666422559302 -0.26801309975333321 0 0.36139056500297317 -0.28258450191058321 0 0.34332234684577362 -0.29793808318023329 0 0.36067108370546558 -0.30642584581184062 0 0.35385294866325562 -0.31815161708919842 0 0.37804720550635529 -0.30651687721429538 0 0.36761344479238373 -0.29508033606196837 0 0.37325959660283969 -0.31225701655594912 0 0.36761344479238373 -0.29508033606196837 0 0.37325959660283969 -0.31225701655594912 0 0.36522996683296982 -0.32210974174446261 0 0.36761344479238373 -0.29508033606196837 0 0.3626472606395299 -0.32436369895035932 0 0.36761344479238373 -0.29508033606196837 0 0.36067108370546558 -0.30642584581184062 0 0.3626472606395299 -0.32436369895035932 0 0.36067108370546558 -0.30642584581184062 0 0.35995160240795782 -0.33026718971309799 0 0.37325959660283969 -0.31225701655594912 0 0.36522996683296982 -0.32210974174446261 0 0.37029473460036533 -0.32565573538444043 0 0.36761344479238373 -0.29508033606196837 0 0.3626472606395299 -0.32436369895035932 0 0.36522996683296982 -0.32210974174446261 0 0.36067108370546558 -0.30642584581184062 0 0.3626472606395299 -0.32436369895035932 0 0.35995160240795782 -0.33026718971309799 0 0.38064079273778262 -0.31288188218018531 0 0.37325959660283969 -0.31225701655594912 0 0.37029473460036533 -0.32565573538444043 0 0.3626472606395299 -0.32436369895035932 0 0.37029473460036533 -0.32565573538444043 0 0.35995160240795782 -0.33026718971309799 0 0.37029473460036533 -0.32565573538444043 0 0.35995160240795782 -0.33026718971309799 0 0.3626472606395299 -0.32436369895035932 0 0.36522996683296982 -0.32210974174446261 0 0.37029473460036533 -0.32565573538444043 0 0.36522996683296982 -0.32210974174446261 0 0.37029473460036533 -0.32565573538444043 0 0.35995160240795782 -0.33026718971309799 0 0.35941557651728179 -0.34802939929915899 0 0.37029473460036533 -0.32565573538444043 0 0.37212478857772979 -0.33864880005647208 0 0.35995160240795782 -0.33026718971309799 0 0.3654326502107581 -0.34245967622864359 0 0.35995160240795782 -0.33026718971309799 0 0.35941557651728179 -0.34802939929915899 0 0.37212478857772979 -0.33864880005647208 0 0.3654326502107581 -0.34245967622864359 0 0.37040156667629781 -0.34671437794913718 0 0.37212478857772979 -0.33864880005647208 0 0.3654326502107581 -0.34245967622864359 0 0.35995160240795782 -0.33026718971309799 0 0.35995160240795782 -0.33026718971309799 0 0.35941557651728179 -0.34802939929915899 0 0.34162477060798069 -0.33843815246039383 0 0.35941557651728179 -0.34802939929915899 0 0.34146637893605181 -0.3422169952266676 0 0.34162477060798069 -0.33843815246039383 0 0.35995160240795782 -0.33026718971309799 0 0.34162477060798069 -0.33843815246039383 0 0.35995160240795782 -0.33026718971309799 0 0.34764647170350632 -0.33021231032179682 0 0.34162477060798069 -0.33843815246039383 0 0.35995160240795782 -0.33026718971309799 0 0.34764647170350632 -0.33021231032179682 0 0.35274785573456591 -0.3260756163463463 0 0.34764647170350632 -0.33021231032179682 0 0.34206802946595682 -0.32786306660713371 0 0.34162477060798069 -0.33843815246039383 0 0.34764647170350632 -0.33021231032179682 0 0.34206802946595682 -0.32786306660713371 0 0.35385294866325562 -0.31815161708919842 0 0.35274785573456591 -0.3260756163463463 0 0.34206802946595682 -0.32786306660713371 0 0.34764647170350632 -0.33021231032179682 0 0.35274785573456591 -0.3260756163463463 0 0.34206802946595682 -0.32786306660713371 0 0.34332234684577362 -0.29793808318023329 0 0.35385294866325562 -0.31815161708919842 0 0.34206802946595682 -0.32786306660713371 0 0.36067108370546558 -0.30642584581184062 0 0.35995160240795782 -0.33026718971309799 0 0.35385294866325562 -0.31815161708919842 0 0.35995160240795782 -0.33026718971309799 0 0.35385294866325562 -0.31815161708919842 0 0.35274785573456591 -0.3260756163463463 0 0.38249634533461108 -0.36797477098799591 0 0.36724772315424481 -0.38247146420994571 0 0.36664078794155069 -0.36853845970684512 0 0.38249634533461108 -0.36797477098799591 0 0.36664078794155069 -0.36853845970684512 0 0.37305712147220338 -0.36102055586376819 0 0.3553956415560332 -0.375446985373177 0 0.36664078794155069 -0.36853845970684512 0 0.35901533294662008 -0.36129221050145399 0 0.36664078794155069 -0.36853845970684512 0 0.37305712147220338 -0.36102055586376819 0 0.36517854466496658 -0.35714892472411869 0 0.36664078794155069 -0.36853845970684512 0 0.36517854466496658 -0.35714892472411869 0 0.35901533294662008 -0.36129221050145399 0 0.36517854466496658 -0.35714892472411869 0 0.35941557651728179 -0.34802939929915899 0 0.35901533294662008 -0.36129221050145399 0 0.36517854466496658 -0.35714892472411869 0 0.36469303305047901 -0.34973837317986511 0 0.35941557651728179 -0.34802939929915899 0 0.36517854466496658 -0.35714892472411869 0 0.37030234625384911 -0.35279401393457888 0 0.36469303305047901 -0.34973837317986511 0 0.37818146540529818 -0.34934783795600571 0 0.37305712147220338 -0.36102055586376819 0 0.37030234625384911 -0.35279401393457888 0 0.37305712147220338 -0.36102055586376819 0 0.36517854466496658 -0.35714892472411869 0 0.37030234625384911 -0.35279401393457888 0 0.37818146540529818 -0.34934783795600571 0 0.37212478857772979 -0.33864880005647208 0 0.37040156667629781 -0.34671437794913718 0 0.37818146540529818 -0.34934783795600571 0 0.37030234625384911 -0.35279401393457888 0 0.37040156667629781 -0.34671437794913718 0 0.37030234625384911 -0.35279401393457888 0 0.37040156667629781 -0.34671437794913718 0 0.36469303305047901 -0.34973837317986511 0 0.3654326502107581 -0.34245967622864359 0 0.37040156667629781 -0.34671437794913718 0 0.36469303305047901 -0.34973837317986511 0 0.36469303305047901 -0.34973837317986511 0 0.35941557651728179 -0.34802939929915899 0 0.3654326502107581 -0.34245967622864359 0 0.36469303305047901 -0.34973837317986511 0 0.35941557651728179 -0.34802939929915899 0 0.35003449333301101 -0.35574942476505861 0 0.34024068493209042 -0.37145909403295352 0 0.34146637893605181 -0.3422169952266676 0 0.35941557651728179 -0.34802939929915899 0 0.35003449333301101 -0.35574942476505861 0 0.34146637893605181 -0.3422169952266676 0 0.35941557651728179 -0.34802939929915899 0 0.34146637893605181 -0.3422169952266676 0 0.35941557651728179 -0.34802939929915899 0 0.35901533294662008 -0.36129221050145399 0 0.35941557651728179 -0.34802939929915899 0 0.35003449333301101 -0.35574942476505861 0 0.35901533294662008 -0.36129221050145399 0 0.35003449333301101 -0.35574942476505861 0 0.35901533294662008 -0.36129221050145399 0 0.34024068493209042 -0.37145909403295352 0 0.3553956415560332 -0.375446985373177 0 0.35901533294662008 -0.36129221050145399 0 0.34024068493209042 -0.37145909403295352 0 0.34024068493209042 -0.37145909403295352 0 0.33264239376833749 -0.35548373211026962 0 0.32473595581008968 -0.36877041147622941 0 0.34024068493209042 -0.37145909403295352 0 0.33264239376833749 -0.35548373211026962 0 0.34146637893605181 -0.3422169952266676 0 0.34024068493209042 -0.37145909403295352 0 0.34146637893605181 -0.3422169952266676 0 0.33264239376833749 -0.35548373211026962 0 0.32969677432389999 -0.34883746930945858 0 0.32350037713642671 -0.3535383953733186 0 0.33264239376833749 -0.35548373211026962 0 0.33484083241944268 -0.34588391539316982 0 0.34146637893605181 -0.3422169952266676 0 0.33264239376833749 -0.35548373211026962 0 0.33484083241944268 -0.34588391539316982 0 0.32969677432389999 -0.34883746930945858 0 0.33484083241944268 -0.34588391539316982 0 0.32969677432389999 -0.34883746930945858 0 0.33080291213000951 -0.34437854531234752 0 0.32969677432389999 -0.34883746930945858 0 0.33080291213000951 -0.34437854531234752 0 0.32576759743036687 -0.34544500479448842 0 0.32576759743036687 -0.34544500479448842 0 0.32008489300350967 -0.34478001059398899 0 0.32350037713642671 -0.3535383953733186 0 0.32969677432389999 -0.34883746930945858 0 0.32576759743036687 -0.34544500479448842 0 0.32350037713642671 -0.3535383953733186 0 0.32576759743036687 -0.34544500479448842 0 0.32008489300350967 -0.34478001059398899 0 0.3230261242077439 -0.3426129045732173 0 0.32008489300350967 -0.34478001059398899 0 0.31455300750316167 -0.34989325112993808 0 0.32350037713642671 -0.3535383953733186 0 0.32008489300350967 -0.34478001059398899 0 0.31455300750316167 -0.34989325112993808 0 0.31278358272303802 -0.34129775444127147 0 0.31455300750316167 -0.34989325112993808 0 0.32350037713642671 -0.3535383953733186 0 0.31266700858965563 -0.36105898834543543 0 0.33264239376833749 -0.35548373211026962 0 0.32350037713642671 -0.3535383953733186 0 0.32473595581008968 -0.36877041147622941 0 0.30852465471842783 -0.38296478278532459 0 0.31266700858965563 -0.36105898834543543 0 0.32473595581008968 -0.36877041147622941 0 0.32350037713642671 -0.3535383953733186 0 0.31266700858965563 -0.36105898834543543 0 0.32473595581008968 -0.36877041147622941 0 0.34332234684577362 -0.29793808318023329 0 0.34206802946595682 -0.32786306660713371 0 0.32977293544345387 -0.30596193421111573 0 0.34206802946595682 -0.32786306660713371 0 0.32081511337912821 -0.31891284763754968 0 0.34206802946595682 -0.32786306660713371 0 0.32602109842812482 -0.32927153728442071 0 0.32081511337912821 -0.31891284763754968 0 0.34206802946595682 -0.32786306660713371 0 0.32081511337912821 -0.31891284763754968 0 0.34206802946595682 -0.32786306660713371 0 0.34162477060798069 -0.33843815246039383 0 0.33801441914131958 -0.33597980122333287 0 0.34206802946595682 -0.32786306660713371 0 0.34162477060798069 -0.33843815246039383 0 0.34206802946595682 -0.32786306660713371 0 0.33503975802439162 -0.33352730776002742 0 0.32602109842812482 -0.32927153728442071 0 0.34206802946595682 -0.32786306660713371 0 0.33801441914131958 -0.33597980122333287 0 0.33503975802439162 -0.33352730776002742 0 0.34146637893605181 -0.3422169952266676 0 0.34162477060798069 -0.33843815246039383 0 0.33664845261102122 -0.34065682884787418 0 0.34146637893605181 -0.3422169952266676 0 0.34162477060798069 -0.33843815246039383 0 0.34162477060798069 -0.33843815246039383 0 0.33801441914131958 -0.33597980122333287 0 0.33664845261102122 -0.34065682884787418 0 0.34162477060798069 -0.33843815246039383 0 0.33664845261102122 -0.34065682884787418 0 0.33801441914131958 -0.33597980122333287 0 0.33664845261102122 -0.34065682884787418 0 0.334556636173299 -0.33621284741772872 0 0.33484083241944268 -0.34588391539316982 0 0.34146637893605181 -0.3422169952266676 0 0.33664845261102122 -0.34065682884787418 0 0.34146637893605181 -0.3422169952266676 0 0.33664845261102122 -0.34065682884787418 0 0.33080291213000951 -0.34437854531234752 0 0.33664845261102122 -0.34065682884787418 0 0.32753883147517121 -0.34023469067202677 0 0.33664845261102122 -0.34065682884787418 0 0.334556636173299 -0.33621284741772872 0 0.32852391491646382 -0.33468745183968091 0 0.33484083241944268 -0.34588391539316982 0 0.33080291213000951 -0.34437854531234752 0 0.33664845261102122 -0.34065682884787418 0 0.33503975802439162 -0.33352730776002742 0 0.32852391491646382 -0.33468745183968091 0 0.32602109842812482 -0.32927153728442071 0 0.334556636173299 -0.33621284741772872 0 0.33503975802439162 -0.33352730776002742 0 0.32852391491646382 -0.33468745183968091 0 0.33801441914131958 -0.33597980122333287 0 0.334556636173299 -0.33621284741772872 0 0.33503975802439162 -0.33352730776002742 0 0.32753883147517121 -0.34023469067202677 0 0.31871317492192791 -0.33999191223236508 0 0.30992165968220392 -0.33200201743577268 0 0.32852391491646382 -0.33468745183968091 0 0.32602109842812482 -0.32927153728442071 0 0.30992165968220392 -0.33200201743577268 0 0.33664845261102122 -0.34065682884787418 0 0.32852391491646382 -0.33468745183968091 0 0.30992165968220392 -0.33200201743577268 0 0.33664845261102122 -0.34065682884787418 0 0.32753883147517121 -0.34023469067202677 0 0.30992165968220392 -0.33200201743577268 0 0.32602109842812482 -0.32927153728442071 0 0.31516553794356478 -0.32688419612254632 0 0.30992165968220392 -0.33200201743577268 0 0.33664845261102122 -0.34065682884787418 0 0.30992165968220392 -0.33200201743577268 0 0.32753883147517121 -0.34023469067202677 0 0.3230261242077439 -0.3426129045732173 0 0.31871317492192791 -0.33999191223236508 0 0.33080291213000951 -0.34437854531234752 0 0.32576759743036687 -0.34544500479448842 0 0.32753883147517121 -0.34023469067202677 0 0.32576759743036687 -0.34544500479448842 0 0.32753883147517121 -0.34023469067202677 0 0.3230261242077439 -0.3426129045732173 0 0.32008489300350967 -0.34478001059398899 0 0.3230261242077439 -0.3426129045732173 0 0.31871317492192791 -0.33999191223236508 0 0.31871317492192791 -0.33999191223236508 0 0.31278358272303802 -0.34129775444127147 0 0.30992165968220392 -0.33200201743577268 0 0.32008489300350967 -0.34478001059398899 0 0.31871317492192791 -0.33999191223236508 0 0.31278358272303802 -0.34129775444127147 0 0.32602109842812482 -0.32927153728442071 0 0.31516553794356478 -0.32688419612254632 0 0.32081511337912821 -0.31891284763754968 0 0.31516553794356478 -0.32688419612254632 0 0.32081511337912821 -0.31891284763754968 0 0.29956219729229971 -0.30996262866796498 0 0.31516553794356478 -0.32688419612254632 0 0.30992165968220392 -0.33200201743577268 0 0.29956219729229971 -0.30996262866796498 0 0.30992165968220392 -0.33200201743577268 0 0.28319486675338662 -0.32334720602367162 0 0.29956219729229971 -0.30996262866796498 0 0.32081511337912821 -0.31891284763754968 0 0.29956219729229971 -0.30996262866796498 0 0.31516553794356478 -0.32688419612254632 0 0.29956219729229971 -0.30996262866796498 0 0.31278358272303802 -0.34129775444127147 0 0.30544777269898171 -0.33968681455295602 0 0.30372917606317851 -0.34879110689567611 0 0.31278358272303802 -0.34129775444127147 0 0.30992165968220392 -0.33200201743577268 0 0.30544777269898171 -0.33968681455295602 0 0.30992165968220392 -0.33200201743577268 0 0.30544777269898171 -0.33968681455295602 0 0.29535667232750618 -0.33665637943910393 0 0.30544777269898171 -0.33968681455295602 0 0.29535667232750618 -0.33665637943910393 0 0.30372917606317851 -0.34879110689567611 0 0.30992165968220392 -0.33200201743577268 0 0.29535667232750618 -0.33665637943910393 0 0.28319486675338662 -0.32334720602367162 0 0.29535667232750618 -0.33665637943910393 0 0.28811986741475609 -0.34954264064797458 0 0.28056009198101312 -0.33712721632873971 0 0.29535667232750618 -0.33665637943910393 0 0.28319486675338662 -0.32334720602367162 0 0.28056009198101312 -0.33712721632873971 0 0.30992165968220392 -0.33200201743577268 0 0.28319486675338662 -0.32334720602367162 0 0.30852465471842783 -0.38296478278532459 0 0.31266700858965563 -0.36105898834543543 0 0.29576167506738288 -0.36584798696867898 0 0.31266700858965563 -0.36105898834543543 0 0.30372917606317851 -0.34879110689567611 0 0.29576167506738288 -0.36584798696867898 0 0.31455300750316167 -0.34989325112993808 0 0.31266700858965563 -0.36105898834543543 0 0.30372917606317851 -0.34879110689567611 0 0.31455300750316167 -0.34989325112993808 0 0.31278358272303802 -0.34129775444127147 0 0.30372917606317851 -0.34879110689567611 0 0.30372917606317851 -0.34879110689567611 0 0.28811986741475609 -0.34954264064797458 0 0.29576167506738288 -0.36584798696867898 0 0.29535667232750618 -0.33665637943910393 0 0.30372917606317851 -0.34879110689567611 0 0.28811986741475609 -0.34954264064797458 0 0.28811986741475609 -0.34954264064797458 0 0.29576167506738288 -0.36584798696867898 0 0.27628411724202862 -0.36524783617958329 0 0.28524522637625171 -0.38748256695808048 0 0.29576167506738288 -0.36584798696867898 0 0.27628411724202862 -0.36524783617958329 0 0.27628411724202862 -0.36524783617958329 0 0.26970242523906313 -0.3463930650348116 0 0.25620327224306561 -0.36049072758523892 0 0.28811986741475609 -0.34954264064797458 0 0.27628411724202862 -0.36524783617958329 0 0.26970242523906313 -0.3463930650348116 0 0.28811986741475609 -0.34954264064797458 0 0.26970242523906313 -0.3463930650348116 0 0.28056009198101312 -0.33712721632873971 0 0.26970242523906313 -0.3463930650348116 0 0.25620327224306561 -0.36049072758523892 0 0.25110761996098008 -0.33756133299550262 0 0.26194523537769671 -0.38343407302417171 0 0.27628411724202862 -0.36524783617958329 0 0.25620327224306561 -0.36049072758523892 0 0.26194523537769671 -0.38343407302417171 0 0.25620327224306561 -0.36049072758523892 0 0.2380746425401753 -0.37739124482652259 0 0.28319486675338662 -0.32334720602367162 0 0.25646807382456938 -0.31469239461157061 0 0.28319486675338662 -0.32334720602367162 0 0.25646807382456938 -0.31469239461157061 0 0.26668910057358802 -0.30550764638795852 0 0.28319486675338662 -0.32334720602367162 0 0.26642662817035351 -0.32969679049813649 0 0.25646807382456938 -0.31469239461157061 0 0.26970242523906313 -0.3463930650348116 0 0.26642662817035351 -0.32969679049813649 0 0.28056009198101312 -0.33712721632873971 0 0.28319486675338662 -0.32334720602367162 0 0.26642662817035351 -0.32969679049813649 0 0.28056009198101312 -0.33712721632873971 0 0.26970242523906313 -0.3463930650348116 0 0.26642662817035351 -0.32969679049813649 0 0.25110761996098008 -0.33756133299550262 0 0.26642662817035351 -0.32969679049813649 0 0.25110761996098008 -0.33756133299550262 0 0.25646807382456938 -0.31469239461157061 0 0.26020915296869068 -0.2933899210744732 0 0.26668910057358802 -0.30550764638795852 0 0.24613976577650579 -0.30323365481969039 0 0.25646807382456938 -0.31469239461157061 0 0.26668910057358802 -0.30550764638795852 0 0.24613976577650579 -0.30323365481969039 0 0.26020915296869068 -0.2933899210744732 0 0.25058364390229548 -0.28023087545190861 0 0.26295470628353768 -0.27026240406269297 0 0.26020915296869068 -0.2933899210744732 0 0.25058364390229548 -0.28023087545190861 0 0.24053263080688631 -0.28510356727772701 0 0.26020915296869068 -0.2933899210744732 0 0.24053263080688631 -0.28510356727772701 0 0.26020915296869068 -0.2933899210744732 0 0.28125845178791892 -0.29011251636532881 0 0.26295470628353768 -0.27026240406269297 0 0.26020915296869068 -0.2933899210744732 0 0.27988567513049512 -0.30167627487121951 0 0.28125845178791892 -0.29011251636532881 0 0.26020915296869068 -0.2933899210744732 0 0.26668910057358802 -0.30550764638795852 0 0.27988567513049512 -0.30167627487121951 0 0.26020915296869068 -0.2933899210744732 0 0.27988567513049512 -0.30167627487121951 0 0.28319486675338662 -0.32334720602367162 0 0.26668910057358802 -0.30550764638795852 0 0.27988567513049512 -0.30167627487121951 0 0.27988567513049512 -0.30167627487121951 0 0.29956219729229971 -0.30996262866796498 0 0.28125845178791892 -0.29011251636532881 0 0.29956219729229971 -0.30996262866796498 0 0.27988567513049512 -0.30167627487121951 0 0.28125845178791892 -0.29011251636532881 0 0.29956219729229971 -0.30996262866796498 0 0.28319486675338662 -0.32334720602367162 0 0.27988567513049512 -0.30167627487121951 0 0.29956219729229971 -0.30996262866796498 0 0.28125845178791892 -0.29011251636532881 0 0.30351741442094582 -0.28364787667668517 0 0.29956219729229971 -0.30996262866796498 0 0.30351741442094582 -0.28364787667668517 0 0.30893165249025939 -0.29458973757352408 0 0.29956219729229971 -0.30996262866796498 0 0.315203972569992 -0.28599406388836862 0 0.30351741442094582 -0.28364787667668517 0 0.30893165249025939 -0.29458973757352408 0 0.31744302567780058 -0.29875438106107682 0 0.30893165249025939 -0.29458973757352408 0 0.29956219729229971 -0.30996262866796498 0 0.31140457280844042 -0.24710474912070499 0 0.31565659849655159 -0.26881006701694032 0 0.29718577407036301 -0.25519814195989071 0 0.31565659849655159 -0.26881006701694032 0 0.29718577407036301 -0.25519814195989071 0 0.28930565239004458 -0.26953623553981648 0 0.31565659849655159 -0.26881006701694032 0 0.28930565239004458 -0.26953623553981648 0 0.31565659849655159 -0.26881006701694032 0 0.30351741442094582 -0.28364787667668517 0 0.28930565239004458 -0.26953623553981648 0 0.315203972569992 -0.28599406388836862 0 0.31616400359283131 -0.27140021809428472 0 0.30351741442094582 -0.28364787667668517 0 0.31616400359283131 -0.27140021809428472 0 0.31565659849655159 -0.26881006701694032 0 0.30351741442094582 -0.28364787667668517 0 0.28125845178791892 -0.29011251636532881 0 0.30351741442094582 -0.28364787667668517 0 0.28930565239004458 -0.26953623553981648 0 0.29234931722919649 -0.23956849287787771 0 0.29718577407036301 -0.25519814195989071 0 0.28009493911397709 -0.25531812806766069 0 0.29718577407036301 -0.25519814195989071 0 0.28930565239004458 -0.26953623553981648 0 0.28009493911397709 -0.25531812806766069 0 0.28009493911397709 -0.25531812806766069 0 0.26295470628353768 -0.27026240406269297 0 0.26515279713901752 -0.25474276698909742 0 0.28930565239004458 -0.26953623553981648 0 0.28009493911397709 -0.25531812806766069 0 0.26295470628353768 -0.27026240406269297 0 0.27362138757170362 -0.2426007269765893 0 0.28009493911397709 -0.25531812806766069 0 0.26515279713901752 -0.25474276698909742 0 0.28930565239004458 -0.26953623553981648 0 0.26295470628353768 -0.27026240406269297 0 0.28125845178791892 -0.29011251636532881 0 0.28930565239004458 -0.26953623553981648 0 0.26295470628353768 -0.27026240406269297 0 0.28125845178791892 -0.29011251636532881 0 0.26295470628353768 -0.27026240406269297 0 0.26295470628353768 -0.27026240406269297 0 0.25920525151110962 -0.26619618175379239 0 0.2333624491378041 -0.27107789530058801 0 0.26295470628353768 -0.27026240406269297 0 0.25920525151110962 -0.26619618175379239 0 0.26515279713901752 -0.25474276698909742 0 0.25909559454287789 -0.26033526294480458 0 0.25575058308532189 -0.25269357128633052 0 0.26295470628353768 -0.27026240406269297 0 0.25920525151110962 -0.26619618175379239 0 0.25909559454287789 -0.26033526294480458 0 0.26295470628353768 -0.27026240406269297 0 0.26515279713901752 -0.25474276698909742 0 0.25909559454287789 -0.26033526294480458 0 0.25920525151110962 -0.26619618175379239 0 0.25909559454287789 -0.26033526294480458 0 0.2525593813984649 -0.26013433662011259 0 0.2525593813984649 -0.26013433662011259 0 0.25575058308532189 -0.25269357128633052 0 0.2462907050713771 -0.25204034373521428 0 0.25909559454287789 -0.26033526294480458 0 0.2525593813984649 -0.26013433662011259 0 0.25575058308532189 -0.25269357128633052 0 0.2525593813984649 -0.26013433662011259 0 0.2372713891187809 -0.25677075628574592 0 0.2333624491378041 -0.27107789530058801 0 0.2525593813984649 -0.26013433662011259 0 0.2462907050713771 -0.25204034373521428 0 0.2372713891187809 -0.25677075628574592 0 0.2525593813984649 -0.26013433662011259 0 0.2372713891187809 -0.25677075628574592 0 0.2462907050713771 -0.25204034373521428 0 0.2372713891187809 -0.25677075628574592 0 0.2374752251495614 -0.24157268794541539 0 0.26295470628353768 -0.27026240406269297 0 0.2333624491378041 -0.27107789530058801 0 0.25058364390229548 -0.28023087545190861 0 0.2333624491378041 -0.27107789530058801 0 0.24053263080688631 -0.28510356727772701 0 0.25920525151110962 -0.26619618175379239 0 0.2525593813984649 -0.26013433662011259 0 0.2333624491378041 -0.27107789530058801 0 0.25058364390229548 -0.28023087545190861 0 0.26295470628353768 -0.27026240406269297 0 0.2333624491378041 -0.27107789530058801 0 0.2333624491378041 -0.27107789530058801 0 0.22391874229476511 -0.2824004848955064 0 0.24053263080688631 -0.28510356727772701 0 0.2333624491378041 -0.27107789530058801 0 0.22198339683909701 -0.25340717595137879 0 0.22391874229476511 -0.2824004848955064 0 0.22198339683909701 -0.25340717595137879 0 0.21277476220729311 -0.27908963951381288 0 0.22391874229476511 -0.2824004848955064 0 0.22198339683909701 -0.25340717595137879 0 0.22391874229476511 -0.2824004848955064 0 0.2372713891187809 -0.25677075628574592 0 0.2333624491378041 -0.27107789530058801 0 0.22198339683909701 -0.25340717595137879 0 0.2372713891187809 -0.25677075628574592 0 0.22198339683909701 -0.25340717595137879 0 0.2374752251495614 -0.24157268794541539 0 0.2372713891187809 -0.25677075628574592 0 0.22198339683909701 -0.25340717595137879 0 0.22198339683909701 -0.25340717595137879 0 0.19767743283581299 -0.26201501502554969 0 0.19815896102696709 -0.24816545406213189 0 0.22198339683909701 -0.25340717595137879 0 0.19815896102696709 -0.24816545406213189 0 0.22198339683909701 -0.25340717595137879 0 0.2070014623020448 -0.26844420161526761 0 0.19767743283581299 -0.26201501502554969 0 0.22198339683909701 -0.25340717595137879 0 0.21277476220729311 -0.27908963951381288 0 0.2070014623020448 -0.26844420161526761 0 0.21277476220729311 -0.27908963951381288 0 0.19627752834655959 -0.27465633278028612 0 0.20552852767052071 -0.28818040814850709 0 0.21277476220729311 -0.27908963951381288 0 0.2070014623020448 -0.26844420161526761 0 0.19627752834655959 -0.27465633278028612 0 0.2070014623020448 -0.26844420161526761 0 0.19627752834655959 -0.27465633278028612 0 0.19767743283581299 -0.26201501502554969 0 0.19627752834655959 -0.27465633278028612 0 0.19767743283581299 -0.26201501502554969 0 0.1861358052291735 -0.26379397041404468 0 0.19767743283581299 -0.26201501502554969 0 0.1861358052291735 -0.26379397041404468 0 0.19815896102696709 -0.24816545406213189 0 0.1861358052291735 -0.26379397041404468 0 0.18066177981631051 -0.25348299893649828 0 0.19815896102696709 -0.24816545406213189 0 0.20129939135720101 -0.31175464383988888 0 0.20552852767052071 -0.28818040814850709 0 0.1861316223780578 -0.30340045511113362 0 0.20552852767052071 -0.28818040814850709 0 0.18615950714984131 -0.28714944863913389 0 0.1861316223780578 -0.30340045511113362 0 0.19627752834655959 -0.27465633278028612 0 0.20552852767052071 -0.28818040814850709 0 0.18615950714984131 -0.28714944863913389 0 0.21277476220729311 -0.27908963951381288 0 0.20552852767052071 -0.28818040814850709 0 0.22391874229476511 -0.2824004848955064 0 0.20552852767052071 -0.28818040814850709 0 0.21283890344555609 -0.30228465628523993 0 0.22391874229476511 -0.2824004848955064 0 0.20129939135720101 -0.31175464383988888 0 0.20552852767052071 -0.28818040814850709 0 0.21283890344555609 -0.30228465628523993 0 0.225854087750432 -0.31139379383963389 0 0.22391874229476511 -0.2824004848955064 0 0.21283890344555609 -0.30228465628523993 0 0.225854087750432 -0.31139379383963389 0 0.22391874229476511 -0.2824004848955064 0 0.225854087750432 -0.31139379383963389 0 0.22391874229476511 -0.2824004848955064 0 0.24053263080688631 -0.28510356727772701 0 0.26020915296869068 -0.2933899210744732 0 0.24053263080688631 -0.28510356727772701 0 0.24613976577650579 -0.30323365481969039 0 0.225854087750432 -0.31139379383963389 0 0.24053263080688631 -0.28510356727772701 0 0.24613976577650579 -0.30323365481969039 0 0.225854087750432 -0.31139379383963389 0 0.24613976577650579 -0.30323365481969039 0 0.24147179610371719 -0.32145365581003182 0 0.25110761996098008 -0.33756133299550262 0 0.25646807382456938 -0.31469239461157061 0 0.24147179610371719 -0.32145365581003182 0 0.25646807382456938 -0.31469239461157061 0 0.24613976577650579 -0.30323365481969039 0 0.24147179610371719 -0.32145365581003182 0 0.25110761996098008 -0.33756133299550262 0 0.24147179610371719 -0.32145365581003182 0 0.2277894332060989 -0.3403871027837615 0 0.225854087750432 -0.31139379383963389 0 0.24147179610371719 -0.32145365581003182 0 0.2277894332060989 -0.3403871027837615 0 0.225854087750432 -0.31139379383963389 0 0.2277894332060989 -0.3403871027837615 0 0.2131017443993804 -0.32550716011161479 0 0.225854087750432 -0.31139379383963389 0 0.2277894332060989 -0.3403871027837615 0 0.25620327224306561 -0.36049072758523892 0 0.23939100935974761 -0.35412122659527612 0 0.2380746425401753 -0.37739124482652259 0 0.25110761996098008 -0.33756133299550262 0 0.2277894332060989 -0.3403871027837615 0 0.23939100935974761 -0.35412122659527612 0 0.25620327224306561 -0.36049072758523892 0 0.25110761996098008 -0.33756133299550262 0 0.23939100935974761 -0.35412122659527612 0 0.2277894332060989 -0.3403871027837615 0 0.23939100935974761 -0.35412122659527612 0 0.22160146260088931 -0.35672021721344238 0 0.2277894332060989 -0.3403871027837615 0 0.22160146260088931 -0.35672021721344238 0 0.21393580002607371 -0.34141846605291087 0 0.23939100935974761 -0.35412122659527612 0 0.22160146260088931 -0.35672021721344238 0 0.2380746425401753 -0.37739124482652259 0 0.22160146260088931 -0.35672021721344238 0 0.21646245367279571 -0.38358476595235552 0 0.22160146260088931 -0.35672021721344238 0 0.2380746425401753 -0.37739124482652259 0 0.21646245367279571 -0.38358476595235552 0 0.22160146260088931 -0.35672021721344238 0 0.19836301469614079 -0.36402790855933592 0 0.2025217842010896 -0.37807387373583923 0 0.22160146260088931 -0.35672021721344238 0 0.21646245367279571 -0.38358476595235552 0 0.2025217842010896 -0.37807387373583923 0 0.22160146260088931 -0.35672021721344238 0 0.20535211274276649 -0.35018034328080122 0 0.21393580002607371 -0.34141846605291087 0 0.22160146260088931 -0.35672021721344238 0 0.20535211274276649 -0.35018034328080122 0 0.19836301469614079 -0.36402790855933592 0 0.20535211274276649 -0.35018034328080122 0 0.19180082998577391 -0.35029167033112268 0 0.20100079568597551 -0.33875735092892167 0 0.19180082998577391 -0.35029167033112268 0 0.19836301469614079 -0.36402790855933592 0 0.18636698824462991 -0.36225910140511608 0 0.19180082998577391 -0.35029167033112268 0 0.18636698824462991 -0.36225910140511608 0 0.18448777755487131 -0.35210036546502188 0 0.20535211274276649 -0.35018034328080122 0 0.19180082998577391 -0.35029167033112268 0 0.19836301469614079 -0.36402790855933592 0 0.19836301469614079 -0.36402790855933592 0 0.19083927531350181 -0.37426462870353422 0 0.18636698824462991 -0.36225910140511608 0 0.19836301469614079 -0.36402790855933592 0 0.19083927531350181 -0.37426462870353422 0 0.2025217842010896 -0.37807387373583923 0 0.20129939135720101 -0.31175464383988888 0 0.21283890344555609 -0.30228465628523993 0 0.2131017443993804 -0.32550716011161479 0 0.21283890344555609 -0.30228465628523993 0 0.225854087750432 -0.31139379383963389 0 0.2131017443993804 -0.32550716011161479 0 0.2277894332060989 -0.3403871027837615 0 0.2131017443993804 -0.32550716011161479 0 0.21393580002607371 -0.34141846605291087 0 0.2131017443993804 -0.32550716011161479 0 0.21393580002607371 -0.34141846605291087 0 0.20100079568597551 -0.33875735092892167 0 0.20535211274276649 -0.35018034328080122 0 0.21393580002607371 -0.34141846605291087 0 0.20100079568597551 -0.33875735092892167 0 0.19180082998577391 -0.35029167033112268 0 0.20100079568597551 -0.33875735092892167 0 0.1840044286915227 -0.33601373309634508 0 0.20100079568597551 -0.33875735092892167 0 0.19352690233448341 -0.32516644492614982 0 0.1840044286915227 -0.33601373309634508 0 0.2131017443993804 -0.32550716011161479 0 0.20100079568597551 -0.33875735092892167 0 0.19352690233448341 -0.32516644492614982 0 0.20129939135720101 -0.31175464383988888 0 0.2131017443993804 -0.32550716011161479 0 0.19352690233448341 -0.32516644492614982 0 0.20129939135720101 -0.31175464383988888 0 0.19352690233448341 -0.32516644492614982 0 0.1861316223780578 -0.30340045511113362 0 0.19352690233448341 -0.32516644492614982 0 0.17526094699071121 -0.32121364916979261 0 0.1840044286915227 -0.33601373309634508 0 0.19352690233448341 -0.32516644492614982 0 0.17526094699071121 -0.32121364916979261 0 0.1861316223780578 -0.30340045511113362 0 0.17526094699071121 -0.32121364916979261 0 0.1840044286915227 -0.33601373309634508 0 0.17670370261134591 -0.35101137430815987 0 0.17526094699071121 -0.32121364916979261 0 0.16632300769682529 -0.33914532989683449 0 0.17670370261134591 -0.35101137430815987 0 0.17526094699071121 -0.32121364916979261 0 0.17670370261134591 -0.35101137430815987 0 0.16632300769682529 -0.33914532989683449 0 0.15635532043033851 -0.32762317205032648 0 0.15384528835215919 -0.34888323103730828 0 0.17526094699071121 -0.32121364916979261 0 0.16632300769682529 -0.33914532989683449 0 0.15635532043033851 -0.32762317205032648 0 0.17526094699071121 -0.32121364916979261 0 0.15635532043033851 -0.32762317205032648 0 0.16613015085753399 -0.29794196337136208 0 0.19083927531350181 -0.37426462870353422 0 0.18636698824462991 -0.36225910140511608 0 0.17814645823198061 -0.38080909944652741 0 0.17670370261134591 -0.35101137430815987 0 0.1695008882053643 -0.3539014675276998 0 0.17814645823198061 -0.38080909944652741 0 0.17670370261134591 -0.35101137430815987 0 0.17814645823198061 -0.38080909944652741 0 0.18636698824462991 -0.36225910140511608 0 0.17670370261134591 -0.35101137430815987 0 0.17814645823198061 -0.38080909944652741 0 0.18636698824462991 -0.36225910140511608 0 0.18448777755487131 -0.35210036546502188 0 0.17670370261134591 -0.35101137430815987 0 0.18448777755487131 -0.35210036546502188 0 0.18424918471087839 -0.34735428580016242 0 0.17670370261134591 -0.35101137430815987 0 0.19180082998577391 -0.35029167033112268 0 0.1840044286915227 -0.33601373309634508 0 0.18424918471087839 -0.34735428580016242 0 0.1840044286915227 -0.33601373309634508 0 0.18424918471087839 -0.34735428580016242 0 0.17670370261134591 -0.35101137430815987 0 0.19180082998577391 -0.35029167033112268 0 0.18448777755487131 -0.35210036546502188 0 0.18424918471087839 -0.34735428580016242 0 0.16632300769682529 -0.33914532989683449 0 0.1695008882053643 -0.3539014675276998 0 0.15384528835215919 -0.34888323103730828 0 0.1695008882053643 -0.3539014675276998 0 0.15622266046030589 -0.36560529067035252 0 0.15384528835215919 -0.34888323103730828 0 0.16632300769682529 -0.33914532989683449 0 0.17670370261134591 -0.35101137430815987 0 0.1695008882053643 -0.3539014675276998 0 0.1695008882053643 -0.3539014675276998 0 0.15622266046030589 -0.36560529067035252 0 0.1662516937484437 -0.37945746017663878 0 0.1695008882053643 -0.3539014675276998 0 0.17814645823198061 -0.38080909944652741 0 0.1662516937484437 -0.37945746017663878 0 0.1695008882053643 -0.3539014675276998 0 0.1662516937484437 -0.37945746017663878 0 0.15622266046030589 -0.36560529067035252 0 0.15384528835215919 -0.34888323103730828 0 0.13913284643621729 -0.36987147755796063 0 0.15622266046030589 -0.36560529067035252 0 0.13913284643621729 -0.36987147755796063 0 0.15122325216971341 -0.38057118911269922 0 0.15384528835215919 -0.34888323103730828 0 0.13913284643621729 -0.36987147755796063 0 0.1385684583736729 -0.34280877879487409 0 0.1385684583736729 -0.34280877879487409 0 0.1245186505824013 -0.36113750934922573 0 0.1203073559828662 -0.34481831064573482 0 0.13913284643621729 -0.36987147755796063 0 0.1385684583736729 -0.34280877879487409 0 0.13913284643621729 -0.36987147755796063 0 0.1385684583736729 -0.34280877879487409 0 0.1245186505824013 -0.36113750934922573 0 0.13913284643621729 -0.36987147755796063 0 0.12672469353237761 -0.38193719477194499 0 0.1245186505824013 -0.36113750934922573 0 0.15635532043033851 -0.32762317205032648 0 0.13800407031112841 -0.31574608003178772 0 0.16613015085753399 -0.29794196337136208 0 0.15635532043033851 -0.32762317205032648 0 0.15384528835215919 -0.34888323103730828 0 0.1385684583736729 -0.34280877879487409 0 0.15635532043033851 -0.32762317205032648 0 0.1385684583736729 -0.34280877879487409 0 0.13800407031112841 -0.31574608003178772 0 0.1385684583736729 -0.34280877879487409 0 0.13800407031112841 -0.31574608003178772 0 0.1385684583736729 -0.34280877879487409 0 0.1252730154641265 -0.33501756179834041 0 0.127277047630593 -0.32368123984794023 0 0.1385684583736729 -0.34280877879487409 0 0.1252730154641265 -0.33501756179834041 0 0.1203073559828662 -0.34481831064573482 0 0.13800407031112841 -0.31574608003178772 0 0.127277047630593 -0.32368123984794023 0 0.1207194796176513 -0.31206082339016011 0 0.1385684583736729 -0.34280877879487409 0 0.13800407031112841 -0.31574608003178772 0 0.127277047630593 -0.32368123984794023 0 0.13800407031112841 -0.31574608003178772 0 0.13743968224858391 -0.28868338126870119 0 0.1207194796176513 -0.31206082339016011 0 0.13800407031112841 -0.31574608003178772 0 0.13743968224858391 -0.28868338126870119 0 0.13800407031112841 -0.31574608003178772 0 0.13743968224858391 -0.28868338126870119 0 0.16613015085753399 -0.29794196337136208 0 0.13743968224858391 -0.28868338126870119 0 0.16013622185265231 -0.27370264407204231 0 0.16613015085753399 -0.29794196337136208 0 0.13743968224858391 -0.28868338126870119 0 0.13687529418603939 -0.26162068250561471 0 0.13743968224858391 -0.28868338126870119 0 0.13687529418603939 -0.26162068250561471 0 0.12122917553908071 -0.27280048239714111 0 0.13687529418603939 -0.26162068250561471 0 0.15867772839633809 -0.25707915377424612 0 0.15532271566916761 -0.23874085795770611 0 0.13687529418603939 -0.26162068250561471 0 0.16013622185265231 -0.27370264407204231 0 0.15867772839633809 -0.25707915377424612 0 0.13743968224858391 -0.28868338126870119 0 0.13687529418603939 -0.26162068250561471 0 0.16013622185265231 -0.27370264407204231 0 0.16013622185265231 -0.27370264407204231 0 0.17163424862532001 -0.26348395238230132 0 0.17866520103123101 -0.27392164610568698 0 0.16013622185265231 -0.27370264407204231 0 0.15867772839633809 -0.25707915377424612 0 0.17163424862532001 -0.26348395238230132 0 0.15867772839633809 -0.25707915377424612 0 0.17163424862532001 -0.26348395238230132 0 0.17304535898525439 -0.24904788565112909 0 0.17163424862532001 -0.26348395238230132 0 0.18066177981631051 -0.25348299893649828 0 0.17304535898525439 -0.24904788565112909 0 0.17163424862532001 -0.26348395238230132 0 0.1861358052291735 -0.26379397041404468 0 0.18066177981631051 -0.25348299893649828 0 0.19627752834655959 -0.27465633278028612 0 0.17866520103123101 -0.27392164610568698 0 0.18615950714984131 -0.28714944863913389 0 0.19627752834655959 -0.27465633278028612 0 0.1861358052291735 -0.26379397041404468 0 0.17866520103123101 -0.27392164610568698 0 0.17163424862532001 -0.26348395238230132 0 0.1861358052291735 -0.26379397041404468 0 0.17866520103123101 -0.27392164610568698 0 0.17866520103123101 -0.27392164610568698 0 0.18615950714984131 -0.28714944863913389 0 0.16613015085753399 -0.29794196337136208 0 0.18615950714984131 -0.28714944863913389 0 0.1861316223780578 -0.30340045511113362 0 0.16613015085753399 -0.29794196337136208 0 0.17526094699071121 -0.32121364916979261 0 0.1861316223780578 -0.30340045511113362 0 0.16613015085753399 -0.29794196337136208 0 0.16013622185265231 -0.27370264407204231 0 0.17866520103123101 -0.27392164610568698 0 0.16613015085753399 -0.29794196337136208 0 0.19650118937966099 -0.48458767462136337 0 0.18247472509388471 -0.47020227486163019 0 0.1839174807145193 -0.49999999999999789 0 0.19650118937966099 -0.48458767462136337 0 0.2054847406710314 -0.5 0 0.1839174807145193 -0.49999999999999789 0 0.19650118937966099 -0.48458767462136337 0 0.1995265252191368 -0.47051219141525807 0 0.18247472509388471 -0.47020227486163019 0 0.19650118937966099 -0.48458767462136337 0 0.1995265252191368 -0.47051219141525807 0 0.21142085222808771 -0.48158275099342862 0 0.1995265252191368 -0.47051219141525807 0 0.21142085222808771 -0.48158275099342862 0 0.21140626781342409 -0.46122374827882839 0 0.21142085222808771 -0.48158275099342862 0 0.23068219321441441 -0.47630316546961982 0 0.21140626781342409 -0.46122374827882839 0 0.19650118937966099 -0.48458767462136337 0 0.21142085222808771 -0.48158275099342862 0 0.2054847406710314 -0.5 0 0.21142085222808771 -0.48158275099342862 0 0.2054847406710314 -0.5 0 0.22705200062754341 -0.49999999999999972 0 0.21142085222808771 -0.48158275099342862 0 0.22705200062754341 -0.49999999999999972 0 0.23068219321441441 -0.47630316546961982 0 0.22705200062754341 -0.49999999999999972 0 0.24310759435645521 -0.48732129405658853 0 0.23068219321441441 -0.47630316546961982 0 0.22705200062754341 -0.49999999999999972 0 0.23068219321441441 -0.47630316546961982 0 0.25573491640979129 -0.5 0 0.22705200062754341 -0.49999999999999972 0 0.24310759435645521 -0.48732129405658853 0 0.24310759435645521 -0.48732129405658853 0 0.24452211955108941 -0.47321082899062988 0 0.23068219321441441 -0.47630316546961982 0 0.23068219321441441 -0.47630316546961982 0 0.23431238580128549 -0.45260633093924002 0 0.23068219321441441 -0.47630316546961982 0 0.23431238580128549 -0.45260633093924002 0 0.21140626781342409 -0.46122374827882839 0 0.24452211955108941 -0.47321082899062988 0 0.23068219321441441 -0.47630316546961982 0 0.23431238580128549 -0.45260633093924002 0 0.25055382002994903 -0.45112655962101422 0 0.24452211955108941 -0.47321082899062988 0 0.23431238580128549 -0.45260633093924002 0 0.25055382002994903 -0.45112655962101422 0 0.23431238580128549 -0.45260633093924002 0 0.24845486683426421 -0.43056678600332871 0 0.23431238580128549 -0.45260633093924002 0 0.2061844358166085 -0.43731386343018219 0 0.22816721351006641 -0.42382217308135922 0 0.23431238580128549 -0.45260633093924002 0 0.21140626781342409 -0.46122374827882839 0 0.2061844358166085 -0.43731386343018219 0 0.21140626781342409 -0.46122374827882839 0 0.1958295915806266 -0.45496450832104018 0 0.2061844358166085 -0.43731386343018219 0 0.1995265252191368 -0.47051219141525807 0 0.1958295915806266 -0.45496450832104018 0 0.18247472509388471 -0.47020227486163019 0 0.1995265252191368 -0.47051219141525807 0 0.21140626781342409 -0.46122374827882839 0 0.1958295915806266 -0.45496450832104018 0 0.1958295915806266 -0.45496450832104018 0 0.2061844358166085 -0.43731386343018219 0 0.18103196947325001 -0.44040454972326271 0 0.19189840580791451 -0.42494462472696731 0 0.2061844358166085 -0.43731386343018219 0 0.18103196947325001 -0.44040454972326271 0 0.19189840580791451 -0.42494462472696731 0 0.1954291475964339 -0.41062193775622902 0 0.2113234447447021 -0.41044931469126889 0 0.19189840580791451 -0.42494462472696731 0 0.1954291475964339 -0.41062193775622902 0 0.17958921385261531 -0.41060682458489489 0 0.19189840580791451 -0.42494462472696731 0 0.2113234447447021 -0.41044931469126889 0 0.2061844358166085 -0.43731386343018219 0 0.2113234447447021 -0.41044931469126889 0 0.2061844358166085 -0.43731386343018219 0 0.22816721351006641 -0.42382217308135922 0 0.2113234447447021 -0.41044931469126889 0 0.2061844358166085 -0.43731386343018219 0 0.23431238580128549 -0.45260633093924002 0 0.22816721351006641 -0.42382217308135922 0 0.24845486683426421 -0.43056678600332871 0 0.22816721351006641 -0.42382217308135922 0 0.24845486683426421 -0.43056678600332871 0 0.24730388124056729 -0.40448370284608931 0 0.22816721351006641 -0.42382217308135922 0 0.22802948983690591 -0.39972126622214238 0 0.24730388124056729 -0.40448370284608931 0 0.2113234447447021 -0.41044931469126889 0 0.22816721351006641 -0.42382217308135922 0 0.22802948983690591 -0.39972126622214238 0 0.22802948983690591 -0.39972126622214238 0 0.24730388124056729 -0.40448370284608931 0 0.2380746425401753 -0.37739124482652259 0 0.26194523537769671 -0.38343407302417171 0 0.24730388124056729 -0.40448370284608931 0 0.2380746425401753 -0.37739124482652259 0 0.22802948983690591 -0.39972126622214238 0 0.2380746425401753 -0.37739124482652259 0 0.21646245367279571 -0.38358476595235552 0 0.21646245367279571 -0.38358476595235552 0 0.19890552598050351 -0.3964869870217847 0 0.2025217842010896 -0.37807387373583923 0 0.2113234447447021 -0.41044931469126889 0 0.22802948983690591 -0.39972126622214238 0 0.21646245367279571 -0.38358476595235552 0 0.2113234447447021 -0.41044931469126889 0 0.21646245367279571 -0.38358476595235552 0 0.2113234447447021 -0.41044931469126889 0 0.21646245367279571 -0.38358476595235552 0 0.19890552598050351 -0.3964869870217847 0 0.1954291475964339 -0.41062193775622902 0 0.2113234447447021 -0.41044931469126889 0 0.19890552598050351 -0.3964869870217847 0 0.1954291475964339 -0.41062193775622902 0 0.19890552598050351 -0.3964869870217847 0 0.17958921385261531 -0.41060682458489489 0 0.19890552598050351 -0.3964869870217847 0 0.19000045151593811 -0.3880482826985161 0 0.17958921385261531 -0.41060682458489489 0 0.19890552598050351 -0.3964869870217847 0 0.19000045151593811 -0.3880482826985161 0 0.2025217842010896 -0.37807387373583923 0 0.19083927531350181 -0.37426462870353422 0 0.19000045151593811 -0.3880482826985161 0 0.2025217842010896 -0.37807387373583923 0 0.19083927531350181 -0.37426462870353422 0 0.19000045151593811 -0.3880482826985161 0 0.17814645823198061 -0.38080909944652741 0 0.17814645823198061 -0.38080909944652741 0 0.17958921385261531 -0.41060682458489489 0 0.19000045151593811 -0.3880482826985161 0 0.17814645823198061 -0.38080909944652741 0 0.17958921385261531 -0.41060682458489489 0 0.17814645823198061 -0.38080909944652741 0 0.17073561596382039 -0.39301209499015272 0 0.17958921385261531 -0.41060682458489489 0 0.16300249929152311 -0.40501345282557782 0 0.1662516937484437 -0.37945746017663878 0 0.1548118257048379 -0.39098754083749682 0 0.17073561596382039 -0.39301209499015272 0 0.16300249929152311 -0.40501345282557782 0 0.1662516937484437 -0.37945746017663878 0 0.17073561596382039 -0.39301209499015272 0 0.16300249929152311 -0.40501345282557782 0 0.17958921385261531 -0.41060682458489489 0 0.16300249929152311 -0.40501345282557782 0 0.1662516937484437 -0.37945746017663878 0 0.1662516937484437 -0.37945746017663878 0 0.15122325216971341 -0.38057118911269922 0 0.1548118257048379 -0.39098754083749682 0 0.17814645823198061 -0.38080909944652741 0 0.17073561596382039 -0.39301209499015272 0 0.1662516937484437 -0.37945746017663878 0 0.15622266046030589 -0.36560529067035252 0 0.1662516937484437 -0.37945746017663878 0 0.15122325216971341 -0.38057118911269922 0 0.15122325216971341 -0.38057118911269922 0 0.13969723449876181 -0.39693417632104711 0 0.1548118257048379 -0.39098754083749682 0 0.13913284643621729 -0.36987147755796063 0 0.15122325216971341 -0.38057118911269922 0 0.13969723449876181 -0.39693417632104711 0 0.13913284643621729 -0.36987147755796063 0 0.12672469353237761 -0.38193719477194499 0 0.13969723449876181 -0.39693417632104711 0 0.13913284643621729 -0.36987147755796063 0 0.13969723449876181 -0.39693417632104711 0 0.12672469353237761 -0.38193719477194499 0 0.13969723449876181 -0.39693417632104711 0 0.1219351525082772 -0.40864131998943182 0 0.16300249929152311 -0.40501345282557782 0 0.13969723449876181 -0.39693417632104711 0 0.1524997256598466 -0.41582351463554701 0 0.16300249929152311 -0.40501345282557782 0 0.13969723449876181 -0.39693417632104711 0 0.1548118257048379 -0.39098754083749682 0 0.13969723449876181 -0.39693417632104711 0 0.1524997256598466 -0.41582351463554701 0 0.14026162256130631 -0.42399687508413381 0 0.13969723449876181 -0.39693417632104711 0 0.14026162256130631 -0.42399687508413381 0 0.13969723449876181 -0.39693417632104711 0 0.14026162256130631 -0.42399687508413381 0 0.1219351525082772 -0.40864131998943182 0 0.1272554141007321 -0.42571201066291808 0 0.14026162256130631 -0.42399687508413381 0 0.1219351525082772 -0.40864131998943182 0 0.13018508541287829 -0.43658956786597553 0 0.14026162256130631 -0.42399687508413381 0 0.14082601062385081 -0.45105957384722029 0 0.13018508541287829 -0.43658956786597553 0 0.1272554141007321 -0.42571201066291808 0 0.14026162256130631 -0.42399687508413381 0 0.1524997256598466 -0.41582351463554701 0 0.14026162256130631 -0.42399687508413381 0 0.15975330483460251 -0.43056944547451692 0 0.14026162256130631 -0.42399687508413381 0 0.15975330483460251 -0.43056944547451692 0 0.14082601062385081 -0.45105957384722029 0 0.16300249929152311 -0.40501345282557782 0 0.15975330483460251 -0.43056944547451692 0 0.17958921385261531 -0.41060682458489489 0 0.16300249929152311 -0.40501345282557782 0 0.15975330483460251 -0.43056944547451692 0 0.16300249929152311 -0.40501345282557782 0 0.1524997256598466 -0.41582351463554701 0 0.15975330483460251 -0.43056944547451692 0 0.15975330483460251 -0.43056944547451692 0 0.17958921385261531 -0.41060682458489489 0 0.18103196947325001 -0.44040454972326271 0 0.17958921385261531 -0.41060682458489489 0 0.18103196947325001 -0.44040454972326271 0 0.19189840580791451 -0.42494462472696731 0 0.17958921385261531 -0.41060682458489489 0 0.18103196947325001 -0.44040454972326271 0 0.18103196947325001 -0.44040454972326271 0 0.16491961284223791 -0.45249038001545161 0 0.18247472509388471 -0.47020227486163019 0 0.18103196947325001 -0.44040454972326271 0 0.18247472509388471 -0.47020227486163019 0 0.1958295915806266 -0.45496450832104018 0 0.18103196947325001 -0.44040454972326271 0 0.18247472509388471 -0.47020227486163019 0 0.16491961284223791 -0.45249038001545161 0 0.1605120541856016 -0.47021605617062739 0 0.18247472509388471 -0.47020227486163019 0 0.15975330483460251 -0.43056944547451692 0 0.18103196947325001 -0.44040454972326271 0 0.16491961284223791 -0.45249038001545161 0 0.15975330483460251 -0.43056944547451692 0 0.16491961284223791 -0.45249038001545161 0 0.14082601062385081 -0.45105957384722029 0 0.14026162256130631 -0.42399687508413381 0 0.14082601062385081 -0.45105957384722029 0 0.14082601062385081 -0.45105957384722029 0 0.12543676829432579 -0.44683393452868708 0 0.12531186358948529 -0.45757018679138572 0 0.13018508541287829 -0.43658956786597553 0 0.14082601062385081 -0.45105957384722029 0 0.12543676829432579 -0.44683393452868708 0 0.14082601062385081 -0.45105957384722029 0 0.12842365125323091 -0.46593607888014599 0 0.13328939848609819 -0.47119455711627289 0 0.14082601062385081 -0.45105957384722029 0 0.14139039868639619 -0.47812227261030682 0 0.13328939848609819 -0.47119455711627289 0 0.12842365125323091 -0.46593607888014599 0 0.12531186358948529 -0.45757018679138572 0 0.1232316263288145 -0.46410889533344052 0 0.12842365125323091 -0.46593607888014599 0 0.1245497287119053 -0.47085317529077592 0 0.12311265484265969 -0.46777846846391841 0 0.14082601062385081 -0.45105957384722029 0 0.12842365125323091 -0.46593607888014599 0 0.12531186358948529 -0.45757018679138572 0 0.16491961284223791 -0.45249038001545161 0 0.14082601062385081 -0.45105957384722029 0 0.1605120541856016 -0.47021605617062739 0 0.14082601062385081 -0.45105957384722029 0 0.14139039868639619 -0.47812227261030682 0 0.14082601062385081 -0.45105957384722029 0 0.14139039868639619 -0.47812227261030682 0 0.1605120541856016 -0.47021605617062739 0 0.14139039868639619 -0.47812227261030682 0 0.15939735020609169 -0.48906113630515408 0 0.1605120541856016 -0.47021605617062739 0 0.14139039868639619 -0.47812227261030682 0 0.15939735020609169 -0.48906113630515408 0 0.14139039868639619 -0.47812227261030682 0 0.13328939848609819 -0.47119455711627289 0 0.13520794413867351 -0.47916570768291911 0 0.14139039868639619 -0.47812227261030682 0 0.13520794413867351 -0.47916570768291911 0 0.13309005864575499 -0.48654881223837643 0 0.13328939848609819 -0.47119455711627289 0 0.13520794413867351 -0.47916570768291911 0 0.1282166063692238 -0.47963436787526348 0 0.13520794413867351 -0.47916570768291911 0 0.1282166063692238 -0.47963436787526348 0 0.13309005864575499 -0.48654881223837643 0 0.12842365125323091 -0.46593607888014599 0 0.1275076222339897 -0.47406719287555171 0 0.1245497287119053 -0.47085317529077592 0 0.12842365125323091 -0.46593607888014599 0 0.13328939848609819 -0.47119455711627289 0 0.1275076222339897 -0.47406719287555171 0 0.13328939848609819 -0.47119455711627289 0 0.1282166063692238 -0.47963436787526348 0 0.1275076222339897 -0.47406719287555171 0 0.1282166063692238 -0.47963436787526348 0 0.1275076222339897 -0.47406719287555171 0 0.12271037357175291 -0.47562361121234281 0 0.14139039868639619 -0.47812227261030682 0 0.13309005864575499 -0.48654881223837643 0 0.1417493920694651 -0.49533619053082339 0 0.1325088383252874 -0.49999999999999689 0 0.11946717228548211 -0.4870343347309507 0 0.1325088383252874 -0.49999999999999689 0 0.13309005864575499 -0.48654881223837643 0 0.11946717228548211 -0.4870343347309507 0 0.1282166063692238 -0.47963436787526348 0 0.13309005864575499 -0.48654881223837643 0 0.11946717228548211 -0.4870343347309507 0 0.1325088383252874 -0.49999999999999689 0 0.13309005864575499 -0.48654881223837643 0 0.1417493920694651 -0.49533619053082339 0 0.1325088383252874 -0.49999999999999689 0 0.1417493920694651 -0.49533619053082339 0 0.15495657002553739 -0.5 0 0.14139039868639619 -0.47812227261030682 0 0.14937342774687271 -0.49062989986157102 0 0.15939735020609169 -0.48906113630515408 0 0.14139039868639619 -0.47812227261030682 0 0.1417493920694651 -0.49533619053082339 0 0.14139039868639619 -0.47812227261030682 0 0.1417493920694651 -0.49533619053082339 0 0.14937342774687271 -0.49062989986157102 0 0.1417493920694651 -0.49533619053082339 0 0.14937342774687271 -0.49062989986157102 0 0.15495657002553739 -0.5 0 0.14937342774687271 -0.49062989986157102 0 0.15495657002553739 -0.5 0 0.15939735020609169 -0.48906113630515408 0 0.15939735020609169 -0.48906113630515408 0 0.17467337585270831 -0.48420504396041608 0 0.1774043017257875 -0.50000000000000111 0 0.15939735020609169 -0.48906113630515408 0 0.1774043017257875 -0.50000000000000111 0 0.15495657002553739 -0.5 0 0.15939735020609169 -0.48906113630515408 0 0.1774043017257875 -0.50000000000000111 0 0.15939735020609169 -0.48906113630515408 0 0.1605120541856016 -0.47021605617062739 0 0.17467337585270831 -0.48420504396041608 0 0.1605120541856016 -0.47021605617062739 0 0.17467337585270831 -0.48420504396041608 0 0.18247472509388471 -0.47020227486163019 0 0.18247472509388471 -0.47020227486163019 0 0.1839174807145193 -0.49999999999999789 0 0.17467337585270831 -0.48420504396041608 0 0.18247472509388471 -0.47020227486163019 0 0.1839174807145193 -0.49999999999999789 0 0.17467337585270831 -0.48420504396041608 0 0.1839174807145193 -0.49999999999999789 0 0.1774043017257875 -0.50000000000000111 0 0.065949985054517032 -0.48884997455687013 0 0.080677891680827868 -0.48404188118506331 0 0.084758324792090334 -0.49999999999999989 0 0.065949985054517032 -0.48884997455687013 0 0.084758324792090334 -0.49999999999999989 0 0.055728539092515517 -0.5 0 0.065949985054517032 -0.48884997455687013 0 0.069113753880103546 -0.47032146630200872 0 0.080677891680827868 -0.48404188118506331 0 0.065949985054517032 -0.48884997455687013 0 0.069113753880103546 -0.47032146630200872 0 0.057596711449277201 -0.48334309492942701 0 0.069113753880103546 -0.47032146630200872 0 0.080677891680827868 -0.48404188118506331 0 0.088790870678748121 -0.47481427013272492 0 0.069113753880103546 -0.47032146630200872 0 0.088790870678748121 -0.47481427013272492 0 0.09506323621333454 -0.46277261346061632 0 0.080677891680827868 -0.48404188118506331 0 0.088790870678748121 -0.47481427013272492 0 0.094776523998680279 -0.48622369493371298 0 0.080677891680827868 -0.48404188118506331 0 0.084758324792090334 -0.49999999999999989 0 0.094776523998680279 -0.48622369493371298 0 0.084758324792090334 -0.49999999999999989 0 0.10099043700106421 -0.499999999999999 0 0.094776523998680279 -0.48622369493371298 0 0.084758324792090334 -0.49999999999999989 0 0.094776523998680279 -0.48622369493371298 0 0.10099043700106421 -0.499999999999999 0 0.1064255062456735 -0.47406866946190801 0 0.10099043700106421 -0.499999999999999 0 0.094776523998680279 -0.48622369493371298 0 0.1064255062456735 -0.47406866946190801 0 0.10099043700106421 -0.499999999999999 0 0.11946717228548211 -0.4870343347309507 0 0.1064255062456735 -0.47406866946190801 0 0.1325088383252874 -0.49999999999999689 0 0.1167496376631757 -0.5 0 0.11946717228548211 -0.4870343347309507 0 0.10099043700106421 -0.499999999999999 0 0.1167496376631757 -0.5 0 0.11946717228548211 -0.4870343347309507 0 0.12074084002908721 -0.47045370359981148 0 0.12271037357175291 -0.47562361121234281 0 0.11625567037499381 -0.47238364776222469 0 0.12074084002908721 -0.47045370359981148 0 0.11625567037499381 -0.47238364776222469 0 0.1192823524431306 -0.4663394170250621 0 0.12074084002908721 -0.47045370359981148 0 0.1245497287119053 -0.47085317529077592 0 0.12271037357175291 -0.47562361121234281 0 0.12074084002908721 -0.47045370359981148 0 0.1245497287119053 -0.47085317529077592 0 0.12311265484265969 -0.46777846846391841 0 0.1275076222339897 -0.47406719287555171 0 0.1245497287119053 -0.47085317529077592 0 0.12271037357175291 -0.47562361121234281 0 0.1282166063692238 -0.47963436787526348 0 0.11946717228548211 -0.4870343347309507 0 0.12271037357175291 -0.47562361121234281 0 0.11946717228548211 -0.4870343347309507 0 0.12271037357175291 -0.47562361121234281 0 0.11625567037499381 -0.47238364776222469 0 0.11946717228548211 -0.4870343347309507 0 0.1064255062456735 -0.47406866946190801 0 0.11946717228548211 -0.4870343347309507 0 0.11625567037499381 -0.47238364776222469 0 0.1064255062456735 -0.47406866946190801 0 0.11625567037499381 -0.47238364776222469 0 0.1064255062456735 -0.47406866946190801 0 0.11129693947086181 -0.46795476393154728 0 0.1064255062456735 -0.47406866946190801 0 0.10479472320527 -0.47244738986742602 0 0.1075632658294263 -0.46864028970971422 0 0.1064255062456735 -0.47406866946190801 0 0.1075632658294263 -0.46864028970971422 0 0.11129693947086181 -0.46795476393154728 0 0.088790870678748121 -0.47481427013272492 0 0.094776523998680279 -0.48622369493371298 0 0.10479472320527 -0.47244738986742602 0 0.1064255062456735 -0.47406866946190801 0 0.1075632658294263 -0.46864028970971422 0 0.088790870678748121 -0.47481427013272492 0 0.10479472320527 -0.47244738986742602 0 0.09506323621333454 -0.46277261346061632 0 0.10479472320527 -0.47244738986742602 0 0.1075632658294263 -0.46864028970971422 0 0.1064255062456735 -0.47406866946190801 0 0.10479472320527 -0.47244738986742602 0 0.094776523998680279 -0.48622369493371298 0 0.1064255062456735 -0.47406866946190801 0 0.10479472320527 -0.47244738986742602 0 0.094776523998680279 -0.48622369493371298 0 0.10479472320527 -0.47244738986742602 0 0.10479472320527 -0.47244738986742602 0 0.09506323621333454 -0.46277261346061632 0 0.1060131744550812 -0.45411466011360518 0 0.1075632658294263 -0.46864028970971422 0 0.11260152047704799 -0.44460220652757759 0 0.09506323621333454 -0.46277261346061632 0 0.10011436795704159 -0.45274002486564408 0 0.091519926973447546 -0.44626784630584138 0 0.09506323621333454 -0.46277261346061632 0 0.10386028492466159 -0.46021350167150438 0 0.09506323621333454 -0.46277261346061632 0 0.10386028492466159 -0.46021350167150438 0 0.10011436795704159 -0.45274002486564408 0 0.10386028492466159 -0.46021350167150438 0 0.1060131744550812 -0.45411466011360518 0 0.10011436795704159 -0.45274002486564408 0 0.10386028492466159 -0.46021350167150438 0 0.1060131744550812 -0.45411466011360518 0 0.1075632658294263 -0.46864028970971422 0 0.10479472320527 -0.47244738986742602 0 0.09506323621333454 -0.46277261346061632 0 0.1075632658294263 -0.46864028970971422 0 0.09506323621333454 -0.46277261346061632 0 0.10386028492466159 -0.46021350167150438 0 0.1075632658294263 -0.46864028970971422 0 0.1075632658294263 -0.46864028970971422 0 0.1123560704600764 -0.46204957042440498 0 0.11260152047704799 -0.44460220652757759 0 0.1075632658294263 -0.46864028970971422 0 0.1123560704600764 -0.46204957042440498 0 0.1075632658294263 -0.46864028970971422 0 0.11129693947086181 -0.46795476393154728 0 0.1123560704600764 -0.46204957042440498 0 0.1075632658294263 -0.46864028970971422 0 0.11260152047704799 -0.44460220652757759 0 0.11129693947086181 -0.46795476393154728 0 0.1123560704600764 -0.46204957042440498 0 0.11129693947086181 -0.46795476393154728 0 0.1149697984784732 -0.46556593525158491 0 0.1123560704600764 -0.46204957042440498 0 0.11625567037499381 -0.47238364776222469 0 0.1149697984784732 -0.46556593525158491 0 0.1192823524431306 -0.4663394170250621 0 0.11625567037499381 -0.47238364776222469 0 0.11129693947086181 -0.46795476393154728 0 0.1149697984784732 -0.46556593525158491 0 0.1149697984784732 -0.46556593525158491 0 0.1123560704600764 -0.46204957042440498 0 0.118705430672609 -0.46205297743075813 0 0.1123560704600764 -0.46204957042440498 0 0.11635977570981471 -0.45654396370023359 0 0.118705430672609 -0.46205297743075813 0 0.1123560704600764 -0.46204957042440498 0 0.11635977570981471 -0.45654396370023359 0 0.12531186358948529 -0.45757018679138572 0 0.11635977570981471 -0.45654396370023359 0 0.118705430672609 -0.46205297743075813 0 0.12543676829432579 -0.44683393452868708 0 0.12531186358948529 -0.45757018679138572 0 0.11635977570981471 -0.45654396370023359 0 0.12531186358948529 -0.45757018679138572 0 0.1232316263288145 -0.46410889533344052 0 0.118705430672609 -0.46205297743075813 0 0.1232316263288145 -0.46410889533344052 0 0.12311265484265969 -0.46777846846391841 0 0.1192823524431306 -0.4663394170250621 0 0.12842365125323091 -0.46593607888014599 0 0.1232316263288145 -0.46410889533344052 0 0.12311265484265969 -0.46777846846391841 0 0.12074084002908721 -0.47045370359981148 0 0.12311265484265969 -0.46777846846391841 0 0.1192823524431306 -0.4663394170250621 0 0.1149697984784732 -0.46556593525158491 0 0.1192823524431306 -0.4663394170250621 0 0.118705430672609 -0.46205297743075813 0 0.1232316263288145 -0.46410889533344052 0 0.1192823524431306 -0.4663394170250621 0 0.118705430672609 -0.46205297743075813 0 0.1123560704600764 -0.46204957042440498 0 0.11714561148417681 -0.43534544520691831 0 0.1123560704600764 -0.46204957042440498 0 0.11260152047704799 -0.44460220652757759 0 0.11714561148417681 -0.43534544520691831 0 0.1123560704600764 -0.46204957042440498 0 0.11635977570981471 -0.45654396370023359 0 0.11714561148417681 -0.43534544520691831 0 0.12543676829432579 -0.44683393452868708 0 0.11635977570981471 -0.45654396370023359 0 0.11714561148417681 -0.43534544520691831 0 0.13018508541287829 -0.43658956786597553 0 0.12543676829432579 -0.44683393452868708 0 0.11714561148417681 -0.43534544520691831 0 0.10592643308722841 -0.44437727779358549 0 0.083881602994700072 -0.43088647549478237 0 0.10592643308722841 -0.44437727779358549 0 0.091519926973447546 -0.44626784630584138 0 0.083881602994700072 -0.43088647549478237 0 0.11260152047704799 -0.44460220652757759 0 0.10592643308722841 -0.44437727779358549 0 0.1086116799951807 -0.43095684568344572 0 0.1060131744550812 -0.45411466011360518 0 0.10592643308722841 -0.44437727779358549 0 0.10011436795704159 -0.45274002486564408 0 0.1060131744550812 -0.45411466011360518 0 0.11260152047704799 -0.44460220652757759 0 0.10592643308722841 -0.44437727779358549 0 0.10592643308722841 -0.44437727779358549 0 0.10011436795704159 -0.45274002486564408 0 0.091519926973447546 -0.44626784630584138 0 0.09506323621333454 -0.46277261346061632 0 0.073976492589610171 -0.44180875358221461 0 0.09506323621333454 -0.46277261346061632 0 0.091519926973447546 -0.44626784630584138 0 0.073976492589610171 -0.44180875358221461 0 0.091519926973447546 -0.44626784630584138 0 0.073976492589610171 -0.44180875358221461 0 0.083881602994700072 -0.43088647549478237 0 0.069113753880103546 -0.47032146630200872 0 0.09506323621333454 -0.46277261346061632 0 0.09506323621333454 -0.46277261346061632 0 0.075948319170580939 -0.45709497223106438 0 0.073976492589610171 -0.44180875358221461 0 0.069113753880103546 -0.47032146630200872 0 0.09506323621333454 -0.46277261346061632 0 0.075948319170580939 -0.45709497223106438 0 0.069113753880103546 -0.47032146630200872 0 0.075948319170580939 -0.45709497223106438 0 0.064267892493667544 -0.45245405090636609 0 0.064267892493667544 -0.45245405090636609 0 0.073976492589610171 -0.44180875358221461 0 0.061221704008603092 -0.43412854505433712 0 0.075948319170580939 -0.45709497223106438 0 0.064267892493667544 -0.45245405090636609 0 0.073976492589610171 -0.44180875358221461 0 0.083881602994700072 -0.43088647549478237 0 0.061836772902171017 -0.41739567319598042 0 0.061221704008603092 -0.43412854505433712 0 0.073976492589610171 -0.44180875358221461 0 0.083881602994700072 -0.43088647549478237 0 0.061221704008603092 -0.43412854505433712 0 0.083881602994700072 -0.43088647549478237 0 0.061836772902171017 -0.41739567319598042 0 0.087852613914545186 -0.40334306140395609 0 0.070156507476487037 -0.39917662383738439 0 0.061836772902171017 -0.41739567319598042 0 0.087852613914545186 -0.40334306140395609 0 0.061836772902171017 -0.41739567319598042 0 0.090204007114443943 -0.4177400312392191 0 0.087852613914545186 -0.40334306140395609 0 0.061836772902171017 -0.41739567319598042 0 0.090204007114443943 -0.4177400312392191 0 0.083881602994700072 -0.43088647549478237 0 0.061836772902171017 -0.41739567319598042 0 0.090204007114443943 -0.4177400312392191 0 0.083881602994700072 -0.43088647549478237 0 0.10022705322515101 -0.42809075962971732 0 0.10592643308722841 -0.44437727779358549 0 0.083881602994700072 -0.43088647549478237 0 0.10022705322515101 -0.42809075962971732 0 0.10592643308722841 -0.44437727779358549 0 0.10022705322515101 -0.42809075962971732 0 0.1086116799951807 -0.43095684568344572 0 0.10022705322515101 -0.42809075962971732 0 0.1086116799951807 -0.43095684568344572 0 0.10561771621597441 -0.41891116251106192 0 0.11260152047704799 -0.44460220652757759 0 0.11714561148417681 -0.43534544520691831 0 0.11763977512467 -0.42056412334544119 0 0.11714561148417681 -0.43534544520691831 0 0.1219351525082772 -0.40864131998943182 0 0.11260152047704799 -0.44460220652757759 0 0.11763977512467 -0.42056412334544119 0 0.11260152047704799 -0.44460220652757759 0 0.1086116799951807 -0.43095684568344572 0 0.11763977512467 -0.42056412334544119 0 0.1272554141007321 -0.42571201066291808 0 0.11714561148417681 -0.43534544520691831 0 0.1219351525082772 -0.40864131998943182 0 0.1086116799951807 -0.43095684568344572 0 0.11763977512467 -0.42056412334544119 0 0.10561771621597441 -0.41891116251106192 0 0.13018508541287829 -0.43658956786597553 0 0.1272554141007321 -0.42571201066291808 0 0.11714561148417681 -0.43534544520691831 0 0.1219351525082772 -0.40864131998943182 0 0.11763977512467 -0.42056412334544119 0 0.1226780297722921 -0.39652604016330478 0 0.11763977512467 -0.42056412334544119 0 0.1063857367604352 -0.40565829933023112 0 0.1226780297722921 -0.39652604016330478 0 0.11714561148417681 -0.43534544520691831 0 0.1219351525082772 -0.40864131998943182 0 0.11763977512467 -0.42056412334544119 0 0.11763977512467 -0.42056412334544119 0 0.1226780297722921 -0.39652604016330478 0 0.11763977512467 -0.42056412334544119 0 0.10561771621597441 -0.41891116251106192 0 0.1063857367604352 -0.40565829933023112 0 0.090204007114443943 -0.4177400312392191 0 0.1063857367604352 -0.40565829933023112 0 0.087852613914545186 -0.40334306140395609 0 0.090204007114443943 -0.4177400312392191 0 0.10561771621597441 -0.41891116251106192 0 0.1063857367604352 -0.40565829933023112 0 0.090204007114443943 -0.4177400312392191 0 0.10022705322515101 -0.42809075962971732 0 0.10561771621597441 -0.41891116251106192 0 0.1063857367604352 -0.40565829933023112 0 0.11269819459067421 -0.38831450138448881 0 0.097085641119374302 -0.38571424072610178 0 0.1063857367604352 -0.40565829933023112 0 0.097085641119374302 -0.38571424072610178 0 0.087852613914545186 -0.40334306140395609 0 0.12672469353237761 -0.38193719477194499 0 0.1219351525082772 -0.40864131998943182 0 0.1063857367604352 -0.40565829933023112 0 0.1226780297722921 -0.39652604016330478 0 0.11269819459067421 -0.38831450138448881 0 0.12672469353237761 -0.38193719477194499 0 0.1219351525082772 -0.40864131998943182 0 0.1226780297722921 -0.39652604016330478 0 0.12672469353237761 -0.38193719477194499 0 0.11269819459067421 -0.38831450138448881 0 0.1080928822255358 -0.3703790814713866 0 0.12672469353237761 -0.38193719477194499 0 0.1226780297722921 -0.39652604016330478 0 0.11269819459067421 -0.38831450138448881 0 0.11269819459067421 -0.38831450138448881 0 0.097085641119374302 -0.38571424072610178 0 0.1080928822255358 -0.3703790814713866 0 0.097085641119374302 -0.38571424072610178 0 0.078524092076429908 -0.38558307009035819 0 0.085574671404253372 -0.36606529366265911 0 0.097085641119374302 -0.38571424072610178 0 0.078524092076429908 -0.38558307009035819 0 0.087852613914545186 -0.40334306140395609 0 0.078524092076429908 -0.38558307009035819 0 0.087852613914545186 -0.40334306140395609 0 0.070156507476487037 -0.39917662383738439 0 0.078524092076429908 -0.38558307009035819 0 0.070156507476487037 -0.39917662383738439 0 0.064141871653705745 -0.38905297891460661 0 0.070156507476487037 -0.39917662383738439 0 0.058427186835583247 -0.40050833558202109 0 0.061836772902171017 -0.41739567319598042 0 0.070156507476487037 -0.39917662383738439 0 0.064141871653705745 -0.38905297891460661 0 0.058427186835583247 -0.40050833558202109 0 0.078524092076429908 -0.38558307009035819 0 0.064141871653705745 -0.38905297891460661 0 0.064781398010314309 -0.37536455347105108 0 0.078524092076429908 -0.38558307009035819 0 0.064781398010314309 -0.37536455347105108 0 0.085574671404253372 -0.36606529366265911 0 0.064781398010314309 -0.37536455347105108 0 0.05115882120843647 -0.38571757356542352 0 0.043890455581289831 -0.3709268115488259 0 0.05115882120843647 -0.38571757356542352 0 0.043890455581289831 -0.3709268115488259 0 0.064141871653705745 -0.38905297891460661 0 0.064781398010314309 -0.37536455347105108 0 0.05115882120843647 -0.38571757356542352 0 0.064141871653705745 -0.38905297891460661 0 0.05115882120843647 -0.38571757356542352 0 0.058427186835583247 -0.40050833558202109 0 0.05115882120843647 -0.38571757356542352 0 0.058427186835583247 -0.40050833558202109 0 0.05115882120843647 -0.38571757356542352 0 0.058427186835583247 -0.40050833558202109 0 0.039291666751458072 -0.38953557003537942 0 0.058427186835583247 -0.40050833558202109 0 0.03861507037192409 -0.403184658796582 0 0.039291666751458072 -0.38953557003537942 0 0.039291666751458072 -0.38953557003537942 0 0.030780854092194759 -0.38031894893150719 0 0.043890455581289831 -0.3709268115488259 0 0.05115882120843647 -0.38571757356542352 0 0.039291666751458072 -0.38953557003537942 0 0.043890455581289831 -0.3709268115488259 0 0.030780854092194759 -0.38031894893150719 0 0.043890455581289831 -0.3709268115488259 0 0.030780854092194759 -0.38031894893150719 0 0.0132535835722172 -0.37610527220974688 0 0.01539336784167648 -0.38897364439718468 0 0.039291666751458072 -0.38953557003537942 0 0.030780854092194759 -0.38031894893150719 0 0.01539336784167648 -0.38897364439718468 0 0.030780854092194759 -0.38031894893150719 0 0.0132535835722172 -0.37610527220974688 0 0.022072978528308879 -0.36937310690127451 0 -0.0078283346885702904 -0.37476262999778609 0 -0.0023576536845698339 -0.39611583857600319 0 0.01539336784167648 -0.38897364439718468 0 -0.0078283346885702904 -0.37476262999778609 0 0.01539336784167648 -0.38897364439718468 0 -0.0078283346885702904 -0.37476262999778609 0 0.0132535835722172 -0.37610527220974688 0 0.01539336784167648 -0.38897364439718468 0 -0.0023576536845698339 -0.39611583857600319 0 -0.0081630895937607941 -0.41129335178386173 0 0.01158543002224671 -0.40754374071996963 0 -0.0023576536845698339 -0.39611583857600319 0 0.01539336784167648 -0.38897364439718468 0 0.01158543002224671 -0.40754374071996963 0 0.03861507037192409 -0.403184658796582 0 0.039291666751458072 -0.38953557003537942 0 0.01539336784167648 -0.38897364439718468 0 0.03861507037192409 -0.403184658796582 0 0.01539336784167648 -0.38897364439718468 0 0.026736383496206509 -0.41290648431754168 0 0.01539336784167648 -0.38897364439718468 0 0.026736383496206509 -0.41290648431754168 0 0.01158543002224671 -0.40754374071996963 0 0.03861507037192409 -0.403184658796582 0 0.01539336784167648 -0.38897364439718468 0 0.026736383496206509 -0.41290648431754168 0 0.01158543002224671 -0.40754374071996963 0 0.01747615232015888 -0.42514842909431222 0 0.026736383496206509 -0.41290648431754168 0 0.01747615232015888 -0.42514842909431222 0 0.02768083642208749 -0.42593076319487821 0 0.01158543002224671 -0.40754374071996963 0 0.0026957591361241309 -0.41958824334712869 0 0.01747615232015888 -0.42514842909431222 0 -0.0081630895937607941 -0.41129335178386173 0 0.01158543002224671 -0.40754374071996963 0 0.0026957591361241309 -0.41958824334712869 0 0.0026957591361241309 -0.41958824334712869 0 0.003851027954898749 -0.43172418954792041 0 0.01747615232015888 -0.42514842909431222 0 0.003851027954898749 -0.43172418954792041 0 0.01410030331848921 -0.43483725365991388 0 0.01747615232015888 -0.42514842909431222 0 0.003851027954898749 -0.43172418954792041 0 0.01410030331848921 -0.43483725365991388 0 0.011432193992105429 -0.44462200732167467 0 0.01747615232015888 -0.42514842909431222 0 0.023728282280598981 -0.43798020184644493 0 0.01410030331848921 -0.43483725365991388 0 0.01747615232015888 -0.42514842909431222 0 0.023728282280598981 -0.43798020184644493 0 0.01747615232015888 -0.42514842909431222 0 0.02768083642208749 -0.42593076319487821 0 0.023728282280598981 -0.43798020184644493 0 0.026736383496206509 -0.41290648431754168 0 0.02768083642208749 -0.42593076319487821 0 0.042782527591385587 -0.42768793752121392 0 0.042782527591385587 -0.42768793752121392 0 0.023728282280598981 -0.43798020184644493 0 0.02768083642208749 -0.42593076319487821 0 0.042782527591385587 -0.42768793752121392 0 0.023728282280598981 -0.43798020184644493 0 0.042782527591385587 -0.42768793752121392 0 0.038339333849137569 -0.44224603439757942 0 0.023728282280598981 -0.43798020184644493 0 0.03861507037192409 -0.403184658796582 0 0.026736383496206509 -0.41290648431754168 0 0.042782527591385587 -0.42768793752121392 0 0.03861507037192409 -0.403184658796582 0 0.042782527591385587 -0.42768793752121392 0 0.061836772902171017 -0.41739567319598042 0 0.03861507037192409 -0.403184658796582 0 0.061836772902171017 -0.41739567319598042 0 0.058427186835583247 -0.40050833558202109 0 0.03861507037192409 -0.403184658796582 0 0.061836772902171017 -0.41739567319598042 0 0.042782527591385587 -0.42768793752121392 0 0.061836772902171017 -0.41739567319598042 0 0.061221704008603092 -0.43412854505433712 0 0.042782527591385587 -0.42768793752121392 0 0.061836772902171017 -0.41739567319598042 0 0.042782527591385587 -0.42768793752121392 0 0.061221704008603092 -0.43412854505433712 0 0.052693917870023622 -0.44730825455084611 0 0.064267892493667544 -0.45245405090636609 0 0.061221704008603092 -0.43412854505433712 0 0.052693917870023622 -0.44730825455084611 0 0.069113753880103546 -0.47032146630200872 0 0.064267892493667544 -0.45245405090636609 0 0.052594011880735161 -0.46258963849414558 0 0.064267892493667544 -0.45245405090636609 0 0.052693917870023622 -0.44730825455084611 0 0.052594011880735161 -0.46258963849414558 0 0.033446276913734967 -0.45792526049492271 0 0.024747075647264399 -0.46972246297684461 0 0.043164271546872197 -0.4778703191434 0 0.052693917870023622 -0.44730825455084611 0 0.052594011880735161 -0.46258963849414558 0 0.033446276913734967 -0.45792526049492271 0 0.052594011880735161 -0.46258963849414558 0 0.033446276913734967 -0.45792526049492271 0 0.043164271546872197 -0.4778703191434 0 0.033446276913734967 -0.45792526049492271 0 0.043164271546872197 -0.4778703191434 0 0.042782527591385587 -0.42768793752121392 0 0.052693917870023622 -0.44730825455084611 0 0.038339333849137569 -0.44224603439757942 0 0.033446276913734967 -0.45792526049492271 0 0.038339333849137569 -0.44224603439757942 0 0.023728282280598981 -0.43798020184644493 0 0.052693917870023622 -0.44730825455084611 0 0.033446276913734967 -0.45792526049492271 0 0.038339333849137569 -0.44224603439757942 0 0.023728282280598981 -0.43798020184644493 0 0.011432193992105429 -0.44462200732167467 0 0.01779212199045099 -0.45571080357091009 0 0.033446276913734967 -0.45792526049492271 0 0.023728282280598981 -0.43798020184644493 0 0.033446276913734967 -0.45792526049492271 0 0.023728282280598981 -0.43798020184644493 0 0.01779212199045099 -0.45571080357091009 0 0.023728282280598981 -0.43798020184644493 0 0.011432193992105429 -0.44462200732167467 0 0.01410030331848921 -0.43483725365991388 0 0.023728282280598981 -0.43798020184644493 0 0.011432193992105429 -0.44462200732167467 0 -0.01027783979290609 -0.4450418277695869 0 0.011432193992105429 -0.44462200732167467 0 0.0031349746952128348 -0.45732154608844711 0 -0.01027783979290609 -0.4450418277695869 0 0.003851027954898749 -0.43172418954792041 0 0.011432193992105429 -0.44462200732167467 0 0.011432193992105429 -0.44462200732167467 0 0.0031349746952128348 -0.45732154608844711 0 0.01779212199045099 -0.45571080357091009 0 -0.00094907817261298132 -0.47112804672216879 0 0.0031349746952128348 -0.45732154608844711 0 0.01026392841378935 -0.46669334269712659 0 0.0031349746952128348 -0.45732154608844711 0 0.01026392841378935 -0.46669334269712659 0 0.01779212199045099 -0.45571080357091009 0 0.01026392841378935 -0.46669334269712659 0 0.01779212199045099 -0.45571080357091009 0 0.024747075647264399 -0.46972246297684461 0 0.033446276913734967 -0.45792526049492271 0 0.01779212199045099 -0.45571080357091009 0 0.024747075647264399 -0.46972246297684461 0 0.024747075647264399 -0.46972246297684461 0 0.019392481307258409 -0.48478566889839131 0 0.043164271546872197 -0.4778703191434 0 0.01026392841378935 -0.46669334269712659 0 0.024747075647264399 -0.46972246297684461 0 0.019392481307258409 -0.48478566889839131 0 0.01026392841378935 -0.46669334269712659 0 0.0053352152350804568 -0.4807791696356124 0 0.019392481307258409 -0.48478566889839131 0 -0.0043176495648967151 -0.48070428616945038 0 -0.00094907817261298132 -0.47112804672216879 0 0.0053352152350804568 -0.4807791696356124 0 -0.00094907817261298132 -0.47112804672216879 0 0.01026392841378935 -0.46669334269712659 0 0.0053352152350804568 -0.4807791696356124 0 -0.0023310323066341181 -0.5 0 -0.0043793089323552817 -0.49170101865338262 0 0.019392481307258409 -0.48478566889839131 0 -0.0043793089323552817 -0.49170101865338262 0 0.019392481307258409 -0.48478566889839131 0 -0.0043793089323552817 -0.49170101865338262 0 0.0053352152350804568 -0.4807791696356124 0 0.019392481307258409 -0.48478566889839131 0 -0.0023310323066341181 -0.5 0 0.019392481307258409 -0.48478566889839131 0 0.026698753392940699 -0.5 0 0.019392481307258409 -0.48478566889839131 0 0.026698753392940699 -0.5 0 0.035353585390671842 -0.48974665193930511 0 0.035353585390671842 -0.48974665193930511 0 0.043164271546872197 -0.4778703191434 0 0.052158835315616027 -0.49633061971542908 0 0.026698753392940699 -0.5 0 0.055728539092515517 -0.5 0 0.052158835315616027 -0.49633061971542908 0 0.026698753392940699 -0.5 0 0.035353585390671842 -0.48974665193930511 0 0.052158835315616027 -0.49633061971542908 0 0.019392481307258409 -0.48478566889839131 0 0.035353585390671842 -0.48974665193930511 0 0.043164271546872197 -0.4778703191434 0 0.019392481307258409 -0.48478566889839131 0 0.043164271546872197 -0.4778703191434 0 0.069113753880103546 -0.47032146630200872 0 0.052594011880735161 -0.46258963849414558 0 0.043164271546872197 -0.4778703191434 0 0.069113753880103546 -0.47032146630200872 0 0.043164271546872197 -0.4778703191434 0 0.057596711449277201 -0.48334309492942701 0 0.069113753880103546 -0.47032146630200872 0 0.043164271546872197 -0.4778703191434 0 0.043164271546872197 -0.4778703191434 0 0.057596711449277201 -0.48334309492942701 0 0.052158835315616027 -0.49633061971542908 0 0.065949985054517032 -0.48884997455687013 0 0.057596711449277201 -0.48334309492942701 0 0.052158835315616027 -0.49633061971542908 0 0.043164271546872197 -0.4778703191434 0 0.052158835315616027 -0.49633061971542908 0 0.065949985054517032 -0.48884997455687013 0 0.055728539092515517 -0.5 0 0.052158835315616027 -0.49633061971542908 0 0.091646396761647708 -0.28947790237370968 0 0.07071546022358817 -0.28620470259943642 0 0.079999995207784586 -0.26983589460815821 0 0.091646396761647708 -0.28947790237370968 0 0.072783535289555654 -0.30157633939854622 0 0.07071546022358817 -0.28620470259943642 0 0.091646396761647708 -0.28947790237370968 0 0.087363613427391865 -0.30807629250996549 0 0.072783535289555654 -0.30157633939854622 0 0.072783535289555654 -0.30157633939854622 0 0.073259594084162577 -0.32259772896999273 0 0.056038135353808333 -0.31320409925325249 0 0.087363613427391865 -0.30807629250996549 0 0.072783535289555654 -0.30157633939854622 0 0.073259594084162577 -0.32259772896999273 0 0.072783535289555654 -0.30157633939854622 0 0.07071546022358817 -0.28620470259943642 0 0.04944647540011983 -0.29680206833493911 0 0.07071546022358817 -0.28620470259943642 0 0.079999995207784586 -0.26983589460815821 0 0.059700898458833078 -0.27333130828182889 0 0.06835359365392131 -0.25019388684260668 0 0.079999995207784586 -0.26983589460815821 0 0.08421140423371333 -0.243891226620808 0 0.06835359365392131 -0.25019388684260668 0 0.079999995207784586 -0.26983589460815821 0 0.06835359365392131 -0.25019388684260668 0 0.079999995207784586 -0.26983589460815821 0 0.059700898458833078 -0.27333130828182889 0 0.079999995207784586 -0.26983589460815821 0 0.097662046653794854 -0.25561444261418242 0 0.08421140423371333 -0.243891226620808 0 0.079999995207784586 -0.26983589460815821 0 0.1034904733698796 -0.27103876000237981 0 0.097662046653794854 -0.25561444261418242 0 0.091646396761647708 -0.28947790237370968 0 0.079999995207784586 -0.26983589460815821 0 0.091646396761647708 -0.28947790237370968 0 0.079999995207784586 -0.26983589460815821 0 0.1034904733698796 -0.27103876000237981 0 0.1034904733698796 -0.27103876000237981 0 0.097662046653794854 -0.25561444261418242 0 0.1147239364606354 -0.25215539330366038 0 0.13687529418603939 -0.26162068250561471 0 0.1147239364606354 -0.25215539330366038 0 0.1223190960555403 -0.2394332616338683 0 0.1034904733698796 -0.27103876000237981 0 0.1147239364606354 -0.25215539330366038 0 0.12122917553908071 -0.27280048239714111 0 0.13687529418603939 -0.26162068250561471 0 0.1147239364606354 -0.25215539330366038 0 0.12122917553908071 -0.27280048239714111 0 0.1034904733698796 -0.27103876000237981 0 0.12122917553908071 -0.27280048239714111 0 0.11361649143026541 -0.29050419490534962 0 0.13743968224858391 -0.28868338126870119 0 0.12122917553908071 -0.27280048239714111 0 0.11361649143026541 -0.29050419490534962 0 0.091646396761647708 -0.28947790237370968 0 0.11361649143026541 -0.29050419490534962 0 0.10329279831551071 -0.3091199101392611 0 0.091646396761647708 -0.28947790237370968 0 0.1034904733698796 -0.27103876000237981 0 0.11361649143026541 -0.29050419490534962 0 0.091646396761647708 -0.28947790237370968 0 0.10329279831551071 -0.3091199101392611 0 0.091646396761647708 -0.28947790237370968 0 0.087363613427391865 -0.30807629250996549 0 0.10329279831551071 -0.3091199101392611 0 0.11361649143026541 -0.29050419490534962 0 0.10329279831551071 -0.3091199101392611 0 0.1207194796176513 -0.31206082339016011 0 0.13743968224858391 -0.28868338126870119 0 0.11361649143026541 -0.29050419490534962 0 0.1207194796176513 -0.31206082339016011 0 0.10329279831551071 -0.3091199101392611 0 0.11030782598785099 -0.32334328523235578 0 0.1149391998693738 -0.32876191790481257 0 0.10329279831551071 -0.3091199101392611 0 0.1207194796176513 -0.31206082339016011 0 0.1149391998693738 -0.32876191790481257 0 0.127277047630593 -0.32368123984794023 0 0.1207194796176513 -0.31206082339016011 0 0.1149391998693738 -0.32876191790481257 0 0.1252730154641265 -0.33501756179834041 0 0.127277047630593 -0.32368123984794023 0 0.1149391998693738 -0.32876191790481257 0 0.11030782598785099 -0.32334328523235578 0 0.1149391998693738 -0.32876191790481257 0 0.1071562875265276 -0.34088406714172798 0 0.1252730154641265 -0.33501756179834041 0 0.1149391998693738 -0.32876191790481257 0 0.1203073559828662 -0.34481831064573482 0 0.1149391998693738 -0.32876191790481257 0 0.1071562875265276 -0.34088406714172798 0 0.1203073559828662 -0.34481831064573482 0 0.11030782598785099 -0.32334328523235578 0 0.1071562875265276 -0.34088406714172798 0 0.088168702518997374 -0.33920446067117932 0 0.11030782598785099 -0.32334328523235578 0 0.088168702518997374 -0.33920446067117932 0 0.11030782598785099 -0.32334328523235578 0 0.092685396428672781 -0.32103820683708328 0 0.088168702518997374 -0.33920446067117932 0 0.10329279831551071 -0.3091199101392611 0 0.11030782598785099 -0.32334328523235578 0 0.092685396428672781 -0.32103820683708328 0 0.087363613427391865 -0.30807629250996549 0 0.10329279831551071 -0.3091199101392611 0 0.092685396428672781 -0.32103820683708328 0 0.10329279831551071 -0.3091199101392611 0 0.1149391998693738 -0.32876191790481257 0 0.1245186505824013 -0.36113750934922573 0 0.111761677400382 -0.35565256239397869 0 0.1080928822255358 -0.3703790814713866 0 0.12672469353237761 -0.38193719477194499 0 0.1245186505824013 -0.36113750934922573 0 0.1080928822255358 -0.3703790814713866 0 0.1245186505824013 -0.36113750934922573 0 0.111761677400382 -0.35565256239397869 0 0.1203073559828662 -0.34481831064573482 0 0.1071562875265276 -0.34088406714172798 0 0.111761677400382 -0.35565256239397869 0 0.1203073559828662 -0.34481831064573482 0 0.1071562875265276 -0.34088406714172798 0 0.09828664694928807 -0.35383226801130691 0 0.088168702518997374 -0.33920446067117932 0 0.1071562875265276 -0.34088406714172798 0 0.111761677400382 -0.35565256239397869 0 0.09828664694928807 -0.35383226801130691 0 0.097085641119374302 -0.38571424072610178 0 0.1080928822255358 -0.3703790814713866 0 0.085574671404253372 -0.36606529366265911 0 0.111761677400382 -0.35565256239397869 0 0.09828664694928807 -0.35383226801130691 0 0.1080928822255358 -0.3703790814713866 0 0.09828664694928807 -0.35383226801130691 0 0.1080928822255358 -0.3703790814713866 0 0.085574671404253372 -0.36606529366265911 0 0.085574671404253372 -0.36606529366265911 0 0.066029579050143783 -0.35506563611000291 0 0.088168702518997374 -0.33920446067117932 0 0.09828664694928807 -0.35383226801130691 0 0.085574671404253372 -0.36606529366265911 0 0.088168702518997374 -0.33920446067117932 0 0.066029579050143783 -0.35506563611000291 0 0.088168702518997374 -0.33920446067117932 0 0.064781398010314309 -0.37536455347105108 0 0.085574671404253372 -0.36606529366265911 0 0.066029579050143783 -0.35506563611000291 0 0.066029579050143783 -0.35506563611000291 0 0.088168702518997374 -0.33920446067117932 0 0.073259594084162577 -0.32259772896999273 0 0.066029579050143783 -0.35506563611000291 0 0.073259594084162577 -0.32259772896999273 0 0.048222299164917798 -0.333319266554439 0 0.092685396428672781 -0.32103820683708328 0 0.088168702518997374 -0.33920446067117932 0 0.073259594084162577 -0.32259772896999273 0 0.087363613427391865 -0.30807629250996549 0 0.092685396428672781 -0.32103820683708328 0 0.073259594084162577 -0.32259772896999273 0 0.073259594084162577 -0.32259772896999273 0 0.056038135353808333 -0.31320409925325249 0 0.048222299164917798 -0.333319266554439 0 0.056038135353808333 -0.31320409925325249 0 0.048222299164917798 -0.333319266554439 0 0.036478772830285791 -0.31172509300834528 0 0.048222299164917798 -0.333319266554439 0 0.033610930591278822 -0.35000849021355163 0 0.023331405601267931 -0.32909016887827719 0 0.048222299164917798 -0.333319266554439 0 0.023331405601267931 -0.32909016887827719 0 0.036478772830285791 -0.31172509300834528 0 0.066029579050143783 -0.35506563611000291 0 0.048355778033110031 -0.35315995845717169 0 0.043890455581289831 -0.3709268115488259 0 0.066029579050143783 -0.35506563611000291 0 0.043890455581289831 -0.3709268115488259 0 0.064781398010314309 -0.37536455347105108 0 0.066029579050143783 -0.35506563611000291 0 0.043890455581289831 -0.3709268115488259 0 0.066029579050143783 -0.35506563611000291 0 0.048222299164917798 -0.333319266554439 0 0.048355778033110031 -0.35315995845717169 0 0.048222299164917798 -0.333319266554439 0 0.048355778033110031 -0.35315995845717169 0 0.033610930591278822 -0.35000849021355163 0 0.048355778033110031 -0.35315995845717169 0 0.033610930591278822 -0.35000849021355163 0 0.043890455581289831 -0.3709268115488259 0 0.033610930591278822 -0.35000849021355163 0 0.03286340713970079 -0.36889202113574671 0 0.043890455581289831 -0.3709268115488259 0 0.033610930591278822 -0.35000849021355163 0 0.043890455581289831 -0.3709268115488259 0 0.030780854092194759 -0.38031894893150719 0 0.03286340713970079 -0.36889202113574671 0 0.043890455581289831 -0.3709268115488259 0 0.033610930591278822 -0.35000849021355163 0 0.03286340713970079 -0.36889202113574671 0 0.022072978528308879 -0.36937310690127451 0 0.030780854092194759 -0.38031894893150719 0 0.03286340713970079 -0.36889202113574671 0 0.022072978528308879 -0.36937310690127451 0 0.033610930591278822 -0.35000849021355163 0 0.022072978528308879 -0.36937310690127451 0 0.014393680356963701 -0.35536411395587292 0 0.033610930591278822 -0.35000849021355163 0 0.014393680356963701 -0.35536411395587292 0 0.0105762414372169 -0.3395135522035268 0 -0.00014080085946228561 -0.35082738964002957 0 0.014393680356963701 -0.35536411395587292 0 0.0105762414372169 -0.3395135522035268 0 -0.00014080085946228561 -0.35082738964002957 0 0.014393680356963701 -0.35536411395587292 0 0.0058490520874761691 -0.36709803082098191 0 0.022072978528308879 -0.36937310690127451 0 0.014393680356963701 -0.35536411395587292 0 0.0058490520874761691 -0.36709803082098191 0 0.022072978528308879 -0.36937310690127451 0 0.0058490520874761691 -0.36709803082098191 0 0.0132535835722172 -0.37610527220974688 0 0.022072978528308879 -0.36937310690127451 0 0.0058490520874761691 -0.36709803082098191 0 -0.0078283346885702904 -0.37476262999778609 0 0.0132535835722172 -0.37610527220974688 0 0.0058490520874761691 -0.36709803082098191 0 0.023331405601267931 -0.32909016887827719 0 0.013051880611257029 -0.30817184754300292 0 0.023331405601267931 -0.32909016887827719 0 0.013051880611257029 -0.30817184754300292 0 0.036478772830285791 -0.31172509300834528 0 0.033610930591278822 -0.35000849021355163 0 0.023331405601267931 -0.32909016887827719 0 0.0105762414372169 -0.3395135522035268 0 0.033610930591278822 -0.35000849021355163 0 0.023331405601267931 -0.32909016887827719 0 0.023331405601267931 -0.32909016887827719 0 0.0105762414372169 -0.3395135522035268 0 3.5896068887442723e-05 -0.32803491845883598 0 -0.00014080085946228561 -0.35082738964002957 0 0.0105762414372169 -0.3395135522035268 0 3.5896068887442723e-05 -0.32803491845883598 0 -0.0063780240591087903 -0.31078717533589839 0 3.5896068887442723e-05 -0.32803491845883598 0 0.013051880611257029 -0.30817184754300292 0 0.023331405601267931 -0.32909016887827719 0 3.5896068887442723e-05 -0.32803491845883598 0 0.013051880611257029 -0.30817184754300292 0 0.013051880611257029 -0.30817184754300292 0 0.0027723556212477219 -0.28725352620772771 0 0.0027723556212477219 -0.28725352620772771 0 0.026109415510684009 -0.29202779727133188 0 -0.0017476628817073611 -0.27805551369469472 0 0.0027723556212477219 -0.28725352620772771 0 0.01602201902671789 -0.28191194131808539 0 0.013051880611257029 -0.30817184754300292 0 0.0027723556212477219 -0.28725352620772771 0 0.026109415510684009 -0.29202779727133188 0 0.0027723556212477219 -0.28725352620772771 0 0.026109415510684009 -0.29202779727133188 0 0.01602201902671789 -0.28191194131808539 0 -0.0074917523477661804 -0.29461577546968681 0 0.013051880611257029 -0.30817184754300292 0 0.0027723556212477219 -0.28725352620772771 0 -0.0017476628817073611 -0.27805551369469472 0 0.0027723556212477219 -0.28725352620772771 0 0.026109415510684009 -0.29202779727133188 0 0.01602201902671789 -0.28191194131808539 0 0.036314123194761641 -0.27872041929058161 0 0.013051880611257029 -0.30817184754300292 0 0.026109415510684009 -0.29202779727133188 0 0.036478772830285791 -0.31172509300834528 0 0.026109415510684009 -0.29202779727133188 0 0.036478772830285791 -0.31172509300834528 0 0.04944647540011983 -0.29680206833493911 0 0.026109415510684009 -0.29202779727133188 0 0.04944647540011983 -0.29680206833493911 0 0.036314123194761641 -0.27872041929058161 0 0.026109415510684009 -0.29202779727133188 0 0.04944647540011983 -0.29680206833493911 0 0.04944647540011983 -0.29680206833493911 0 0.059700898458833078 -0.27333130828182889 0 0.036314123194761641 -0.27872041929058161 0 0.07071546022358817 -0.28620470259943642 0 0.04944647540011983 -0.29680206833493911 0 0.059700898458833078 -0.27333130828182889 0 0.072783535289555654 -0.30157633939854622 0 0.04944647540011983 -0.29680206833493911 0 0.056038135353808333 -0.31320409925325249 0 0.036478772830285791 -0.31172509300834528 0 0.04944647540011983 -0.29680206833493911 0 0.072783535289555654 -0.30157633939854622 0 0.056038135353808333 -0.31320409925325249 0 0.04944647540011983 -0.29680206833493911 0 0.06835359365392131 -0.25019388684260668 0 0.044986508142045613 -0.25948109579330381 0 0.047362788675733028 -0.24199119006041811 0 0.06835359365392131 -0.25019388684260668 0 0.059700898458833078 -0.27333130828182889 0 0.044986508142045613 -0.25948109579330381 0 0.06835359365392131 -0.25019388684260668 0 0.044986508142045613 -0.25948109579330381 0 0.059700898458833078 -0.27333130828182889 0 0.036314123194761641 -0.27872041929058161 0 0.044986508142045613 -0.25948109579330381 0 0.036314123194761641 -0.27872041929058161 0 0.044986508142045613 -0.25948109579330381 0 0.02161942263016943 -0.26876830474400021 0 0.044986508142045613 -0.25948109579330381 0 0.02161942263016943 -0.26876830474400021 0 0.044986508142045613 -0.25948109579330381 0 0.029973277209287209 -0.25054958921230208 0 0.02161942263016943 -0.26876830474400021 0 0.044986508142045613 -0.25948109579330381 0 0.029973277209287209 -0.25054958921230208 0 0.047362788675733028 -0.24199119006041811 0 0.029973277209287209 -0.25054958921230208 0 0.015960739131678031 -0.25406337006458851 0 0.02161942263016943 -0.26876830474400021 0 0.01602201902671789 -0.28191194131808539 0 0.036314123194761641 -0.27872041929058161 0 0.02161942263016943 -0.26876830474400021 0 -0.0017476628817073611 -0.27805551369469472 0 0.01602201902671789 -0.28191194131808539 0 0.02161942263016943 -0.26876830474400021 0 -0.0017476628817073611 -0.27805551369469472 0 0.02161942263016943 -0.26876830474400021 0 -0.0017476628817073611 -0.27805551369469472 0 0.02161942263016943 -0.26876830474400021 0 0.0057386521092319797 -0.26220041049146298 0 0.015960739131678031 -0.25406337006458851 0 0.02161942263016943 -0.26876830474400021 0 0.0057386521092319797 -0.26220041049146298 0 0.015960739131678031 -0.25406337006458851 0 0.0057386521092319797 -0.26220041049146298 0 0.0025328853753160741 -0.24958102673793139 0 0.0010854142569982001 -0.23807309260292489 0 0.010575476039053681 -0.22730954243123891 0 0.017210747296828609 -0.24036453645492739 0 0.0010854142569982001 -0.23807309260292489 0 0.0025328853753160741 -0.24958102673793139 0 0.017210747296828609 -0.24036453645492739 0 0.015960739131678031 -0.25406337006458851 0 0.0025328853753160741 -0.24958102673793139 0 0.017210747296828609 -0.24036453645492739 0 -0.0061584899570064598 -0.22962027277065361 0 0.0010854142569982001 -0.23807309260292489 0 0.010575476039053681 -0.22730954243123891 0 -0.0061584899570064598 -0.22962027277065361 0 0.010575476039053681 -0.22730954243123891 0 0.0064165675551885711 -0.21575046092143421 0 -0.0061584899570064598 -0.22962027277065361 0 0.0064165675551885711 -0.21575046092143421 0 0.010575476039053681 -0.22730954243123891 0 0.0064165675551885711 -0.21575046092143421 0 0.021509429760601551 -0.21557394742371069 0 0.010575476039053681 -0.22730954243123891 0 0.0064165675551885711 -0.21575046092143421 0 0.010575476039053681 -0.22730954243123891 0 0.02225812238200572 -0.22838936745028471 0 0.017210747296828609 -0.24036453645492739 0 0.010575476039053681 -0.22730954243123891 0 0.02225812238200572 -0.22838936745028471 0 0.021509429760601551 -0.21557394742371069 0 0.02225812238200572 -0.22838936745028471 0 0.029479073121619459 -0.22118232130399371 0 0.021509429760601551 -0.21557394742371069 0 0.02225812238200572 -0.22838936745028471 0 0.029479073121619459 -0.22118232130399371 0 0.031866256870133697 -0.23515517363185631 0 0.029973277209287209 -0.25054958921230208 0 0.017210747296828609 -0.24036453645492739 0 0.031866256870133697 -0.23515517363185631 0 0.02225812238200572 -0.22838936745028471 0 0.017210747296828609 -0.24036453645492739 0 0.031866256870133697 -0.23515517363185631 0 0.029973277209287209 -0.25054958921230208 0 0.015960739131678031 -0.25406337006458851 0 0.017210747296828609 -0.24036453645492739 0 -0.0015622250741301779 -0.1935745667631632 0 0.01896638504685547 -0.20190848785827681 0 0.0091962193441852118 -0.18107109871456811 0 -0.0015622250741301779 -0.1935745667631632 0 0.0064165675551885711 -0.21575046092143421 0 0.01896638504685547 -0.20190848785827681 0 -0.0015622250741301779 -0.1935745667631632 0 0.0064165675551885711 -0.21575046092143421 0 0.0064165675551885711 -0.21575046092143421 0 0.01896638504685547 -0.20190848785827681 0 0.0064165675551885711 -0.21575046092143421 0 0.021509429760601551 -0.21557394742371069 0 0.01896638504685547 -0.20190848785827681 0 0.029479073121619459 -0.22118232130399371 0 0.021509429760601551 -0.21557394742371069 0 0.033558692489570878 -0.21195100443687931 0 0.021509429760601551 -0.21557394742371069 0 0.029251690937081031 -0.20258635003767089 0 0.033558692489570878 -0.21195100443687931 0 0.021509429760601551 -0.21557394742371069 0 0.01896638504685547 -0.20190848785827681 0 0.029251690937081031 -0.20258635003767089 0 0.01896638504685547 -0.20190848785827681 0 0.031516202538524517 -0.1880665147951214 0 0.0091962193441852118 -0.18107109871456811 0 0.01896638504685547 -0.20190848785827681 0 0.029251690937081031 -0.20258635003767089 0 0.031516202538524517 -0.1880665147951214 0 0.01896638504685547 -0.20190848785827681 0 0.031516202538524517 -0.1880665147951214 0 0.043838458457815248 -0.18986676967386279 0 0.039506267971797952 -0.20154200132731501 0 0.055741541871671067 -0.19352675789948551 0 0.043838458457815248 -0.18986676967386279 0 0.031516202538524517 -0.1880665147951214 0 0.039506267971797952 -0.20154200132731501 0 0.031516202538524517 -0.1880665147951214 0 0.039506267971797952 -0.20154200132731501 0 0.029251690937081031 -0.20258635003767089 0 0.031516202538524517 -0.1880665147951214 0 0.039506267971797952 -0.20154200132731501 0 0.039506267971797952 -0.20154200132731501 0 0.033558692489570878 -0.21195100443687931 0 0.047496333405074677 -0.2150174878595065 0 0.039506267971797952 -0.20154200132731501 0 0.047496333405074677 -0.2150174878595065 0 0.029251690937081031 -0.20258635003767089 0 0.039506267971797952 -0.20154200132731501 0 0.033558692489570878 -0.21195100443687931 0 0.033558692489570878 -0.21195100443687931 0 0.047496333405074677 -0.2150174878595065 0 0.033558692489570878 -0.21195100443687931 0 0.047496333405074677 -0.2150174878595065 0 0.039554961726260877 -0.22474601638733641 0 0.039506267971797952 -0.20154200132731501 0 0.047496333405074677 -0.2150174878595065 0 0.05523956109653505 -0.20714630445374671 0 0.047496333405074677 -0.2150174878595065 0 0.05523956109653505 -0.20714630445374671 0 0.064206587222380762 -0.21869398638814641 0 0.047496333405074677 -0.2150174878595065 0 0.064206587222380762 -0.21869398638814641 0 0.039506267971797952 -0.20154200132731501 0 0.05523956109653505 -0.20714630445374671 0 0.055741541871671067 -0.19352675789948551 0 0.05523956109653505 -0.20714630445374671 0 0.055741541871671067 -0.19352675789948551 0 0.069247075011750078 -0.20695128879428309 0 0.055741541871671067 -0.19352675789948551 0 0.069247075011750078 -0.20695128879428309 0 0.029973277209287209 -0.25054958921230208 0 0.031866256870133697 -0.23515517363185631 0 0.047362788675733028 -0.24199119006041811 0 0.031866256870133697 -0.23515517363185631 0 0.039554961726260877 -0.22474601638733641 0 0.047362788675733028 -0.24199119006041811 0 0.029479073121619459 -0.22118232130399371 0 0.031866256870133697 -0.23515517363185631 0 0.039554961726260877 -0.22474601638733641 0 0.029479073121619459 -0.22118232130399371 0 0.033558692489570878 -0.21195100443687931 0 0.039554961726260877 -0.22474601638733641 0 0.047496333405074677 -0.2150174878595065 0 0.05536207860111314 -0.2282833045590259 0 0.064206587222380762 -0.21869398638814641 0 0.05536207860111314 -0.2282833045590259 0 0.063311866646695691 -0.24149928944984211 0 0.064206587222380762 -0.21869398638814641 0 0.039554961726260877 -0.22474601638733641 0 0.05536207860111314 -0.2282833045590259 0 0.047362788675733028 -0.24199119006041811 0 0.047496333405074677 -0.2150174878595065 0 0.039554961726260877 -0.22474601638733641 0 0.05536207860111314 -0.2282833045590259 0 0.047496333405074677 -0.2150174878595065 0 0.05536207860111314 -0.2282833045590259 0 0.05536207860111314 -0.2282833045590259 0 0.063311866646695691 -0.24149928944984211 0 0.06835359365392131 -0.25019388684260668 0 0.047362788675733028 -0.24199119006041811 0 0.063311866646695691 -0.24149928944984211 0 0.05536207860111314 -0.2282833045590259 0 0.047362788675733028 -0.24199119006041811 0 0.063311866646695691 -0.24149928944984211 0 0.06835359365392131 -0.25019388684260668 0 0.08421140423371333 -0.243891226620808 0 0.06835359365392131 -0.25019388684260668 0 0.063311866646695691 -0.24149928944984211 0 0.063311866646695691 -0.24149928944984211 0 0.074219814037010917 -0.24224782663387789 0 0.081086434463253185 -0.23335707181355411 0 0.06835359365392131 -0.25019388684260668 0 0.063311866646695691 -0.24149928944984211 0 0.074219814037010917 -0.24224782663387789 0 0.06835359365392131 -0.25019388684260668 0 0.074219814037010917 -0.24224782663387789 0 0.08421140423371333 -0.243891226620808 0 0.08421140423371333 -0.243891226620808 0 0.081086434463253185 -0.23335707181355411 0 0.10006921481350529 -0.2375885663990091 0 0.08421140423371333 -0.243891226620808 0 0.10006921481350529 -0.2375885663990091 0 0.074219814037010917 -0.24224782663387789 0 0.08421140423371333 -0.243891226620808 0 0.081086434463253185 -0.23335707181355411 0 0.081086434463253185 -0.23335707181355411 0 0.085851572697872774 -0.2234561975504171 0 0.10006921481350529 -0.2375885663990091 0 0.085851572697872774 -0.2234561975504171 0 0.08275260815182911 -0.2203758196890806 0 0.098293187803831117 -0.21887499219370271 0 0.085851572697872774 -0.2234561975504171 0 0.10006921481350529 -0.2375885663990091 0 0.081086434463253185 -0.23335707181355411 0 0.085851572697872774 -0.2234561975504171 0 0.080916841039686133 -0.2223704849167896 0 0.085851572697872774 -0.2234561975504171 0 0.080916841039686133 -0.2223704849167896 0 0.085851572697872774 -0.2234561975504171 0 0.08275260815182911 -0.2203758196890806 0 0.080916841039686133 -0.2223704849167896 0 0.085851572697872774 -0.2234561975504171 0 0.08275260815182911 -0.2203758196890806 0 0.08275260815182911 -0.2203758196890806 0 0.080916841039686133 -0.2223704849167896 0 0.063311866646695691 -0.24149928944984211 0 0.080916841039686133 -0.2223704849167896 0 0.063311866646695691 -0.24149928944984211 0 0.080916841039686133 -0.2223704849167896 0 0.064206587222380762 -0.21869398638814641 0 0.080916841039686133 -0.2223704849167896 0 0.064206587222380762 -0.21869398638814641 0 0.063311866646695691 -0.24149928944984211 0 0.081086434463253185 -0.23335707181355411 0 0.080916841039686133 -0.2223704849167896 0 0.080916841039686133 -0.2223704849167896 0 0.064206587222380762 -0.21869398638814641 0 0.069247075011750078 -0.20695128879428309 0 0.05523956109653505 -0.20714630445374671 0 0.064206587222380762 -0.21869398638814641 0 0.069247075011750078 -0.20695128879428309 0 0.08275260815182911 -0.2203758196890806 0 0.069247075011750078 -0.20695128879428309 0 0.08275260815182911 -0.2203758196890806 0 0.080916841039686133 -0.2223704849167896 0 0.069247075011750078 -0.20695128879428309 0 0.055741541871671067 -0.19352675789948551 0 0.069247075011750078 -0.20695128879428309 0 0.070887819862862286 -0.1914088031202833 0 0.069247075011750078 -0.20695128879428309 0 0.070887819862862286 -0.1914088031202833 0 0.082832551139222166 -0.19914513048671481 0 0.070887819862862286 -0.1914088031202833 0 0.082832551139222166 -0.19914513048671481 0 0.081821336385090343 -0.18186245165470949 0 0.082832551139222166 -0.19914513048671481 0 0.097084301305641635 -0.20480362112478781 0 0.095405874932467813 -0.18887779734800569 0 0.082832551139222166 -0.19914513048671481 0 0.095405874932467813 -0.18887779734800569 0 0.081821336385090343 -0.18186245165470949 0 0.08275260815182911 -0.2203758196890806 0 0.082832551139222166 -0.19914513048671481 0 0.097084301305641635 -0.20480362112478781 0 0.08275260815182911 -0.2203758196890806 0 0.069247075011750078 -0.20695128879428309 0 0.082832551139222166 -0.19914513048671481 0 0.08275260815182911 -0.2203758196890806 0 0.097084301305641635 -0.20480362112478781 0 0.098293187803831117 -0.21887499219370271 0 0.08275260815182911 -0.2203758196890806 0 0.097084301305641635 -0.20480362112478781 0 0.097084301305641635 -0.20480362112478781 0 0.1146962174531268 -0.21673223195775559 0 0.098293187803831117 -0.21887499219370271 0 0.097084301305641635 -0.20480362112478781 0 0.095405874932467813 -0.18887779734800569 0 0.11141599445945349 -0.1892314225604943 0 0.097084301305641635 -0.20480362112478781 0 0.11141599445945349 -0.1892314225604943 0 0.097084301305641635 -0.20480362112478781 0 0.1210323504124224 -0.2015702574875764 0 0.11141599445945349 -0.1892314225604943 0 0.1210323504124224 -0.2015702574875764 0 0.11141599445945349 -0.1892314225604943 0 0.13523084618428721 -0.18276855246186111 0 0.1210323504124224 -0.2015702574875764 0 0.1146962174531268 -0.21673223195775559 0 0.13583218450739579 -0.2116030352811932 0 0.097084301305641635 -0.20480362112478781 0 0.1210323504124224 -0.2015702574875764 0 0.1146962174531268 -0.21673223195775559 0 0.1110812394106853 -0.22900709064647229 0 0.12594488917549271 -0.2231145762792166 0 0.1363109061234978 -0.23455798374252809 0 0.1110812394106853 -0.22900709064647229 0 0.1223190960555403 -0.2394332616338683 0 0.1363109061234978 -0.23455798374252809 0 0.1110812394106853 -0.22900709064647229 0 0.1363109061234978 -0.23455798374252809 0 0.1146962174531268 -0.21673223195775559 0 0.1110812394106853 -0.22900709064647229 0 0.12594488917549271 -0.2231145762792166 0 0.1110812394106853 -0.22900709064647229 0 0.1223190960555403 -0.2394332616338683 0 0.1084330749156753 -0.23426436422737831 0 0.1147239364606354 -0.25215539330366038 0 0.1223190960555403 -0.2394332616338683 0 0.1084330749156753 -0.23426436422737831 0 0.097662046653794854 -0.25561444261418242 0 0.1147239364606354 -0.25215539330366038 0 0.10006921481350529 -0.2375885663990091 0 0.1147239364606354 -0.25215539330366038 0 0.10006921481350529 -0.2375885663990091 0 0.1084330749156753 -0.23426436422737831 0 0.097662046653794854 -0.25561444261418242 0 0.08421140423371333 -0.243891226620808 0 0.10006921481350529 -0.2375885663990091 0 0.10006921481350529 -0.2375885663990091 0 0.1084330749156753 -0.23426436422737831 0 0.1147239364606354 -0.25215539330366038 0 0.10006921481350529 -0.2375885663990091 0 0.085851572697872774 -0.2234561975504171 0 0.1110812394106853 -0.22900709064647229 0 0.1146962174531268 -0.21673223195775559 0 0.1110812394106853 -0.22900709064647229 0 0.098293187803831117 -0.21887499219370271 0 0.085851572697872774 -0.2234561975504171 0 0.1110812394106853 -0.22900709064647229 0 0.098293187803831117 -0.21887499219370271 0 0.085851572697872774 -0.2234561975504171 0 0.1110812394106853 -0.22900709064647229 0 0.10006921481350529 -0.2375885663990091 0 0.1110812394106853 -0.22900709064647229 0 0.10006921481350529 -0.2375885663990091 0 0.1084330749156753 -0.23426436422737831 0 0.1040552578412003 -0.15282191894301261 0 0.1005807427949069 -0.13366374688330029 0 0.11727103389215909 -0.1361484369810822 0 0.1005807427949069 -0.13366374688330029 0 0.11727103389215909 -0.1361484369810822 0 0.1051359327507693 -0.1227177542784853 0 0.1040552578412003 -0.15282191894301261 0 0.1005807427949069 -0.13366374688330029 0 0.082362828069140165 -0.1319846138898183 0 0.11727103389215909 -0.1361484369810822 0 0.1154331983948798 -0.1174886032934183 0 0.13404900744611239 -0.12609877526333699 0 0.11727103389215909 -0.1361484369810822 0 0.1051359327507693 -0.1227177542784853 0 0.1154331983948798 -0.1174886032934183 0 0.1040552578412003 -0.15282191894301261 0 0.11727103389215909 -0.1361484369810822 0 0.1232701832726428 -0.15427141090171109 0 0.11727103389215909 -0.1361484369810822 0 0.1232701832726428 -0.15427141090171109 0 0.13444198148756639 -0.1449420832838656 0 0.1040552578412003 -0.15282191894301261 0 0.12574768761326591 -0.17365922399620121 0 0.1040552578412003 -0.15282191894301261 0 0.1002282447692335 -0.17458527697826651 0 0.12574768761326591 -0.17365922399620121 0 0.1040552578412003 -0.15282191894301261 0 0.1232701832726428 -0.15427141090171109 0 0.12574768761326591 -0.17365922399620121 0 0.11141599445945349 -0.1892314225604943 0 0.1002282447692335 -0.17458527697826651 0 0.12574768761326591 -0.17365922399620121 0 0.11141599445945349 -0.1892314225604943 0 0.12574768761326591 -0.17365922399620121 0 0.13523084618428721 -0.18276855246186111 0 0.11141599445945349 -0.1892314225604943 0 0.12574768761326591 -0.17365922399620121 0 0.095405874932467813 -0.18887779734800569 0 0.11141599445945349 -0.1892314225604943 0 0.1002282447692335 -0.17458527697826651 0 0.1040552578412003 -0.15282191894301261 0 0.1002282447692335 -0.17458527697826651 0 0.08311303581058499 -0.16124853818171381 0 0.095405874932467813 -0.18887779734800569 0 0.1002282447692335 -0.17458527697826651 0 0.081821336385090343 -0.18186245165470949 0 0.1002282447692335 -0.17458527697826651 0 0.08311303581058499 -0.16124853818171381 0 0.081821336385090343 -0.18186245165470949 0 0.08311303581058499 -0.16124853818171381 0 0.081821336385090343 -0.18186245165470949 0 0.066780308608768796 -0.17493307235476979 0 0.070887819862862286 -0.1914088031202833 0 0.081821336385090343 -0.18186245165470949 0 0.066780308608768796 -0.17493307235476979 0 0.055741541871671067 -0.19352675789948551 0 0.070887819862862286 -0.1914088031202833 0 0.066780308608768796 -0.17493307235476979 0 0.08311303581058499 -0.16124853818171381 0 0.066780308608768796 -0.17493307235476979 0 0.065413952892267702 -0.150678580858252 0 0.065413952892267702 -0.150678580858252 0 0.082362828069140165 -0.1319846138898183 0 0.08311303581058499 -0.16124853818171381 0 0.065413952892267702 -0.150678580858252 0 0.082362828069140165 -0.1319846138898183 0 0.1040552578412003 -0.15282191894301261 0 0.08311303581058499 -0.16124853818171381 0 0.082362828069140165 -0.1319846138898183 0 0.1040552578412003 -0.15282191894301261 0 0.082362828069140165 -0.1319846138898183 0 0.1005807427949069 -0.13366374688330029 0 0.082362828069140165 -0.1319846138898183 0 0.095577299328253623 -0.1174095529111252 0 0.082362828069140165 -0.1319846138898183 0 0.070308403876621794 -0.13238109852993221 0 0.069837722907261313 -0.1199532536492431 0 0.065413952892267702 -0.150678580858252 0 0.082362828069140165 -0.1319846138898183 0 0.070308403876621794 -0.13238109852993221 0 0.082362828069140165 -0.1319846138898183 0 0.069837722907261313 -0.1199532536492431 0 0.065413952892267702 -0.150678580858252 0 0.070308403876621794 -0.13238109852993221 0 0.06118566078759103 -0.13005342953014129 0 0.070308403876621794 -0.13238109852993221 0 0.06118566078759103 -0.13005342953014129 0 0.069837722907261313 -0.1199532536492431 0 0.065413952892267702 -0.150678580858252 0 0.06118566078759103 -0.13005342953014129 0 0.053245925046226952 -0.14076102386291889 0 0.06118566078759103 -0.13005342953014129 0 0.049352038069647858 -0.1295439288512826 0 0.048525659269531229 -0.11802361343548989 0 0.049352038069647858 -0.1295439288512826 0 0.053245925046226952 -0.14076102386291889 0 0.041700188437408421 -0.13409859591225329 0 0.06118566078759103 -0.13005342953014129 0 0.049352038069647858 -0.1295439288512826 0 0.053245925046226952 -0.14076102386291889 0 0.065413952892267702 -0.150678580858252 0 0.053245925046226952 -0.14076102386291889 0 0.048465077715394989 -0.16937254782668559 0 0.053245925046226952 -0.14076102386291889 0 0.040505841312838547 -0.14468304457988079 0 0.048465077715394989 -0.16937254782668559 0 0.040505841312838547 -0.14468304457988079 0 0.03393783807298914 -0.14093707321474161 0 0.030230252537669321 -0.1566253376229266 0 0.040505841312838547 -0.14468304457988079 0 0.030230252537669321 -0.1566253376229266 0 0.040505841312838547 -0.14468304457988079 0 0.03393783807298914 -0.14093707321474161 0 0.041700188437408421 -0.13409859591225329 0 0.03393783807298914 -0.14093707321474161 0 0.041700188437408421 -0.13409859591225329 0 0.024480650806643651 -0.1375151559245551 0 0.041700188437408421 -0.13409859591225329 0 0.042102756807481732 -0.1247829815156095 0 0.031290738437872938 -0.1201921761368282 0 0.049352038069647858 -0.1295439288512826 0 0.041700188437408421 -0.13409859591225329 0 0.042102756807481732 -0.1247829815156095 0 0.053245925046226952 -0.14076102386291889 0 0.040505841312838547 -0.14468304457988079 0 0.041700188437408421 -0.13409859591225329 0 0.055741541871671067 -0.19352675789948551 0 0.066780308608768796 -0.17493307235476979 0 0.048465077715394989 -0.16937254782668559 0 0.043838458457815248 -0.18986676967386279 0 0.055741541871671067 -0.19352675789948551 0 0.048465077715394989 -0.16937254782668559 0 0.066780308608768796 -0.17493307235476979 0 0.065413952892267702 -0.150678580858252 0 0.048465077715394989 -0.16937254782668559 0 0.065413952892267702 -0.150678580858252 0 0.048465077715394989 -0.16937254782668559 0 0.040505841312838547 -0.14468304457988079 0 0.048465077715394989 -0.16937254782668559 0 0.030230252537669321 -0.1566253376229266 0 0.048465077715394989 -0.16937254782668559 0 0.033338822752702377 -0.1705348433046637 0 0.030230252537669321 -0.1566253376229266 0 0.043838458457815248 -0.18986676967386279 0 0.031516202538524517 -0.1880665147951214 0 0.048465077715394989 -0.16937254782668559 0 0.031516202538524517 -0.1880665147951214 0 0.048465077715394989 -0.16937254782668559 0 0.031516202538524517 -0.1880665147951214 0 0.048465077715394989 -0.16937254782668559 0 0.033338822752702377 -0.1705348433046637 0 0.031516202538524517 -0.1880665147951214 0 0.033338822752702377 -0.1705348433046637 0 0.01995466376250531 -0.16856763066597699 0 0.031516202538524517 -0.1880665147951214 0 0.01995466376250531 -0.16856763066597699 0 0.031516202538524517 -0.1880665147951214 0 0.01995466376250531 -0.16856763066597699 0 0.0091962193441852118 -0.18107109871456811 0 0.01995466376250531 -0.16856763066597699 0 0.030230252537669321 -0.1566253376229266 0 0.008868239412810253 -0.14987004135808221 0 0.033338822752702377 -0.1705348433046637 0 0.01995466376250531 -0.16856763066597699 0 0.030230252537669321 -0.1566253376229266 0 0.01995466376250531 -0.16856763066597699 0 0.030230252537669321 -0.1566253376229266 0 -0.0025999653858941639 -0.16131422913783491 0 0.0067086063528142403 -0.16809244781376179 0 0.008868239412810253 -0.14987004135808221 0 0.01995466376250531 -0.16856763066597699 0 0.008868239412810253 -0.14987004135808221 0 0.01995466376250531 -0.16856763066597699 0 0.0067086063528142403 -0.16809244781376179 0 0.008868239412810253 -0.14987004135808221 0 -0.0084927016390539001 -0.17431231470194719 0 0.0067086063528142403 -0.16809244781376179 0 0.0091962193441852118 -0.18107109871456811 0 0.01995466376250531 -0.16856763066597699 0 0.0091962193441852118 -0.18107109871456811 0 0.01995466376250531 -0.16856763066597699 0 0.0067086063528142403 -0.16809244781376179 0 0.0091962193441852118 -0.18107109871456811 0 -0.0015622250741301779 -0.1935745667631632 0 0.0091962193441852118 -0.18107109871456811 0 0.041700188437408421 -0.13409859591225329 0 0.014197789575412951 -0.12328672932727321 0 0.031290738437872938 -0.1201921761368282 0 0.041700188437408421 -0.13409859591225329 0 0.024480650806643651 -0.1375151559245551 0 0.014197789575412951 -0.12328672932727321 0 0.041700188437408421 -0.13409859591225329 0 0.014197789575412951 -0.12328672932727321 0 0.024480650806643651 -0.1375151559245551 0 0.011332123714495041 -0.13546109466502479 0 0.014197789575412951 -0.12328672932727321 0 0.03393783807298914 -0.14093707321474161 0 0.030230252537669321 -0.1566253376229266 0 0.024480650806643651 -0.1375151559245551 0 0.030230252537669321 -0.1566253376229266 0 0.024480650806643651 -0.1375151559245551 0 0.008868239412810253 -0.14987004135808221 0 0.024480650806643651 -0.1375151559245551 0 0.008868239412810253 -0.14987004135808221 0 0.011332123714495041 -0.13546109466502479 0 -0.00221818493688669 -0.13117245205018849 0 -0.0031786103040098569 -0.14705450477373769 0 0.008868239412810253 -0.14987004135808221 0 -0.0031786103040098569 -0.14705450477373769 0 -0.0025999653858941639 -0.16131422913783491 0 0.008868239412810253 -0.14987004135808221 0 -0.00221818493688669 -0.13117245205018849 0 0.008868239412810253 -0.14987004135808221 0 -0.00221818493688669 -0.13117245205018849 0 0.011332123714495041 -0.13546109466502479 0 0.014197789575412951 -0.12328672932727321 0 -0.00221818493688669 -0.13117245205018849 0 0.008868239412810253 -0.14987004135808221 0 0.011332123714495041 -0.13546109466502479 0 -0.013304609286582791 -0.1124748627422944 0 0.014197789575412951 -0.12328672932727321 0 0.014197789575412951 -0.12328672932727321 0 0.020945276257035669 -0.1055296092587116 0 0.0046245275045138064 -0.1076828264142336 0 -0.013304609286582791 -0.1124748627422944 0 0.014197789575412951 -0.12328672932727321 0 0.0046245275045138064 -0.1076828264142336 0 0.014197789575412951 -0.12328672932727321 0 0.020945276257035669 -0.1055296092587116 0 0.031290738437872938 -0.1201921761368282 0 0.020945276257035669 -0.1055296092587116 0 0.031290738437872938 -0.1201921761368282 0 0.040241467446851142 -0.1026788937802551 0 0.020945276257035669 -0.1055296092587116 0 0.028115865357471449 -0.087896533900266943 0 0.040241467446851142 -0.1026788937802551 0 0.020945276257035669 -0.1055296092587116 0 0.0072012692200917657 -0.09144049599341271 0 0.028115865357471449 -0.087896533900266943 0 -0.0070294542012635762 -0.10327829347153671 0 0.0046245275045138064 -0.1076828264142336 0 0.0072012692200917657 -0.09144049599341271 0 0.020945276257035669 -0.1055296092587116 0 0.0046245275045138064 -0.1076828264142336 0 0.0072012692200917657 -0.09144049599341271 0 0.0072012692200917657 -0.09144049599341271 0 0.0054575408194632406 -0.073720759659108445 0 0.018511759797904249 -0.077210571545524964 0 -0.0056293594721457006 -0.082036805430144924 0 0.0072012692200917657 -0.09144049599341271 0 0.0054575408194632406 -0.073720759659108445 0 0.0054575408194632406 -0.073720759659108445 0 0.018354718881549058 -0.065167425818499949 0 0.003426744450576454 -0.054815297075420773 0 -0.0072319765520409062 -0.068818796064575097 0 0.0054575408194632406 -0.073720759659108445 0 0.003426744450576454 -0.054815297075420773 0 0.0054575408194632406 -0.073720759659108445 0 0.018354718881549058 -0.065167425818499949 0 0.018511759797904249 -0.077210571545524964 0 0.018511759797904249 -0.077210571545524964 0 0.028115865357471449 -0.087896533900266943 0 0.033429404710945708 -0.067827642356336801 0 0.018354718881549058 -0.065167425818499949 0 0.018511759797904249 -0.077210571545524964 0 0.033429404710945708 -0.067827642356336801 0 0.0072012692200917657 -0.09144049599341271 0 0.018511759797904249 -0.077210571545524964 0 0.028115865357471449 -0.087896533900266943 0 0.028115865357471449 -0.087896533900266943 0 0.044094628308957058 -0.087651847290754856 0 0.040241467446851142 -0.1026788937802551 0 0.028115865357471449 -0.087896533900266943 0 0.044094628308957058 -0.087651847290754856 0 0.033429404710945708 -0.067827642356336801 0 0.044094628308957058 -0.087651847290754856 0 0.033429404710945708 -0.067827642356336801 0 0.052580487019044733 -0.06457445167855122 0 0.052580487019044733 -0.06457445167855122 0 0.057640786708643768 -0.07951032993234286 0 0.068682665651441266 -0.069637891440837665 0 0.044094628308957058 -0.087651847290754856 0 0.052580487019044733 -0.06457445167855122 0 0.057640786708643768 -0.07951032993234286 0 0.044094628308957058 -0.087651847290754856 0 0.057640786708643768 -0.07951032993234286 0 0.064045145718632748 -0.088800152685812248 0 0.056223070490067702 -0.1049071233711502 0 0.048525659269531229 -0.11802361343548989 0 0.040241467446851142 -0.1026788937802551 0 0.044094628308957058 -0.087651847290754856 0 0.056223070490067702 -0.1049071233711502 0 0.064045145718632748 -0.088800152685812248 0 0.06118566078759103 -0.13005342953014129 0 0.056223070490067702 -0.1049071233711502 0 0.048525659269531229 -0.11802361343548989 0 0.048525659269531229 -0.11802361343548989 0 0.042102756807481732 -0.1247829815156095 0 0.031290738437872938 -0.1201921761368282 0 0.048525659269531229 -0.11802361343548989 0 0.031290738437872938 -0.1201921761368282 0 0.040241467446851142 -0.1026788937802551 0 0.049352038069647858 -0.1295439288512826 0 0.048525659269531229 -0.11802361343548989 0 0.042102756807481732 -0.1247829815156095 0 0.044094628308957058 -0.087651847290754856 0 0.056223070490067702 -0.1049071233711502 0 0.040241467446851142 -0.1026788937802551 0 0.020415517075116841 0.0076517724901667356 0 0.020207185183206099 -0.010785841930981459 0 0.039787151186370009 -0.0039594854922263374 0 0.020207185183206099 -0.010785841930981459 0 0.0047038114401232534 -0.001040937293712483 0 0.0026421611525163911 -0.019923693291100199 0 0.020415517075116841 0.0076517724901667356 0 0.020207185183206099 -0.010785841930981459 0 0.0047038114401232534 -0.001040937293712483 0 0.020207185183206099 -0.010785841930981459 0 0.0026421611525163911 -0.019923693291100199 0 0.018057611388834851 -0.030223969914345401 0 0.0026421611525163911 -0.019923693291100199 0 0.018057611388834851 -0.030223969914345401 0 0.001114662024295677 -0.034644724797188199 0 0.018057611388834851 -0.030223969914345401 0 0.03214982838215158 -0.036550164909951742 0 0.03396684481877061 -0.021771474300517551 0 0.020207185183206099 -0.010785841930981459 0 0.018057611388834851 -0.030223969914345401 0 0.03396684481877061 -0.021771474300517551 0 0.018057611388834851 -0.030223969914345401 0 0.010882918392325341 -0.043546784918672053 0 0.022583515379492949 -0.04946345385366932 0 0.018057611388834851 -0.030223969914345401 0 0.022583515379492949 -0.04946345385366932 0 0.03214982838215158 -0.036550164909951742 0 0.010882918392325341 -0.043546784918672053 0 0.001114662024295677 -0.034644724797188199 0 0.003426744450576454 -0.054815297075420773 0 0.018057611388834851 -0.030223969914345401 0 0.010882918392325341 -0.043546784918672053 0 0.001114662024295677 -0.034644724797188199 0 0.018354718881549058 -0.065167425818499949 0 0.003426744450576454 -0.054815297075420773 0 0.022583515379492949 -0.04946345385366932 0 0.010882918392325341 -0.043546784918672053 0 0.003426744450576454 -0.054815297075420773 0 0.022583515379492949 -0.04946345385366932 0 0.018354718881549058 -0.065167425818499949 0 0.033429404710945708 -0.067827642356336801 0 0.022583515379492949 -0.04946345385366932 0 0.033429404710945708 -0.067827642356336801 0 0.022583515379492949 -0.04946345385366932 0 0.040434423972952403 -0.049093231793294147 0 0.033429404710945708 -0.067827642356336801 0 0.052580487019044733 -0.06457445167855122 0 0.040434423972952403 -0.049093231793294147 0 0.052580487019044733 -0.06457445167855122 0 0.040434423972952403 -0.049093231793294147 0 0.05544232884238081 -0.044875881875575382 0 0.052580487019044733 -0.06457445167855122 0 0.05544232884238081 -0.044875881875575382 0 0.068339170937992105 -0.053424337060716878 0 0.040434423972952403 -0.049093231793294147 0 0.05544232884238081 -0.044875881875575382 0 0.045706746350707102 -0.032198694687932281 0 0.05544232884238081 -0.044875881875575382 0 0.045706746350707102 -0.032198694687932281 0 0.061157621829282929 -0.025231604425866621 0 0.040434423972952403 -0.049093231793294147 0 0.045706746350707102 -0.032198694687932281 0 0.03214982838215158 -0.036550164909951742 0 0.022583515379492949 -0.04946345385366932 0 0.040434423972952403 -0.049093231793294147 0 0.03214982838215158 -0.036550164909951742 0 0.045706746350707102 -0.032198694687932281 0 0.03214982838215158 -0.036550164909951742 0 0.03396684481877061 -0.021771474300517551 0 0.045706746350707102 -0.032198694687932281 0 0.03396684481877061 -0.021771474300517551 0 0.047710046720236987 -0.018368172826886429 0 0.061157621829282929 -0.025231604425866621 0 0.047710046720236987 -0.018368172826886429 0 0.057931869416054299 -0.0086796052278893948 0 0.045706746350707102 -0.032198694687932281 0 0.061157621829282929 -0.025231604425866621 0 0.047710046720236987 -0.018368172826886429 0 0.053306813386582982 0.0056008818424343951 0 0.057931869416054299 -0.0086796052278893948 0 0.039787151186370009 -0.0039594854922263374 0 0.047710046720236987 -0.018368172826886429 0 0.057931869416054299 -0.0086796052278893948 0 0.039787151186370009 -0.0039594854922263374 0 0.053306813386582982 0.0056008818424343951 0 0.065940651683257009 0.0024831850618150888 0 0.057931869416054299 -0.0086796052278893948 0 0.020207185183206099 -0.010785841930981459 0 0.03396684481877061 -0.021771474300517551 0 0.039787151186370009 -0.0039594854922263374 0 0.03396684481877061 -0.021771474300517551 0 0.047710046720236987 -0.018368172826886429 0 0.039787151186370009 -0.0039594854922263374 0 0.07992851590561921 0.0082161523869754144 0 0.085319843464057188 -0.007629982329875426 0 0.074177093133044117 -0.010507922444979889 0 0.07992851590561921 0.0082161523869754144 0 0.085319843464057188 -0.007629982329875426 0 0.09649789417263642 -0.0037639840011086311 0 0.093491186985964037 -0.01472799792969565 0 0.085319843464057188 -0.007629982329875426 0 0.09649789417263642 -0.0037639840011086311 0 0.093491186985964037 -0.01472799792969565 0 0.085319843464057188 -0.007629982329875426 0 0.083581835824733053 -0.016535058395947159 0 0.085319843464057188 -0.007629982329875426 0 0.074177093133044117 -0.010507922444979889 0 0.083581835824733053 -0.016535058395947159 0 0.061157621829282929 -0.025231604425866621 0 0.057931869416054299 -0.0086796052278893948 0 0.074177093133044117 -0.010507922444979889 0 0.065940651683257009 0.0024831850618150888 0 0.057931869416054299 -0.0086796052278893948 0 0.074177093133044117 -0.010507922444979889 0 0.061157621829282929 -0.025231604425866621 0 0.077044537184394621 -0.024954964190685061 0 0.071280738265345076 -0.03811759874850193 0 0.061157621829282929 -0.025231604425866621 0 0.074177093133044117 -0.010507922444979889 0 0.077044537184394621 -0.024954964190685061 0 0.077044537184394621 -0.024954964190685061 0 0.087876518356205288 -0.024854425084499782 0 0.083696735197635597 -0.035074751153617953 0 0.077044537184394621 -0.024954964190685061 0 0.083581835824733053 -0.016535058395947159 0 0.087876518356205288 -0.024854425084499782 0 0.074177093133044117 -0.010507922444979889 0 0.077044537184394621 -0.024954964190685061 0 0.083581835824733053 -0.016535058395947159 0 0.093491186985964037 -0.01472799792969565 0 0.083581835824733053 -0.016535058395947159 0 0.087876518356205288 -0.024854425084499782 0 0.093491186985964037 -0.01472799792969565 0 0.087876518356205288 -0.024854425084499782 0 0.096892307268332672 -0.02266252034611416 0 0.087876518356205288 -0.024854425084499782 0 0.093921030959280866 -0.033511072873054298 0 0.096892307268332672 -0.02266252034611416 0 0.087876518356205288 -0.024854425084499782 0 0.083696735197635597 -0.035074751153617953 0 0.093921030959280866 -0.033511072873054298 0 0.088828324516270887 -0.041348533459236683 0 0.095977453204919599 -0.050472192210401508 0 0.093921030959280866 -0.033511072873054298 0 0.088828324516270887 -0.041348533459236683 0 0.083696735197635597 -0.035074751153617953 0 0.093921030959280866 -0.033511072873054298 0 0.088828324516270887 -0.041348533459236683 0 0.081718078703247488 -0.046336117599872988 0 0.095977453204919599 -0.050472192210401508 0 0.088828324516270887 -0.041348533459236683 0 0.081718078703247488 -0.046336117599872988 0 0.083696735197635597 -0.035074751153617953 0 0.081718078703247488 -0.046336117599872988 0 0.083696735197635597 -0.035074751153617953 0 0.071280738265345076 -0.03811759874850193 0 0.05544232884238081 -0.044875881875575382 0 0.061157621829282929 -0.025231604425866621 0 0.071280738265345076 -0.03811759874850193 0 0.05544232884238081 -0.044875881875575382 0 0.071280738265345076 -0.03811759874850193 0 0.068339170937992105 -0.053424337060716878 0 0.077044537184394621 -0.024954964190685061 0 0.083696735197635597 -0.035074751153617953 0 0.071280738265345076 -0.03811759874850193 0 0.081718078703247488 -0.046336117599872988 0 0.071280738265345076 -0.03811759874850193 0 0.068339170937992105 -0.053424337060716878 0 0.081718078703247488 -0.046336117599872988 0 0.068339170937992105 -0.053424337060716878 0 0.079819511512682115 -0.059373961925762081 0 0.068339170937992105 -0.053424337060716878 0 0.079819511512682115 -0.059373961925762081 0 0.068682665651441266 -0.069637891440837665 0 0.079819511512682115 -0.059373961925762081 0 0.095977453204919599 -0.050472192210401508 0 0.084380189065810102 -0.076999271316981366 0 0.081718078703247488 -0.046336117599872988 0 0.079819511512682115 -0.059373961925762081 0 0.095977453204919599 -0.050472192210401508 0 0.095977453204919599 -0.050472192210401508 0 0.1084893608633546 -0.054995312108922077 0 0.1003826539890946 -0.069656067773248523 0 0.095977453204919599 -0.050472192210401508 0 0.1084893608633546 -0.054995312108922077 0 0.10497618281608501 -0.042163163930312997 0 0.1084893608633546 -0.054995312108922077 0 0.12021542192502691 -0.05736310542253667 0 0.11225492598618329 -0.067700646346746801 0 0.12021542192502691 -0.05736310542253667 0 0.1181844865236701 -0.045884275653046647 0 0.1350650896680477 -0.050994701792827862 0 0.1084893608633546 -0.054995312108922077 0 0.12021542192502691 -0.05736310542253667 0 0.1181844865236701 -0.045884275653046647 0 0.1084893608633546 -0.054995312108922077 0 0.1181844865236701 -0.045884275653046647 0 0.10497618281608501 -0.042163163930312997 0 0.1181844865236701 -0.045884275653046647 0 0.1169603374125384 -0.034526050343312617 0 0.10497618281608501 -0.042163163930312997 0 0.10497618281608501 -0.042163163930312997 0 0.1139069069496291 -0.021464697665753471 0 0.1169603374125384 -0.034526050343312617 0 0.10497618281608501 -0.042163163930312997 0 0.1139069069496291 -0.021464697665753471 0 0.1181844865236701 -0.045884275653046647 0 0.1169603374125384 -0.034526050343312617 0 0.1283586559847627 -0.040725310836502493 0 0.095977453204919599 -0.050472192210401508 0 0.10497618281608501 -0.042163163930312997 0 0.1075747173440291 -0.023945113103821601 0 0.095977453204919599 -0.050472192210401508 0 0.093921030959280866 -0.033511072873054298 0 0.1075747173440291 -0.023945113103821601 0 0.095977453204919599 -0.050472192210401508 0 0.1075747173440291 -0.023945113103821601 0 0.10497618281608501 -0.042163163930312997 0 0.1075747173440291 -0.023945113103821601 0 0.1139069069496291 -0.021464697665753471 0 0.093921030959280866 -0.033511072873054298 0 0.096892307268332672 -0.02266252034611416 0 0.1075747173440291 -0.023945113103821601 0 0.093491186985964037 -0.01472799792969565 0 0.096892307268332672 -0.02266252034611416 0 0.10169828607787421 -0.015923098960230999 0 0.096892307268332672 -0.02266252034611416 0 0.10169828607787421 -0.015923098960230999 0 0.1075747173440291 -0.023945113103821601 0 0.10169828607787421 -0.015923098960230999 0 0.1075747173440291 -0.023945113103821601 0 0.1082483433893755 -0.0084409933366877514 0 0.1169603374125384 -0.034526050343312617 0 0.1213672368215104 -0.025634276355807499 0 0.12969235634276979 -0.031284000123743903 0 0.1169603374125384 -0.034526050343312617 0 0.1213672368215104 -0.025634276355807499 0 0.1139069069496291 -0.021464697665753471 0 0.1213672368215104 -0.025634276355807499 0 0.1139069069496291 -0.021464697665753471 0 0.12490934658110441 -0.01526235729042 0 0.11917198148314 0.002581966002757949 0 0.1075747173440291 -0.023945113103821601 0 0.1139069069496291 -0.021464697665753471 0 0.11917198148314 0.002581966002757949 0 0.1139069069496291 -0.021464697665753471 0 0.1228376310831711 -0.00076623140119310329 0 0.11917198148314 0.002581966002757949 0 0.1075747173440291 -0.023945113103821601 0 0.1082483433893755 -0.0084409933366877514 0 0.1139069069496291 -0.021464697665753471 0 0.12490934658110441 -0.01526235729042 0 0.1228376310831711 -0.00076623140119310329 0 0.1139069069496291 -0.021464697665753471 0 0.1228376310831711 -0.00076623140119310329 0 0.11917198148314 0.002581966002757949 0 0.1075747173440291 -0.023945113103821601 0 0.11917198148314 0.002581966002757949 0 0.1105415625726717 -0.0014271332550589229 0 0.1082483433893755 -0.0084409933366877514 0 0.1078625722471533 0.0022823866337398822 0 0.1105415625726717 -0.0014271332550589229 0 0.1039166904039584 -0.0028966343462391718 0 0.1039166904039584 -0.0028966343462391718 0 0.1082483433893755 -0.0084409933366877514 0 0.10154047648190589 -0.00941290969201335 0 0.1105415625726717 -0.0014271332550589229 0 0.1039166904039584 -0.0028966343462391718 0 0.1082483433893755 -0.0084409933366877514 0 0.10169828607787421 -0.015923098960230999 0 0.1082483433893755 -0.0084409933366877514 0 0.10154047648190589 -0.00941290969201335 0 0.093491186985964037 -0.01472799792969565 0 0.10154047648190589 -0.00941290969201335 0 0.09649789417263642 -0.0037639840011086311 0 0.093491186985964037 -0.01472799792969565 0 0.10169828607787421 -0.015923098960230999 0 0.10154047648190589 -0.00941290969201335 0 0.1039166904039584 -0.0028966343462391718 0 0.10154047648190589 -0.00941290969201335 0 0.09649789417263642 -0.0037639840011086311 0 0.088046088292129038 -0.10430519341125349 0 0.072782924926700548 -0.1035263504235614 0 0.088717560391344957 -0.092993146067331611 0 0.088046088292129038 -0.10430519341125349 0 0.080670658246847674 -0.112136361820053 0 0.072782924926700548 -0.1035263504235614 0 0.088046088292129038 -0.10430519341125349 0 0.088717560391344957 -0.092993146067331611 0 0.100171096126226 -0.096028489315426471 0 0.088046088292129038 -0.10430519341125349 0 0.089116900718008318 -0.11226838151764811 0 0.096817389343646892 -0.1088784313235004 0 0.088046088292129038 -0.10430519341125349 0 0.089116900718008318 -0.11226838151764811 0 0.080670658246847674 -0.112136361820053 0 0.089116900718008318 -0.11226838151764811 0 0.082844213492092533 -0.1195429602861619 0 0.095577299328253623 -0.1174095529111252 0 0.082362828069140165 -0.1319846138898183 0 0.082844213492092533 -0.1195429602861619 0 0.095577299328253623 -0.1174095529111252 0 0.082362828069140165 -0.1319846138898183 0 0.095577299328253623 -0.1174095529111252 0 0.082362828069140165 -0.1319846138898183 0 0.082844213492092533 -0.1195429602861619 0 0.069837722907261313 -0.1199532536492431 0 0.089116900718008318 -0.11226838151764811 0 0.082844213492092533 -0.1195429602861619 0 0.080670658246847674 -0.112136361820053 0 0.080670658246847674 -0.112136361820053 0 0.069837722907261313 -0.1199532536492431 0 0.072782924926700548 -0.1035263504235614 0 0.06118566078759103 -0.13005342953014129 0 0.072782924926700548 -0.1035263504235614 0 0.06118566078759103 -0.13005342953014129 0 0.069837722907261313 -0.1199532536492431 0 0.072782924926700548 -0.1035263504235614 0 0.06118566078759103 -0.13005342953014129 0 0.056223070490067702 -0.1049071233711502 0 0.072782924926700548 -0.1035263504235614 0 0.082844213492092533 -0.1195429602861619 0 0.080670658246847674 -0.112136361820053 0 0.069837722907261313 -0.1199532536492431 0 0.056223070490067702 -0.1049071233711502 0 0.072782924926700548 -0.1035263504235614 0 0.064045145718632748 -0.088800152685812248 0 0.057640786708643768 -0.07951032993234286 0 0.064045145718632748 -0.088800152685812248 0 0.068682665651441266 -0.069637891440837665 0 0.064045145718632748 -0.088800152685812248 0 0.068682665651441266 -0.069637891440837665 0 0.084380189065810102 -0.076999271316981366 0 0.072782924926700548 -0.1035263504235614 0 0.064045145718632748 -0.088800152685812248 0 0.084380189065810102 -0.076999271316981366 0 0.052580487019044733 -0.06457445167855122 0 0.068339170937992105 -0.053424337060716878 0 0.068682665651441266 -0.069637891440837665 0 0.079819511512682115 -0.059373961925762081 0 0.068682665651441266 -0.069637891440837665 0 0.084380189065810102 -0.076999271316981366 0 0.095977453204919599 -0.050472192210401508 0 0.084380189065810102 -0.076999271316981366 0 0.1003826539890946 -0.069656067773248523 0 0.095977453204919599 -0.050472192210401508 0 0.084380189065810102 -0.076999271316981366 0 0.084380189065810102 -0.076999271316981366 0 0.095693843046354268 -0.0841642264331387 0 0.1003826539890946 -0.069656067773248523 0 0.072782924926700548 -0.1035263504235614 0 0.084380189065810102 -0.076999271316981366 0 0.072782924926700548 -0.1035263504235614 0 0.084380189065810102 -0.076999271316981366 0 0.088717560391344957 -0.092993146067331611 0 0.084380189065810102 -0.076999271316981366 0 0.088717560391344957 -0.092993146067331611 0 0.095693843046354268 -0.0841642264331387 0 0.088717560391344957 -0.092993146067331611 0 0.095693843046354268 -0.0841642264331387 0 0.100171096126226 -0.096028489315426471 0 0.095693843046354268 -0.0841642264331387 0 0.1061825878765964 -0.082065358753895937 0 0.100171096126226 -0.096028489315426471 0 0.095693843046354268 -0.0841642264331387 0 0.1061825878765964 -0.082065358753895937 0 0.1003826539890946 -0.069656067773248523 0 0.1061825878765964 -0.082065358753895937 0 0.1152940355071756 -0.093458773729521216 0 0.100171096126226 -0.096028489315426471 0 0.1061825878765964 -0.082065358753895937 0 0.1003826539890946 -0.069656067773248523 0 0.11225492598618329 -0.067700646346746801 0 0.1084893608633546 -0.054995312108922077 0 0.1003826539890946 -0.069656067773248523 0 0.11225492598618329 -0.067700646346746801 0 0.1061825878765964 -0.082065358753895937 0 0.11225492598618329 -0.067700646346746801 0 0.1171317857577618 -0.078667044940758796 0 0.1171317857577618 -0.078667044940758796 0 0.12857779857738699 -0.078718698725873171 0 0.12708324658387871 -0.067240591211139955 0 0.11225492598618329 -0.067700646346746801 0 0.1171317857577618 -0.078667044940758796 0 0.12708324658387871 -0.067240591211139955 0 0.12021542192502691 -0.05736310542253667 0 0.11225492598618329 -0.067700646346746801 0 0.12708324658387871 -0.067240591211139955 0 0.1061825878765964 -0.082065358753895937 0 0.1152940355071756 -0.093458773729521216 0 0.1171317857577618 -0.078667044940758796 0 0.1171317857577618 -0.078667044940758796 0 0.1286838548293292 -0.09135300801218077 0 0.12857779857738699 -0.078718698725873171 0 0.1152940355071756 -0.093458773729521216 0 0.1171317857577618 -0.078667044940758796 0 0.1286838548293292 -0.09135300801218077 0 0.1152940355071756 -0.093458773729521216 0 0.1230450488982011 -0.098166020395255585 0 0.1286838548293292 -0.09135300801218077 0 0.1152940355071756 -0.093458773729521216 0 0.1230450488982011 -0.098166020395255585 0 0.1196469902177196 -0.1061558951397697 0 0.1230450488982011 -0.098166020395255585 0 0.1196469902177196 -0.1061558951397697 0 0.12917406780106669 -0.1036793655145172 0 0.1196469902177196 -0.1061558951397697 0 0.1094725419179296 -0.1044020385603272 0 0.1154331983948798 -0.1174886032934183 0 0.1152940355071756 -0.093458773729521216 0 0.1196469902177196 -0.1061558951397697 0 0.1094725419179296 -0.1044020385603272 0 0.1152940355071756 -0.093458773729521216 0 0.1094725419179296 -0.1044020385603272 0 0.100171096126226 -0.096028489315426471 0 0.1094725419179296 -0.1044020385603272 0 0.096817389343646892 -0.1088784313235004 0 0.100171096126226 -0.096028489315426471 0 0.088046088292129038 -0.10430519341125349 0 0.096817389343646892 -0.1088784313235004 0 0.100171096126226 -0.096028489315426471 0 0.096817389343646892 -0.1088784313235004 0 0.1051359327507693 -0.1227177542784853 0 0.1154331983948798 -0.1174886032934183 0 0.096817389343646892 -0.1088784313235004 0 0.1154331983948798 -0.1174886032934183 0 0.1005807427949069 -0.13366374688330029 0 0.095577299328253623 -0.1174095529111252 0 0.1051359327507693 -0.1227177542784853 0 0.1094725419179296 -0.1044020385603272 0 0.096817389343646892 -0.1088784313235004 0 0.1154331983948798 -0.1174886032934183 0 0.089116900718008318 -0.11226838151764811 0 0.096817389343646892 -0.1088784313235004 0 0.095577299328253623 -0.1174095529111252 0 0.096817389343646892 -0.1088784313235004 0 0.095577299328253623 -0.1174095529111252 0 0.1051359327507693 -0.1227177542784853 0 0.1154331983948798 -0.1174886032934183 0 0.13404900744611239 -0.12609877526333699 0 0.1196469902177196 -0.1061558951397697 0 0.1154331983948798 -0.1174886032934183 0 0.12686113813069899 -0.1114359576666621 0 0.1154331983948798 -0.1174886032934183 0 0.12686113813069899 -0.1114359576666621 0 0.13390982127973511 -0.11942472678041111 0 0.1154331983948798 -0.1174886032934183 0 0.13390982127973511 -0.11942472678041111 0 0.13404900744611239 -0.12609877526333699 0 0.12686113813069899 -0.1114359576666621 0 0.13614161296009411 -0.11043119760519431 0 0.13390982127973511 -0.11942472678041111 0 0.13614161296009411 -0.11043119760519431 0 0.14023431030656019 -0.11642081500581559 0 0.13390982127973511 -0.11942472678041111 0 0.13614161296009411 -0.11043119760519431 0 0.14023431030656019 -0.11642081500581559 0 0.14347338005148061 -0.1082488085161593 0 0.13773130733042549 -0.12113088311922759 0 0.1427320902892944 -0.12257921542734659 0 0.13404900744611239 -0.12609877526333699 0 0.13390982127973511 -0.11942472678041111 0 0.13773130733042549 -0.12113088311922759 0 0.13404900744611239 -0.12609877526333699 0 0.13390982127973511 -0.11942472678041111 0 0.13404900744611239 -0.12609877526333699 0 0.14023431030656019 -0.11642081500581559 0 0.13773130733042549 -0.12113088311922759 0 0.1427320902892944 -0.12257921542734659 0 0.14023431030656019 -0.11642081500581559 0 0.13390982127973511 -0.11942472678041111 0 0.13773130733042549 -0.12113088311922759 0 0.1427320902892944 -0.12257921542734659 0 0.15192118682329561 -0.12273271218809589 0 0.1490682445489844 -0.1279194233146575 0 0.1427320902892944 -0.12257921542734659 0 0.1474293378639818 -0.11515719203513899 0 0.15192118682329561 -0.12273271218809589 0 0.14023431030656019 -0.11642081500581559 0 0.1427320902892944 -0.12257921542734659 0 0.1474293378639818 -0.11515719203513899 0 0.1474293378639818 -0.11515719203513899 0 0.15201290161170181 -0.107226104105896 0 0.14347338005148061 -0.1082488085161593 0 0.14023431030656019 -0.11642081500581559 0 0.1474293378639818 -0.11515719203513899 0 0.14347338005148061 -0.1082488085161593 0 0.1474293378639818 -0.11515719203513899 0 0.15419764536576119 -0.1149677746217292 0 0.15201290161170181 -0.107226104105896 0 0.15419764536576119 -0.1149677746217292 0 0.15201290161170181 -0.107226104105896 0 0.1590985184781393 -0.1107939778183322 0 0.15419764536576119 -0.1149677746217292 0 0.15192118682329561 -0.12273271218809589 0 0.1605262820516872 -0.11892888696118289 0 0.1474293378639818 -0.11515719203513899 0 0.15419764536576119 -0.1149677746217292 0 0.15192118682329561 -0.12273271218809589 0 0.153855148049276 -0.097460838801678593 0 0.15201290161170181 -0.107226104105896 0 0.1462355681673109 -0.099255024001954253 0 0.153855148049276 -0.097460838801678593 0 0.1462355681673109 -0.099255024001954253 0 0.1490737095502995 -0.088653392770718792 0 0.153855148049276 -0.097460838801678593 0 0.15201290161170181 -0.107226104105896 0 0.16008969536972259 -0.10263897543636979 0 0.14347338005148061 -0.1082488085161593 0 0.1462355681673109 -0.099255024001954253 0 0.13800617896953651 -0.1013117005447786 0 0.15201290161170181 -0.107226104105896 0 0.14347338005148061 -0.1082488085161593 0 0.1462355681673109 -0.099255024001954253 0 0.1462355681673109 -0.099255024001954253 0 0.13800617896953651 -0.1013117005447786 0 0.14099209077157121 -0.092629299272494275 0 0.13800617896953651 -0.1013117005447786 0 0.1286838548293292 -0.09135300801218077 0 0.14099209077157121 -0.092629299272494275 0 0.13614161296009411 -0.11043119760519431 0 0.13800617896953651 -0.1013117005447786 0 0.12917406780106669 -0.1036793655145172 0 0.13614161296009411 -0.11043119760519431 0 0.14347338005148061 -0.1082488085161593 0 0.13800617896953651 -0.1013117005447786 0 0.1196469902177196 -0.1061558951397697 0 0.12686113813069899 -0.1114359576666621 0 0.12917406780106669 -0.1036793655145172 0 0.12686113813069899 -0.1114359576666621 0 0.13614161296009411 -0.11043119760519431 0 0.12917406780106669 -0.1036793655145172 0 0.1230450488982011 -0.098166020395255585 0 0.12917406780106669 -0.1036793655145172 0 0.1286838548293292 -0.09135300801218077 0 0.13800617896953651 -0.1013117005447786 0 0.12917406780106669 -0.1036793655145172 0 0.1286838548293292 -0.09135300801218077 0 0.1286838548293292 -0.09135300801218077 0 0.12857779857738699 -0.078718698725873171 0 0.13748132505412469 -0.08396770010957226 0 0.13748132505412469 -0.08396770010957226 0 0.1367334774756912 -0.073531819827653083 0 0.14538989296775451 -0.078880163337803719 0 0.12857779857738699 -0.078718698725873171 0 0.13748132505412469 -0.08396770010957226 0 0.1367334774756912 -0.073531819827653083 0 0.1286838548293292 -0.09135300801218077 0 0.13748132505412469 -0.08396770010957226 0 0.14099209077157121 -0.092629299272494275 0 0.12857779857738699 -0.078718698725873171 0 0.12708324658387871 -0.067240591211139955 0 0.1367334774756912 -0.073531819827653083 0 0.12708324658387871 -0.067240591211139955 0 0.1367334774756912 -0.073531819827653083 0 0.14110971147140131 -0.064913967020147179 0 0.1367334774756912 -0.073531819827653083 0 0.14110971147140131 -0.064913967020147179 0 0.14964674351361701 -0.070099729323911744 0 0.14110971147140131 -0.064913967020147179 0 0.14964674351361701 -0.070099729323911744 0 0.15194569281242609 -0.056105127932606663 0 0.1367334774756912 -0.073531819827653083 0 0.14964674351361701 -0.070099729323911744 0 0.14538989296775451 -0.078880163337803719 0 0.14964674351361701 -0.070099729323911744 0 0.14538989296775451 -0.078880163337803719 0 0.15822082836811369 -0.079982126599630443 0 0.14964674351361701 -0.070099729323911744 0 0.15822082836811369 -0.079982126599630443 0 0.1603896916223197 -0.069044426588861466 0 0.14964674351361701 -0.070099729323911744 0 0.1603896916223197 -0.069044426588861466 0 0.15194569281242609 -0.056105127932606663 0 0.13748132505412469 -0.08396770010957226 0 0.14099209077157121 -0.092629299272494275 0 0.1490737095502995 -0.088653392770718792 0 0.1462355681673109 -0.099255024001954253 0 0.14099209077157121 -0.092629299272494275 0 0.1490737095502995 -0.088653392770718792 0 0.13748132505412469 -0.08396770010957226 0 0.14538989296775451 -0.078880163337803719 0 0.1490737095502995 -0.088653392770718792 0 0.14538989296775451 -0.078880163337803719 0 0.1490737095502995 -0.088653392770718792 0 0.15822082836811369 -0.079982126599630443 0 0.153855148049276 -0.097460838801678593 0 0.1490737095502995 -0.088653392770718792 0 0.1594354292934542 -0.091737259282716963 0 0.1490737095502995 -0.088653392770718792 0 0.1594354292934542 -0.091737259282716963 0 0.15822082836811369 -0.079982126599630443 0 0.1594354292934542 -0.091737259282716963 0 0.15822082836811369 -0.079982126599630443 0 0.1684140015429216 -0.087293140772549349 0 0.15822082836811369 -0.079982126599630443 0 0.1684140015429216 -0.087293140772549349 0 0.1694423915093585 -0.075846288749261012 0 0.1684140015429216 -0.087293140772549349 0 0.1776016981043757 -0.094466756631608209 0 0.16825903644140999 -0.098606158866582916 0 0.1594354292934542 -0.091737259282716963 0 0.1684140015429216 -0.087293140772549349 0 0.16825903644140999 -0.098606158866582916 0 0.15822082836811369 -0.079982126599630443 0 0.1603896916223197 -0.069044426588861466 0 0.1694423915093585 -0.075846288749261012 0 0.1603896916223197 -0.069044426588861466 0 0.1694423915093585 -0.075846288749261012 0 0.17187576892014289 -0.062138750134232333 0 0.17971720707086189 -0.073145871694163048 0 0.17187576892014289 -0.062138750134232333 0 0.19180584502786041 -0.068172372335855602 0 0.17187576892014289 -0.062138750134232333 0 0.19180584502786041 -0.068172372335855602 0 0.1694423915093585 -0.075846288749261012 0 0.17971720707086189 -0.073145871694163048 0 0.17187576892014289 -0.062138750134232333 0 0.1694423915093585 -0.075846288749261012 0 0.17971720707086189 -0.073145871694163048 0 0.17803685153179119 -0.083473416706129469 0 0.17971720707086189 -0.073145871694163048 0 0.18645595400882431 -0.078186102724248294 0 0.19180584502786041 -0.068172372335855602 0 0.1684140015429216 -0.087293140772549349 0 0.17803685153179119 -0.083473416706129469 0 0.1776016981043757 -0.094466756631608209 0 0.1684140015429216 -0.087293140772549349 0 0.1694423915093585 -0.075846288749261012 0 0.17803685153179119 -0.083473416706129469 0 0.17803685153179119 -0.083473416706129469 0 0.18645595400882431 -0.078186102724248294 0 0.18748362772352481 -0.090285751384613616 0 0.17971720707086189 -0.073145871694163048 0 0.17803685153179119 -0.083473416706129469 0 0.18645595400882431 -0.078186102724248294 0 0.17803685153179119 -0.083473416706129469 0 0.18748362772352481 -0.090285751384613616 0 0.1776016981043757 -0.094466756631608209 0 0.1776016981043757 -0.094466756631608209 0 0.1757785255420414 -0.1036637588673371 0 0.18737718651252391 -0.1018645954104864 0 0.18748362772352481 -0.090285751384613616 0 0.1776016981043757 -0.094466756631608209 0 0.18737718651252391 -0.1018645954104864 0 0.1776016981043757 -0.094466756631608209 0 0.1757785255420414 -0.1036637588673371 0 0.16825903644140999 -0.098606158866582916 0 0.1757785255420414 -0.1036637588673371 0 0.17797479248166551 -0.1125427820454727 0 0.16787713834435419 -0.11000951374301229 0 0.1757785255420414 -0.1036637588673371 0 0.18737718651252391 -0.1018645954104864 0 0.17797479248166551 -0.1125427820454727 0 0.18737718651252391 -0.1018645954104864 0 0.18701697985041221 -0.11880972375357141 0 0.17797479248166551 -0.1125427820454727 0 0.18701697985041221 -0.11880972375357141 0 0.173543926957343 -0.1211375462363173 0 0.17990838590865871 -0.12844737664361131 0 0.18701697985041221 -0.11880972375357141 0 0.173543926957343 -0.1211375462363173 0 0.17797479248166551 -0.1125427820454727 0 0.173543926957343 -0.1211375462363173 0 0.17797479248166551 -0.1125427820454727 0 0.16787713834435419 -0.11000951374301229 0 0.173543926957343 -0.1211375462363173 0 0.16787713834435419 -0.11000951374301229 0 0.1605262820516872 -0.11892888696118289 0 0.173543926957343 -0.1211375462363173 0 0.1605262820516872 -0.11892888696118289 0 0.1641162962428066 -0.126449221113482 0 0.15192118682329561 -0.12273271218809589 0 0.1605262820516872 -0.11892888696118289 0 0.1587247560068413 -0.12564209046719049 0 0.1605262820516872 -0.11892888696118289 0 0.1587247560068413 -0.12564209046719049 0 0.1641162962428066 -0.126449221113482 0 0.15419764536576119 -0.1149677746217292 0 0.1605262820516872 -0.11892888696118289 0 0.1590985184781393 -0.1107939778183322 0 0.16787713834435419 -0.11000951374301229 0 0.1605262820516872 -0.11892888696118289 0 0.1590985184781393 -0.1107939778183322 0 0.15201290161170181 -0.107226104105896 0 0.1590985184781393 -0.1107939778183322 0 0.16008969536972259 -0.10263897543636979 0 0.16787713834435419 -0.11000951374301229 0 0.1590985184781393 -0.1107939778183322 0 0.16008969536972259 -0.10263897543636979 0 0.1594354292934542 -0.091737259282716963 0 0.16008969536972259 -0.10263897543636979 0 0.16825903644140999 -0.098606158866582916 0 0.153855148049276 -0.097460838801678593 0 0.1594354292934542 -0.091737259282716963 0 0.16008969536972259 -0.10263897543636979 0 0.1757785255420414 -0.1036637588673371 0 0.16787713834435419 -0.11000951374301229 0 0.16825903644140999 -0.098606158866582916 0 0.16787713834435419 -0.11000951374301229 0 0.16008969536972259 -0.10263897543636979 0 0.16825903644140999 -0.098606158866582916 0 0.1552076984021574 -0.0047487866015848753 0 0.1380919344669613 -0.01469948322874493 0 0.1606476670511833 -0.017066892083396779 0 0.14127976741107601 0.00215554095495248 0 0.1552076984021574 -0.0047487866015848753 0 0.1380919344669613 -0.01469948322874493 0 0.14127976741107601 0.00215554095495248 0 0.1228376310831711 -0.00076623140119310329 0 0.1380919344669613 -0.01469948322874493 0 0.1228376310831711 -0.00076623140119310329 0 0.1380919344669613 -0.01469948322874493 0 0.12490934658110441 -0.01526235729042 0 0.1228376310831711 -0.00076623140119310329 0 0.1380919344669613 -0.01469948322874493 0 0.1380919344669613 -0.01469948322874493 0 0.1415761600091012 -0.038003691908970592 0 0.12969235634276979 -0.031284000123743903 0 0.1213672368215104 -0.025634276355807499 0 0.12490934658110441 -0.01526235729042 0 0.12969235634276979 -0.031284000123743903 0 0.12490934658110441 -0.01526235729042 0 0.1380919344669613 -0.01469948322874493 0 0.12969235634276979 -0.031284000123743903 0 0.1380919344669613 -0.01469948322874493 0 0.15334623785075199 -0.02863273505629621 0 0.1415761600091012 -0.038003691908970592 0 0.1380919344669613 -0.01469948322874493 0 0.15334623785075199 -0.02863273505629621 0 0.1606476670511833 -0.017066892083396779 0 0.1380919344669613 -0.01469948322874493 0 0.15334623785075199 -0.02863273505629621 0 0.15437572795414581 -0.042117567211766717 0 0.1415761600091012 -0.038003691908970592 0 0.15194569281242609 -0.056105127932606663 0 0.15334623785075199 -0.02863273505629621 0 0.15437572795414581 -0.042117567211766717 0 0.1415761600091012 -0.038003691908970592 0 0.1181844865236701 -0.045884275653046647 0 0.1283586559847627 -0.040725310836502493 0 0.1350650896680477 -0.050994701792827862 0 0.1415761600091012 -0.038003691908970592 0 0.12969235634276979 -0.031284000123743903 0 0.1283586559847627 -0.040725310836502493 0 0.1169603374125384 -0.034526050343312617 0 0.12969235634276979 -0.031284000123743903 0 0.1283586559847627 -0.040725310836502493 0 0.1415761600091012 -0.038003691908970592 0 0.1283586559847627 -0.040725310836502493 0 0.1350650896680477 -0.050994701792827862 0 0.1181844865236701 -0.045884275653046647 0 0.1350650896680477 -0.050994701792827862 0 0.12021542192502691 -0.05736310542253667 0 0.12708324658387871 -0.067240591211139955 0 0.1350650896680477 -0.050994701792827862 0 0.12708324658387871 -0.067240591211139955 0 0.14110971147140131 -0.064913967020147179 0 0.1350650896680477 -0.050994701792827862 0 0.14110971147140131 -0.064913967020147179 0 0.15194569281242609 -0.056105127932606663 0 0.1415761600091012 -0.038003691908970592 0 0.1350650896680477 -0.050994701792827862 0 0.15194569281242609 -0.056105127932606663 0 0.1350650896680477 -0.050994701792827862 0 0.15194569281242609 -0.056105127932606663 0 0.14110971147140131 -0.064913967020147179 0 0.1350650896680477 -0.050994701792827862 0 0.15194569281242609 -0.056105127932606663 0 0.15194569281242609 -0.056105127932606663 0 0.16860054123454279 -0.042565986883847551 0 0.15437572795414581 -0.042117567211766717 0 0.15194569281242609 -0.056105127932606663 0 0.16860054123454279 -0.042565986883847551 0 0.1603896916223197 -0.069044426588861466 0 0.15194569281242609 -0.056105127932606663 0 0.17187576892014289 -0.062138750134232333 0 0.15194569281242609 -0.056105127932606663 0 0.165016394264413 -0.053661354003145263 0 0.17187576892014289 -0.062138750134232333 0 0.15194569281242609 -0.056105127932606663 0 0.165016394264413 -0.053661354003145263 0 0.16860054123454279 -0.042565986883847551 0 0.15194569281242609 -0.056105127932606663 0 0.17187576892014289 -0.062138750134232333 0 0.165016394264413 -0.053661354003145263 0 0.17187576892014289 -0.062138750134232333 0 0.18345715790010181 -0.056135992415964377 0 0.165016394264413 -0.053661354003145263 0 0.18345715790010181 -0.056135992415964377 0 0.16860054123454279 -0.042565986883847551 0 0.17187576892014289 -0.062138750134232333 0 0.18345715790010181 -0.056135992415964377 0 0.19180584502786041 -0.068172372335855602 0 0.18345715790010181 -0.056135992415964377 0 0.17385144243116649 -0.043269821226828903 0 0.18595588634396351 -0.043176695624854357 0 0.18345715790010181 -0.056135992415964377 0 0.17385144243116649 -0.043269821226828903 0 0.16860054123454279 -0.042565986883847551 0 0.18345715790010181 -0.056135992415964377 0 0.16860054123454279 -0.042565986883847551 0 0.18595588634396351 -0.043176695624854357 0 0.1782733089797521 -0.034702753096601993 0 0.1941468740000297 -0.021798736782002521 0 0.17385144243116649 -0.043269821226828903 0 0.18595588634396351 -0.043176695624854357 0 0.1782733089797521 -0.034702753096601993 0 0.17385144243116649 -0.043269821226828903 0 0.1782733089797521 -0.034702753096601993 0 0.16860054123454279 -0.042565986883847551 0 0.1782733089797521 -0.034702753096601993 0 0.16860054123454279 -0.042565986883847551 0 0.17385144243116649 -0.043269821226828903 0 0.1782733089797521 -0.034702753096601993 0 0.1782733089797521 -0.034702753096601993 0 0.16860054123454279 -0.042565986883847551 0 0.1670526359884773 -0.02836254214418232 0 0.15334623785075199 -0.02863273505629621 0 0.16860054123454279 -0.042565986883847551 0 0.1670526359884773 -0.02836254214418232 0 0.15334623785075199 -0.02863273505629621 0 0.15437572795414581 -0.042117567211766717 0 0.16860054123454279 -0.042565986883847551 0 0.15334623785075199 -0.02863273505629621 0 0.16860054123454279 -0.042565986883847551 0 0.15334623785075199 -0.02863273505629621 0 0.1606476670511833 -0.017066892083396779 0 0.1670526359884773 -0.02836254214418232 0 0.1606476670511833 -0.017066892083396779 0 0.1670526359884773 -0.02836254214418232 0 0.1743954248261565 -0.018844343600769399 0 0.1782733089797521 -0.034702753096601993 0 0.1743954248261565 -0.018844343600769399 0 0.1918659379284415 -0.0083679514935210662 0 0.1782733089797521 -0.034702753096601993 0 0.1670526359884773 -0.02836254214418232 0 0.1743954248261565 -0.018844343600769399 0 0.1782733089797521 -0.034702753096601993 0 0.1918659379284415 -0.0083679514935210662 0 0.1782733089797521 -0.034702753096601993 0 0.1941468740000297 -0.021798736782002521 0 0.1743954248261565 -0.018844343600769399 0 0.17983697574181159 -0.0080573062328258595 0 0.1918659379284415 -0.0083679514935210662 0 0.1743954248261565 -0.018844343600769399 0 0.17983697574181159 -0.0080573062328258595 0 0.17056947168728639 -0.0076341498549102596 0 0.17983697574181159 -0.0080573062328258595 0 0.18580903226614379 -0.0011502469314075439 0 0.17786282304025339 -0.001583287003114023 0 0.17983697574181159 -0.0080573062328258595 0 0.18580903226614379 -0.0011502469314075439 0 0.1918659379284415 -0.0083679514935210662 0 0.17983697574181159 -0.0080573062328258595 0 0.17786282304025339 -0.001583287003114023 0 0.17056947168728639 -0.0076341498549102596 0 0.17227434920368959 0.00081991249798677823 0 0.17786282304025339 -0.001583287003114023 0 0.17056947168728639 -0.0076341498549102596 0 0.17227434920368959 0.00081991249798677823 0 0.16550177429739321 0.001625335581948511 0 0.17056947168728639 -0.0076341498549102596 0 0.1606476670511833 -0.017066892083396779 0 0.1743954248261565 -0.018844343600769399 0 0.17056947168728639 -0.0076341498549102596 0 0.1552076984021574 -0.0047487866015848753 0 0.1606476670511833 -0.017066892083396779 0 0.17056947168728639 -0.0076341498549102596 0 0.15830422717032419 0.0026668804518291322 0 0.16550177429739321 0.001625335581948511 0 0.1552076984021574 -0.0047487866015848753 0 0.16550177429739321 0.001625335581948511 0 0.1552076984021574 -0.0047487866015848753 0 0.17056947168728639 -0.0076341498549102596 0 0.21653748859829491 -0.0035968485671754561 0 0.20239897911060981 -0.0049616950454924097 0 0.1941468740000297 -0.021798736782002521 0 0.21653748859829491 -0.0035968485671754561 0 0.1941468740000297 -0.021798736782002521 0 0.20955206102217341 -0.019021580532265901 0 0.21653748859829491 -0.0035968485671754561 0 0.20955206102217341 -0.019021580532265901 0 0.22864161374710179 -0.024239001361894639 0 0.21653748859829491 -0.0035968485671754561 0 0.1941468740000297 -0.021798736782002521 0 0.20938161325362409 0.0025060029461209908 0 0.21653748859829491 -0.0035968485671754561 0 0.20239897911060981 -0.0049616950454924097 0 0.19981118715584381 0.0070254328827108366 0 0.20239897911060981 -0.0049616950454924097 0 0.1918659379284415 -0.0083679514935210662 0 0.19981118715584381 0.0070254328827108366 0 0.1918659379284415 -0.0083679514935210662 0 0.20239897911060981 -0.0049616950454924097 0 0.1918659379284415 -0.0083679514935210662 0 0.1941468740000297 -0.021798736782002521 0 0.1894192936343001 0.0060385698470956234 0 0.18580903226614379 -0.0011502469314075439 0 0.1918659379284415 -0.0083679514935210662 0 0.1894192936343001 0.0060385698470956234 0 0.1918659379284415 -0.0083679514935210662 0 0.1918659379284415 -0.0083679514935210662 0 0.1941468740000297 -0.021798736782002521 0 0.1782733089797521 -0.034702753096601993 0 0.1918659379284415 -0.0083679514935210662 0 0.1941468740000297 -0.021798736782002521 0 0.1941468740000297 -0.021798736782002521 0 0.2031559883210855 -0.029985938475911671 0 0.20955206102217341 -0.019021580532265901 0 0.20955206102217341 -0.019021580532265901 0 0.21066165658577479 -0.033085676709690801 0 0.22864161374710179 -0.024239001361894639 0 0.2031559883210855 -0.029985938475911671 0 0.20955206102217341 -0.019021580532265901 0 0.21066165658577479 -0.033085676709690801 0 0.21864271396698939 -0.038649087319523719 0 0.21066165658577479 -0.033085676709690801 0 0.21034122995680221 -0.050048420551560682 0 0.21066165658577479 -0.033085676709690801 0 0.1982633616763636 -0.046037759879686967 0 0.21034122995680221 -0.050048420551560682 0 0.2031559883210855 -0.029985938475911671 0 0.21066165658577479 -0.033085676709690801 0 0.1982633616763636 -0.046037759879686967 0 0.21864271396698939 -0.038649087319523719 0 0.21034122995680221 -0.050048420551560682 0 0.21819242210762169 -0.050823402618315167 0 0.1941468740000297 -0.021798736782002521 0 0.2031559883210855 -0.029985938475911671 0 0.1982633616763636 -0.046037759879686967 0 0.18595588634396351 -0.043176695624854357 0 0.1941468740000297 -0.021798736782002521 0 0.1982633616763636 -0.046037759879686967 0 0.1941468740000297 -0.021798736782002521 0 0.1982633616763636 -0.046037759879686967 0 0.1982633616763636 -0.046037759879686967 0 0.19180584502786041 -0.068172372335855602 0 0.20237984935269879 -0.070276782977371152 0 0.1982633616763636 -0.046037759879686967 0 0.20237984935269879 -0.070276782977371152 0 0.18345715790010181 -0.056135992415964377 0 0.1982633616763636 -0.046037759879686967 0 0.19180584502786041 -0.068172372335855602 0 0.18345715790010181 -0.056135992415964377 0 0.18595588634396351 -0.043176695624854357 0 0.1982633616763636 -0.046037759879686967 0 0.21034122995680221 -0.050048420551560682 0 0.21390737605136481 -0.061417813804776289 0 0.20237984935269879 -0.070276782977371152 0 0.1982633616763636 -0.046037759879686967 0 0.21034122995680221 -0.050048420551560682 0 0.20237984935269879 -0.070276782977371152 0 0.21034122995680221 -0.050048420551560682 0 0.21819242210762169 -0.050823402618315167 0 0.21390737605136481 -0.061417813804776289 0 0.2255736282180465 -0.056882305063223393 0 0.23627526009844421 -0.049694667024589079 0 0.23165324526163639 -0.065502610206523884 0 0.21390737605136481 -0.061417813804776289 0 0.2255736282180465 -0.056882305063223393 0 0.2221192681341374 -0.068345353637844553 0 0.21819242210762169 -0.050823402618315167 0 0.21390737605136481 -0.061417813804776289 0 0.2255736282180465 -0.056882305063223393 0 0.21819242210762169 -0.050823402618315167 0 0.2255736282180465 -0.056882305063223393 0 0.22546512762764079 -0.044057692677509197 0 0.2255736282180465 -0.056882305063223393 0 0.23627526009844421 -0.049694667024589079 0 0.22546512762764079 -0.044057692677509197 0 0.24617004458672351 -0.058202332164817121 0 0.23627526009844421 -0.049694667024589079 0 0.24390890644978661 -0.075150332687283522 0 0.23627526009844421 -0.049694667024589079 0 0.24390890644978661 -0.075150332687283522 0 0.25164978009717781 -0.053061021673298493 0 0.24617004458672351 -0.058202332164817121 0 0.24422464309495209 -0.046986837608536558 0 0.24617004458672351 -0.058202332164817121 0 0.24422464309495209 -0.046986837608536558 0 0.23627526009844421 -0.049694667024589079 0 0.25164978009717781 -0.053061021673298493 0 0.2539732262079259 -0.044675773385505282 0 0.24422464309495209 -0.046986837608536558 0 0.24422464309495209 -0.046986837608536558 0 0.23627526009844421 -0.049694667024589079 0 0.24524507923365879 -0.0330622213940093 0 0.25845033672230949 -0.02738613623275089 0 0.24422464309495209 -0.046986837608536558 0 0.24524507923365879 -0.0330622213940093 0 0.23627526009844421 -0.049694667024589079 0 0.24524507923365879 -0.0330622213940093 0 0.22864161374710179 -0.024239001361894639 0 0.21864271396698939 -0.038649087319523719 0 0.21066165658577479 -0.033085676709690801 0 0.22864161374710179 -0.024239001361894639 0 0.23627526009844421 -0.049694667024589079 0 0.22864161374710179 -0.024239001361894639 0 0.21864271396698939 -0.038649087319523719 0 0.22546512762764079 -0.044057692677509197 0 0.22864161374710179 -0.024239001361894639 0 0.23627526009844421 -0.049694667024589079 0 0.22546512762764079 -0.044057692677509197 0 0.22864161374710179 -0.024239001361894639 0 0.21864271396698939 -0.038649087319523719 0 0.21819242210762169 -0.050823402618315167 0 0.22546512762764079 -0.044057692677509197 0 0.22864161374710179 -0.024239001361894639 0 0.24437070500465241 -0.019757014484825589 0 0.23246643938152739 -0.0092251246746631842 0 0.24524507923365879 -0.0330622213940093 0 0.22864161374710179 -0.024239001361894639 0 0.24437070500465241 -0.019757014484825589 0 0.25013504981522988 -0.025019616072594848 0 0.24524507923365879 -0.0330622213940093 0 0.24437070500465241 -0.019757014484825589 0 0.25247407830029878 -0.019873092178793648 0 0.25006914023697918 -0.01208141302270524 0 0.24437070500465241 -0.019757014484825589 0 0.25013504981522988 -0.025019616072594848 0 0.25247407830029878 -0.019873092178793648 0 0.24437070500465241 -0.019757014484825589 0 0.24437070500465241 -0.019757014484825589 0 0.242989310538931 -0.0092135161021761666 0 0.23246643938152739 -0.0092251246746631842 0 0.25006914023697918 -0.01208141302270524 0 0.242989310538931 -0.0092135161021761666 0 0.2479891295484222 -0.0022684572774312019 0 0.25006914023697918 -0.01208141302270524 0 0.24437070500465241 -0.019757014484825589 0 0.242989310538931 -0.0092135161021761666 0 0.2429424487767215 0.0026164120279975069 0 0.2479891295484222 -0.0022684572774312019 0 0.24005113852307369 -0.0027355710512556022 0 0.242989310538931 -0.0092135161021761666 0 0.2479891295484222 -0.0022684572774312019 0 0.24005113852307369 -0.0027355710512556022 0 0.23517440673197429 0.0051848507458196356 0 0.24005113852307369 -0.0027355710512556022 0 0.23246643938152739 -0.0092251246746631842 0 0.242989310538931 -0.0092135161021761666 0 0.24005113852307369 -0.0027355710512556022 0 0.23246643938152739 -0.0092251246746631842 0 0.22100796739575951 0.001216664300799794 0 0.22864161374710179 -0.024239001361894639 0 0.23246643938152739 -0.0092251246746631842 0 0.23517440673197429 0.0051848507458196356 0 0.22100796739575951 0.001216664300799794 0 0.23246643938152739 -0.0092251246746631842 0 0.22100796739575951 0.001216664300799794 0 0.21653748859829491 -0.0035968485671754561 0 0.22864161374710179 -0.024239001361894639 0 0.22100796739575951 0.001216664300799794 0 0.22864161374710179 -0.024239001361894639 0 0.206496337029034 -0.094515806075055359 0 0.21061282470536921 -0.1187548291727395 0 0.206496337029034 -0.094515806075055359 0 0.22623965631488491 -0.089683688039789988 0 0.22333782165884589 -0.10574313483481231 0 0.206496337029034 -0.094515806075055359 0 0.21061282470536921 -0.1187548291727395 0 0.22333782165884589 -0.10574313483481231 0 0.18737718651252391 -0.1018645954104864 0 0.18701697985041221 -0.11880972375357141 0 0.21061282470536921 -0.1187548291727395 0 0.18701697985041221 -0.11880972375357141 0 0.21061282470536921 -0.1187548291727395 0 0.19260125287660149 -0.13207131947283501 0 0.18748362772352481 -0.090285751384613616 0 0.18737718651252391 -0.1018645954104864 0 0.206496337029034 -0.094515806075055359 0 0.18737718651252391 -0.1018645954104864 0 0.206496337029034 -0.094515806075055359 0 0.21061282470536921 -0.1187548291727395 0 0.18748362772352481 -0.090285751384613616 0 0.206496337029034 -0.094515806075055359 0 0.19448955746265811 -0.082220240722777116 0 0.206496337029034 -0.094515806075055359 0 0.19448955746265811 -0.082220240722777116 0 0.20237984935269879 -0.070276782977371152 0 0.18645595400882431 -0.078186102724248294 0 0.18748362772352481 -0.090285751384613616 0 0.19448955746265811 -0.082220240722777116 0 0.18645595400882431 -0.078186102724248294 0 0.19448955746265811 -0.082220240722777116 0 0.19180584502786041 -0.068172372335855602 0 0.19448955746265811 -0.082220240722777116 0 0.19180584502786041 -0.068172372335855602 0 0.20237984935269879 -0.070276782977371152 0 0.21390737605136481 -0.061417813804776289 0 0.20237984935269879 -0.070276782977371152 0 0.21248527081093549 -0.070330245212121473 0 0.20237984935269879 -0.070276782977371152 0 0.21248527081093549 -0.070330245212121473 0 0.2145783618208984 -0.079628257083024359 0 0.21248527081093549 -0.070330245212121473 0 0.2145783618208984 -0.079628257083024359 0 0.2221192681341374 -0.068345353637844553 0 0.21390737605136481 -0.061417813804776289 0 0.21248527081093549 -0.070330245212121473 0 0.2221192681341374 -0.068345353637844553 0 0.206496337029034 -0.094515806075055359 0 0.20237984935269879 -0.070276782977371152 0 0.2145783618208984 -0.079628257083024359 0 0.206496337029034 -0.094515806075055359 0 0.2145783618208984 -0.079628257083024359 0 0.22623965631488491 -0.089683688039789988 0 0.206496337029034 -0.094515806075055359 0 0.20237984935269879 -0.070276782977371152 0 0.2145783618208984 -0.079628257083024359 0 0.22623965631488491 -0.089683688039789988 0 0.23038916340776741 -0.077440392619678861 0 0.22623965631488491 -0.089683688039789988 0 0.23038916340776741 -0.077440392619678861 0 0.23781669784438761 -0.088769324738514177 0 0.22623965631488491 -0.089683688039789988 0 0.23781669784438761 -0.088769324738514177 0 0.23714180950183539 -0.10160942858925499 0 0.2145783618208984 -0.079628257083024359 0 0.2221192681341374 -0.068345353637844553 0 0.23038916340776741 -0.077440392619678861 0 0.2255736282180465 -0.056882305063223393 0 0.2221192681341374 -0.068345353637844553 0 0.23165324526163639 -0.065502610206523884 0 0.2221192681341374 -0.068345353637844553 0 0.23038916340776741 -0.077440392619678861 0 0.23165324526163639 -0.065502610206523884 0 0.25256726729664603 -0.064532785491330763 0 0.24617004458672351 -0.058202332164817121 0 0.24390890644978661 -0.075150332687283522 0 0.23627526009844421 -0.049694667024589079 0 0.23165324526163639 -0.065502610206523884 0 0.24390890644978661 -0.075150332687283522 0 0.23038916340776741 -0.077440392619678861 0 0.23165324526163639 -0.065502610206523884 0 0.24390890644978661 -0.075150332687283522 0 0.25154255280112903 -0.1006059983499779 0 0.24390890644978661 -0.075150332687283522 0 0.25154255280112903 -0.1006059983499779 0 0.24390890644978661 -0.075150332687283522 0 0.23781669784438761 -0.088769324738514177 0 0.23038916340776741 -0.077440392619678861 0 0.24390890644978661 -0.075150332687283522 0 0.23781669784438761 -0.088769324738514177 0 0.25154255280112903 -0.1006059983499779 0 0.23714180950183539 -0.10160942858925499 0 0.24954668948061209 -0.11284283178631641 0 0.25154255280112903 -0.1006059983499779 0 0.23781669784438761 -0.088769324738514177 0 0.23714180950183539 -0.10160942858925499 0 0.23714180950183539 -0.10160942858925499 0 0.22333782165884589 -0.10574313483481231 0 0.23542538064511609 -0.1194854446592761 0 0.22623965631488491 -0.089683688039789988 0 0.23714180950183539 -0.10160942858925499 0 0.22333782165884589 -0.10574313483481231 0 0.21061282470536921 -0.1187548291727395 0 0.22333782165884589 -0.10574313483481231 0 0.23542538064511609 -0.1194854446592761 0 0.25741251913389712 -0.1305951081492244 0 0.23542538064511609 -0.1194854446592761 0 0.24954668948061209 -0.11284283178631641 0 0.23714180950183539 -0.10160942858925499 0 0.23542538064511609 -0.1194854446592761 0 0.24954668948061209 -0.11284283178631641 0 0.25741251913389712 -0.1305951081492244 0 0.25452239946831973 -0.14829655140993131 0 0.23191914561449989 -0.13726295483178369 0 0.25741251913389712 -0.1305951081492244 0 0.23542538064511609 -0.1194854446592761 0 0.23191914561449989 -0.13726295483178369 0 0.25452239946831973 -0.14829655140993131 0 0.23782434991563151 -0.15439369078169049 0 0.23191914561449989 -0.13726295483178369 0 0.23782434991563151 -0.15439369078169049 0 0.2147293123817042 -0.1429938522704238 0 0.23782434991563151 -0.15439369078169049 0 0.2147293123817042 -0.1429938522704238 0 0.21952864142792899 -0.1712536350637954 0 0.23782434991563151 -0.15439369078169049 0 0.23191914561449989 -0.13726295483178369 0 0.2147293123817042 -0.1429938522704238 0 0.21061282470536921 -0.1187548291727395 0 0.23542538064511609 -0.1194854446592761 0 0.23191914561449989 -0.13726295483178369 0 0.21061282470536921 -0.1187548291727395 0 0.23191914561449989 -0.13726295483178369 0 0.2147293123817042 -0.1429938522704238 0 0.2147293123817042 -0.1429938522704238 0 0.19260125287660149 -0.13207131947283501 0 0.21061282470536921 -0.1187548291727395 0 0.2147293123817042 -0.1429938522704238 0 0.19260125287660149 -0.13207131947283501 0 0.21061282470536921 -0.1187548291727395 0 0.2147293123817042 -0.1429938522704238 0 0.2147293123817042 -0.1429938522704238 0 0.20548350855114439 -0.15623176612928341 0 0.19677556980284089 -0.14597147697610061 0 0.20548350855114439 -0.15623176612928341 0 0.19677556980284089 -0.14597147697610061 0 0.19325106823209409 -0.153061144976989 0 0.19677556980284089 -0.14597147697610061 0 0.19325106823209409 -0.153061144976989 0 0.18786488322971459 -0.15098965934649999 0 0.19325106823209409 -0.153061144976989 0 0.18786488322971459 -0.15098965934649999 0 0.1842505296355367 -0.15589311325690541 0 0.19677556980284089 -0.14597147697610061 0 0.18786488322971459 -0.15098965934649999 0 0.188659048266132 -0.1418371739210742 0 0.2147293123817042 -0.1429938522704238 0 0.19677556980284089 -0.14597147697610061 0 0.19260125287660149 -0.13207131947283501 0 0.19677556980284089 -0.14597147697610061 0 0.188659048266132 -0.1418371739210742 0 0.19260125287660149 -0.13207131947283501 0 0.18830323417204939 -0.1765657128700695 0 0.20313295091115369 -0.1678787213591082 0 0.20600005448239761 -0.18645800734220749 0 0.18830323417204939 -0.1765657128700695 0 0.20600005448239761 -0.18645800734220749 0 0.1956377870383576 -0.1970896374814364 0 0.19325106823209409 -0.153061144976989 0 0.18830323417204939 -0.1765657128700695 0 0.19325106823209409 -0.153061144976989 0 0.18830323417204939 -0.1765657128700695 0 0.20313295091115369 -0.1678787213591082 0 0.19325106823209409 -0.153061144976989 0 0.18830323417204939 -0.1765657128700695 0 0.18144082188941271 -0.16389154531309821 0 0.20548350855114439 -0.15623176612928341 0 0.19325106823209409 -0.153061144976989 0 0.20313295091115369 -0.1678787213591082 0 0.20548350855114439 -0.15623176612928341 0 0.20313295091115369 -0.1678787213591082 0 0.21952864142792899 -0.1712536350637954 0 0.2147293123817042 -0.1429938522704238 0 0.21952864142792899 -0.1712536350637954 0 0.2147293123817042 -0.1429938522704238 0 0.20548350855114439 -0.15623176612928341 0 0.21952864142792899 -0.1712536350637954 0 0.20600005448239761 -0.18645800734220749 0 0.21952864142792899 -0.1712536350637954 0 0.22432797047415351 -0.19951341785716731 0 0.20313295091115369 -0.1678787213591082 0 0.20600005448239761 -0.18645800734220749 0 0.21952864142792899 -0.1712536350637954 0 0.21952864142792899 -0.1712536350637954 0 0.2437278363918948 -0.18195096812212239 0 0.22432797047415351 -0.19951341785716731 0 0.21952864142792899 -0.1712536350637954 0 0.22432797047415351 -0.19951341785716731 0 0.23782434991563151 -0.15439369078169049 0 0.21952864142792899 -0.1712536350637954 0 0.2437278363918948 -0.18195096812212239 0 0.260919387449559 -0.16579352929295721 0 0.23782434991563151 -0.15439369078169049 0 0.260919387449559 -0.16579352929295721 0 0.23782434991563151 -0.15439369078169049 0 0.2437278363918948 -0.18195096812212239 0 0.2437278363918948 -0.18195096812212239 0 0.24314545538918961 -0.20571013864437751 0 0.22432797047415351 -0.19951341785716731 0 0.2593871514889205 -0.19799184377322379 0 0.2437278363918948 -0.18195096812212239 0 0.24314545538918961 -0.20571013864437751 0 0.22432797047415351 -0.19951341785716731 0 0.2342802842193491 -0.2219117808856606 0 0.21564630723174069 -0.21833189921059021 0 0.24314545538918961 -0.20571013864437751 0 0.22432797047415351 -0.19951341785716731 0 0.2342802842193491 -0.2219117808856606 0 0.2462907050713771 -0.25204034373521428 0 0.2499607574480687 -0.24385609709525671 0 0.2374752251495614 -0.24157268794541539 0 0.25134951441318748 -0.22920843539767929 0 0.2499607574480687 -0.24385609709525671 0 0.2374752251495614 -0.24157268794541539 0 0.25134951441318748 -0.22920843539767929 0 0.24314545538918961 -0.20571013864437751 0 0.2342802842193491 -0.2219117808856606 0 0.25134951441318748 -0.22920843539767929 0 0.2374752251495614 -0.24157268794541539 0 0.2342802842193491 -0.2219117808856606 0 0.2374752251495614 -0.24157268794541539 0 0.22060620183210919 -0.232775489656291 0 0.2342802842193491 -0.2219117808856606 0 0.22060620183210919 -0.232775489656291 0 0.2342802842193491 -0.2219117808856606 0 0.21564630723174069 -0.21833189921059021 0 0.22198339683909701 -0.25340717595137879 0 0.2374752251495614 -0.24157268794541539 0 0.22060620183210919 -0.232775489656291 0 0.22198339683909701 -0.25340717595137879 0 0.22060620183210919 -0.232775489656291 0 0.22198339683909701 -0.25340717595137879 0 0.22060620183210919 -0.232775489656291 0 0.20573671357227499 -0.23448295905173899 0 0.22198339683909701 -0.25340717595137879 0 0.20573671357227499 -0.23448295905173899 0 0.19815896102696709 -0.24816545406213189 0 0.22060620183210919 -0.232775489656291 0 0.20573671357227499 -0.23448295905173899 0 0.21564630723174069 -0.21833189921059021 0 0.20573671357227499 -0.23448295905173899 0 0.19801089506944891 -0.22061097325298201 0 0.21564630723174069 -0.21833189921059021 0 0.20573671357227499 -0.23448295905173899 0 0.19801089506944891 -0.22061097325298201 0 0.18862314846194941 -0.23474346369713109 0 0.19801089506944891 -0.22061097325298201 0 0.18862314846194941 -0.23474346369713109 0 0.17884496266341901 -0.22149700646801701 0 0.20573671357227499 -0.23448295905173899 0 0.18862314846194941 -0.23474346369713109 0 0.19815896102696709 -0.24816545406213189 0 0.20600005448239761 -0.18645800734220749 0 0.22432797047415351 -0.19951341785716731 0 0.20571207111442141 -0.20503903284801611 0 0.22432797047415351 -0.19951341785716731 0 0.21564630723174069 -0.21833189921059021 0 0.20571207111442141 -0.20503903284801611 0 0.19801089506944891 -0.22061097325298201 0 0.21564630723174069 -0.21833189921059021 0 0.20571207111442141 -0.20503903284801611 0 0.19801089506944891 -0.22061097325298201 0 0.19227081910603411 -0.2100117569492751 0 0.17884496266341901 -0.22149700646801701 0 0.20571207111442141 -0.20503903284801611 0 0.19227081910603411 -0.2100117569492751 0 0.1956377870383576 -0.1970896374814364 0 0.19801089506944891 -0.22061097325298201 0 0.20571207111442141 -0.20503903284801611 0 0.19227081910603411 -0.2100117569492751 0 0.18830323417204939 -0.1765657128700695 0 0.1956377870383576 -0.1970896374814364 0 0.18335540011200491 -0.20007028076315 0 0.19227081910603411 -0.2100117569492751 0 0.1956377870383576 -0.1970896374814364 0 0.18335540011200491 -0.20007028076315 0 0.1956377870383576 -0.1970896374814364 0 0.18335540011200491 -0.20007028076315 0 0.20600005448239761 -0.18645800734220749 0 0.20571207111442141 -0.20503903284801611 0 0.1956377870383576 -0.1970896374814364 0 0.18830323417204939 -0.1765657128700695 0 0.18335540011200491 -0.20007028076315 0 0.18335540011200491 -0.20007028076315 0 0.16873688803845349 -0.19227854821165941 0 0.17543185729929969 -0.18273889272689711 0 0.19227081910603411 -0.2100117569492751 0 0.18335540011200491 -0.20007028076315 0 0.17884496266341901 -0.22149700646801701 0 0.18335540011200491 -0.20007028076315 0 0.17884496266341901 -0.22149700646801701 0 0.18335540011200491 -0.20007028076315 0 0.16621660047528611 -0.21253283526692829 0 0.17884496266341901 -0.22149700646801701 0 0.16621660047528611 -0.21253283526692829 0 0.1593158439583067 -0.2059041094785751 0 0.15302060169630469 -0.2217977003443504 0 0.18335540011200491 -0.20007028076315 0 0.16621660047528611 -0.21253283526692829 0 0.1593158439583067 -0.2059041094785751 0 0.16621660047528611 -0.21253283526692829 0 0.1593158439583067 -0.2059041094785751 0 0.1593158439583067 -0.2059041094785751 0 0.15759932706250929 -0.18907488386135229 0 0.16873688803845349 -0.19227854821165941 0 0.18335540011200491 -0.20007028076315 0 0.1593158439583067 -0.2059041094785751 0 0.18335540011200491 -0.20007028076315 0 0.1593158439583067 -0.2059041094785751 0 0.16873688803845349 -0.19227854821165941 0 0.18066177981631051 -0.25348299893649828 0 0.19815896102696709 -0.24816545406213189 0 0.17433452521483719 -0.24292373217288479 0 0.19815896102696709 -0.24816545406213189 0 0.17433452521483719 -0.24292373217288479 0 0.18862314846194941 -0.23474346369713109 0 0.19815896102696709 -0.24816545406213189 0 0.17433452521483719 -0.24292373217288479 0 0.18066177981631051 -0.25348299893649828 0 0.17304535898525439 -0.24904788565112909 0 0.17433452521483719 -0.24292373217288479 0 0.17304535898525439 -0.24904788565112909 0 0.17433452521483719 -0.24292373217288479 0 0.18862314846194941 -0.23474346369713109 0 0.17433452521483719 -0.24292373217288479 0 0.17884496266341901 -0.22149700646801701 0 0.17433452521483719 -0.24292373217288479 0 0.17884496266341901 -0.22149700646801701 0 0.17433452521483719 -0.24292373217288479 0 0.17884496266341901 -0.22149700646801701 0 0.16512535944417561 -0.22744738033917331 0 0.16512535944417561 -0.22744738033917331 0 0.15532271566916761 -0.23874085795770611 0 0.15302060169630469 -0.2217977003443504 0 0.16621660047528611 -0.21253283526692829 0 0.17884496266341901 -0.22149700646801701 0 0.16512535944417561 -0.22744738033917331 0 0.16621660047528611 -0.21253283526692829 0 0.16512535944417561 -0.22744738033917331 0 0.15302060169630469 -0.2217977003443504 0 0.17304535898525439 -0.24904788565112909 0 0.17433452521483719 -0.24292373217288479 0 0.15532271566916761 -0.23874085795770611 0 0.15867772839633809 -0.25707915377424612 0 0.17304535898525439 -0.24904788565112909 0 0.15532271566916761 -0.23874085795770611 0 0.17433452521483719 -0.24292373217288479 0 0.16512535944417561 -0.22744738033917331 0 0.15532271566916761 -0.23874085795770611 0 0.17433452521483719 -0.24292373217288479 0 0.15532271566916761 -0.23874085795770611 0 0.15532271566916761 -0.23874085795770611 0 0.1363109061234978 -0.23455798374252809 0 0.13687529418603939 -0.26162068250561471 0 0.15532271566916761 -0.23874085795770611 0 0.1363109061234978 -0.23455798374252809 0 0.15532271566916761 -0.23874085795770611 0 0.15302060169630469 -0.2217977003443504 0 0.1363109061234978 -0.23455798374252809 0 0.15302060169630469 -0.2217977003443504 0 0.1363109061234978 -0.23455798374252809 0 0.13583218450739579 -0.2116030352811932 0 0.12594488917549271 -0.2231145762792166 0 0.1363109061234978 -0.23455798374252809 0 0.13583218450739579 -0.2116030352811932 0 0.1363109061234978 -0.23455798374252809 0 0.13583218450739579 -0.2116030352811932 0 0.13687529418603939 -0.26162068250561471 0 0.1363109061234978 -0.23455798374252809 0 0.13687529418603939 -0.26162068250561471 0 0.1223190960555403 -0.2394332616338683 0 0.1363109061234978 -0.23455798374252809 0 0.1593158439583067 -0.2059041094785751 0 0.15759932706250929 -0.18907488386135229 0 0.14727334507129489 -0.19433633097022029 0 0.14727334507129489 -0.19433633097022029 0 0.13523084618428721 -0.18276855246186111 0 0.1593158439583067 -0.2059041094785751 0 0.14727334507129489 -0.19433633097022029 0 0.1593158439583067 -0.2059041094785751 0 0.14727334507129489 -0.19433633097022029 0 0.13583218450739579 -0.2116030352811932 0 0.1593158439583067 -0.2059041094785751 0 0.13583218450739579 -0.2116030352811932 0 0.1593158439583067 -0.2059041094785751 0 0.15302060169630469 -0.2217977003443504 0 0.13583218450739579 -0.2116030352811932 0 0.1146962174531268 -0.21673223195775559 0 0.12594488917549271 -0.2231145762792166 0 0.13583218450739579 -0.2116030352811932 0 0.1146962174531268 -0.21673223195775559 0 0.13583218450739579 -0.2116030352811932 0 0.13583218450739579 -0.2116030352811932 0 0.13523084618428721 -0.18276855246186111 0 0.1210323504124224 -0.2015702574875764 0 0.13583218450739579 -0.2116030352811932 0 0.13523084618428721 -0.18276855246186111 0 0.14727334507129489 -0.19433633097022029 0 0.13583218450739579 -0.2116030352811932 0 0.13523084618428721 -0.18276855246186111 0 0.13523084618428721 -0.18276855246186111 0 0.13483495552902119 -0.16378539130439421 0 0.13523084618428721 -0.18276855246186111 0 0.14953284821028701 -0.17659781711855899 0 0.13483495552902119 -0.16378539130439421 0 0.12574768761326591 -0.17365922399620121 0 0.13523084618428721 -0.18276855246186111 0 0.13483495552902119 -0.16378539130439421 0 0.12574768761326591 -0.17365922399620121 0 0.13523084618428721 -0.18276855246186111 0 0.15759932706250929 -0.18907488386135229 0 0.14727334507129489 -0.19433633097022029 0 0.14953284821028701 -0.17659781711855899 0 0.14727334507129489 -0.19433633097022029 0 0.13523084618428721 -0.18276855246186111 0 0.14953284821028701 -0.17659781711855899 0 0.15759932706250929 -0.18907488386135229 0 0.14953284821028701 -0.17659781711855899 0 0.16056198994912749 -0.17787080610445691 0 0.14953284821028701 -0.17659781711855899 0 0.15118562361057611 -0.16212531631630639 0 0.13483495552902119 -0.16378539130439421 0 0.15118562361057611 -0.16212531631630639 0 0.13483495552902119 -0.16378539130439421 0 0.15272907190244081 -0.1550331303974728 0 0.15118562361057611 -0.16212531631630639 0 0.15272907190244081 -0.1550331303974728 0 0.15987479688754311 -0.1572750313981319 0 0.14953284821028701 -0.17659781711855899 0 0.15118562361057611 -0.16212531631630639 0 0.1601367247146048 -0.167216461388007 0 0.1232701832726428 -0.15427141090171109 0 0.12574768761326591 -0.17365922399620121 0 0.13483495552902119 -0.16378539130439421 0 0.12574768761326591 -0.17365922399620121 0 0.13483495552902119 -0.16378539130439421 0 0.13483495552902119 -0.16378539130439421 0 0.13444198148756639 -0.1449420832838656 0 0.14315652521050079 -0.14523933820255211 0 0.1232701832726428 -0.15427141090171109 0 0.13483495552902119 -0.16378539130439421 0 0.13444198148756639 -0.1449420832838656 0 0.13483495552902119 -0.16378539130439421 0 0.13444198148756639 -0.1449420832838656 0 0.13444198148756639 -0.1449420832838656 0 0.1434537453928684 -0.13532839273855221 0 0.14315652521050079 -0.14523933820255211 0 0.13444198148756639 -0.1449420832838656 0 0.13404900744611239 -0.12609877526333699 0 0.13444198148756639 -0.1449420832838656 0 0.13404900744611239 -0.12609877526333699 0 0.1434537453928684 -0.13532839273855221 0 0.11727103389215909 -0.1361484369810822 0 0.13444198148756639 -0.1449420832838656 0 0.13404900744611239 -0.12609877526333699 0 0.13404900744611239 -0.12609877526333699 0 0.1490682445489844 -0.1279194233146575 0 0.1609569453379138 -0.13854421730491809 0 0.13404900744611239 -0.12609877526333699 0 0.1609569453379138 -0.13854421730491809 0 0.13404900744611239 -0.12609877526333699 0 0.1434537453928684 -0.13532839273855221 0 0.1609569453379138 -0.13854421730491809 0 0.1434537453928684 -0.13532839273855221 0 0.14993504674019009 -0.14021612160814689 0 0.1609569453379138 -0.13854421730491809 0 0.1427320902892944 -0.12257921542734659 0 0.13404900744611239 -0.12609877526333699 0 0.1490682445489844 -0.1279194233146575 0 0.1434537453928684 -0.13532839273855221 0 0.14993504674019009 -0.14021612160814689 0 0.14315652521050079 -0.14523933820255211 0 0.14993504674019009 -0.14021612160814689 0 0.15469010670848909 -0.14221164189652771 0 0.1609569453379138 -0.13854421730491809 0 0.15568199284830581 -0.1296421963895899 0 0.1490682445489844 -0.1279194233146575 0 0.1609569453379138 -0.13854421730491809 0 0.15192118682329561 -0.12273271218809589 0 0.15568199284830581 -0.1296421963895899 0 0.1587247560068413 -0.12564209046719049 0 0.15192118682329561 -0.12273271218809589 0 0.15568199284830581 -0.1296421963895899 0 0.1490682445489844 -0.1279194233146575 0 0.13483495552902119 -0.16378539130439421 0 0.15469010670848909 -0.14221164189652771 0 0.13483495552902119 -0.16378539130439421 0 0.14315652521050079 -0.14523933820255211 0 0.15469010670848909 -0.14221164189652771 0 0.13483495552902119 -0.16378539130439421 0 0.15469010670848909 -0.14221164189652771 0 0.15272907190244081 -0.1550331303974728 0 0.14993504674019009 -0.14021612160814689 0 0.14315652521050079 -0.14523933820255211 0 0.15469010670848909 -0.14221164189652771 0 0.15272907190244081 -0.1550331303974728 0 0.16278769519534109 -0.1503194818261428 0 0.15987479688754311 -0.1572750313981319 0 0.16278769519534109 -0.1503194818261428 0 0.15987479688754311 -0.1572750313981319 0 0.16866771310860729 -0.15951236945753941 0 0.15469010670848909 -0.14221164189652771 0 0.15272907190244081 -0.1550331303974728 0 0.16278769519534109 -0.1503194818261428 0 0.15469010670848909 -0.14221164189652771 0 0.16278769519534109 -0.1503194818261428 0 0.1609569453379138 -0.13854421730491809 0 0.16278769519534109 -0.1503194818261428 0 0.1609569453379138 -0.13854421730491809 0 0.17433915911560069 -0.15342176620747169 0 0.16278769519534109 -0.1503194818261428 0 0.17433915911560069 -0.15342176620747169 0 0.16866771310860729 -0.15951236945753941 0 0.1609569453379138 -0.13854421730491809 0 0.16898528270356589 -0.1319020538664718 0 0.17739448715537109 -0.13831623988886119 0 0.1587247560068413 -0.12564209046719049 0 0.1613780220681113 -0.13045743568360191 0 0.1641162962428066 -0.126449221113482 0 0.15568199284830581 -0.1296421963895899 0 0.1587247560068413 -0.12564209046719049 0 0.1613780220681113 -0.13045743568360191 0 0.15568199284830581 -0.1296421963895899 0 0.1613780220681113 -0.13045743568360191 0 0.1609569453379138 -0.13854421730491809 0 0.1613780220681113 -0.13045743568360191 0 0.1609569453379138 -0.13854421730491809 0 0.16898528270356589 -0.1319020538664718 0 0.173543926957343 -0.1211375462363173 0 0.16898528270356589 -0.1319020538664718 0 0.1641162962428066 -0.126449221113482 0 0.1613780220681113 -0.13045743568360191 0 0.16898528270356589 -0.1319020538664718 0 0.1641162962428066 -0.126449221113482 0 0.173543926957343 -0.1211375462363173 0 0.16898528270356589 -0.1319020538664718 0 0.17990838590865871 -0.12844737664361131 0 0.16898528270356589 -0.1319020538664718 0 0.17739448715537109 -0.13831623988886119 0 0.17990838590865871 -0.12844737664361131 0 0.188659048266132 -0.1418371739210742 0 0.19260125287660149 -0.13207131947283501 0 0.17739448715537109 -0.13831623988886119 0 0.19260125287660149 -0.13207131947283501 0 0.17739448715537109 -0.13831623988886119 0 0.17990838590865871 -0.12844737664361131 0 0.18701697985041221 -0.11880972375357141 0 0.19260125287660149 -0.13207131947283501 0 0.17990838590865871 -0.12844737664361131 0 0.18786488322971459 -0.15098965934649999 0 0.1609569453379138 -0.13854421730491809 0 0.17433915911560069 -0.15342176620747169 0 0.18786488322971459 -0.15098965934649999 0 0.1609569453379138 -0.13854421730491809 0 0.18786488322971459 -0.15098965934649999 0 0.1609569453379138 -0.13854421730491809 0 0.17739448715537109 -0.13831623988886119 0 0.18786488322971459 -0.15098965934649999 0 0.188659048266132 -0.1418371739210742 0 0.17739448715537109 -0.13831623988886119 0 0.18786488322971459 -0.15098965934649999 0 0.17433915911560069 -0.15342176620747169 0 0.1842505296355367 -0.15589311325690541 0 0.17433915911560069 -0.15342176620747169 0 0.1842505296355367 -0.15589311325690541 0 0.18144082188941271 -0.16389154531309821 0 0.19325106823209409 -0.153061144976989 0 0.1842505296355367 -0.15589311325690541 0 0.18144082188941271 -0.16389154531309821 0 0.18830323417204939 -0.1765657128700695 0 0.18144082188941271 -0.16389154531309821 0 0.17072519494025609 -0.1704686386871877 0 0.17433915911560069 -0.15342176620747169 0 0.18144082188941271 -0.16389154531309821 0 0.16866771310860729 -0.15951236945753941 0 0.18144082188941271 -0.16389154531309821 0 0.16866771310860729 -0.15951236945753941 0 0.17072519494025609 -0.1704686386871877 0 0.18830323417204939 -0.1765657128700695 0 0.18335540011200491 -0.20007028076315 0 0.17543185729929969 -0.18273889272689711 0 0.18830323417204939 -0.1765657128700695 0 0.17543185729929969 -0.18273889272689711 0 0.17072519494025609 -0.1704686386871877 0 0.17543185729929969 -0.18273889272689711 0 0.16056198994912749 -0.17787080610445691 0 0.17072519494025609 -0.1704686386871877 0 0.16873688803845349 -0.19227854821165941 0 0.17543185729929969 -0.18273889272689711 0 0.16056198994912749 -0.17787080610445691 0 0.15759932706250929 -0.18907488386135229 0 0.16873688803845349 -0.19227854821165941 0 0.16056198994912749 -0.17787080610445691 0 0.14953284821028701 -0.17659781711855899 0 0.16056198994912749 -0.17787080610445691 0 0.1601367247146048 -0.167216461388007 0 0.16056198994912749 -0.17787080610445691 0 0.1601367247146048 -0.167216461388007 0 0.17072519494025609 -0.1704686386871877 0 0.1601367247146048 -0.167216461388007 0 0.15987479688754311 -0.1572750313981319 0 0.16866771310860729 -0.15951236945753941 0 0.15118562361057611 -0.16212531631630639 0 0.1601367247146048 -0.167216461388007 0 0.15987479688754311 -0.1572750313981319 0 0.1601367247146048 -0.167216461388007 0 0.16866771310860729 -0.15951236945753941 0 0.17072519494025609 -0.1704686386871877 0 
</DataArray>
</Points>
<Cells>
<DataArray type="UInt32" Name="connectivity" format="ascii">
0 1 2 3 4 5 6 7 8 9 10 11 12 13 14 15 16 17 18 19 20 21 22 23 24 25 26 27 28 29 30 31 32 33 34 35 36 37 38 39 40 41 42 43 44 45 46 47 48 49 50 51 52 53 54 55 56 57 58 59 60 61 62 63 64 65 66 67 68 69 70 71 72 73 74 75 76 77 78 79 80 81 82 83 84 85 86 87 88 89 90 91 92 93 94 95 96 97 98 99 100 101 102 103 104 105 106 107 108 109 110 111 112 113 114 115 116 117 118 119 120 121 122 123 124 125 126 127 128 129 130 131 132 133 134 135 136 137 138 139 140 141 142 143 144 145 146 147 148 149 150 151 152 153 154 155 156 157 158 159 160 161 162 163 164 165 166 167 168 169 170 171 172 173 174 175 176 177 178 179 180 181 182 183 184 185 186 187 188 189 190 191 192 193 194 195 196 197 198 199 200 201 202 203 204 205 206 207 208 209 210 211 212 213 214 215 216 217 218 219 220 221 222 223 224 225 226 227 228 229 230 231 232 233 234 235 236 237 238 239 240 241 242 243 244 245 246 247 248 249 250 251 252 253 254 255 256 257 258 259 260 261 262 263 264 265 266 267 268 269 270 271 272 273 274 275 276 277 278 279 280 281 282 283 284 285 286 287 288 289 290 291 292 293 294 295 296 297 298 299 300 301 302 303 304 305 306 307 308 309 310 311 312 313 314 315 316 317 318 319 320 321 322 323 324 325 326 327 328 329 330 331 332 333 334 335 336 337 338 339 340 341 342 343 344 345 346 347 348 349 350 351 352 353 354 355 356 357 358 359 360 361 362 363 364 365 366 367 368 369 370 371 372 373 374 375 376 377 378 379 380 381 382 383 384 385 386 387 388 389 390 391 392 393 394 395 396 397 398 399 400 401 402 403 404 405 406 407 408 409 410 411 412 413 414 415 416 417 418 419 420 421 422 423 424 425 426 427 428 429 430 431 432 433 434 435 436 437 438 439 440 441 442 443 444 445 446 447 448 449 450 451 452 453 454 455 456 457 458 459 460 461 462 463 464 465 466 467 468 469 470 471 472 473 474 475 476 477 478 479 480 481 482 483 484 485 486 487 488 489 490 491 492 493 494 495 496 497 498 499 500 501 502 503 504 505 506 507 508 509 510 511 512 513 514 515 516 517 518 519 520 521 522 523 524 525 526 527 528 529 530 531 532 533 534 535 536 537 538 539 540 541 542 543 544 545 546 547 548 549 550 551 552 553 554 555 556 557 558 559 560 561 562 563 564 565 566 567 568 569 570 571 572 573 574 575 576 577 578 579 580 581 582 583 584 585 586 587 588 589 590 591 592 593 594 595 596 597 598 599 600 601 602 603 604 605 606 607 608 609 610 611 612 613 614 615 616 617 618 619 620 621 622 623 624 625 626 627 628 629 630 631 632 633 634 635 636 637 638 639 640 641 642 643 644 645 646 647 648 649 650 651 652 653 654 655 656 657 658 659 660 661 662 663 664 665 666 667 668 669 670 671 672 673 674 675 676 677 678 679 680 681 682 683 684 685 686 687 688 689 690 691 692 693 694 695 696 697 698 699 700 701 702 703 704 705 706 707 708 709 710 711 712 713 714 715 716 717 718 719 720 721 722 723 724 725 726 727 728 729 730 731 732 733 734 735 736 737 738 739 740 741 742 743 744 745 746 747 748 749 750 751 752 753 754 755 756 757 758 759 760 761 762 763 764 765 766 767 768 769 770 771 772 773 774 775 776 777 778 779 780 781 782 783 784 785 786 787 788 789 790 791 792 793 794 795 796 797 798 799 800 801 802 803 804 805 806 807 808 809 810 811 812 813 814 815 816 817 818 819 820 821 822 823 824 825 826 827 828 829 830 831 832 833 834 835 836 837 838 839 840 841 842 843 844 845 846 847 848 849 850 851 852 853 854 855 856 857 858 859 860 861 862 863 864 865 866 867 868 869 870 871 872 873 874 875 876 877 878 879 880 881 882 883 884 885 886 887 888 889 890 891 892 893 894 895 896 897 898 899 900 901 902 903 904 905 906 907 908 909 910 911 912 913 914 915 916 917 918 919 920 921 922 923 924 925 926 927 928 929 930 931 932 933 934 935 936 937 938 939 940 941 942 943 944 945 946 947 948 949 950 951 952 953 954 955 956 957 958 959 960 961 962 963 964 965 966 967 968 969 970 971 972 973 974 975 976 977 978 979 980 981 982 983 984 985 986 987 988 989 990 991 992 993 994 995 996 997 998 999 1000 1001 1002 1003 1004 1005 1006 1007 1008 1009 1010 1011 1012 1013 1014 1015 1016 1017 1018 1019 1020 1021 1022 1023 1024 1025 1026 1027 1028 1029 1030 1031 1032 1033 1034 1035 1036 1037 1038 1039 1040 1041 1042 1043 1044 1045 1046 1047 1048 1049 1050 1051 1052 1053 1054 1055 1056 1057 1058 1059 1060 1061 1062 1063 1064 1065 1066 1067 1068 1069 1070 1071 1072 1073 1074 1075 1076 1077 1078 1079 1080 1081 1082 1083 1084 1085 1086 1087 1088 1089 1090 1091 1092 1093 1094 1095 1096 1097 1098 1099 1100 1101 1102 1103 1104 1105 1106 1107 1108 1109 1110 1111 1112 1113 1114 1115 1116 1117 1118 1119 1120 1121 1122 1123 1124 1125 1126 1127 1128 1129 1130 1131 1132 1133 1134 1135 1136 1137 1138 1139 1140 1141 1142 1143 1144 1145 1146 1147 1148 1149 1150 1151 1152 1153 1154 1155 1156 1157 1158 1159 1160 1161 1162 1163 1164 1165 1166 1167 1168 1169 1170 1171 1172 1173 1174 1175 1176 1177 1178 1179 1180 1181 1182 1183 1184 1185 1186 1187 1188 1189 1190 1191 1192 1193 1194 1195 1196 1197 1198 1199 1200 1201 1202 1203 1204 1205 1206 1207 1208 1209 1210 1211 1212 1213 1214 1215 1216 1217 1218 1219 1220 1221 1222 1223 1224 1225 1226 1227 1228 1229 1230 1231 1232 1233 1234 1235 1236 1237 1238 1239 1240 1241 1242 1243 1244 1245 1246 1247 1248 1249 1250 1251 1252 1253 1254 1255 1256 1257 1258 1259 1260 1261 1262 1263 1264 1265 1266 1267 1268 1269 1270 1271 1272 1273 1274 1275 1276 1277 1278 1279 1280 1281 1282 1283 1284 1285 1286 1287 1288 1289 1290 1291 1292 1293 1294 1295 1296 1297 1298 1299 1300 1301 1302 1303 1304 1305 1306 1307 1308 1309 1310 1311 1312 1313 1314 1315 1316 1317 1318 1319 1320 1321 1322 1323 1324 1325 1326 1327 1328 1329 1330 1331 1332 1333 1334 1335 1336 1337 1338 1339 1340 1341 1342 1343 1344 1345 1346 1347 1348 1349 1350 1351 1352 1353 1354 1355 1356 1357 1358 1359 1360 1361 1362 1363 1364 1365 1366 1367 1368 1369 1370 1371 1372 1373 1374 1375 1376 1377 1378 1379 1380 1381 1382 1383 1384 1385 1386 1387 1388 1389 1390 1391 1392 1393 1394 1395 1396 1397 1398 1399 1400 1401 1402 1403 1404 1405 1406 1407 1408 1409 1410 1411 1412 1413 1414 1415 1416 1417 1418 1419 1420 1421 1422 1423 1424 1425 1426 1427 1428 1429 1430 1431 1432 1433 1434 1435 1436 1437 1438 1439 1440 1441 1442 1443 1444 1445 1446 1447 1448 1449 1450 1451 1452 1453 1454 1455 1456 1457 1458 1459 1460 1461 1462 1463 1464 1465 1466 1467 1468 1469 1470 1471 1472 1473 1474 1475 1476 1477 1478 1479 1480 1481 1482 1483 1484 1485 1486 1487 1488 1489 1490 1491 1492 1493 1494 1495 1496 1497 1498 1499 1500 1501 1502 1503 1504 1505 1506 1507 1508 1509 1510 1511 1512 1513 1514 1515 1516 1517 1518 1519 1520 1521 1522 1523 1524 1525 1526 1527 1528 1529 1530 1531 1532 1533 1534 1535 1536 1537 1538 1539 1540 1541 1542 1543 1544 1545 1546 1547 1548 1549 1550 1551 1552 1553 1554 1555 1556 1557 1558 1559 1560 1561 1562 1563 1564 1565 1566 1567 1568 1569 1570 1571 1572 1573 1574 1575 1576 1577 1578 1579 1580 1581 1582 1583 1584 1585 1586 1587 1588 1589 1590 1591 1592 1593 1594 1595 1596 1597 1598 1599 1600 1601 1602 1603 1604 1605 1606 1607 1608 1609 1610 1611 1612 1613 1614 1615 1616 1617 1618 1619 1620 1621 1622 1623 1624 1625 1626 1627 1628 1629 1630 1631 1632 1633 1634 1635 1636 1637 1638 1639 1640 1641 1642 1643 1644 1645 1646 1647 1648 1649 1650 1651 1652 1653 1654 1655 1656 1657 1658 1659 1660 1661 1662 1663 1664 1665 1666 1667 1668 1669 1670 1671 1672 1673 1674 1675 1676 1677 1678 1679 1680 1681 1682 1683 1684 1685 1686 1687 1688 1689 1690 1691 1692 1693 1694 1695 1696 1697 1698 1699 1700 1701 1702 1703 1704 1705 1706 1707 1708 1709 1710 1711 1712 1713 1714 1715 1716 1717 1718 1719 1720 1721 1722 1723 1724 1725 1726 1727 1728 1729 1730 1731 1732 1733 1734 1735 1736 1737 1738 1739 1740 1741 1742 1743 1744 1745 1746 1747 1748 1749 1750 1751 1752 1753 1754 1755 1756 1757 1758 1759 1760 1761 1762 1763 1764 1765 1766 1767 1768 1769 1770 1771 1772 1773 1774 1775 1776 1777 1778 1779 1780 1781 1782 1783 1784 1785 1786 1787 1788 1789 1790 1791 1792 1793 1794 1795 1796 1797 1798 1799 1800 1801 1802 1803 1804 1805 1806 1807 1808 1809 1810 1811 1812 1813 1814 1815 1816 1817 1818 1819 1820 1821 1822 1823 1824 1825 1826 1827 1828 1829 1830 1831 1832 1833 1834 1835 1836 1837 1838 1839 1840 1841 1842 1843 1844 1845 1846 1847 1848 1849 1850 1851 1852 1853 1854 1855 1856 1857 1858 1859 1860 1861 1862 1863 1864 1865 1866 1867 1868 1869 1870 1871 1872 1873 1874 1875 1876 1877 1878 1879 1880 1881 1882 1883 1884 1885 1886 1887 1888 1889 1890 1891 1892 1893 1894 1895 1896 1897 1898 1899 1900 1901 1902 1903 1904 1905 1906 1907 1908 1909 1910 1911 1912 1913 1914 1915 1916 1917 1918 1919 1920 1921 1922 1923 1924 1925 1926 1927 1928 1929 1930 1931 1932 1933 1934 1935 1936 1937 1938 1939 1940 1941 1942 1943 1944 1945 1946 1947 1948 1949 1950 1951 1952 1953 1954 1955 1956 1957 1958 1959 1960 1961 1962 1963 1964 1965 1966 1967 1968 1969 1970 1971 1972 1973 1974 1975 1976 1977 1978 1979 1980 1981 1982 1983 1984 1985 1986 1987 1988 1989 1990 1991 1992 1993 1994 1995 1996 1997 1998 1999 2000 2001 2002 2003 2004 2005 2006 2007 2008 2009 2010 2011 2012 2013 2014 2015 2016 2017 2018 2019 2020 2021 2022 2023 2024 2025 2026 2027 2028 2029 2030 2031 2032 2033 2034 2035 2036 2037 2038 2039 2040 2041 2042 2043 2044 2045 2046 2047 2048 2049 2050 2051 2052 2053 2054 2055 2056 2057 2058 2059 2060 2061 2062 2063 2064 2065 2066 2067 2068 2069 2070 2071 2072 2073 2074 2075 2076 2077 2078 2079 2080 2081 2082 2083 2084 2085 2086 2087 2088 2089 2090 2091 2092 2093 2094 2095 2096 2097 2098 2099 2100 2101 2102 2103 2104 2105 2106 2107 2108 2109 2110 2111 2112 2113 2114 2115 2116 2117 2118 2119 2120 2121 2122 2123 2124 2125 2126 2127 2128 2129 2130 2131 2132 2133 2134 2135 2136 2137 2138 2139 2140 2141 2142 2143 2144 2145 2146 2147 2148 2149 2150 2151 2152 2153 2154 2155 2156 2157 2158 2159 2160 2161 2162 2163 2164 2165 2166 2167 2168 2169 2170 2171 2172 2173 2174 2175 2176 2177 2178 2179 2180 2181 2182 2183 2184 2185 2186 2187 2188 2189 2190 2191 2192 2193 2194 2195 2196 2197 2198 2199 2200 2201 2202 2203 2204 2205 2206 2207 2208 2209 2210 2211 2212 2213 2214 2215 2216 2217 2218 2219 2220 2221 2222 2223 2224 2225 2226 2227 2228 2229 2230 2231 2232 2233 2234 2235 2236 2237 2238 2239 2240 2241 2242 2243 2244 2245 2246 2247 2248 2249 2250 2251 2252 2253 2254 2255 2256 2257 2258 2259 2260 2261 2262 2263 2264 2265 2266 2267 2268 2269 2270 2271 2272 2273 2274 2275 2276 2277 2278 2279 2280 2281 2282 2283 2284 2285 2286 2287 2288 2289 2290 2291 2292 2293 2294 2295 2296 2297 2298 2299 2300 2301 2302 2303 2304 2305 2306 2307 2308 2309 2310 2311 2312 2313 2314 2315 2316 2317 2318 2319 2320 2321 2322 2323 2324 2325 2326 2327 2328 2329 2330 2331 2332 2333 2334 2335 2336 2337 2338 2339 2340 2341 2342 2343 2344 2345 2346 2347 2348 2349 2350 2351 2352 2353 2354 2355 2356 2357 2358 2359 2360 2361 2362 2363 2364 2365 2366 2367 2368 2369 2370 2371 2372 2373 2374 2375 2376 2377 2378 2379 2380 2381 2382 2383 2384 2385 2386 2387 2388 2389 2390 2391 2392 2393 2394 2395 2396 2397 2398 2399 2400 2401 2402 2403 2404 2405 2406 2407 2408 2409 2410 2411 2412 2413 2414 2415 2416 2417 2418 2419 2420 2421 2422 2423 2424 2425 2426 2427 2428 2429 2430 2431 2432 2433 2434 2435 2436 2437 2438 2439 2440 2441 2442 2443 2444 2445 2446 2447 2448 2449 2450 2451 2452 2453 2454 2455 2456 2457 2458 2459 2460 2461 2462 2463 2464 2465 2466 2467 2468 2469 2470 2471 2472 2473 2474 2475 2476 2477 2478 2479 2480 2481 2482 2483 2484 2485 2486 2487 2488 2489 2490 2491 2492 2493 2494 2495 2496 2497 2498 2499 2500 2501 2502 2503 2504 2505 2506 2507 2508 2509 2510 2511 2512 2513 2514 2515 2516 2517 2518 2519 2520 2521 2522 2523 2524 2525 2526 2527 2528 2529 2530 2531 2532 2533 2534 2535 2536 2537 2538 2539 2540 2541 2542 2543 2544 2545 2546 2547 2548 2549 2550 2551 2552 2553 2554 2555 2556 2557 2558 2559 2560 2561 2562 2563 2564 2565 2566 2567 2568 2569 2570 2571 2572 2573 2574 2575 2576 2577 2578 2579 2580 2581 2582 2583 2584 2585 2586 2587 2588 2589 2590 2591 2592 2593 2594 2595 2596 2597 2598 2599 2600 2601 2602 2603 2604 2605 2606 2607 2608 2609 2610 2611 2612 2613 2614 2615 2616 2617 2618 2619 2620 2621 2622 2623 2624 2625 2626 2627 2628 2629 2630 2631 2632 2633 2634 2635 2636 2637 2638 2639 2640 2641 2642 2643 2644 2645 2646 2647 2648 2649 2650 2651 2652 2653 2654 2655 2656 2657 2658 2659 2660 2661 2662 2663 2664 2665 2666 2667 2668 2669 2670 2671 2672 2673 2674 2675 2676 2677 2678 2679 2680 2681 2682 2683 2684 2685 2686 2687 2688 2689 2690 2691 2692 2693 2694 2695 2696 2697 2698 2699 2700 2701 2702 2703 2704 2705 2706 2707 2708 2709 2710 2711 2712 2713 2714 2715 2716 2717 2718 2719 2720 2721 2722 2723 2724 2725 2726 2727 2728 2729 2730 2731 2732 2733 2734 2735 2736 2737 2738 2739 2740 2741 2742 2743 2744 2745 2746 2747 2748 2749 2750 2751 2752 2753 2754 2755 2756 2757 2758 2759 2760 2761 2762 2763 2764 2765 2766 2767 2768 2769 2770 2771 2772 2773 2774 2775 2776 2777 2778 2779 2780 2781 2782 2783 2784 2785 2786 2787 2788 2789 2790 2791 2792 2793 2794 2795 2796 2797 2798 2799 2800 2801 2802 2803 2804 2805 2806 2807 2808 2809 2810 2811 2812 2813 2814 2815 2816 2817 2818 2819 2820 2821 2822 2823 2824 2825 2826 2827 2828 2829 2830 2831 2832 2833 2834 2835 2836 2837 2838 2839 2840 2841 2842 2843 2844 2845 2846 2847 2848 2849 2850 2851 2852 2853 2854 2855 2856 2857 2858 2859 2860 2861 2862 2863 2864 2865 2866 2867 2868 2869 2870 2871 2872 2873 2874 2875 2876 2877 2878 2879 2880 2881 2882 2883 2884 2885 2886 2887 2888 2889 2890 2891 2892 2893 2894 2895 2896 2897 2898 2899 2900 2901 2902 2903 2904 2905 2906 2907 2908 2909 2910 2911 2912 2913 2914 2915 2916 2917 2918 2919 2920 2921 2922 2923 2924 2925 2926 2927 2928 2929 2930 2931 2932 2933 2934 2935 2936 2937 2938 2939 2940 2941 2942 2943 2944 2945 2946 2947 2948 2949 2950 2951 2952 2953 2954 2955 2956 2957 2958 2959 2960 2961 2962 2963 2964 2965 2966 2967 2968 2969 2970 2971 2972 2973 2974 2975 2976 2977 2978 2979 2980 2981 2982 2983 2984 2985 2986 2987 2988 2989 2990 2991 2992 2993 2994 2995 2996 2997 2998 2999 3000 3001 3002 3003 3004 3005 3006 3007 3008 3009 3010 3011 3012 3013 3014 3015 3016 3017 3018 3019 3020 3021 3022 3023 3024 3025 3026 3027 3028 3029 3030 3031 3032 3033 3034 3035 3036 3037 3038 3039 3040 3041 3042 3043 3044 3045 3046 3047 3048 3049 3050 3051 3052 3053 3054 3055 3056 3057 3058 3059 3060 3061 3062 3063 3064 3065 3066 3067 3068 3069 3070 3071 3072 3073 3074 3075 3076 3077 3078 3079 3080 3081 3082 3083 3084 3085 3086 3087 3088 3089 3090 3091 3092 3093 3094 3095 3096 3097 3098 3099 3100 3101 3102 3103 3104 3105 3106 3107 3108 3109 3110 3111 3112 3113 3114 3115 3116 3117 3118 3119 3120 3121 3122 3123 3124 3125 3126 3127 3128 3129 3130 3131 3132 3133 3134 3135 3136 3137 3138 3139 3140 3141 3142 3143 3144 3145 3146 3147 3148 3149 3150 3151 3152 3153 3154 3155 3156 3157 3158 3159 3160 3161 3162 3163 3164 3165 3166 3167 3168 3169 3170 3171 3172 3173 3174 3175 3176 3177 3178 3179 3180 3181 3182 3183 3184 3185 3186 3187 3188 3189 3190 3191 3192 3193 3194 3195 3196 3197 3198 3199 3200 3201 3202 3203 3204 3205 3206 3207 3208 3209 3210 3211 3212 3213 3214 3215 3216 3217 3218 3219 3220 3221 3222 3223 3224 3225 3226 3227 3228 3229 3230 3231 3232 3233 3234 3235 3236 3237 3238 3239 3240 3241 3242 3243 3244 3245 3246 3247 3248 3249 3250 3251 3252 3253 3254 3255 3256 3257 3258 3259 3260 3261 3262 3263 3264 3265 3266 3267 3268 3269 3270 3271 3272 3273 3274 3275 3276 3277 3278 3279 3280 3281 3282 3283 3284 3285 3286 3287 3288 3289 3290 3291 3292 3293 3294 3295 3296 3297 3298 3299 3300 3301 3302 3303 3304 3305 3306 3307 3308 3309 3310 3311 3312 3313 3314 3315 3316 3317 3318 3319 3320 3321 3322 3323 3324 3325 3326 3327 3328 3329 3330 3331 3332 3333 3334 3335 3336 3337 3338 3339 3340 3341 3342 3343 3344 3345 3346 3347 3348 3349 3350 3351 3352 3353 3354 3355 3356 3357 3358 3359 3360 3361 3362 3363 3364 3365 3366 3367 3368 3369 3370 3371 3372 3373 3374 3375 3376 3377 3378 3379 3380 3381 3382 3383 3384 3385 3386 3387 3388 3389 3390 3391 3392 3393 3394 3395 3396 3397 3398 3399 3400 3401 3402 3403 3404 3405 3406 3407 3408 3409 3410 3411 3412 3413 3414 3415 3416 3417 3418 3419 3420 3421 3422 3423 3424 3425 3426 3427 3428 3429 3430 3431 3432 3433 3434 3435 3436 3437 3438 3439 3440 3441 3442 3443 3444 3445 3446 3447 3448 3449 3450 3451 3452 3453 3454 3455 3456 3457 3458 3459 3460 3461 3462 3463 3464 3465 3466 3467 3468 3469 3470 3471 3472 3473 3474 3475 3476 3477 3478 3479 3480 3481 3482 3483 3484 3485 3486 3487 3488 3489 3490 3491 3492 3493 3494 3495 3496 3497 3498 3499 3500 3501 3502 3503 3504 3505 3506 3507 3508 3509 3510 3511 3512 3513 3514 3515 3516 3517 3518 3519 3520 3521 3522 3523 3524 3525 3526 3527 3528 3529 3530 3531 3532 3533 3534 3535 3536 3537 3538 3539 3540 3541 3542 3543 3544 3545 3546 3547 3548 3549 3550 3551 3552 3553 3554 3555 3556 3557 3558 3559 3560 3561 3562 3563 3564 3565 3566 3567 3568 3569 3570 3571 3572 3573 3574 3575 3576 3577 3578 3579 3580 3581 3582 3583 3584 3585 3586 3587 3588 3589 3590 3591 3592 3593 3594 3595 3596 3597 3598 3599 3600 3601 3602 3603 3604 3605 3606 3607 3608 3609 3610 3611 3612 3613 3614 3615 3616 3617 3618 3619 3620 3621 3622 3623 3624 3625 3626 3627 3628 3629 3630 3631 3632 3633 3634 3635 3636 3637 3638 3639 3640 3641 3642 3643 3644 3645 3646 3647 3648 3649 3650 3651 3652 3653 3654 3655 3656 3657 3658 3659 3660 3661 3662 3663 3664 3665 3666 3667 3668 3669 3670 3671 3672 3673 3674 3675 3676 3677 3678 3679 3680 3681 3682 3683 3684 3685 3686 3687 3688 3689 3690 3691 3692 3693 3694 3695 3696 3697 3698 3699 3700 3701 3702 3703 3704 3705 3706 3707 3708 3709 3710 3711 3712 3713 3714 3715 3716 3717 3718 3719 3720 3721 3722 3723 3724 3725 3726 3727 3728 3729 3730 3731 3732 3733 3734 3735 3736 3737 3738 3739 3740 3741 3742 3743 3744 3745 3746 3747 3748 3749 3750 3751 3752 3753 3754 3755 3756 3757 3758 3759 3760 3761 3762 3763 3764 3765 3766 3767 3768 3769 3770 3771 3772 3773 3774 3775 3776 3777 3778 3779 3780 3781 3782 3783 3784 3785 3786 3787 3788 3789 3790 3791 3792 3793 3794 3795 3796 3797 3798 3799 3800 3801 3802 3803 3804 3805 3806 3807 3808 3809 3810 3811 3812 3813 3814 3815 3816 3817 3818 3819 3820 3821 3822 3823 3824 3825 3826 3827 3828 3829 3830 3831 3832 3833 3834 3835 3836 3837 3838 3839 3840 3841 3842 3843 3844 3845 3846 3847 3848 3849 3850 3851 3852 3853 3854 3855 3856 3857 3858 3859 3860 3861 3862 3863 3864 3865 3866 3867 3868 3869 3870 3871 3872 3873 3874 3875 3876 3877 3878 3879 3880 3881 3882 3883 3884 3885 3886 3887 3888 3889 3890 3891 3892 3893 3894 3895 3896 3897 3898 3899 3900 3901 3902 3903 3904 3905 3906 3907 3908 3909 3910 3911 3912 3913 3914 3915 3916 3917 3918 3919 3920 3921 3922 3923 3924 3925 3926 3927 3928 3929 3930 3931 3932 3933 3934 3935 3936 3937 3938 3939 3940 3941 3942 3943 3944 3945 3946 3947 3948 3949 3950 3951 3952 3953 3954 3955 3956 3957 3958 3959 3960 3961 3962 3963 3964 3965 3966 3967 3968 3969 3970 3971 3972 3973 3974 3975 3976 3977 3978 3979 3980 3981 3982 3983 3984 3985 3986 3987 3988 3989 3990 3991 3992 3993 3994 3995 3996 3997 3998 3999 4000 4001 4002 4003 4004 4005 4006 4007 4008 4009 4010 4011 4012 4013 4014 4015 4016 4017 4018 4019 4020 4021 4022 4023 4024 4025 4026 4027 4028 4029 4030 4031 4032 4033 4034 4035 4036 4037 4038 4039 4040 4041 4042 4043 4044 4045 4046 4047 4048 4049 4050 4051 4052 4053 4054 4055 4056 4057 4058 4059 4060 4061 4062 4063 4064 4065 4066 4067 4068 4069 4070 4071 4072 4073 4074 4075 4076 4077 4078 4079 4080 4081 4082 4083 4084 4085 4086 4087 4088 4089 4090 4091 4092 4093 4094 4095 4096 4097 4098 4099 4100 4101 4102 4103 4104 4105 4106 4107 4108 4109 4110 4111 4112 4113 4114 4115 4116 4117 4118 4119 4120 4121 4122 4123 4124 4125 4126 4127 4128 4129 4130 4131 4132 4133 4134 4135 4136 4137 4138 4139 4140 4141 4142 4143 4144 4145 4146 4147 4148 4149 4150 4151 4152 4153 4154 4155 4156 4157 4158 4159 4160 4161 4162 4163 4164 4165 4166 4167 4168 4169 4170 4171 4172 4173 4174 4175 4176 4177 4178 4179 4180 4181 4182 4183 4184 4185 4186 4187 4188 4189 4190 4191 4192 4193 4194 4195 4196 4197 4198 4199 4200 4201 4202 4203 4204 4205 4206 4207 4208 4209 4210 4211 4212 4213 4214 4215 4216 4217 4218 4219 4220 4221 4222 4223 4224 4225 4226 4227 4228 4229 4230 4231 4232 4233 4234 4235 4236 4237 4238 4239 4240 4241 4242 4243 4244 4245 4246 4247 4248 4249 4250 4251 4252 4253 4254 4255 4256 4257 4258 4259 4260 4261 4262 4263 4264 4265 4266 4267 4268 4269 4270 4271 4272 4273 4274 4275 4276 4277 4278 4279 4280 4281 4282 4283 4284 4285 4286 4287 4288 4289 4290 4291 4292 4293 4294 4295 4296 4297 4298 4299 4300 4301 4302 4303 4304 4305 4306 4307 4308 4309 4310 4311 4312 4313 4314 4315 4316 4317 4318 4319 4320 4321 4322 4323 4324 4325 4326 4327 4328 4329 4330 4331 4332 4333 4334 4335 4336 4337 4338 4339 4340 4341 4342 4343 4344 4345 4346 4347 4348 4349 4350 4351 4352 4353 4354 4355 4356 4357 4358 4359 4360 4361 4362 4363 4364 4365 4366 4367 4368 4369 4370 4371 4372 4373 4374 4375 4376 4377 4378 4379 4380 4381 4382 4383 4384 4385 4386 4387 4388 4389 4390 4391 4392 4393 4394 4395 4396 4397 4398 4399 4400 4401 4402 4403 4404 4405 4406 4407 4408 4409 4410 4411 4412 4413 4414 4415 4416 4417 4418 4419 4420 4421 4422 4423 4424 4425 4426 4427 4428 4429 4430 4431 4432 4433 4434 4435 4436 4437 4438 4439 4440 4441 4442 4443 4444 4445 4446 4447 4448 4449 4450 4451 4452 4453 4454 4455 4456 4457 4458 4459 4460 4461 4462 4463 4464 4465 4466 4467 4468 4469 4470 4471 4472 4473 4474 4475 4476 4477 4478 4479 4480 4481 4482 4483 4484 4485 4486 4487 4488 4489 4490 4491 4492 4493 4494 4495 4496 4497 4498 4499 4500 4501 4502 4503 4504 4505 4506 4507 4508 4509 4510 4511 4512 4513 4514 4515 4516 4517 4518 4519 4520 4521 4522 4523 4524 4525 4526 4527 4528 4529 4530 4531 4532 4533 4534 4535 4536 4537 4538 4539 4540 4541 4542 4543 4544 4545 4546 4547 4548 4549 4550 4551 4552 4553 4554 4555 4556 4557 4558 4559 4560 4561 4562 4563 4564 4565 4566 4567 4568 4569 4570 4571 4572 4573 4574 4575 4576 4577 4578 4579 4580 4581 4582 4583 4584 4585 4586 4587 4588 4589 4590 4591 4592 4593 4594 4595 4596 4597 4598 4599 4600 4601 4602 4603 4604 4605 4606 4607 4608 4609 4610 4611 4612 4613 4614 4615 4616 4617 4618 4619 4620 4621 4622 4623 4624 4625 4626 4627 4628 4629 4630 4631 4632 4633 4634 4635 4636 4637 4638 4639 4640 4641 4642 4643 4644 4645 4646 4647 4648 4649 4650 4651 4652 4653 4654 4655 4656 4657 4658 4659 4660 4661 4662 4663 4664 4665 4666 4667 4668 4669 4670 4671 4672 4673 4674 4675 4676 4677 4678 4679 4680 4681 4682 4683 4684 4685 4686 4687 4688 4689 4690 4691 4692 4693 4694 4695 4696 4697 4698 4699 4700 4701 4702 4703 4704 4705 4706 4707 4708 4709 4710 4711 4712 4713 4714 4715 4716 4717 4718 4719 4720 4721 4722 4723 4724 4725 4726 4727 4728 4729 4730 4731 4732 4733 4734 4735 4736 4737 4738 4739 4740 4741 4742 4743 4744 4745 4746 4747 4748 4749 4750 4751 4752 4753 4754 4755 4756 4757 4758 4759 4760 4761 4762 4763 4764 4765 4766 4767 4768 4769 4770 4771 4772 4773 4774 4775 4776 4777 4778 4779 4780 4781 4782 4783 4784 4785 4786 4787 4788 4789 4790 4791 4792 4793 4794 4795 4796 4797 4798 4799 4800 4801 4802 4803 4804 4805 4806 4807 4808 4809 4810 4811 4812 4813 4814 4815 4816 4817 4818 4819 4820 4821 4822 4823 4824 4825 4826 4827 4828 4829 4830 4831 4832 4833 4834 4835 4836 4837 4838 4839 4840 4841 4842 4843 4844 4845 4846 4847 4848 4849 4850 4851 4852 4853 4854 4855 4856 4857 4858 4859 4860 4861 4862 4863 4864 4865 4866 4867 4868 4869 4870 4871 4872 4873 4874 4875 4876 4877 4878 4879 4880 4881 4882 4883 4884 4885 4886 4887 4888 4889 4890 4891 4892 4893 4894 4895 4896 4897 4898 4899 4900 4901 4902 4903 4904 4905 4906 4907 4908 4909 4910 4911 4912 4913 4914 4915 4916 4917 4918 4919 4920 4921 4922 4923 4924 4925 4926 4927 4928 4929 4930 4931 4932 4933 4934 4935 4936 4937 4938 4939 4940 4941 4942 4943 4944 4945 4946 4947 4948 4949 4950 4951 4952 4953 4954 4955 4956 4957 4958 4959 4960 4961 4962 4963 4964 4965 4966 4967 4968 4969 4970 4971 4972 4973 4974 4975 4976 4977 4978 4979 4980 4981 4982 4983 4984 4985 4986 4987 4988 4989 4990 4991 4992 4993 4994 4995 4996 4997 4998 4999 5000 5001 5002 5003 5004 5005 5006 5007 5008 5009 5010 5011 5012 5013 5014 5015 5016 5017 5018 5019 5020 5021 5022 5023 5024 5025 5026 5027 5028 5029 5030 5031 5032 5033 5034 5035 5036 5037 5038 5039 5040 5041 5042 5043 5044 5045 5046 5047 5048 5049 5050 5051 5052 5053 5054 5055 5056 5057 5058 5059 5060 5061 5062 5063 5064 5065 5066 5067 5068 5069 5070 5071 5072 5073 5074 5075 5076 5077 5078 5079 5080 5081 5082 5083 5084 5085 5086 5087 5088 5089 5090 5091 5092 5093 5094 5095 5096 5097 5098 5099 5100 5101 5102 5103 5104 5105 5106 5107 5108 5109 5110 5111 5112 5113 5114 5115 5116 5117 5118 5119 5120 5121 5122 5123 5124 5125 5126 5127 5128 5129 5130 5131 5132 5133 5134 5135 5136 5137 5138 5139 5140 5141 5142 5143 5144 5145 5146 5147 5148 5149 5150 5151 5152 5153 5154 5155 5156 5157 5158 5159 5160 5161 5162 5163 5164 5165 5166 5167 5168 5169 5170 5171 5172 5173 5174 5175 5176 5177 5178 5179 5180 5181 5182 5183 5184 5185 5186 5187 5188 5189 5190 5191 5192 5193 5194 5195 5196 5197 5198 5199 5200 5201 5202 5203 5204 5205 5206 5207 5208 5209 5210 5211 5212 5213 5214 5215 5216 5217 5218 5219 5220 5221 5222 5223 5224 5225 5226 5227 5228 5229 5230 5231 5232 5233 5234 5235 5236 5237 5238 5239 5240 5241 5242 5243 5244 5245 5246 5247 5248 5249 5250 5251 5252 5253 5254 5255 5256 5257 5258 5259 5260 5261 5262 5263 5264 5265 5266 5267 5268 5269 5270 5271 5272 5273 5274 5275 5276 5277 5278 5279 5280 5281 5282 5283 5284 5285 5286 5287 5288 5289 5290 5291 5292 5293 5294 5295 5296 5297 5298 5299 5300 5301 5302 5303 5304 5305 5306 5307 5308 5309 5310 5311 5312 5313 5314 5315 5316 5317 5318 5319 5320 5321 5322 5323 5324 5325 5326 5327 5328 5329 5330 5331 5332 5333 5334 5335 5336 5337 5338 5339 5340 5341 5342 5343 5344 5345 5346 5347 5348 5349 5350 5351 5352 5353 5354 5355 5356 5357 5358 5359 5360 5361 5362 5363 5364 5365 5366 5367 5368 5369 5370 5371 5372 5373 5374 5375 5376 5377 5378 5379 5380 5381 5382 5383 5384 5385 5386 5387 5388 5389 5390 5391 5392 5393 5394 5395 5396 5397 5398 5399 5400 5401 5402 5403 5404 5405 5406 5407 5408 5409 5410 5411 5412 5413 5414 5415 5416 5417 5418 5419 5420 5421 5422 5423 5424 5425 5426 5427 5428 5429 5430 5431 5432 5433 5434 5435 5436 5437 5438 5439 5440 5441 5442 5443 5444 5445 5446 5447 5448 5449 5450 5451 5452 5453 5454 5455 5456 5457 5458 5459 5460 5461 5462 5463 5464 5465 5466 5467 5468 5469 5470 5471 5472 5473 5474 5475 5476 5477 5478 5479 5480 5481 5482 5483 5484 5485 5486 5487 5488 5489 5490 5491 5492 5493 5494 5495 5496 5497 5498 5499 5500 5501 5502 5503 5504 5505 5506 5507 5508 5509 5510 5511 5512 5513 5514 5515 5516 5517 5518 5519 5520 5521 5522 5523 5524 5525 5526 5527 5528 5529 5530 5531 5532 5533 5534 5535 5536 5537 5538 5539 5540 5541 5542 5543 5544 5545 5546 5547 5548 5549 5550 5551 5552 5553 5554 5555 5556 5557 5558 5559 5560 5561 5562 5563 5564 5565 5566 5567 5568 5569 5570 5571 5572 5573 5574 5575 5576 5577 5578 5579 5580 5581 5582 5583 5584 5585 5586 5587 5588 5589 5590 5591 5592 5593 5594 5595 5596 5597 5598 5599 5600 5601 5602 5603 5604 5605 5606 5607 5608 5609 5610 5611 5612 5613 5614 5615 5616 5617 5618 5619 5620 5621 5622 5623 5624 5625 5626 5627 5628 5629 5630 5631 5632 5633 5634 5635 5636 5637 5638 5639 5640 5641 5642 5643 5644 5645 5646 5647 5648 5649 5650 5651 5652 5653 5654 5655 5656 5657 5658 5659 5660 5661 5662 5663 5664 5665 5666 5667 5668 5669 5670 5671 5672 5673 5674 5675 5676 5677 5678 5679 5680 5681 5682 5683 5684 5685 5686 5687 5688 5689 5690 5691 5692 5693 5694 5695 5696 5697 5698 5699 5700 5701 5702 5703 5704 5705 5706 5707 5708 5709 5710 5711 5712 5713 5714 5715 5716 5717 5718 5719 5720 5721 5722 5723 5724 5725 5726 5727 5728 5729 5730 5731 5732 5733 5734 5735 5736 5737 5738 5739 5740 5741 5742 5743 5744 5745 5746 5747 5748 5749 5750 5751 5752 5753 5754 5755 5756 5757 5758 5759 5760 5761 5762 5763 5764 5765 5766 5767 5768 5769 5770 5771 5772 5773 5774 5775 5776 5777 5778 5779 5780 5781 5782 5783 5784 5785 5786 5787 5788 5789 5790 5791 5792 5793 5794 5795 5796 5797 5798 5799 5800 5801 5802 5803 5804 5805 5806 5807 5808 5809 5810 5811 5812 5813 5814 5815 5816 5817 5818 5819 5820 5821 5822 5823 5824 5825 5826 5827 5828 5829 5830 5831 5832 5833 5834 5835 5836 5837 5838 5839 5840 5841 5842 5843 5844 5845 5846 5847 5848 5849 5850 5851 5852 5853 5854 5855 5856 5857 5858 5859 5860 5861 5862 5863 5864 5865 5866 5867 5868 5869 5870 5871 5872 5873 5874 5875 5876 5877 5878 5879 5880 5881 5882 5883 5884 5885 5886 5887 5888 5889 5890 5891 5892 5893 5894 5895 5896 5897 5898 5899 5900 5901 5902 5903 5904 5905 5906 5907 5908 5909 5910 5911 5912 5913 5914 5915 5916 5917 5918 5919 5920 5921 5922 5923 5924 5925 5926 5927 5928 5929 5930 5931 5932 5933 5934 5935 5936 5937 5938 5939 5940 5941 5942 5943 5944 5945 5946 5947 5948 5949 5950 5951 5952 5953 5954 5955 5956 5957 5958 5959 5960 5961 5962 5963 5964 5965 5966 5967 5968 5969 5970 5971 5972 5973 5974 5975 5976 5977 5978 5979 5980 5981 5982 5983 5984 5985 5986 5987 5988 5989 5990 5991 5992 5993 5994 5995 5996 5997 5998 5999 6000 6001 6002 6003 6004 6005 6006 6007 6008 6009 6010 6011 6012 6013 6014 6015 6016 6017 6018 6019 6020 6021 6022 6023 6024 6025 6026 6027 6028 6029 6030 6031 6032 6033 6034 6035 6036 6037 6038 6039 6040 6041 6042 6043 6044 6045 6046 6047 6048 6049 6050 6051 6052 6053 6054 6055 6056 6057 6058 6059 6060 6061 6062 6063 6064 6065 6066 6067 6068 6069 6070 6071 6072 6073 6074 6075 6076 6077 6078 6079 6080 6081 6082 6083 6084 6085 6086 6087 6088 6089 6090 6091 6092 6093 6094 6095 6096 6097 6098 6099 6100 6101 6102 6103 6104 6105 6106 6107 6108 6109 6110 6111 6112 6113 6114 6115 6116 6117 6118 6119 6120 6121 6122 6123 6124 6125 6126 6127 6128 6129 6130 6131 6132 6133 6134 6135 6136 6137 6138 6139 6140 6141 6142 6143 6144 6145 6146 6147 6148 6149 6150 6151 6152 6153 6154 6155 6156 6157 6158 6159 6160 6161 6162 6163 6164 6165 6166 6167 6168 6169 6170 6171 6172 6173 6174 6175 6176 6177 6178 6179 6180 6181 6182 6183 6184 6185 6186 6187 6188 6189 6190 6191 6192 6193 6194 6195 6196 6197 6198 6199 6200 6201 6202 6203 6204 6205 6206 6207 6208 6209 6210 6211 6212 6213 6214 6215 6216 6217 6218 6219 6220 6221 6222 6223 6224 6225 6226 6227 6228 6229 6230 6231 6232 6233 6234 6235 6236 6237 6238 6239 6240 6241 6242 6243 6244 6245 6246 6247 6248 6249 6250 6251 6252 6253 6254 6255 6256 6257 6258 6259 6260 6261 6262 6263 6264 6265 6266 6267 6268 6269 6270 6271 6272 6273 6274 6275 6276 6277 6278 6279 6280 6281 6282 6283 6284 6285 6286 6287 6288 6289 6290 6291 6292 6293 6294 6295 6296 6297 6298 6299 6300 6301 6302 6303 6304 6305 6306 6307 6308 6309 6310 6311 6312 6313 6314 6315 6316 6317 6318 6319 6320 6321 6322 6323 6324 6325 6326 6327 6328 6329 6330 6331 6332 6333 6334 6335 6336 6337 6338 6339 6340 6341 6342 6343 6344 6345 6346 6347 6348 6349 6350 6351 6352 6353 6354 6355 6356 6357 6358 6359 6360 6361 6362 6363 6364 6365 6366 6367 6368 6369 6370 6371 6372 6373 6374 6375 6376 6377 6378 6379 6380 6381 6382 6383 6384 6385 6386 6387 6388 6389 6390 6391 6392 6393 6394 6395 6396 6397 6398 6399 6400 6401 6402 6403 6404 6405 6406 6407 6408 6409 6410 6411 6412 6413 6414 6415 6416 6417 6418 6419 6420 6421 6422 6423 6424 6425 6426 6427 6428 6429 6430 6431 6432 6433 6434 6435 6436 6437 6438 6439 6440 6441 6442 6443 6444 6445 6446 6447 6448 6449 6450 6451 6452 6453 6454 6455 6456 6457 6458 6459 6460 6461 6462 6463 6464 6465 6466 6467 6468 6469 6470 6471 6472 6473 6474 6475 6476 6477 6478 6479 6480 6481 6482 6483 6484 6485 6486 6487 6488 6489 6490 6491 6492 6493 6494 6495 6496 6497 6498 6499 6500 6501 6502 6503 6504 6505 6506 6507 6508 6509 6510 6511 6512 6513 6514 6515 6516 6517 6518 6519 6520 6521 6522 6523 6524 6525 6526 6527 6528 6529 6530 6531 6532 6533 6534 6535 6536 6537 6538 6539 6540 6541 6542 6543 6544 6545 6546 6547 6548 6549 6550 6551 6552 6553 6554 6555 6556 6557 6558 6559 6560 6561 6562 6563 6564 6565 6566 6567 6568 6569 6570 6571 6572 6573 6574 6575 6576 6577 6578 6579 6580 6581 6582 6583 6584 6585 6586 6587 6588 6589 6590 6591 6592 6593 6594 6595 6596 6597 6598 6599 6600 6601 6602 6603 6604 6605 6606 6607 6608 6609 6610 6611 6612 6613 6614 6615 6616 6617 6618 6619 6620 6621 6622 6623 6624 6625 6626 6627 6628 6629 6630 6631 6632 6633 6634 6635 6636 6637 6638 6639 6640 6641 6642 6643 6644 6645 6646 6647 6648 6649 6650 6651 6652 6653 6654 6655 6656 6657 6658 6659 6660 6661 6662 6663 6664 6665 6666 6667 6668 6669 6670 6671 6672 6673 6674 6675 6676 6677 6678 6679 6680 6681 6682 6683 6684 6685 6686 6687 6688 6689 6690 6691 6692 6693 6694 6695 6696 6697 6698 6699 6700 6701 6702 6703 6704 6705 6706 6707 6708 6709 6710 6711 6712 6713 6714 6715 6716 6717 6718 6719 6720 6721 6722 6723 6724 6725 6726 6727 6728 6729 6730 6731 6732 6733 6734 6735 6736 6737 6738 6739 6740 6741 6742 6743 6744 6745 6746 6747 6748 6749 6750 6751 6752 6753 6754 6755 6756 6757 6758 6759 6760 6761 6762 6763 6764 6765 6766 6767 6768 6769 6770 6771 6772 6773 6774 6775 6776 6777 6778 6779 6780 6781 6782 6783 6784 6785 6786 6787 6788 6789 6790 6791 6792 6793 6794 6795 6796 6797 6798 6799 6800 6801 6802 6803 6804 6805 6806 6807 6808 6809 6810 6811 6812 6813 6814 6815 6816 6817 6818 6819 6820 6821 6822 6823 6824 6825 6826 6827 6828 6829 6830 6831 6832 6833 6834 6835 6836 6837 6838 6839 6840 6841 6842 6843 6844 6845 6846 6847 6848 6849 6850 6851 6852 6853 6854 6855 6856 6857 6858 6859 6860 6861 6862 6863 6864 6865 6866 6867 6868 6869 6870 6871 6872 6873 6874 6875 6876 6877 6878 6879 6880 6881 6882 6883 6884 6885 6886 6887 6888 6889 6890 6891 6892 6893 6894 6895 6896 6897 6898 6899 6900 6901 6902 6903 6904 6905 6906 6907 6908 6909 6910 6911 6912 6913 6914 6915 6916 6917 6918 6919 6920 6921 6922 6923 6924 6925 6926 6927 6928 6929 6930 6931 6932 6933 6934 6935 6936 6937 6938 6939 6940 6941 6942 6943 6944 6945 6946 6947 6948 6949 6950 6951 6952 6953 6954 6955 6956 6957 6958 6959 6960 6961 6962 6963 6964 6965 6966 6967 6968 6969 6970 6971 6972 6973 6974 6975 6976 6977 6978 6979 6980 6981 6982 6983 6984 6985 6986 6987 6988 6989 6990 6991 6992 6993 6994 6995 6996 6997 6998 6999 7000 7001 7002 7003 7004 7005 7006 7007 7008 7009 7010 7011 7012 7013 7014 7015 7016 7017 7018 7019 7020 7021 7022 7023 7024 7025 7026 7027 7028 7029 7030 7031 7032 7033 7034 7035 7036 7037 7038 7039 7040 7041 7042 7043 7044 7045 7046 7047 7048 7049 7050 7051 7052 7053 7054 7055 7056 7057 7058 7059 7060 7061 7062 7063 7064 7065 7066 7067 7068 7069 7070 7071 7072 7073 7074 7075 7076 7077 7078 7079 7080 7081 7082 7083 7084 7085 7086 7087 7088 7089 7090 7091 7092 7093 7094 7095 7096 7097 7098 7099 7100 7101 7102 7103 7104 7105 7106 7107 7108 7109 7110 7111 7112 7113 7114 7115 7116 7117 7118 7119 7120 7121 7122 7123 7124 7125 7126 7127 7128 7129 7130 7131 7132 7133 7134 7135 7136 7137 7138 7139 7140 7141 7142 7143 7144 7145 7146 7147 7148 7149 7150 7151 7152 7153 7154 7155 7156 7157 7158 7159 7160 7161 7162 7163 7164 7165 7166 7167 7168 7169 7170 7171 7172 7173 7174 7175 7176 7177 7178 7179 7180 7181 7182 7183 7184 7185 7186 7187 7188 7189 7190 7191 7192 7193 7194 7195 7196 7197 7198 7199 7200 7201 7202 7203 7204 7205 7206 7207 7208 7209 7210 7211 7212 7213 7214 7215 7216 7217 7218 7219 7220 7221 7222 7223 7224 7225 7226 7227 7228 7229 7230 7231 7232 7233 7234 7235 7236 7237 7238 7239 7240 7241 7242 7243 7244 7245 7246 7247 7248 7249 7250 7251 7252 7253 7254 7255 7256 7257 7258 7259 7260 7261 7262 7263 7264 7265 7266 7267 7268 7269 7270 7271 7272 7273 7274 7275 7276 7277 7278 7279 7280 7281 7282 7283 7284 7285 7286 7287 7288 7289 7290 7291 7292 7293 7294 7295 7296 7297 7298 7299 7300 7301 7302 7303 7304 7305 7306 7307 7308 7309 7310 7311 7312 7313 7314 7315 7316 7317 7318 7319 7320 7321 7322 7323 7324 7325 7326 7327 7328 7329 7330 7331 7332 7333 7334 7335 7336 7337 7338 7339 7340 7341 7342 7343 7344 7345 7346 7347 7348 7349 7350 7351 7352 7353 7354 7355 7356 7357 7358 7359 7360 7361 7362 7363 7364 7365 7366 7367 7368 7369 7370 7371 7372 7373 7374 7375 7376 7377 7378 7379 7380 7381 7382 7383 7384 7385 7386 7387 7388 7389 7390 7391 7392 7393 7394 7395 7396 7397 7398 7399 7400 7401 7402 7403 7404 7405 7406 7407 7408 7409 7410 7411 7412 7413 7414 7415 7416 7417 7418 7419 7420 7421 7422 7423 7424 7425 7426 7427 7428 7429 7430 7431 7432 7433 7434 7435 7436 7437 7438 7439 7440 7441 7442 7443 7444 7445 7446 7447 7448 7449 7450 7451 7452 7453 7454 7455 7456 7457 7458 7459 7460 7461 7462 7463 7464 7465 7466 7467 7468 7469 7470 7471 7472 7473 7474 7475 7476 7477 7478 7479 7480 7481 7482 7483 7484 7485 7486 7487 7488 7489 7490 7491 7492 7493 7494 7495 7496 7497 7498 7499 7500 7501 7502 7503 7504 7505 7506 7507 7508 7509 7510 7511 7512 7513 7514 7515 7516 7517 7518 7519 7520 7521 7522 7523 7524 7525 7526 7527 7528 7529 7530 7531 7532 7533 7534 7535 7536 7537 7538 7539 7540 7541 7542 7543 7544 7545 7546 7547 7548 7549 7550 7551 7552 7553 7554 7555 7556 7557 7558 7559 7560 7561 7562 7563 7564 7565 7566 7567 7568 7569 7570 7571 7572 7573 7574 7575 7576 7577 7578 7579 7580 7581 7582 7583 7584 7585 7586 7587 7588 7589 7590 7591 7592 7593 7594 7595 7596 7597 7598 7599 7600 7601 7602 7603 7604 7605 7606 7607 7608 7609 7610 7611 7612 7613 7614 7615 7616 7617 7618 7619 7620 7621 7622 7623 7624 7625 7626 7627 7628 7629 7630 7631 7632 7633 7634 7635 7636 7637 7638 7639 7640 7641 7642 7643 7644 7645 7646 7647 7648 7649 7650 7651 7652 7653 7654 7655 7656 7657 7658 7659 7660 7661 7662 7663 7664 7665 7666 7667 7668 7669 7670 7671 7672 7673 7674 7675 7676 7677 7678 7679 7680 7681 7682 7683 7684 7685 7686 7687 7688 7689 7690 7691 7692 7693 7694 7695 7696 7697 7698 7699 7700 7701 7702 7703 7704 7705 7706 7707 7708 7709 7710 7711 7712 7713 7714 7715 7716 7717 7718 7719 7720 7721 7722 7723 7724 7725 7726 7727 7728 7729 7730 7731 7732 7733 7734 7735 7736 7737 7738 7739 7740 7741 7742 7743 7744 7745 7746 7747 7748 7749 7750 7751 7752 7753 7754 7755 7756 7757 7758 7759 7760 7761 7762 7763 7764 7765 7766 7767 7768 7769 7770 7771 7772 7773 7774 7775 7776 7777 7778 7779 7780 7781 7782 7783 7784 7785 7786 7787 7788 7789 7790 7791 7792 7793 7794 7795 7796 7797 7798 7799 7800 7801 7802 7803 7804 7805 7806 7807 7808 7809 7810 7811 7812 7813 7814 7815 7816 7817 7818 7819 7820 7821 7822 7823 7824 7825 7826 7827 7828 7829 7830 7831 7832 7833 7834 7835 7836 7837 7838 7839 7840 7841 7842 7843 7844 7845 7846 7847 7848 7849 7850 7851 7852 7853 7854 7855 7856 7857 7858 7859 7860 7861 7862 7863 7864 7865 7866 7867 7868 7869 7870 7871 7872 7873 7874 7875 7876 7877 7878 7879 7880 7881 7882 7883 7884 7885 7886 7887 7888 7889 7890 7891 7892 7893 7894 7895 7896 7897 7898 7899 7900 7901 7902 7903 7904 7905 7906 7907 7908 7909 7910 7911 7912 7913 7914 7915 7916 7917 7918 7919 7920 7921 7922 7923 7924 7925 7926 7927 7928 7929 7930 7931 7932 7933 7934 7935 7936 7937 7938 7939 7940 7941 7942 7943 7944 7945 7946 7947 7948 7949 7950 7951 7952 7953 7954 7955 7956 7957 7958 7959 7960 7961 7962 7963 7964 7965 7966 7967 7968 7969 7970 7971 7972 7973 7974 7975 7976 7977 7978 7979 7980 7981 7982 7983 7984 7985 7986 7987 7988 7989 7990 7991 7992 7993 7994 7995 7996 7997 7998 7999 8000 8001 8002 8003 8004 8005 8006 8007 8008 8009 8010 8011 8012 8013 8014 8015 8016 8017 8018 8019 8020 8021 8022 8023 8024 8025 8026 8027 8028 8029 8030 8031 8032 8033 8034 8035 8036 8037 8038 8039 8040 8041 8042 8043 8044 8045 8046 8047 8048 8049 8050 8051 8052 8053 8054 8055 8056 8057 8058 8059 8060 8061 8062 8063 8064 8065 8066 8067 8068 8069 8070 8071 8072 8073 8074 8075 8076 8077 8078 8079 8080 8081 8082 8083 8084 8085 8086 8087 8088 8089 8090 8091 8092 8093 8094 8095 8096 8097 8098 8099 8100 8101 8102 8103 8104 8105 8106 8107 8108 8109 8110 8111 8112 8113 8114 8115 8116 8117 8118 8119 8120 8121 8122 8123 8124 8125 8126 8127 8128 8129 8130 8131 8132 8133 8134 8135 8136 8137 8138 8139 8140 8141 8142 8143 8144 8145 8146 8147 8148 8149 8150 8151 8152 8153 8154 8155 8156 8157 8158 8159 8160 8161 8162 8163 8164 8165 8166 8167 8168 8169 8170 8171 8172 8173 8174 8175 8176 8177 8178 8179 8180 8181 8182 8183 8184 8185 8186 8187 8188 8189 8190 8191 8192 8193 8194 8195 8196 8197 8198 8199 8200 8201 8202 8203 8204 8205 8206 8207 8208 8209 8210 8211 8212 8213 8214 8215 8216 8217 8218 8219 8220 8221 8222 8223 8224 8225 8226 8227 8228 8229 8230 8231 8232 8233 8234 8235 8236 8237 8238 8239 8240 8241 8242 8243 8244 8245 8246 8247 8248 8249 8250 8251 8252 8253 8254 8255 8256 8257 8258 8259 8260 8261 8262 8263 8264 8265 8266 8267 8268 8269 8270 8271 8272 8273 8274 8275 8276 8277 8278 8279 8280 8281 8282 8283 8284 8285 8286 8287 8288 8289 8290 8291 8292 8293 8294 8295 8296 8297 8298 8299 8300 8301 8302 8303 8304 8305 8306 8307 8308 8309 8310 8311 8312 8313 8314 8315 8316 8317 8318 8319 8320 8321 8322 8323 8324 8325 8326 8327 8328 8329 8330 8331 8332 8333 8334 8335 8336 8337 8338 8339 8340 8341 8342 8343 8344 8345 8346 8347 8348 8349 8350 8351 8352 8353 8354 8355 8356 8357 8358 8359 8360 8361 8362 8363 8364 8365 8366 8367 8368 8369 8370 8371 8372 8373 8374 8375 8376 8377 8378 8379 8380 8381 8382 8383 8384 8385 8386 8387 8388 8389 8390 8391 8392 8393 8394 8395 8396 8397 8398 8399 8400 8401 8402 8403 8404 8405 8406 8407 8408 8409 8410 8411 8412 8413 8414 8415 8416 8417 8418 8419 8420 8421 8422 8423 8424 8425 8426 8427 8428 8429 8430 8431 8432 8433 8434 8435 8436 8437 8438 8439 8440 8441 8442 8443 8444 8445 8446 8447 8448 8449 8450 8451 8452 8453 8454 8455 8456 8457 8458 8459 8460 8461 8462 8463 8464 8465 8466 8467 8468 8469 8470 8471 8472 8473 8474 8475 8476 8477 8478 8479 8480 8481 8482 8483 8484 8485 8486 8487 8488 8489 8490 8491 8492 8493 8494 8495 8496 8497 8498 8499 8500 8501 8502 8503 8504 8505 8506 8507 8508 8509 8510 8511 8512 8513 8514 8515 8516 8517 8518 8519 8520 8521 8522 8523 8524 8525 8526 8527 8528 8529 8530 8531 8532 8533 8534 8535 8536 8537 8538 8539 8540 8541 8542 8543 8544 8545 8546 8547 8548 8549 8550 8551 8552 8553 8554 8555 8556 8557 8558 8559 8560 8561 8562 8563 8564 8565 8566 8567 8568 8569 8570 8571 8572 8573 8574 8575 8576 8577 8578 8579 8580 8581 8582 8583 8584 8585 8586 8587 8588 8589 8590 8591 8592 8593 8594 8595 8596 8597 8598 8599 8600 8601 8602 8603 8604 8605 8606 8607 8608 8609 8610 8611 8612 8613 8614 8615 8616 8617 8618 8619 8620 8621 8622 8623 8624 8625 8626 8627 8628 8629 8630 8631 8632 8633 8634 8635 8636 8637 8638 8639 8640 8641 8642 8643 8644 8645 8646 8647 8648 8649 8650 8651 8652 8653 8654 8655 8656 8657 8658 8659 8660 8661 8662 8663 8664 8665 8666 8667 8668 8669 8670 8671 8672 8673 8674 8675 8676 8677 8678 8679 8680 8681 8682 8683 8684 8685 8686 8687 8688 8689 8690 8691 8692 8693 8694 8695 8696 8697 8698 8699 8700 8701 8702 8703 8704 8705 8706 8707 8708 8709 8710 8711 8712 8713 8714 8715 8716 8717 8718 8719 8720 8721 8722 8723 8724 8725 8726 8727 8728 8729 8730 8731 8732 8733 8734 8735 8736 8737 8738 8739 8740 8741 8742 8743 8744 8745 8746 8747 8748 8749 8750 8751 8752 8753 8754 8755 8756 8757 8758 8759 8760 8761 8762 8763 8764 8765 8766 8767 8768 8769 8770 8771 8772 8773 8774 8775 8776 8777 8778 8779 8780 8781 8782 8783 8784 8785 8786 8787 8788 8789 8790 8791 8792 8793 8794 8795 8796 8797 8798 8799 8800 8801 8802 8803 8804 8805 8806 8807 8808 8809 8810 8811 8812 8813 8814 8815 8816 8817 8818 8819 8820 8821 8822 8823 8824 8825 8826 8827 8828 8829 8830 8831 8832 8833 8834 8835 8836 8837 8838 8839 8840 8841 8842 8843 8844 8845 8846 8847 8848 8849 8850 8851 8852 8853 8854 8855 8856 8857 8858 8859 8860 8861 8862 8863 8864 8865 8866 8867 8868 8869 8870 8871 8872 8873 8874 8875 8876 8877 8878 8879 8880 8881 8882 8883 8884 8885 8886 8887 8888 8889 8890 8891 8892 8893 8894 8895 8896 8897 8898 8899 8900 8901 8902 8903 8904 8905 8906 8907 8908 8909 8910 8911 8912 8913 8914 8915 8916 8917 8918 8919 8920 8921 8922 8923 8924 8925 8926 8927 8928 8929 8930 8931 8932 8933 8934 8935 8936 8937 8938 8939 8940 8941 8942 8943 8944 8945 8946 8947 8948 8949 8950 8951 8952 8953 8954 8955 8956 8957 8958 8959 8960 8961 8962 8963 8964 8965 8966 8967 8968 8969 8970 8971 8972 8973 8974 8975 8976 8977 8978 8979 8980 8981 8982 8983 8984 8985 8986 8987 8988 8989 8990 8991 8992 8993 8994 8995 8996 8997 8998 8999 9000 9001 9002 9003 9004 9005 9006 9007 9008 9009 9010 9011 9012 9013 9014 9015 9016 9017 9018 9019 9020 9021 9022 9023 9024 9025 9026 9027 9028 9029 9030 9031 9032 9033 9034 9035 9036 9037 9038 9039 9040 9041 9042 9043 9044 9045 9046 9047 9048 9049 9050 9051 9052 9053 9054 9055 9056 9057 9058 9059 9060 9061 9062 9063 9064 9065 9066 9067 9068 9069 9070 9071 9072 9073 9074 9075 9076 9077 9078 9079 9080 9081 9082 9083 9084 9085 9086 9087 9088 9089 9090 9091 9092 9093 9094 9095 9096 9097 9098 9099 9100 9101 9102 9103 9104 9105 9106 9107 9108 9109 9110 9111 9112 9113 9114 9115 9116 9117 9118 9119 9120 9121 9122 9123 9124 9125 9126 9127 9128 9129 9130 9131 9132 9133 9134 9135 9136 9137 9138 9139 9140 9141 9142 9143 9144 9145 9146 9147 9148 9149 9150 9151 9152 9153 9154 9155 9156 9157 9158 9159 9160 9161 9162 9163 9164 9165 9166 9167 9168 9169 9170 9171 9172 9173 9174 9175 9176 9177 9178 9179 9180 9181 9182 9183 9184 9185 9186 9187 9188 9189 9190 9191 9192 9193 9194 9195 9196 9197 9198 9199 9200 9201 9202 9203 9204 9205 9206 9207 9208 9209 9210 9211 9212 9213 9214 9215 9216 9217 9218 9219 9220 9221 9222 9223 9224 9225 9226 9227 9228 9229 9230 9231 9232 9233 9234 9235 9236 9237 9238 9239 9240 9241 9242 9243 9244 9245 9246 9247 9248 9249 9250 9251 9252 9253 9254 9255 9256 9257 9258 9259 9260 9261 9262 9263 9264 9265 9266 9267 9268 9269 9270 9271 9272 9273 9274 9275 9276 9277 9278 9279 9280 9281 9282 9283 9284 9285 9286 9287 9288 9289 9290 9291 9292 9293 9294 9295 9296 9297 9298 9299 9300 9301 9302 9303 9304 9305 9306 9307 9308 9309 9310 9311 9312 9313 9314 9315 9316 9317 9318 9319 9320 9321 9322 9323 9324 9325 9326 9327 9328 9329 9330 9331 9332 9333 9334 9335 9336 9337 9338 9339 9340 9341 9342 9343 9344 9345 9346 9347 9348 9349 9350 9351 9352 9353 9354 9355 9356 9357 9358 9359 9360 9361 9362 9363 9364 9365 9366 9367 9368 9369 9370 9371 9372 9373 9374 9375 9376 9377 9378 9379 9380 9381 9382 9383 9384 9385 9386 9387 9388 9389 9390 9391 9392 9393 9394 9395 9396 9397 9398 9399 9400 9401 9402 9403 9404 9405 9406 9407 9408 9409 9410 9411 9412 9413 9414 9415 9416 9417 9418 9419 9420 9421 9422 9423 9424 9425 9426 9427 9428 9429 9430 9431 9432 9433 9434 9435 9436 9437 9438 9439 9440 9441 9442 9443 9444 9445 9446 9447 9448 9449 9450 9451 9452 9453 9454 9455 9456 9457 9458 9459 9460 9461 9462 9463 9464 9465 9466 9467 9468 9469 9470 9471 9472 9473 9474 9475 9476 9477 9478 9479 9480 9481 9482 9483 9484 9485 9486 9487 9488 9489 9490 9491 9492 9493 9494 9495 9496 9497 9498 9499 9500 9501 9502 9503 9504 9505 9506 9507 9508 9509 9510 9511 9512 9513 9514 9515 9516 9517 9518 9519 9520 9521 9522 9523 9524 9525 9526 9527 9528 9529 9530 9531 9532 9533 9534 9535 9536 9537 9538 9539 9540 9541 9542 9543 9544 9545 9546 9547 9548 9549 9550 9551 9552 9553 9554 9555 9556 9557 9558 9559 9560 9561 9562 9563 9564 9565 9566 9567 9568 9569 9570 9571 9572 9573 9574 9575 9576 9577 9578 9579 9580 9581 9582 9583 9584 9585 9586 9587 9588 9589 9590 9591 9592 9593 9594 9595 9596 9597 9598 9599 9600 9601 9602 9603 9604 9605 9606 9607 9608 9609 9610 9611 9612 9613 9614 9615 9616 9617 9618 9619 9620 9621 9622 9623 9624 9625 9626 9627 9628 9629 9630 9631 9632 9633 9634 9635 9636 9637 9638 9639 9640 9641 9642 9643 9644 9645 9646 9647 9648 9649 9650 9651 9652 9653 9654 9655 9656 9657 9658 9659 9660 9661 9662 9663 9664 9665 9666 9667 9668 9669 9670 9671 9672 9673 9674 9675 9676 9677 9678 9679 9680 9681 9682 9683 9684 9685 9686 9687 9688 9689 9690 9691 9692 9693 9694 9695 9696 9697 9698 9699 9700 9701 9702 9703 9704 9705 9706 9707 9708 9709 9710 9711 9712 9713 9714 9715 9716 9717 9718 9719 9720 9721 9722 9723 9724 9725 9726 9727 9728 9729 9730 9731 9732 9733 9734 9735 9736 9737 9738 9739 9740 9741 9742 9743 9744 9745 9746 9747 9748 9749 9750 9751 9752 9753 9754 9755 9756 9757 9758 9759 9760 9761 9762 9763 9764 9765 9766 9767 9768 9769 9770 9771 9772 9773 9774 9775 9776 9777 9778 9779 9780 9781 9782 9783 9784 9785 9786 9787 9788 9789 9790 9791 9792 9793 9794 9795 9796 9797 9798 9799 9800 9801 9802 9803 9804 9805 9806 9807 9808 9809 9810 9811 9812 9813 9814 9815 9816 9817 9818 9819 9820 9821 9822 9823 9824 9825 9826 9827 9828 9829 9830 9831 9832 9833 9834 9835 9836 9837 9838 9839 9840 9841 9842 9843 9844 9845 9846 9847 9848 9849 9850 9851 9852 9853 9854 9855 9856 9857 9858 9859 9860 9861 9862 9863 9864 9865 9866 9867 9868 9869 9870 9871 9872 9873 9874 9875 9876 9877 9878 9879 9880 9881 9882 9883 9884 9885 9886 9887 9888 9889 9890 9891 9892 9893 9894 9895 9896 9897 9898 9899 9900 9901 9902 9903 9904 9905 9906 9907 9908 9909 9910 9911 9912 9913 9914 9915 9916 9917 9918 9919 9920 9921 9922 9923 9924 9925 9926 9927 9928 9929 9930 9931 9932 9933 9934 9935 9936 9937 9938 9939 9940 9941 9942 9943 9944 9945 9946 9947 9948 9949 9950 9951 9952 9953 9954 9955 9956 9957 9958 9959 9960 9961 9962 9963 9964 9965 9966 9967 9968 9969 9970 9971 9972 9973 9974 9975 9976 9977 9978 9979 9980 9981 9982 9983 9984 9985 9986 9987 9988 9989 9990 9991 9992 9993 9994 9995 9996 9997 9998 9999 10000 10001 10002 10003 10004 10005 10006 10007 10008 10009 10010 10011 10012 10013 10014 10015 10016 10017 10018 10019 10020 10021 10022 10023 10024 10025 10026 10027 10028 10029 10030 10031 10032 10033 10034 10035 10036 10037 10038 10039 10040 10041 10042 10043 10044 10045 10046 10047 10048 10049 10050 10051 10052 10053 10054 10055 10056 10057 10058 10059 10060 10061 10062 10063 10064 10065 10066 10067 10068 10069 10070 10071 10072 10073 10074 10075 10076 10077 10078 10079 10080 10081 10082 10083 10084 10085 10086 10087 10088 10089 10090 10091 10092 10093 10094 10095 10096 10097 10098 10099 10100 10101 10102 10103 10104 10105 10106 10107 10108 10109 10110 10111 10112 10113 10114 10115 10116 10117 10118 10119 10120 10121 10122 10123 10124 10125 10126 10127 10128 10129 10130 10131 10132 10133 10134 10135 10136 10137 10138 10139 10140 10141 10142 10143 10144 10145 10146 10147 10148 10149 10150 10151 10152 10153 10154 10155 10156 10157 10158 10159 10160 10161 10162 10163 10164 10165 10166 10167 10168 10169 10170 10171 10172 10173 10174 10175 10176 10177 10178 10179 10180 10181 10182 10183 10184 10185 10186 10187 10188 10189 10190 10191 10192 10193 10194 10195 10196 10197 10198 10199 10200 10201 10202 10203 10204 10205 10206 10207 10208 10209 10210 10211 10212 10213 10214 10215 10216 10217 10218 10219 10220 10221 10222 10223 10224 10225 10226 10227 10228 10229 10230 10231 10232 10233 10234 10235 10236 10237 10238 10239 10240 10241 10242 10243 10244 10245 10246 10247 10248 10249 10250 10251 10252 10253 10254 10255 10256 10257 10258 10259 10260 10261 10262 10263 10264 10265 10266 10267 10268 10269 10270 10271 10272 10273 10274 10275 10276 10277 10278 10279 10280 10281 10282 10283 10284 10285 10286 10287 10288 10289 10290 10291 10292 10293 10294 10295 10296 10297 10298 10299 10300 10301 10302 10303 10304 10305 10306 10307 10308 10309 10310 10311 10312 10313 10314 10315 10316 10317 10318 10319 10320 10321 10322 10323 10324 10325 10326 10327 10328 10329 10330 10331 10332 10333 10334 10335 10336 10337 10338 10339 10340 10341 10342 10343 10344 10345 10346 10347 10348 10349 10350 10351 10352 10353 10354 10355 10356 10357 10358 10359 10360 10361 10362 10363 10364 10365 10366 10367 10368 10369 10370 10371 10372 10373 10374 10375 10376 10377 10378 10379 10380 10381 10382 10383 10384 10385 10386 10387 10388 10389 10390 10391 10392 10393 10394 10395 10396 10397 10398 10399 10400 10401 10402 10403 10404 10405 10406 10407 10408 10409 10410 10411 10412 10413 10414 10415 10416 10417 10418 10419 10420 10421 10422 10423 10424 10425 10426 10427 10428 10429 10430 10431 10432 10433 10434 10435 10436 10437 10438 10439 10440 10441 10442 10443 10444 10445 10446 10447 10448 10449 10450 10451 10452 10453 10454 10455 10456 10457 10458 10459 10460 10461 10462 10463 10464 10465 10466 10467 10468 10469 10470 10471 10472 10473 10474 10475 10476 10477 10478 10479 10480 10481 10482 10483 10484 10485 10486 10487 10488 10489 10490 10491 10492 10493 10494 10495 10496 10497 10498 10499 10500 10501 10502 10503 10504 10505 10506 10507 10508 10509 10510 10511 10512 10513 10514 10515 10516 10517 10518 10519 10520 10521 10522 10523 10524 10525 10526 10527 10528 10529 10530 10531 10532 10533 10534 10535 10536 10537 10538 10539 10540 10541 10542 10543 10544 10545 10546 10547 10548 10549 10550 10551 10552 10553 10554 10555 10556 10557 10558 10559 10560 10561 10562 10563 10564 10565 10566 10567 10568 10569 10570 10571 10572 10573 10574 10575 10576 10577 10578 10579 10580 10581 10582 10583 10584 10585 10586 10587 10588 10589 10590 10591 10592 10593 10594 10595 10596 10597 10598 10599 10600 10601 10602 10603 10604 10605 10606 10607 10608 10609 10610 10611 10612 10613 10614 10615 10616 10617 10618 10619 10620 10621 10622 10623 10624 10625 10626 10627 10628 10629 10630 10631 10632 10633 10634 10635 10636 10637 10638 10639 10640 10641 10642 10643 10644 10645 10646 10647 10648 10649 10650 10651 10652 10653 10654 10655 10656 10657 10658 10659 10660 10661 10662 10663 10664 10665 10666 10667 10668 10669 10670 10671 10672 10673 10674 10675 10676 10677 10678 10679 10680 10681 10682 10683 10684 10685 10686 10687 10688 10689 10690 10691 10692 10693 10694 10695 10696 10697 10698 10699 10700 10701 10702 10703 10704 10705 10706 10707 10708 10709 10710 10711 10712 10713 10714 10715 10716 10717 10718 10719 10720 10721 10722 10723 10724 10725 10726 10727 10728 10729 10730 10731 10732 10733 10734 10735 10736 10737 10738 10739 10740 10741 10742 10743 10744 10745 10746 10747 10748 10749 10750 10751 10752 10753 10754 10755 10756 10757 10758 10759 10760 10761 10762 10763 10764 10765 10766 10767 10768 10769 10770 10771 10772 10773 10774 10775 10776 10777 10778 10779 10780 10781 10782 10783 10784 10785 10786 10787 10788 10789 10790 10791 10792 10793 10794 10795 10796 10797 10798 10799 10800 10801 10802 10803 10804 10805 10806 10807 10808 10809 10810 10811 10812 10813 10814 10815 10816 10817 10818 10819 10820 10821 10822 10823 10824 10825 10826 10827 10828 10829 10830 10831 10832 10833 10834 10835 10836 10837 10838 10839 10840 10841 10842 10843 10844 10845 10846 10847 10848 10849 10850 10851 10852 10853 10854 10855 10856 10857 10858 10859 10860 10861 10862 10863 10864 10865 10866 10867 10868 10869 10870 10871 10872 10873 10874 10875 10876 10877 10878 10879 10880 10881 10882 10883 10884 10885 10886 10887 10888 10889 10890 10891 10892 10893 10894 10895 10896 10897 10898 10899 10900 10901 10902 10903 10904 10905 10906 10907 10908 10909 10910 10911 10912 10913 10914 10915 10916 10917 10918 10919 10920 10921 10922 10923 10924 10925 10926 10927 10928 10929 10930 10931 10932 10933 10934 10935 10936 10937 10938 10939 10940 10941 10942 10943 10944 10945 10946 10947 10948 10949 10950 10951 10952 10953 10954 10955 10956 10957 10958 10959 10960 10961 10962 10963 10964 10965 10966 10967 10968 10969 10970 10971 10972 10973 10974 10975 10976 10977 10978 10979 10980 10981 10982 10983 10984 10985 10986 10987 10988 10989 10990 10991 10992 10993 10994 10995 10996 10997 10998 10999 11000 11001 11002 11003 11004 11005 11006 11007 11008 11009 11010 11011 11012 11013 11014 11015 11016 11017 11018 11019 11020 11021 11022 11023 11024 11025 11026 11027 11028 11029 11030 11031 11032 11033 11034 11035 11036 11037 11038 11039 11040 11041 11042 11043 11044 11045 11046 11047 11048 11049 11050 11051 11052 11053 11054 11055 11056 11057 11058 11059 11060 11061 11062 11063 11064 11065 11066 11067 11068 11069 11070 11071 11072 11073 11074 11075 11076 11077 11078 11079 11080 11081 11082 11083 11084 11085 11086 11087 11088 11089 11090 11091 11092 11093 11094 11095 11096 11097 11098 11099 11100 11101 11102 11103 11104 11105 11106 11107 11108 11109 11110 11111 11112 11113 11114 11115 11116 11117 11118 11119 11120 11121 11122 11123 11124 11125 11126 11127 11128 11129 11130 11131 11132 11133 11134 11135 11136 11137 11138 11139 11140 11141 11142 11143 11144 11145 11146 11147 11148 11149 11150 11151 11152 11153 11154 11155 11156 11157 11158 11159 11160 11161 11162 11163 11164 11165 11166 11167 11168 11169 11170 11171 11172 11173 11174 11175 11176 11177 11178 11179 11180 11181 11182 11183 11184 11185 11186 11187 11188 11189 11190 11191 11192 11193 11194 11195 11196 11197 11198 11199 11200 11201 11202 11203 11204 11205 11206 11207 11208 11209 11210 11211 11212 11213 11214 11215 11216 11217 11218 11219 11220 11221 11222 11223 11224 11225 11226 11227 11228 11229 11230 11231 11232 11233 11234 11235 11236 11237 11238 11239 11240 11241 11242 11243 11244 11245 11246 11247 11248 11249 11250 11251 11252 11253 11254 11255 11256 11257 11258 11259 11260 11261 11262 11263 11264 11265 11266 11267 11268 11269 11270 11271 11272 11273 11274 11275 11276 11277 11278 11279 11280 11281 11282 11283 11284 11285 11286 11287 11288 11289 11290 11291 11292 11293 11294 11295 11296 11297 11298 11299 11300 11301 11302 11303 11304 11305 11306 11307 11308 11309 11310 11311 11312 11313 11314 11315 11316 11317 11318 11319 11320 11321 11322 11323 11324 11325 11326 11327 11328 11329 11330 11331 11332 11333 11334 11335 11336 11337 11338 11339 11340 11341 11342 11343 11344 11345 11346 11347 11348 11349 11350 11351 11352 11353 11354 11355 11356 11357 11358 11359 11360 11361 11362 11363 11364 11365 11366 11367 11368 11369 11370 11371 11372 11373 11374 11375 11376 11377 11378 11379 11380 11381 11382 11383 11384 11385 11386 11387 11388 11389 11390 11391 11392 11393 11394 11395 11396 11397 11398 11399 11400 11401 11402 11403 11404 11405 11406 11407 11408 11409 11410 11411 11412 11413 11414 11415 11416 11417 11418 11419 11420 11421 11422 11423 11424 11425 11426 11427 11428 11429 11430 11431 11432 11433 11434 11435 11436 11437 11438 11439 11440 11441 11442 11443 11444 11445 11446 11447 11448 11449 11450 11451 11452 11453 11454 11455 11456 11457 11458 11459 11460 11461 11462 11463 11464 11465 11466 11467 11468 11469 11470 11471 11472 11473 11474 11475 11476 11477 11478 11479 11480 11481 11482 11483 11484 11485 11486 11487 11488 11489 11490 11491 11492 11493 11494 11495 11496 11497 11498 11499 11500 11501 11502 11503 11504 11505 11506 11507 11508 11509 11510 11511 11512 11513 11514 11515 11516 11517 11518 11519 11520 11521 11522 11523 11524 11525 11526 11527 11528 11529 11530 11531 11532 11533 11534 11535 11536 11537 11538 11539 11540 11541 11542 11543 11544 11545 11546 11547 11548 11549 11550 11551 11552 11553 11554 11555 11556 11557 11558 11559 11560 11561 11562 11563 11564 11565 11566 11567 11568 11569 11570 11571 11572 11573 11574 11575 11576 11577 11578 11579 11580 11581 11582 11583 11584 11585 11586 11587 11588 11589 11590 11591 11592 11593 11594 11595 11596 11597 11598 11599 11600 11601 11602 11603 11604 11605 11606 11607 11608 11609 11610 11611 11612 11613 11614 11615 11616 11617 11618 11619 11620 11621 11622 11623 11624 11625 11626 11627 11628 11629 11630 11631 11632 11633 11634 11635 11636 11637 11638 11639 11640 11641 11642 11643 11644 11645 11646 11647 11648 11649 11650 11651 11652 11653 11654 11655 11656 11657 11658 11659 11660 11661 11662 11663 11664 11665 11666 11667 11668 11669 11670 11671 11672 11673 11674 11675 11676 11677 11678 11679 11680 11681 11682 11683 11684 11685 11686 11687 11688 11689 11690 11691 11692 11693 11694 11695 11696 11697 11698 11699 11700 11701 11702 11703 11704 11705 11706 11707 11708 11709 11710 11711 11712 11713 11714 11715 11716 11717 11718 11719 11720 11721 11722 11723 11724 11725 11726 11727 11728 11729 11730 11731 11732 11733 11734 11735 11736 11737 11738 11739 11740 11741 11742 11743 11744 11745 11746 11747 11748 11749 11750 11751 11752 11753 11754 11755 11756 11757 11758 11759 11760 11761 11762 11763 11764 11765 11766 11767 11768 11769 11770 11771 11772 11773 11774 11775 11776 11777 11778 11779 11780 11781 11782 11783 11784 11785 11786 11787 11788 11789 11790 11791 11792 11793 11794 11795 11796 11797 11798 11799 11800 11801 11802 11803 11804 11805 11806 11807 11808 11809 11810 11811 11812 11813 11814 11815 11816 11817 11818 11819 11820 11821 11822 11823 11824 11825 11826 11827 11828 11829 11830 11831 11832 11833 11834 11835 11836 11837 11838 11839 11840 11841 11842 11843 11844 11845 11846 11847 11848 11849 11850 11851 11852 11853 11854 11855 11856 11857 11858 11859 11860 11861 11862 11863 11864 11865 11866 11867 11868 11869 11870 11871 11872 11873 11874 11875 11876 11877 11878 11879 11880 11881 11882 11883 11884 11885 11886 11887 11888 11889 11890 11891 11892 11893 11894 11895 11896 11897 11898 11899 11900 11901 11902 11903 11904 11905 11906 11907 11908 11909 11910 11911 11912 11913 11914 11915 11916 11917 11918 11919 11920 11921 11922 11923 11924 11925 11926 11927 11928 11929 11930 11931 11932 11933 11934 11935 11936 11937 11938 11939 11940 11941 11942 11943 11944 11945 11946 11947 11948 11949 11950 11951 11952 11953 11954 11955 11956 11957 11958 11959 11960 11961 11962 11963 11964 11965 11966 11967 11968 11969 11970 11971 11972 11973 11974 11975 11976 11977 11978 11979 11980 11981 11982 11983 11984 11985 11986 11987 11988 11989 11990 11991 11992 11993 11994 11995 11996 11997 11998 11999 12000 12001 12002 12003 12004 12005 12006 12007 12008 12009 12010 12011 12012 12013 12014 12015 12016 12017 12018 12019 12020 12021 12022 12023 12024 12025 12026 12027 12028 12029 12030 12031 12032 12033 12034 12035 12036 12037 12038 12039 12040 12041 12042 12043 12044 12045 12046 12047 12048 12049 12050 12051 12052 12053 12054 12055 12056 12057 12058 12059 12060 12061 12062 12063 12064 12065 12066 12067 12068 12069 12070 12071 12072 12073 12074 12075 12076 12077 12078 12079 12080 12081 12082 12083 12084 12085 12086 12087 12088 12089 12090 12091 12092 12093 12094 12095 12096 12097 12098 12099 12100 12101 12102 12103 12104 12105 12106 12107 12108 12109 12110 12111 12112 12113 12114 12115 12116 12117 12118 12119 12120 12121 12122 12123 12124 12125 12126 12127 12128 12129 12130 12131 12132 12133 12134 12135 12136 12137 12138 12139 12140 12141 12142 12143 12144 12145 12146 12147 12148 12149 12150 12151 12152 12153 12154 12155 12156 12157 12158 12159 12160 12161 12162 12163 12164 12165 12166 12167 12168 12169 12170 12171 12172 12173 12174 12175 12176 12177 12178 12179 12180 12181 12182 12183 12184 12185 12186 12187 12188 12189 12190 12191 12192 12193 12194 12195 12196 12197 12198 12199 12200 12201 12202 12203 12204 12205 12206 12207 12208 12209 12210 12211 12212 12213 12214 12215 12216 12217 12218 12219 12220 12221 12222 12223 12224 12225 12226 12227 12228 12229 12230 12231 12232 12233 12234 12235 12236 12237 12238 12239 12240 12241 12242 12243 12244 12245 12246 12247 12248 12249 12250 12251 12252 12253 12254 12255 12256 12257 12258 12259 12260 12261 12262 12263 12264 12265 12266 12267 12268 12269 12270 12271 12272 12273 12274 12275 12276 12277 12278 12279 12280 12281 12282 12283 12284 12285 12286 12287 12288 12289 12290 12291 12292 12293 12294 12295 12296 12297 12298 12299 12300 12301 12302 12303 12304 12305 12306 12307 12308 12309 12310 12311 12312 12313 12314 12315 12316 12317 12318 12319 12320 12321 12322 12323 12324 12325 12326 12327 12328 12329 12330 12331 12332 12333 12334 12335 12336 12337 12338 12339 12340 12341 12342 12343 12344 12345 12346 12347 12348 12349 12350 12351 12352 12353 12354 12355 12356 12357 12358 12359 12360 12361 12362 12363 12364 12365 12366 12367 12368 12369 12370 12371 12372 12373 12374 12375 12376 12377 12378 12379 12380 12381 12382 12383 12384 12385 12386 12387 12388 12389 12390 12391 12392 12393 12394 12395 12396 12397 12398 12399 12400 12401 12402 12403 12404 12405 12406 12407 12408 12409 12410 12411 12412 12413 12414 12415 12416 12417 12418 12419 12420 12421 12422 12423 12424 12425 12426 12427 12428 12429 12430 12431 12432 12433 12434 12435 12436 12437 12438 12439 12440 12441 12442 12443 12444 12445 12446 12447 12448 12449 12450 12451 12452 12453 12454 12455 12456 12457 12458 12459 12460 12461 12462 12463 12464 12465 12466 12467 12468 12469 12470 12471 12472 12473 12474 12475 12476 12477 12478 12479 12480 12481 12482 12483 12484 12485 12486 12487 12488 12489 12490 12491 12492 12493 12494 12495 12496 12497 12498 12499 12500 12501 12502 12503 12504 12505 12506 12507 12508 12509 12510 12511 12512 12513 12514 12515 12516 12517 12518 12519 12520 12521 12522 12523 12524 12525 12526 12527 12528 12529 12530 12531 12532 12533 12534 12535 12536 12537 12538 12539 12540 12541 12542 12543 12544 12545 12546 12547 12548 12549 12550 12551 12552 12553 12554 12555 12556 12557 12558 12559 12560 12561 12562 12563 12564 12565 12566 12567 12568 12569 12570 12571 12572 12573 12574 12575 12576 12577 12578 12579 12580 12581 12582 12583 12584 12585 12586 12587 12588 12589 12590 12591 12592 12593 12594 12595 12596 12597 12598 12599 12600 12601 12602 12603 12604 12605 12606 12607 12608 12609 12610 12611 12612 12613 12614 12615 12616 12617 12618 12619 12620 12621 12622 12623 12624 12625 12626 12627 12628 12629 12630 12631 12632 12633 12634 12635 12636 12637 12638 12639 12640 12641 12642 12643 12644 12645 12646 12647 12648 12649 12650 12651 12652 12653 12654 12655 12656 12657 12658 12659 12660 12661 12662 12663 12664 12665 12666 12667 12668 12669 12670 12671 12672 12673 12674 12675 12676 12677 12678 12679 12680 12681 12682 12683 12684 12685 12686 12687 12688 12689 12690 12691 12692 12693 12694 12695 12696 12697 12698 12699 12700 12701 12702 12703 12704 12705 12706 12707 12708 12709 12710 12711 12712 12713 12714 12715 12716 12717 12718 12719 12720 12721 12722 12723 12724 12725 12726 12727 12728 12729 12730 12731 12732 12733 12734 12735 12736 12737 12738 12739 12740 12741 12742 12743 12744 12745 12746 12747 12748 12749 12750 12751 12752 12753 12754 12755 12756 12757 12758 12759 12760 12761 12762 12763 12764 12765 12766 12767 12768 12769 12770 12771 12772 12773 12774 12775 12776 12777 12778 12779 12780 12781 12782 12783 12784 12785 12786 12787 12788 12789 12790 12791 12792 12793 12794 12795 12796 12797 12798 12799 12800 12801 12802 12803 12804 12805 12806 12807 12808 12809 12810 12811 12812 12813 12814 12815 12816 12817 12818 12819 12820 12821 12822 12823 12824 12825 12826 12827 12828 12829 12830 12831 12832 12833 12834 12835 12836 12837 12838 12839 12840 12841 12842 12843 12844 12845 12846 12847 12848 12849 12850 12851 12852 12853 12854 12855 12856 12857 12858 12859 12860 12861 12862 12863 12864 12865 12866 12867 12868 12869 12870 12871 12872 12873 12874 12875 12876 12877 12878 12879 12880 12881 12882 12883 12884 12885 12886 12887 12888 12889 12890 12891 12892 12893 12894 12895 12896 12897 12898 12899 12900 12901 12902 12903 12904 12905 12906 12907 12908 12909 12910 12911 12912 12913 12914 12915 12916 12917 12918 12919 12920 12921 12922 12923 12924 12925 12926 12927 12928 12929 12930 12931 12932 12933 12934 12935 12936 12937 12938 12939 12940 12941 12942 12943 12944 12945 12946 12947 12948 12949 12950 12951 12952 12953 12954 12955 12956 12957 12958 12959 12960 12961 12962 12963 12964 12965 12966 12967 12968 12969 12970 12971 12972 12973 12974 12975 12976 12977 12978 12979 12980 12981 12982 12983 12984 12985 12986 12987 12988 12989 12990 12991 12992 12993 12994 12995 12996 12997 12998 12999 13000 13001 13002 13003 13004 13005 13006 13007 13008 13009 13010 13011 13012 13013 13014 13015 13016 13017 13018 13019 13020 13021 13022 13023 13024 13025 13026 13027 13028 13029 13030 13031 13032 13033 13034 13035 13036 13037 13038 13039 13040 13041 13042 13043 13044 13045 13046 13047 13048 13049 13050 13051 13052 13053 13054 13055 13056 13057 13058 13059 13060 13061 13062 13063 13064 13065 13066 13067 13068 13069 13070 13071 13072 13073 13074 13075 13076 13077 13078 13079 13080 13081 13082 13083 13084 13085 13086 13087 13088 13089 13090 13091 13092 13093 13094 13095 13096 13097 13098 13099 13100 13101 13102 13103 13104 13105 13106 13107 13108 13109 13110 13111 13112 13113 13114 13115 13116 13117 13118 13119 13120 13121 13122 13123 13124 13125 13126 13127 13128 13129 13130 13131 13132 13133 13134 13135 13136 13137 13138 13139 13140 13141 13142 13143 13144 13145 13146 13147 13148 13149 13150 13151 13152 13153 13154 13155 13156 13157 13158 13159 13160 13161 13162 13163 13164 13165 13166 13167 13168 13169 13170 13171 13172 13173 13174 13175 13176 13177 13178 13179 13180 13181 13182 13183 13184 13185 13186 13187 13188 13189 13190 13191 13192 13193 13194 13195 13196 13197 13198 13199 13200 13201 13202 13203 13204 13205 13206 13207 13208 13209 13210 13211 13212 13213 13214 13215 13216 13217 13218 13219 13220 13221 13222 13223 13224 13225 13226 13227 13228 13229 13230 13231 13232 13233 13234 13235 13236 13237 13238 13239 13240 13241 13242 13243 13244 13245 13246 13247 13248 13249 13250 13251 13252 13253 13254 13255 13256 13257 13258 13259 13260 13261 13262 13263 13264 13265 13266 13267 13268 13269 13270 13271 13272 13273 13274 13275 13276 13277 13278 13279 13280 13281 13282 13283 13284 13285 13286 13287 13288 13289 13290 13291 13292 13293 13294 13295 13296 13297 13298 13299 13300 13301 13302 13303 13304 13305 13306 13307 13308 13309 13310 13311 13312 13313 13314 13315 13316 13317 13318 13319 13320 13321 13322 13323 13324 13325 13326 13327 13328 13329 13330 13331 13332 13333 13334 13335 13336 13337 13338 13339 13340 13341 13342 13343 13344 13345 13346 13347 13348 13349 13350 13351 13352 13353 13354 13355 13356 13357 13358 13359 13360 13361 13362 13363 13364 13365 13366 13367 13368 13369 13370 13371 13372 13373 13374 13375 13376 13377 13378 13379 13380 13381 13382 13383 13384 13385 13386 13387 13388 13389 13390 13391 13392 13393 13394 13395 13396 13397 13398 13399 13400 13401 13402 13403 13404 13405 13406 13407 13408 13409 13410 13411 13412 13413 13414 13415 13416 13417 13418 13419 13420 13421 13422 13423 13424 13425 13426 13427 13428 13429 13430 13431 13432 13433 13434 13435 13436 13437 13438 13439 13440 13441 13442 13443 13444 13445 13446 13447 13448 13449 13450 13451 13452 13453 13454 13455 13456 13457 13458 13459 13460 13461 13462 13463 13464 13465 13466 13467 13468 13469 13470 13471 13472 13473 13474 13475 13476 13477 13478 13479 13480 13481 13482 13483 13484 13485 13486 13487 13488 13489 13490 13491 13492 13493 13494 13495 13496 13497 13498 13499 13500 13501 13502 13503 13504 13505 13506 13507 13508 13509 13510 13511 13512 13513 13514 13515 13516 13517 13518 13519 13520 13521 13522 13523 13524 13525 13526 13527 13528 13529 13530 13531 13532 13533 13534 13535 13536 13537 13538 13539 13540 13541 13542 13543 13544 13545 13546 13547 13548 13549 13550 13551 13552 13553 13554 13555 13556 13557 13558 13559 13560 13561 13562 13563 13564 13565 13566 13567 13568 13569 13570 13571 13572 13573 13574 13575 13576 13577 13578 13579 13580 13581 13582 13583 13584 13585 13586 13587 13588 13589 13590 13591 13592 13593 13594 13595 13596 13597 13598 13599 13600 13601 13602 13603 13604 13605 13606 13607 13608 13609 13610 13611 13612 13613 13614 13615 13616 13617 13618 13619 13620 13621 13622 13623 13624 13625 13626 13627 13628 13629 13630 13631 13632 13633 13634 13635 13636 13637 13638 13639 13640 13641 13642 13643 13644 13645 13646 13647 13648 13649 13650 13651 13652 13653 13654 13655 13656 13657 13658 13659 13660 13661 13662 13663 13664 13665 13666 13667 13668 13669 13670 13671 13672 13673 13674 13675 13676 13677 13678 13679 13680 13681 13682 13683 13684 13685 13686 13687 13688 13689 13690 13691 13692 13693 13694 13695 13696 13697 13698 13699 13700 13701 13702 13703 13704 13705 13706 13707 13708 13709 13710 13711 13712 13713 13714 13715 13716 13717 13718 13719 13720 13721 13722 13723 13724 13725 13726 13727 13728 13729 13730 13731 13732 13733 13734 13735 13736 13737 13738 13739 13740 13741 13742 13743 13744 13745 13746 13747 13748 13749 13750 13751 13752 13753 13754 13755 13756 13757 13758 13759 13760 13761 13762 13763 13764 13765 13766 13767 13768 13769 13770 13771 13772 13773 13774 13775 13776 13777 13778 13779 13780 13781 13782 13783 13784 13785 13786 13787 13788 13789 13790 13791 13792 13793 13794 13795 13796 13797 13798 13799 13800 13801 13802 13803 13804 13805 13806 13807 13808 13809 13810 13811 13812 13813 13814 13815 13816 13817 13818 13819 13820 13821 13822 13823 13824 13825 13826 13827 13828 13829 13830 13831 13832 13833 13834 13835 13836 13837 13838 13839 13840 13841 13842 13843 13844 13845 13846 13847 13848 13849 13850 13851 13852 13853 13854 13855 13856 13857 13858 13859 13860 13861 13862 13863 13864 13865 13866 13867 13868 13869 13870 13871 13872 13873 13874 13875 13876 13877 13878 13879 13880 13881 13882 13883 13884 13885 13886 13887 13888 13889 13890 13891 13892 13893 13894 13895 13896 13897 13898 13899 13900 13901 13902 13903 13904 13905 13906 13907 13908 13909 13910 13911 13912 13913 13914 13915 13916 13917 13918 13919 13920 13921 13922 13923 13924 13925 13926 13927 13928 13929 13930 13931 13932 13933 13934 13935 13936 13937 13938 13939 13940 13941 13942 13943 13944 13945 13946 13947 13948 13949 13950 13951 13952 13953 13954 13955 13956 13957 13958 13959 13960 13961 13962 13963 13964 13965 13966 13967 13968 13969 13970 13971 13972 13973 13974 13975 13976 13977 13978 13979 13980 13981 13982 13983 13984 13985 13986 13987 13988 13989 13990 13991 13992 13993 13994 13995 13996 13997 13998 13999 14000 14001 14002 14003 14004 14005 14006 14007 14008 14009 14010 14011 14012 14013 14014 14015 14016 14017 14018 14019 14020 14021 14022 14023 14024 14025 14026 14027 14028 14029 14030 14031 14032 14033 14034 14035 14036 14037 14038 14039 14040 14041 14042 14043 14044 14045 14046 14047 14048 14049 14050 14051 14052 14053 14054 14055 14056 14057 14058 14059 14060 14061 14062 14063 14064 14065 14066 14067 14068 14069 14070 14071 14072 14073 14074 14075 14076 14077 14078 14079 14080 14081 14082 14083 14084 14085 14086 14087 14088 14089 14090 14091 14092 14093 14094 14095 14096 14097 14098 14099 14100 14101 14102 14103 14104 14105 14106 14107 14108 14109 14110 14111 14112 14113 14114 14115 14116 14117 14118 14119 14120 14121 14122 14123 14124 14125 14126 14127 14128 14129 14130 14131 14132 14133 14134 14135 14136 14137 14138 14139 14140 14141 14142 14143 14144 14145 14146 14147 14148 14149 14150 14151 14152 14153 14154 14155 14156 14157 14158 14159 14160 14161 14162 14163 14164 14165 14166 14167 14168 14169 14170 14171 14172 14173 14174 14175 14176 14177 14178 14179 14180 14181 14182 14183 14184 14185 14186 14187 14188 14189 14190 14191 14192 14193 14194 14195 14196 14197 14198 14199 14200 14201 14202 14203 14204 14205 14206 14207 14208 14209 14210 14211 14212 14213 14214 14215 14216 14217 14218 14219 14220 14221 14222 14223 14224 14225 14226 14227 14228 14229 14230 14231 14232 14233 14234 14235 14236 14237 14238 14239 14240 14241 14242 14243 14244 14245 14246 14247 14248 14249 14250 14251 14252 14253 14254 14255 14256 14257 14258 14259 14260 14261 14262 14263 14264 14265 14266 14267 14268 14269 14270 14271 14272 14273 14274 14275 14276 14277 14278 14279 14280 14281 14282 14283 14284 14285 14286 14287 14288 14289 14290 14291 14292 14293 14294 14295 14296 14297 14298 14299 14300 14301 14302 14303 14304 14305 14306 14307 14308 14309 14310 14311 14312 14313 14314 14315 14316 14317 14318 14319 14320 14321 14322 14323 14324 14325 14326 14327 14328 14329 14330 14331 14332 14333 14334 14335 14336 14337 14338 14339 14340 14341 14342 14343 14344 14345 14346 14347 14348 14349 14350 14351 14352 14353 14354 14355 14356 14357 14358 14359 14360 14361 14362 14363 14364 14365 14366 14367 14368 14369 14370 14371 14372 14373 14374 14375 14376 14377 14378 14379 14380 14381 14382 14383 14384 14385 14386 14387 14388 14389 14390 14391 14392 14393 14394 14395 14396 14397 14398 14399 14400 14401 14402 14403 14404 14405 14406 14407 14408 14409 14410 14411 14412 14413 14414 14415 14416 14417 14418 14419 14420 14421 14422 14423 14424 14425 14426 14427 14428 14429 14430 14431 14432 14433 14434 14435 14436 14437 14438 14439 14440 14441 14442 14443 14444 14445 14446 14447 14448 14449 14450 14451 14452 14453 14454 14455 14456 14457 14458 14459 14460 14461 14462 14463 14464 14465 14466 14467 14468 14469 14470 14471 14472 14473 14474 14475 14476 14477 14478 14479 14480 14481 14482 14483 14484 14485 14486 14487 14488 14489 14490 14491 14492 14493 14494 14495 14496 14497 14498 14499 14500 14501 14502 14503 14504 14505 14506 14507 14508 14509 14510 14511 14512 14513 14514 14515 14516 14517 14518 14519 14520 14521 14522 14523 14524 14525 14526 14527 14528 14529 14530 14531 14532 14533 14534 14535 14536 14537 14538 14539 14540 14541 14542 14543 14544 14545 14546 14547 14548 14549 14550 14551 14552 14553 14554 14555 14556 14557 14558 14559 14560 14561 14562 14563 14564 14565 14566 14567 14568 14569 14570 14571 14572 14573 14574 14575 14576 14577 14578 14579 14580 14581 14582 14583 14584 14585 14586 14587 14588 14589 14590 14591 14592 14593 14594 14595 14596 14597 14598 14599 14600 14601 14602 14603 14604 14605 14606 14607 14608 14609 14610 14611 14612 14613 14614 14615 14616 14617 14618 14619 14620 14621 14622 14623 14624 14625 14626 14627 14628 14629 14630 14631 14632 14633 14634 14635 14636 14637 14638 14639 14640 14641 14642 14643 14644 14645 14646 14647 14648 14649 14650 14651 14652 14653 14654 14655 14656 14657 14658 14659 14660 14661 14662 14663 14664 14665 14666 14667 14668 14669 14670 14671 14672 14673 14674 14675 14676 14677 14678 14679 14680 14681 14682 14683 14684 14685 14686 14687 14688 14689 14690 14691 14692 14693 14694 14695 14696 14697 14698 14699 14700 14701 14702 14703 14704 14705 14706 14707 14708 14709 14710 14711 14712 14713 14714 14715 14716 14717 14718 14719 14720 14721 14722 14723 14724 14725 14726 14727 14728 14729 14730 14731 14732 14733 14734 14735 14736 14737 14738 14739 14740 14741 14742 14743 14744 14745 14746 14747 14748 14749 14750 14751 14752 14753 14754 14755 14756 14757 14758 14759 14760 14761 14762 14763 14764 14765 14766 14767 14768 14769 14770 14771 14772 14773 14774 14775 14776 14777 14778 14779 14780 14781 14782 14783 14784 14785 14786 14787 14788 14789 14790 14791 14792 14793 14794 14795 14796 14797 14798 14799 14800 14801 14802 14803 14804 14805 14806 14807 14808 14809 14810 14811 14812 14813 14814 14815 14816 14817 14818 14819 14820 14821 14822 14823 14824 14825 14826 14827 14828 14829 14830 14831 14832 14833 14834 14835 14836 14837 14838 14839 14840 14841 14842 14843 14844 14845 14846 14847 14848 14849 14850 14851 14852 14853 14854 14855 14856 14857 14858 14859 14860 14861 14862 14863 14864 14865 14866 14867 14868 14869 14870 14871 14872 14873 14874 14875 14876 14877 14878 14879 14880 14881 14882 14883 14884 14885 14886 14887 14888 14889 14890 14891 14892 14893 14894 14895 14896 14897 14898 14899 14900 14901 14902 14903 14904 14905 14906 14907 14908 14909 14910 14911 14912 14913 14914 14915 14916 14917 14918 14919 14920 14921 14922 14923 14924 14925 14926 14927 14928 14929 14930 14931 14932 14933 14934 14935 14936 14937 14938 14939 14940 14941 14942 14943 14944 14945 14946 14947 14948 14949 14950 14951 14952 14953 14954 14955 14956 14957 14958 14959 14960 14961 14962 14963 14964 14965 14966 14967 14968 14969 14970 14971 14972 14973 14974 14975 14976 14977 14978 14979 14980 14981 14982 14983 14984 14985 14986 14987 14988 14989 14990 14991 14992 14993 14994 14995 14996 14997 14998 14999 15000 15001 15002 15003 15004 15005 15006 15007 15008 15009 15010 15011 15012 15013 15014 15015 15016 15017 15018 15019 15020 15021 15022 15023 15024 15025 15026 15027 15028 15029 15030 15031 15032 15033 15034 15035 15036 15037 15038 15039 15040 15041 15042 15043 15044 15045 15046 15047 15048 15049 15050 15051 15052 15053 15054 15055 15056 15057 15058 15059 15060 15061 15062 15063 15064 15065 15066 15067 15068 15069 15070 15071 15072 15073 15074 15075 15076 15077 15078 15079 15080 15081 15082 15083 15084 15085 15086 15087 15088 15089 15090 15091 15092 15093 15094 15095 15096 15097 15098 15099 15100 15101 15102 15103 15104 15105 15106 15107 15108 15109 15110 15111 15112 15113 15114 15115 15116 15117 15118 15119 15120 15121 15122 15123 15124 15125 15126 15127 15128 15129 15130 15131 15132 15133 15134 15135 15136 15137 15138 15139 15140 15141 15142 15143 15144 15145 15146 15147 15148 15149 15150 15151 15152 15153 15154 15155 15156 15157 15158 15159 15160 15161 15162 15163 15164 15165 15166 15167 15168 15169 15170 15171 15172 15173 15174 15175 15176 15177 15178 15179 15180 15181 15182 15183 15184 15185 15186 15187 15188 15189 15190 15191 15192 15193 15194 15195 15196 15197 15198 15199 15200 15201 15202 15203 15204 15205 15206 15207 15208 15209 15210 15211 15212 15213 15214 15215 15216 15217 15218 15219 15220 15221 15222 15223 15224 15225 15226 15227 15228 15229 15230 15231 15232 15233 15234 15235 15236 15237 15238 15239 15240 15241 15242 15243 15244 15245 15246 15247 15248 15249 15250 15251 15252 15253 15254 15255 15256 15257 15258 15259 15260 15261 15262 15263 15264 15265 15266 15267 15268 15269 15270 15271 15272 15273 15274 15275 15276 15277 15278 15279 15280 15281 15282 15283 15284 15285 15286 15287 15288 15289 15290 15291 15292 15293 15294 15295 15296 15297 15298 15299 15300 15301 15302 15303 15304 15305 15306 15307 15308 15309 15310 15311 15312 15313 15314 15315 15316 15317 15318 15319 15320 15321 15322 15323 15324 15325 15326 15327 15328 15329 15330 15331 15332 15333 15334 15335 15336 15337 15338 15339 15340 15341 15342 15343 15344 15345 15346 15347 15348 15349 15350 15351 15352 15353 15354 15355 15356 15357 15358 15359 15360 15361 15362 15363 15364 15365 15366 15367 15368 15369 15370 15371 15372 15373 15374 15375 15376 15377 15378 15379 15380 15381 15382 15383 15384 15385 15386 15387 15388 15389 15390 15391 15392 15393 15394 15395 15396 15397 15398 15399 15400 15401 15402 15403 15404 15405 15406 15407 15408 15409 15410 15411 15412 15413 15414 15415 15416 15417 15418 15419 15420 15421 15422 15423 15424 15425 15426 15427 15428 15429 15430 15431 15432 15433 15434 15435 15436 15437 15438 15439 15440 15441 15442 15443 15444 15445 15446 15447 15448 15449 15450 15451 15452 15453 15454 15455 15456 15457 15458 15459 15460 15461 15462 15463 15464 15465 15466 15467 15468 15469 15470 15471 15472 15473 15474 15475 15476 15477 15478 15479 15480 15481 15482 15483 15484 15485 15486 15487 15488 15489 15490 15491 15492 15493 15494 15495 15496 15497 15498 15499 15500 15501 15502 15503 15504 15505 15506 15507 15508 15509 15510 15511 15512 15513 15514 15515 15516 15517 15518 15519 15520 15521 15522 15523 15524 15525 15526 15527 15528 15529 15530 15531 15532 15533 15534 15535 15536 15537 15538 15539 15540 15541 15542 15543 15544 15545 15546 15547 15548 15549 15550 15551 15552 15553 15554 15555 15556 15557 15558 15559 15560 15561 15562 15563 15564 15565 15566 15567 15568 15569 15570 15571 15572 15573 15574 15575 15576 15577 15578 15579 15580 15581 15582 15583 15584 15585 15586 15587 15588 15589 15590 15591 15592 15593 15594 15595 15596 15597 15598 15599 15600 15601 15602 15603 15604 15605 15606 15607 15608 15609 15610 15611 15612 15613 15614 15615 15616 15617 15618 15619 15620 15621 15622 15623 15624 15625 15626 15627 15628 15629 15630 15631 15632 15633 15634 15635 15636 15637 15638 15639 15640 15641 15642 15643 15644 15645 15646 15647 15648 15649 15650 15651 15652 15653 15654 15655 15656 15657 15658 15659 15660 15661 15662 15663 15664 15665 15666 15667 15668 15669 15670 15671 15672 15673 15674 15675 15676 15677 15678 15679 15680 15681 15682 15683 15684 15685 15686 15687 15688 15689 15690 15691 15692 15693 15694 15695 15696 15697 15698 15699 15700 15701 15702 15703 15704 15705 15706 15707 15708 15709 15710 15711 15712 15713 15714 15715 15716 15717 15718 15719 15720 15721 15722 15723 15724 15725 15726 15727 15728 15729 15730 15731 15732 15733 15734 15735 15736 15737 15738 15739 15740 15741 15742 15743 15744 15745 15746 15747 15748 15749 15750 15751 15752 15753 15754 15755 15756 15757 15758 15759 15760 15761 15762 15763 15764 15765 15766 15767 15768 15769 15770 15771 15772 15773 15774 15775 15776 15777 15778 15779 15780 15781 15782 15783 15784 15785 15786 15787 15788 15789 15790 15791 15792 15793 15794 15795 15796 15797 15798 15799 15800 15801 15802 15803 15804 15805 15806 15807 15808 15809 15810 15811 15812 15813 15814 15815 15816 15817 15818 15819 15820 15821 15822 15823 15824 15825 15826 15827 15828 15829 15830 15831 15832 15833 15834 15835 15836 15837 15838 15839 15840 15841 15842 15843 15844 15845 15846 15847 15848 15849 15850 15851 15852 15853 15854 15855 15856 15857 15858 15859 15860 15861 15862 15863 15864 15865 15866 15867 15868 15869 15870 15871 15872 15873 15874 15875 15876 15877 15878 15879 15880 15881 15882 15883 15884 15885 15886 15887 15888 15889 15890 15891 15892 15893 15894 15895 15896 15897 15898 15899 15900 15901 15902 15903 15904 15905 15906 15907 15908 15909 15910 15911 15912 15913 15914 15915 15916 15917 15918 15919 15920 15921 15922 15923 15924 15925 15926 15927 15928 15929 15930 15931 15932 15933 15934 15935 15936 15937 15938 15939 15940 15941 15942 15943 15944 15945 15946 15947 15948 15949 15950 15951 15952 15953 15954 15955 15956 15957 15958 15959 15960 15961 15962 15963 15964 15965 15966 15967 15968 15969 15970 15971 15972 15973 15974 15975 15976 15977 15978 15979 15980 15981 15982 15983 15984 15985 15986 15987 15988 15989 15990 15991 15992 15993 15994 15995 15996 15997 15998 15999 16000 16001 16002 16003 16004 16005 16006 16007 16008 16009 16010 16011 16012 16013 16014 16015 16016 16017 16018 16019 16020 16021 16022 16023 16024 16025 16026 16027 16028 16029 16030 16031 16032 16033 16034 16035 16036 16037 16038 16039 16040 16041 16042 16043 16044 16045 16046 16047 16048 16049 16050 16051 16052 16053 16054 16055 16056 16057 16058 16059 16060 16061 16062 16063 16064 16065 16066 16067 16068 16069 16070 16071 16072 16073 16074 16075 16076 16077 16078 16079 16080 16081 16082 16083 16084 16085 16086 16087 16088 16089 16090 16091 16092 16093 16094 16095 16096 16097 16098 16099 16100 16101 16102 16103 16104 16105 16106 16107 16108 16109 16110 16111 16112 16113 16114 16115 16116 16117 16118 16119 16120 16121 16122 16123 16124 16125 16126 16127 16128 16129 16130 16131 16132 16133 16134 16135 16136 16137 16138 16139 16140 16141 16142 16143 16144 16145 16146 16147 16148 16149 16150 16151 16152 16153 16154 16155 16156 16157 16158 16159 16160 16161 16162 16163 16164 16165 16166 16167 16168 16169 16170 16171 16172 16173 16174 16175 16176 16177 16178 16179 16180 16181 16182 16183 16184 16185 16186 16187 16188 16189 16190 16191 16192 16193 16194 16195 16196 16197 16198 16199 16200 16201 16202 16203 16204 16205 16206 16207 16208 16209 16210 16211 16212 16213 16214 16215 16216 16217 16218 16219 16220 16221 16222 16223 16224 16225 16226 16227 16228 16229 16230 16231 16232 16233 16234 16235 16236 16237 16238 16239 16240 16241 16242 16243 16244 16245 16246 16247 16248 16249 16250 16251 16252 16253 16254 16255 16256 16257 16258 16259 16260 16261 16262 16263 16264 16265 16266 16267 16268 16269 16270 16271 16272 16273 16274 16275 16276 16277 16278 16279 16280 16281 16282 16283 16284 16285 16286 16287 16288 16289 16290 16291 16292 16293 16294 16295 16296 16297 16298 16299 16300 16301 16302 16303 16304 16305 16306 16307 16308 16309 16310 16311 16312 16313 16314 16315 16316 16317 16318 16319 16320 16321 16322 16323 16324 16325 16326 16327 16328 16329 16330 16331 16332 16333 16334 16335 16336 16337 16338 16339 16340 16341 16342 16343 16344 16345 16346 16347 16348 16349 16350 16351 16352 16353 16354 16355 16356 16357 16358 16359 16360 16361 16362 16363 16364 16365 16366 16367 16368 16369 16370 16371 16372 16373 16374 16375 16376 16377 16378 16379 16380 16381 16382 16383 16384 16385 16386 16387 16388 16389 16390 16391 16392 16393 16394 16395 16396 16397 16398 16399 16400 16401 16402 16403 16404 16405 16406 16407 16408 16409 16410 16411 16412 16413 16414 16415 16416 16417 16418 16419 16420 16421 16422 16423 16424 16425 16426 16427 16428 16429 16430 16431 16432 16433 16434 16435 16436 16437 16438 16439 16440 16441 16442 16443 16444 16445 16446 16447 16448 16449 16450 16451 16452 16453 16454 16455 16456 16457 16458 16459 16460 16461 16462 16463 16464 16465 16466 16467 16468 16469 16470 16471 16472 16473 16474 16475 16476 16477 16478 16479 16480 16481 16482 16483 16484 16485 16486 16487 16488 16489 16490 16491 16492 16493 16494 16495 16496 16497 16498 16499 16500 16501 16502 16503 16504 16505 16506 16507 16508 16509 16510 16511 16512 16513 16514 16515 16516 16517 16518 16519 16520 16521 16522 16523 16524 16525 16526 16527 16528 16529 16530 16531 16532 16533 16534 16535 16536 16537 16538 16539 16540 16541 16542 16543 16544 16545 16546 16547 16548 16549 16550 16551 16552 16553 16554 16555 16556 16557 16558 16559 16560 16561 16562 16563 16564 16565 16566 16567 16568 16569 16570 16571 16572 16573 16574 16575 16576 16577 16578 16579 16580 16581 16582 16583 16584 16585 16586 16587 16588 16589 16590 16591 16592 16593 16594 16595 16596 16597 16598 16599 16600 16601 16602 16603 16604 16605 16606 16607 16608 16609 16610 16611 16612 16613 16614 16615 16616 16617 16618 16619 16620 16621 16622 16623 16624 16625 16626 16627 16628 16629 16630 16631 16632 16633 16634 16635 16636 16637 16638 16639 16640 16641 16642 16643 16644 16645 16646 16647 16648 16649 16650 16651 16652 16653 16654 16655 16656 16657 16658 16659 16660 16661 16662 16663 16664 16665 16666 16667 16668 16669 16670 16671 16672 16673 16674 16675 16676 16677 16678 16679 16680 16681 16682 16683 16684 16685 16686 16687 16688 16689 16690 16691 16692 16693 16694 16695 16696 16697 16698 16699 16700 16701 16702 16703 16704 16705 16706 16707 16708 16709 16710 16711 16712 16713 16714 16715 16716 16717 16718 16719 16720 16721 16722 16723 16724 16725 16726 16727 16728 16729 16730 16731 16732 16733 16734 16735 16736 16737 16738 16739 16740 16741 16742 16743 16744 16745 16746 16747 16748 16749 16750 16751 16752 16753 16754 16755 16756 16757 16758 16759 16760 16761 16762 16763 16764 16765 16766 16767 16768 16769 16770 16771 16772 16773 16774 16775 16776 16777 16778 16779 16780 16781 16782 16783 16784 16785 16786 16787 16788 16789 16790 16791 16792 16793 16794 16795 16796 16797 16798 16799 16800 16801 16802 16803 16804 16805 16806 16807 16808 16809 16810 16811 16812 16813 16814 16815 16816 16817 16818 16819 16820 16821 16822 16823 16824 16825 16826 16827 16828 16829 16830 16831 16832 16833 16834 16835 16836 16837 16838 16839 16840 16841 16842 16843 16844 16845 16846 16847 16848 16849 16850 16851 16852 16853 16854 16855 16856 16857 16858 16859 16860 16861 16862 16863 16864 16865 16866 16867 16868 16869 16870 16871 16872 16873 16874 16875 16876 16877 16878 16879 16880 16881 16882 16883 16884 16885 16886 16887 16888 16889 16890 16891 16892 16893 16894 16895 16896 16897 16898 16899 16900 16901 16902 16903 16904 16905 16906 16907 16908 16909 16910 16911 16912 16913 16914 16915 16916 16917 16918 16919 16920 16921 16922 16923 16924 16925 16926 16927 16928 16929 16930 16931 16932 16933 16934 16935 16936 16937 16938 16939 16940 16941 16942 16943 16944 16945 16946 16947 16948 16949 16950 16951 16952 16953 16954 16955 16956 16957 16958 16959 16960 16961 16962 16963 16964 16965 16966 16967 16968 16969 16970 16971 16972 16973 16974 16975 16976 16977 16978 16979 16980 16981 16982 16983 16984 16985 16986 16987 16988 16989 16990 16991 16992 16993 16994 16995 16996 16997 16998 16999 17000 17001 17002 17003 17004 17005 17006 17007 17008 17009 17010 17011 17012 17013 17014 17015 17016 17017 17018 17019 17020 17021 17022 17023 17024 17025 17026 17027 17028 17029 17030 17031 17032 17033 17034 17035 17036 17037 17038 17039 17040 17041 17042 17043 17044 17045 17046 17047 17048 17049 17050 17051 17052 17053 17054 17055 17056 17057 17058 17059 17060 17061 17062 17063 17064 17065 17066 17067 17068 17069 17070 17071 17072 17073 17074 17075 17076 17077 17078 17079 17080 17081 17082 17083 17084 17085 17086 17087 17088 17089 17090 17091 17092 17093 17094 17095 17096 17097 17098 17099 17100 17101 17102 17103 17104 17105 17106 17107 17108 17109 17110 17111 17112 17113 17114 17115 17116 17117 17118 17119 17120 17121 17122 17123 17124 17125 17126 17127 17128 17129 17130 17131 17132 17133 17134 17135 17136 17137 17138 17139 17140 17141 17142 17143 17144 17145 17146 17147 17148 17149 17150 17151 17152 17153 17154 17155 17156 17157 17158 17159 17160 17161 17162 17163 17164 17165 17166 17167 17168 17169 17170 17171 17172 17173 17174 17175 17176 17177 17178 17179 17180 17181 17182 17183 17184 17185 17186 17187 17188 17189 17190 17191 17192 17193 17194 17195 17196 17197 17198 17199 17200 17201 17202 17203 17204 17205 17206 17207 17208 17209 17210 17211 17212 17213 17214 17215 17216 17217 17218 17219 17220 17221 17222 17223 17224 17225 17226 17227 17228 17229 17230 17231 17232 17233 17234 17235 17236 17237 17238 17239 17240 17241 17242 17243 17244 17245 17246 17247 17248 17249 17250 17251 17252 17253 17254 17255 17256 17257 17258 17259 17260 17261 17262 17263 17264 17265 17266 17267 17268 17269 17270 17271 17272 17273 17274 17275 17276 17277 17278 17279 17280 17281 17282 17283 17284 17285 17286 17287 17288 17289 17290 17291 17292 17293 17294 17295 17296 17297 17298 17299 17300 17301 17302 17303 17304 17305 17306 17307 17308 17309 17310 17311 17312 17313 17314 17315 17316 17317 17318 17319 17320 17321 17322 17323 17324 17325 17326 17327 17328 17329 17330 17331 17332 17333 17334 17335 17336 17337 17338 17339 17340 17341 17342 17343 17344 17345 17346 17347 17348 17349 17350 17351 17352 17353 17354 17355 17356 17357 17358 17359 17360 17361 17362 17363 17364 17365 17366 17367 17368 17369 17370 17371 17372 17373 17374 17375 17376 17377 17378 17379 17380 17381 17382 17383 17384 17385 17386 17387 17388 17389 17390 17391 17392 17393 17394 17395 17396 17397 17398 17399 17400 17401 17402 17403 17404 17405 17406 17407 17408 17409 17410 17411 17412 17413 17414 17415 17416 17417 17418 17419 17420 17421 17422 17423 17424 17425 17426 17427 17428 17429 17430 17431 17432 17433 17434 17435 17436 17437 17438 17439 17440 17441 17442 17443 17444 17445 17446 17447 17448 17449 17450 17451 17452 17453 17454 17455 17456 17457 17458 17459 17460 17461 17462 17463 17464 17465 17466 17467 17468 17469 17470 17471 17472 17473 17474 17475 17476 17477 17478 17479 17480 17481 17482 17483 17484 17485 17486 17487 17488 17489 17490 17491 17492 17493 17494 17495 17496 17497 17498 17499 17500 17501 17502 17503 17504 17505 17506 17507 17508 17509 17510 17511 17512 17513 17514 17515 17516 17517 17518 17519 17520 17521 17522 17523 17524 17525 17526 17527 17528 17529 17530 17531 17532 17533 17534 17535 17536 17537 17538 17539 17540 17541 17542 17543 17544 17545 17546 17547 17548 17549 17550 17551 17552 17553 17554 17555 17556 17557 17558 17559 17560 17561 17562 17563 17564 17565 17566 17567 17568 17569 17570 17571 17572 17573 17574 17575 17576 17577 17578 17579 17580 17581 17582 17583 17584 17585 17586 17587 17588 17589 17590 17591 17592 17593 17594 17595 17596 17597 17598 17599 17600 17601 17602 17603 17604 17605 17606 17607 17608 17609 17610 17611 17612 17613 17614 17615 17616 17617 17618 17619 17620 17621 17622 17623 17624 17625 17626 17627 17628 17629 17630 17631 17632 17633 17634 17635 17636 17637 17638 17639 17640 17641 17642 17643 17644 17645 17646 17647 17648 17649 17650 17651 17652 17653 17654 17655 17656 17657 17658 17659 17660 17661 17662 17663 17664 17665 17666 17667 17668 17669 17670 17671 17672 17673 17674 17675 17676 17677 17678 17679 17680 17681 17682 17683 17684 17685 17686 17687 17688 17689 17690 17691 17692 17693 17694 17695 17696 17697 17698 17699 17700 17701 17702 17703 17704 17705 17706 17707 17708 17709 17710 17711 17712 17713 17714 17715 17716 17717 17718 17719 17720 17721 17722 17723 17724 17725 17726 17727 17728 17729 17730 17731 17732 17733 17734 17735 17736 17737 17738 17739 17740 17741 17742 17743 17744 17745 17746 17747 17748 17749 17750 17751 17752 17753 17754 17755 17756 17757 17758 17759 17760 17761 17762 17763 17764 17765 17766 17767 17768 17769 17770 17771 17772 17773 17774 17775 17776 17777 17778 17779 17780 17781 17782 17783 17784 17785 17786 17787 17788 17789 17790 17791 17792 17793 17794 17795 17796 17797 17798 17799 17800 17801 17802 17803 17804 17805 17806 17807 17808 17809 17810 17811 17812 17813 17814 17815 17816 17817 17818 17819 17820 17821 17822 17823 17824 17825 17826 17827 17828 17829 17830 17831 17832 17833 17834 17835 17836 17837 17838 17839 17840 17841 17842 17843 17844 17845 17846 17847 17848 17849 17850 17851 17852 17853 17854 17855 17856 17857 17858 17859 17860 17861 17862 17863 17864 17865 17866 17867 17868 17869 17870 17871 17872 17873 17874 17875 17876 17877 17878 17879 17880 17881 17882 17883 17884 17885 17886 17887 17888 17889 17890 17891 17892 17893 17894 17895 17896 17897 17898 17899 17900 17901 17902 17903 17904 17905 17906 17907 17908 17909 17910 17911 17912 17913 17914 17915 17916 17917 17918 17919 17920 17921 17922 17923 17924 17925 17926 17927 17928 17929 17930 17931 17932 17933 17934 17935 17936 17937 17938 17939 17940 17941 17942 17943 17944 17945 17946 17947 17948 17949 17950 17951 17952 17953 17954 17955 17956 17957 17958 17959 17960 17961 17962 17963 17964 17965 17966 17967 17968 17969 17970 17971 17972 17973 17974 17975 17976 17977 17978 17979 17980 17981 17982 17983 17984 17985 17986 17987 17988 17989 17990 17991 17992 17993 17994 17995 17996 17997 17998 17999 18000 18001 18002 18003 18004 18005 18006 18007 18008 18009 18010 18011 18012 18013 18014 18015 18016 18017 18018 18019 18020 18021 18022 18023 18024 18025 18026 18027 18028 18029 18030 18031 18032 18033 18034 18035 18036 18037 18038 18039 18040 18041 18042 18043 18044 18045 18046 18047 18048 18049 18050 18051 18052 18053 18054 18055 18056 18057 18058 18059 18060 18061 18062 18063 18064 18065 18066 18067 18068 18069 18070 18071 18072 18073 18074 18075 18076 18077 18078 18079 18080 18081 18082 18083 18084 18085 18086 18087 18088 18089 18090 18091 18092 18093 18094 18095 18096 18097 18098 18099 18100 18101 18102 18103 18104 18105 18106 18107 18108 18109 18110 18111 18112 18113 18114 18115 18116 18117 18118 18119 18120 18121 18122 18123 18124 18125 18126 18127 18128 18129 18130 18131 18132 18133 18134 18135 18136 18137 18138 18139 18140 18141 18142 18143 18144 18145 18146 18147 18148 18149 18150 18151 18152 18153 18154 18155 18156 18157 18158 18159 18160 18161 18162 18163 18164 18165 18166 18167 18168 18169 18170 18171 18172 18173 18174 18175 18176 18177 18178 18179 18180 18181 18182 18183 18184 18185 18186 18187 18188 18189 18190 18191 18192 18193 18194 18195 18196 18197 18198 18199 18200 18201 18202 18203 18204 18205 18206 18207 18208 18209 18210 18211 18212 18213 18214 18215 18216 18217 18218 18219 18220 18221 18222 18223 18224 18225 18226 18227 18228 18229 18230 18231 18232 18233 18234 18235 18236 18237 18238 18239 18240 18241 18242 18243 18244 18245 18246 18247 18248 18249 18250 18251 18252 18253 18254 18255 18256 18257 18258 18259 18260 18261 18262 18263 18264 18265 18266 18267 18268 18269 18270 18271 18272 18273 18274 18275 18276 18277 18278 18279 18280 18281 18282 18283 18284 18285 18286 18287 18288 18289 18290 18291 18292 18293 18294 18295 18296 18297 18298 18299 18300 18301 18302 18303 18304 18305 18306 18307 18308 18309 18310 18311 18312 18313 18314 18315 18316 18317 18318 18319 18320 18321 18322 18323 18324 18325 18326 18327 18328 18329 18330 18331 18332 18333 18334 18335 18336 18337 18338 18339 18340 18341 18342 18343 18344 18345 18346 18347 18348 18349 18350 18351 18352 18353 18354 18355 18356 18357 18358 18359 18360 18361 18362 18363 18364 18365 18366 18367 18368 18369 18370 18371 18372 18373 18374 18375 18376 18377 18378 18379 18380 18381 18382 18383 18384 18385 18386 18387 18388 18389 18390 18391 18392 18393 18394 18395 18396 18397 18398 18399 18400 18401 18402 18403 18404 18405 18406 18407 18408 18409 18410 18411 18412 18413 18414 18415 18416 18417 18418 18419 18420 18421 18422 18423 18424 18425 18426 18427 18428 18429 18430 18431 18432 18433 18434 18435 18436 18437 18438 18439 18440 18441 18442 18443 18444 18445 18446 18447 18448 18449 18450 18451 18452 18453 18454 18455 18456 18457 18458 18459 18460 18461 18462 18463 18464 18465 18466 18467 18468 18469 18470 18471 18472 18473 18474 18475 18476 18477 18478 18479 18480 18481 18482 18483 18484 18485 18486 18487 18488 18489 18490 18491 18492 18493 18494 18495 18496 18497 18498 18499 18500 18501 18502 18503 18504 18505 18506 18507 18508 18509 18510 18511 18512 18513 18514 18515 18516 18517 18518 18519 18520 18521 18522 18523 18524 18525 18526 18527 18528 18529 18530 18531 18532 18533 18534 18535 18536 18537 18538 18539 18540 18541 18542 18543 18544 18545 18546 18547 18548 18549 18550 18551 18552 18553 18554 18555 18556 18557 18558 18559 18560 18561 18562 18563 18564 18565 18566 18567 18568 18569 18570 18571 18572 18573 18574 18575 18576 18577 18578 18579 18580 18581 18582 18583 18584 18585 18586 18587 18588 18589 18590 18591 18592 18593 18594 18595 18596 18597 18598 18599 18600 18601 18602 18603 18604 18605 18606 18607 18608 18609 18610 18611 18612 18613 18614 18615 18616 18617 18618 18619 18620 18621 18622 18623 18624 18625 18626 18627 18628 18629 18630 18631 18632 18633 18634 18635 18636 18637 18638 18639 18640 18641 18642 18643 18644 18645 18646 18647 18648 18649 18650 18651 18652 18653 18654 18655 18656 18657 18658 18659 18660 18661 18662 18663 18664 18665 18666 18667 18668 18669 18670 18671 18672 18673 18674 18675 18676 18677 18678 18679 18680 18681 18682 18683 18684 18685 18686 18687 18688 18689 18690 18691 18692 18693 18694 18695 18696 18697 18698 18699 18700 18701 18702 18703 18704 18705 18706 18707 18708 18709 18710 18711 18712 18713 18714 18715 18716 18717 18718 18719 18720 18721 18722 18723 18724 18725 18726 18727 18728 18729 18730 18731 18732 18733 18734 18735 18736 18737 18738 18739 18740 18741 18742 18743 18744 18745 18746 18747 18748 18749 18750 18751 18752 18753 18754 18755 18756 18757 18758 18759 18760 18761 18762 18763 18764 18765 18766 18767 18768 18769 18770 18771 18772 18773 18774 18775 18776 18777 18778 18779 18780 18781 18782 18783 18784 18785 18786 18787 18788 18789 18790 18791 18792 18793 18794 18795 18796 18797 18798 18799 18800 18801 18802 18803 18804 18805 18806 18807 18808 18809 18810 18811 18812 18813 18814 18815 18816 18817 18818 18819 18820 18821 18822 18823 18824 18825 18826 18827 18828 18829 18830 18831 18832 18833 18834 18835 18836 18837 18838 18839 18840 18841 18842 18843 18844 18845 18846 18847 18848 18849 18850 18851 18852 18853 18854 18855 18856 18857 18858 18859 18860 18861 18862 18863 18864 18865 18866 18867 18868 18869 18870 18871 18872 18873 18874 18875 18876 18877 18878 18879 18880 18881 18882 18883 18884 18885 18886 18887 18888 18889 18890 18891 18892 18893 18894 18895 18896 18897 18898 18899 18900 18901 18902 18903 18904 18905 18906 18907 18908 18909 18910 18911 18912 18913 18914 18915 18916 18917 18918 18919 18920 18921 18922 18923 18924 18925 18926 18927 18928 18929 18930 18931 18932 18933 18934 18935 18936 18937 18938 18939 18940 18941 18942 18943 18944 18945 18946 18947 18948 18949 18950 18951 18952 18953 18954 18955 18956 18957 18958 18959 18960 18961 18962 18963 18964 18965 18966 18967 18968 18969 18970 18971 18972 18973 18974 18975 18976 18977 18978 18979 18980 18981 18982 18983 18984 18985 18986 18987 18988 18989 18990 18991 18992 18993 18994 18995 18996 18997 18998 18999 19000 19001 19002 19003 19004 19005 19006 19007 19008 19009 19010 19011 19012 19013 19014 19015 19016 19017 19018 19019 19020 19021 19022 19023 19024 19025 19026 19027 19028 19029 19030 19031 19032 19033 19034 19035 19036 19037 19038 19039 19040 19041 19042 19043 19044 19045 19046 19047 19048 19049 19050 19051 19052 19053 19054 19055 19056 19057 19058 19059 19060 19061 19062 19063 19064 19065 19066 19067 19068 19069 19070 19071 19072 19073 19074 19075 19076 19077 19078 19079 19080 19081 19082 19083 19084 19085 19086 19087 19088 19089 19090 19091 19092 19093 19094 19095 19096 19097 19098 19099 19100 19101 19102 19103 19104 19105 19106 19107 19108 19109 19110 19111 19112 19113 19114 19115 19116 19117 19118 19119 19120 19121 19122 19123 19124 19125 19126 19127 19128 19129 19130 19131 19132 19133 19134 19135 19136 19137 19138 19139 19140 19141 19142 19143 19144 19145 19146 19147 19148 19149 19150 19151 19152 19153 19154 19155 19156 19157 19158 19159 19160 19161 19162 19163 19164 19165 19166 19167 19168 19169 19170 19171 19172 19173 19174 19175 19176 19177 19178 19179 19180 19181 19182 19183 19184 19185 19186 19187 19188 19189 19190 19191 19192 19193 19194 19195 19196 19197 19198 19199 19200 19201 19202 19203 19204 19205 19206 19207 19208 19209 19210 19211 19212 19213 19214 19215 19216 19217 19218 19219 19220 19221 19222 19223 19224 19225 19226 19227 19228 19229 19230 19231 19232 19233 19234 19235 19236 19237 19238 19239 19240 19241 19242 19243 19244 19245 19246 19247 19248 19249 19250 19251 19252 19253 19254 19255 19256 19257 19258 19259 19260 19261 19262 19263 19264 19265 19266 19267 19268 19269 19270 19271 19272 19273 19274 19275 19276 19277 19278 19279 19280 19281 19282 19283 19284 19285 19286 19287 19288 19289 19290 19291 19292 19293 19294 19295 19296 19297 19298 19299 19300 19301 19302 19303 19304 19305 19306 19307 19308 19309 19310 19311 19312 19313 19314 19315 19316 19317 19318 19319 19320 19321 19322 19323 19324 19325 19326 19327 19328 19329 19330 19331 19332 19333 19334 19335 19336 19337 19338 19339 19340 19341 19342 19343 19344 19345 19346 19347 19348 19349 19350 19351 19352 19353 19354 19355 19356 19357 19358 19359 19360 19361 19362 19363 19364 19365 19366 19367 19368 19369 19370 19371 19372 19373 19374 19375 19376 19377 19378 19379 19380 19381 19382 19383 19384 19385 19386 19387 19388 19389 19390 19391 19392 19393 19394 19395 19396 19397 19398 19399 19400 19401 19402 19403 19404 19405 19406 19407 19408 19409 19410 19411 19412 19413 19414 19415 19416 19417 19418 19419 19420 19421 19422 19423 19424 19425 19426 19427 19428 19429 19430 19431 19432 19433 19434 19435 19436 19437 19438 19439 19440 19441 19442 19443 19444 19445 19446 19447 19448 19449 19450 19451 19452 19453 19454 19455 19456 19457 19458 19459 19460 19461 19462 19463 19464 19465 19466 19467 19468 19469 19470 19471 19472 19473 19474 19475 19476 19477 19478 19479 19480 19481 19482 19483 19484 19485 19486 19487 19488 19489 19490 19491 19492 19493 19494 19495 19496 19497 19498 19499 19500 19501 19502 19503 19504 19505 19506 19507 19508 19509 19510 19511 19512 19513 19514 19515 19516 19517 19518 19519 19520 19521 19522 19523 19524 19525 19526 19527 19528 19529 19530 19531 19532 19533 19534 19535 19536 19537 19538 19539 19540 19541 19542 19543 19544 19545 19546 19547 19548 19549 19550 19551 19552 19553 19554 19555 19556 19557 19558 19559 19560 19561 19562 19563 19564 19565 19566 19567 19568 19569 19570 19571 19572 19573 19574 19575 19576 19577 19578 19579 19580 19581 19582 19583 19584 19585 19586 19587 19588 19589 19590 19591 19592 19593 19594 19595 19596 19597 19598 19599 19600 19601 19602 19603 19604 19605 19606 19607 19608 19609 19610 19611 19612 19613 19614 19615 19616 19617 19618 19619 19620 19621 19622 19623 19624 19625 19626 19627 19628 19629 19630 19631 19632 19633 19634 19635 19636 19637 19638 19639 19640 19641 19642 19643 19644 19645 19646 19647 19648 19649 19650 19651 19652 19653 19654 19655 19656 19657 19658 19659 19660 19661 19662 19663 19664 19665 19666 19667 19668 19669 19670 19671 19672 19673 19674 19675 19676 19677 19678 19679 19680 19681 19682 19683 19684 19685 19686 19687 19688 19689 19690 19691 19692 19693 19694 19695 19696 19697 19698 19699 19700 19701 19702 19703 19704 19705 19706 19707 19708 19709 19710 19711 19712 19713 19714 19715 19716 19717 19718 19719 19720 19721 19722 19723 19724 19725 19726 19727 19728 19729 19730 19731 19732 19733 19734 19735 19736 19737 19738 19739 19740 19741 19742 19743 19744 19745 19746 19747 19748 19749 19750 19751 19752 19753 19754 19755 19756 19757 19758 19759 19760 19761 19762 19763 19764 19765 19766 19767 19768 19769 19770 19771 19772 19773 19774 19775 19776 19777 19778 19779 19780 19781 19782 19783 19784 19785 19786 19787 19788 19789 19790 19791 19792 19793 19794 19795 19796 19797 19798 19799 19800 19801 19802 19803 19804 19805 19806 19807 19808 19809 19810 19811 19812 19813 19814 19815 19816 19817 19818 19819 19820 19821 19822 19823 19824 19825 19826 19827 19828 19829 19830 19831 19832 19833 19834 19835 19836 19837 19838 19839 19840 19841 19842 19843 19844 19845 19846 19847 19848 19849 19850 19851 19852 19853 19854 19855 19856 19857 19858 19859 19860 19861 19862 19863 19864 19865 19866 19867 19868 19869 19870 19871 19872 19873 19874 19875 19876 19877 19878 19879 19880 19881 19882 19883 19884 19885 19886 19887 19888 19889 19890 19891 19892 19893 19894 19895 19896 19897 19898 19899 19900 19901 19902 19903 19904 19905 19906 19907 19908 19909 19910 19911 19912 19913 19914 19915 19916 19917 19918 19919 19920 19921 19922 19923 19924 19925 19926 19927 19928 19929 19930 19931 19932 19933 19934 19935 19936 19937 19938 19939 19940 19941 19942 19943 19944 19945 19946 19947 19948 19949 19950 19951 19952 19953 19954 19955 19956 19957 19958 19959 19960 19961 19962 19963 19964 19965 19966 19967 19968 19969 19970 19971 19972 19973 19974 19975 19976 19977 19978 19979 19980 19981 19982 19983 19984 19985 19986 19987 19988 19989 19990 19991 19992 19993 19994 19995 19996 19997 19998 19999 20000 20001 20002 20003 20004 20005 20006 20007 20008 20009 20010 20011 20012 20013 20014 20015 20016 20017 20018 20019 20020 20021 20022 20023 20024 20025 20026 20027 20028 20029 20030 20031 20032 20033 20034 20035 20036 20037 20038 20039 20040 20041 20042 20043 20044 20045 20046 20047 20048 20049 20050 20051 20052 20053 20054 20055 20056 20057 20058 20059 20060 20061 20062 20063 20064 20065 20066 20067 20068 20069 20070 20071 20072 20073 20074 20075 20076 20077 20078 20079 20080 20081 20082 20083 20084 20085 20086 20087 20088 20089 20090 20091 20092 20093 20094 20095 20096 20097 20098 20099 20100 20101 20102 20103 20104 20105 20106 20107 20108 20109 20110 20111 20112 20113 20114 20115 20116 20117 20118 20119 20120 20121 20122 20123 20124 20125 20126 20127 20128 20129 20130 20131 20132 20133 20134 20135 20136 20137 20138 20139 20140 20141 20142 20143 20144 20145 20146 20147 20148 20149 20150 20151 20152 20153 20154 20155 20156 20157 20158 20159 20160 20161 20162 20163 20164 20165 20166 20167 20168 20169 20170 20171 20172 20173 20174 20175 20176 20177 20178 20179 20180 20181 20182 20183 20184 20185 20186 20187 20188 20189 20190 20191 20192 20193 20194 20195 20196 20197 20198 20199 20200 20201 20202 20203 20204 20205 20206 20207 20208 20209 20210 20211 20212 20213 20214 20215 20216 20217 20218 20219 20220 20221 20222 20223 20224 20225 20226 20227 20228 20229 20230 20231 20232 20233 20234 20235 20236 20237 20238 20239 20240 20241 20242 20243 20244 20245 20246 20247 20248 20249 20250 20251 20252 20253 20254 20255 20256 20257 20258 20259 20260 20261 20262 20263 20264 20265 20266 20267 20268 20269 20270 20271 20272 20273 20274 20275 20276 20277 20278 20279 20280 20281 20282 20283 20284 20285 20286 20287 20288 20289 20290 20291 20292 20293 20294 20295 20296 20297 20298 20299 20300 20301 20302 20303 20304 20305 20306 20307 20308 20309 20310 20311 20312 20313 20314 20315 20316 20317 20318 20319 20320 20321 20322 20323 20324 20325 20326 20327 20328 20329 20330 20331 20332 20333 20334 20335 20336 20337 20338 20339 20340 20341 20342 20343 20344 20345 20346 20347 20348 20349 20350 20351 20352 20353 20354 20355 20356 20357 20358 20359 20360 20361 20362 20363 20364 20365 20366 20367 20368 20369 20370 20371 20372 20373 20374 20375 20376 20377 20378 20379 20380 20381 20382 20383 20384 20385 20386 20387 20388 20389 20390 20391 20392 20393 20394 20395 20396 20397 20398 20399 20400 20401 20402 20403 20404 20405 20406 20407 20408 20409 20410 20411 20412 20413 20414 20415 20416 20417 20418 20419 20420 20421 20422 20423 20424 20425 20426 20427 20428 20429 20430 20431 20432 20433 20434 20435 20436 20437 20438 20439 20440 20441 20442 20443 20444 20445 20446 20447 20448 20449 20450 20451 20452 20453 20454 20455 20456 20457 20458 20459 20460 20461 20462 20463 20464 20465 20466 20467 20468 20469 20470 20471 20472 20473 20474 20475 20476 20477 20478 20479 20480 20481 20482 20483 20484 20485 20486 20487 20488 20489 20490 20491 20492 20493 20494 20495 20496 20497 20498 20499 20500 20501 20502 20503 20504 20505 20506 20507 20508 20509 20510 20511 20512 20513 20514 20515 20516 20517 20518 20519 20520 20521 20522 20523 20524 20525 20526 20527 20528 20529 20530 20531 20532 20533 20534 20535 20536 20537 20538 20539 20540 20541 20542 20543 20544 20545 20546 20547 20548 20549 20550 20551 20552 20553 20554 20555 20556 20557 20558 20559 20560 20561 20562 20563 20564 20565 20566 20567 20568 20569 20570 20571 20572 20573 20574 20575 20576 20577 20578 20579 20580 20581 20582 20583 20584 20585 20586 20587 20588 20589 20590 20591 20592 20593 20594 20595 20596 20597 20598 20599 20600 20601 20602 20603 20604 20605 20606 20607 20608 20609 20610 20611 20612 20613 20614 20615 20616 20617 20618 20619 20620 20621 20622 20623 20624 20625 20626 20627 20628 20629 20630 20631 20632 20633 20634 20635 20636 20637 20638 20639 20640 20641 20642 20643 20644 20645 20646 20647 20648 20649 20650 20651 20652 20653 20654 20655 20656 20657 20658 20659 20660 20661 20662 20663 20664 20665 20666 20667 20668 20669 20670 20671 20672 20673 20674 20675 20676 20677 20678 20679 20680 20681 20682 20683 20684 20685 20686 20687 20688 20689 20690 20691 20692 20693 20694 20695 20696 20697 20698 20699 20700 20701 20702 20703 20704 20705 20706 20707 20708 20709 20710 20711 20712 20713 20714 20715 20716 20717 20718 20719 20720 20721 20722 20723 20724 20725 20726 20727 20728 20729 20730 20731 20732 20733 20734 20735 20736 20737 20738 20739 20740 20741 20742 20743 20744 20745 20746 20747 20748 20749 20750 20751 20752 20753 20754 20755 20756 20757 20758 20759 20760 20761 20762 20763 20764 20765 20766 20767 20768 20769 20770 20771 20772 20773 20774 20775 20776 20777 20778 20779 20780 20781 20782 20783 20784 20785 20786 20787 20788 20789 20790 20791 20792 20793 20794 20795 20796 20797 20798 20799 20800 20801 20802 20803 20804 20805 20806 20807 20808 20809 20810 20811 20812 20813 20814 20815 20816 20817 20818 20819 20820 20821 20822 20823 20824 20825 20826 20827 20828 20829 20830 20831 20832 20833 20834 20835 20836 20837 20838 20839 20840 20841 20842 20843 20844 20845 20846 20847 20848 20849 20850 20851 20852 20853 20854 20855 20856 20857 20858 20859 20860 20861 20862 20863 20864 20865 20866 20867 20868 20869 20870 20871 20872 20873 20874 20875 20876 20877 20878 20879 20880 20881 20882 20883 20884 20885 20886 20887 20888 20889 20890 20891 20892 20893 20894 20895 20896 20897 20898 20899 20900 20901 20902 20903 20904 20905 20906 20907 20908 20909 20910 20911 20912 20913 20914 20915 20916 20917 20918 20919 20920 20921 20922 20923 20924 20925 20926 20927 20928 20929 20930 20931 20932 20933 20934 20935 20936 20937 20938 20939 20940 20941 20942 20943 20944 20945 20946 20947 20948 20949 20950 20951 20952 20953 20954 20955 20956 20957 20958 20959 20960 20961 20962 20963 20964 20965 20966 20967 20968 20969 20970 20971 20972 20973 20974 20975 20976 20977 20978 20979 20980 20981 20982 20983 20984 20985 20986 20987 20988 20989 20990 20991 20992 20993 20994 20995 20996 20997 20998 20999 21000 21001 21002 21003 21004 21005 21006 21007 21008 21009 21010 21011 21012 21013 21014 21015 21016 21017 21018 21019 21020 21021 21022 21023 21024 21025 21026 21027 21028 21029 21030 21031 21032 21033 21034 21035 21036 21037 21038 21039 21040 21041 21042 21043 21044 21045 21046 21047 21048 21049 21050 21051 21052 21053 21054 21055 21056 21057 21058 21059 21060 21061 21062 21063 21064 21065 21066 21067 21068 21069 21070 21071 21072 21073 21074 21075 21076 21077 21078 21079 21080 21081 21082 21083 21084 21085 21086 21087 21088 21089 21090 21091 21092 21093 21094 21095 21096 21097 21098 21099 21100 21101 21102 21103 21104 21105 21106 21107 21108 21109 21110 21111 21112 21113 21114 21115 21116 21117 21118 21119 21120 21121 21122 21123 21124 21125 21126 21127 21128 21129 21130 21131 21132 21133 21134 21135 21136 21137 21138 21139 21140 21141 21142 21143 21144 21145 21146 21147 21148 21149 21150 21151 21152 21153 21154 21155 21156 21157 21158 21159 21160 21161 21162 21163 21164 21165 21166 21167 21168 21169 21170 21171 21172 21173 21174 21175 21176 21177 21178 21179 21180 21181 21182 21183 21184 21185 21186 21187 21188 21189 21190 21191 21192 21193 21194 21195 21196 21197 21198 21199 21200 21201 21202 21203 21204 21205 21206 21207 21208 21209 21210 21211 21212 21213 21214 21215 21216 21217 21218 21219 21220 21221 21222 21223 21224 21225 21226 21227 21228 21229 21230 21231 21232 21233 21234 21235 21236 21237 21238 21239 21240 21241 21242 21243 21244 21245 21246 21247 21248 21249 21250 21251 21252 21253 21254 21255 21256 21257 21258 21259 21260 21261 21262 21263 21264 21265 21266 21267 21268 21269 21270 21271 21272 21273 21274 21275 21276 21277 21278 21279 21280 21281 21282 21283 21284 21285 21286 21287 21288 21289 21290 21291 21292 21293 21294 21295 21296 21297 21298 21299 21300 21301 21302 21303 21304 21305 21306 21307 21308 21309 21310 21311 21312 21313 21314 21315 21316 21317 21318 21319 21320 21321 21322 21323 21324 21325 21326 21327 21328 21329 21330 21331 21332 21333 21334 21335 21336 21337 21338 21339 21340 21341 21342 21343 21344 21345 21346 21347 21348 21349 21350 21351 21352 21353 21354 21355 21356 21357 21358 21359 21360 21361 21362 21363 21364 21365 21366 21367 21368 21369 21370 21371 21372 21373 21374 21375 21376 21377 21378 21379 21380 21381 21382 21383 21384 21385 21386 21387 21388 21389 21390 21391 21392 21393 21394 21395 21396 21397 21398 21399 21400 21401 21402 21403 21404 21405 21406 21407 21408 21409 21410 21411 21412 21413 21414 21415 21416 21417 21418 21419 21420 21421 21422 21423 21424 21425 21426 21427 21428 21429 21430 21431 21432 21433 21434 21435 21436 21437 21438 21439 21440 21441 21442 21443 21444 21445 21446 21447 21448 21449 21450 21451 21452 21453 21454 21455 21456 21457 21458 21459 21460 21461 21462 21463 21464 21465 21466 21467 21468 21469 21470 21471 21472 21473 21474 21475 21476 21477 21478 21479 21480 21481 21482 21483 21484 21485 21486 21487 21488 21489 21490 21491 21492 21493 21494 21495 21496 21497 21498 21499 21500 21501 21502 21503 21504 21505 21506 21507 21508 21509 21510 21511 21512 21513 21514 21515 21516 21517 21518 21519 21520 21521 21522 21523 21524 21525 21526 21527 21528 21529 21530 21531 21532 21533 21534 21535 21536 21537 21538 21539 21540 21541 21542 21543 21544 21545 21546 21547 21548 21549 21550 21551 21552 21553 21554 21555 21556 21557 21558 21559 21560 21561 21562 21563 21564 21565 21566 21567 21568 21569 21570 21571 21572 21573 21574 21575 21576 21577 21578 21579 21580 21581 21582 21583 21584 21585 21586 21587 21588 21589 21590 21591 21592 21593 21594 21595 21596 21597 21598 21599 21600 21601 21602 21603 21604 21605 21606 21607 21608 21609 21610 21611 21612 21613 21614 21615 21616 21617 21618 21619 21620 21621 21622 21623 21624 21625 21626 21627 21628 21629 21630 21631 21632 21633 21634 21635 21636 21637 21638 21639 21640 21641 21642 21643 21644 21645 21646 21647 21648 21649 21650 21651 21652 21653 21654 21655 21656 21657 21658 21659 21660 21661 21662 21663 21664 21665 21666 21667 21668 21669 21670 21671 21672 21673 21674 21675 21676 21677 21678 21679 21680 21681 21682 21683 21684 21685 21686 21687 21688 21689 21690 21691 21692 21693 21694 21695 21696 21697 21698 21699 21700 21701 21702 21703 21704 21705 21706 21707 21708 21709 21710 21711 21712 21713 21714 21715 21716 21717 21718 21719 21720 21721 21722 21723 21724 21725 21726 21727 21728 21729 21730 21731 21732 21733 21734 21735 21736 21737 21738 21739 21740 21741 21742 21743 21744 21745 21746 21747 21748 21749 21750 21751 21752 21753 21754 21755 21756 21757 21758 21759 21760 21761 21762 21763 21764 21765 21766 21767 21768 21769 21770 21771 21772 21773 21774 21775 21776 21777 21778 21779 21780 21781 21782 21783 21784 21785 21786 21787 21788 21789 21790 21791 21792 21793 21794 21795 21796 21797 21798 21799 21800 21801 21802 21803 21804 21805 21806 21807 21808 21809 21810 21811 21812 21813 21814 21815 21816 21817 21818 21819 21820 21821 21822 21823 21824 21825 21826 21827 21828 21829 21830 21831 21832 21833 21834 21835 21836 21837 21838 21839 21840 21841 21842 21843 21844 21845 21846 21847 21848 21849 21850 21851 21852 21853 21854 21855 21856 21857 21858 21859 21860 21861 21862 21863 21864 21865 21866 21867 21868 21869 21870 21871 21872 21873 21874 21875 21876 21877 21878 21879 21880 21881 21882 21883 21884 21885 21886 21887 21888 21889 21890 21891 21892 21893 21894 21895 21896 21897 21898 21899 21900 21901 21902 21903 21904 21905 21906 21907 21908 21909 21910 21911 21912 21913 21914 21915 21916 21917 21918 21919 21920 21921 21922 21923 21924 21925 21926 21927 21928 21929 21930 21931 21932 21933 21934 21935 21936 21937 21938 21939 21940 21941 21942 21943 21944 21945 21946 21947 21948 21949 21950 21951 21952 21953 21954 21955 21956 21957 21958 21959 21960 21961 21962 21963 21964 21965 21966 21967 21968 21969 21970 21971 21972 21973 21974 21975 21976 21977 21978 21979 21980 21981 21982 21983 21984 21985 21986 21987 21988 21989 21990 21991 21992 21993 21994 21995 21996 21997 21998 21999 22000 22001 22002 22003 22004 22005 22006 22007 22008 22009 22010 22011 22012 22013 22014 22015 22016 22017 22018 22019 22020 22021 22022 22023 22024 22025 22026 22027 22028 22029 22030 22031 22032 22033 22034 22035 22036 22037 22038 22039 22040 22041 22042 22043 22044 22045 22046 22047 22048 22049 22050 22051 22052 22053 22054 22055 22056 22057 22058 22059 22060 22061 22062 22063 22064 22065 22066 22067 22068 22069 22070 22071 22072 22073 22074 22075 22076 22077 22078 22079 22080 22081 22082 22083 22084 22085 22086 22087 22088 22089 22090 22091 22092 22093 22094 22095 22096 22097 22098 22099 22100 22101 22102 22103 22104 22105 22106 22107 22108 22109 22110 22111 22112 22113 22114 22115 22116 22117 22118 22119 22120 22121 22122 22123 22124 22125 22126 22127 22128 22129 22130 22131 22132 22133 22134 22135 22136 22137 22138 22139 22140 22141 22142 22143 22144 22145 22146 22147 22148 22149 22150 22151 22152 22153 22154 22155 22156 22157 22158 22159 22160 22161 22162 22163 22164 22165 22166 22167 22168 22169 22170 22171 22172 22173 22174 22175 22176 22177 22178 22179 22180 22181 22182 22183 22184 22185 22186 22187 22188 22189 22190 22191 22192 22193 22194 22195 22196 22197 22198 22199 22200 22201 22202 22203 22204 22205 22206 22207 22208 22209 22210 22211 22212 22213 22214 22215 22216 22217 22218 22219 22220 22221 22222 22223 22224 22225 22226 22227 22228 22229 22230 22231 22232 22233 22234 22235 22236 22237 22238 22239 22240 22241 22242 22243 22244 22245 22246 22247 22248 22249 22250 22251 22252 22253 22254 22255 22256 22257 22258 22259 22260 22261 22262 22263 22264 22265 22266 22267 22268 22269 22270 22271 22272 22273 22274 22275 22276 22277 22278 22279 22280 22281 22282 22283 22284 22285 22286 22287 22288 22289 22290 22291 22292 22293 22294 22295 22296 22297 22298 22299 22300 22301 22302 22303 22304 22305 22306 22307 22308 22309 22310 22311 22312 22313 22314 22315 22316 22317 22318 22319 22320 22321 22322 22323 22324 22325 22326 22327 22328 22329 22330 22331 22332 22333 22334 22335 22336 22337 22338 22339 22340 22341 22342 22343 22344 22345 22346 22347 22348 22349 22350 22351 22352 22353 22354 22355 22356 22357 22358 22359 22360 22361 22362 22363 22364 22365 22366 22367 22368 22369 22370 22371 22372 22373 22374 22375 22376 22377 22378 22379 22380 22381 22382 22383 22384 22385 22386 22387 22388 22389 22390 22391 22392 22393 22394 22395 22396 22397 22398 22399 22400 22401 22402 22403 22404 22405 22406 22407 22408 22409 22410 22411 22412 22413 22414 22415 22416 22417 22418 22419 22420 22421 22422 22423 22424 22425 22426 22427 22428 22429 22430 22431 22432 22433 22434 22435 22436 22437 22438 22439 22440 22441 22442 22443 22444 22445 22446 22447 22448 22449 22450 22451 22452 22453 22454 22455 22456 22457 22458 22459 22460 22461 22462 22463 22464 22465 22466 22467 22468 22469 22470 22471 22472 22473 22474 22475 22476 22477 22478 22479 22480 22481 22482 22483 22484 22485 22486 22487 22488 22489 22490 22491 22492 22493 22494 22495 22496 22497 22498 22499 22500 22501 22502 22503 22504 22505 22506 22507 22508 22509 22510 22511 22512 22513 22514 22515 22516 22517 22518 22519 22520 22521 22522 22523 22524 22525 22526 22527 22528 22529 22530 22531 22532 22533 22534 22535 22536 22537 22538 22539 22540 22541 22542 22543 22544 22545 22546 22547 22548 22549 22550 22551 22552 22553 22554 22555 22556 22557 22558 22559 22560 22561 22562 22563 22564 22565 22566 22567 22568 22569 22570 22571 22572 22573 22574 22575 22576 22577 22578 22579 22580 22581 22582 22583 22584 22585 22586 22587 22588 22589 22590 22591 22592 22593 22594 22595 22596 22597 22598 22599 22600 22601 22602 22603 22604 22605 22606 22607 22608 22609 22610 22611 22612 22613 22614 22615 22616 22617 22618 22619 22620 22621 22622 22623 22624 22625 22626 22627 22628 22629 22630 22631 22632 22633 22634 22635 22636 22637 22638 22639 22640 22641 22642 22643 22644 22645 22646 22647 22648 22649 22650 22651 22652 22653 22654 22655 22656 22657 22658 22659 22660 22661 22662 22663 22664 22665 22666 22667 22668 22669 22670 22671 22672 22673 22674 22675 22676 22677 22678 22679 22680 22681 22682 22683 22684 22685 22686 22687 22688 22689 22690 22691 22692 22693 22694 22695 22696 22697 22698 22699 22700 22701 22702 22703 22704 22705 22706 22707 22708 22709 22710 22711 22712 22713 22714 22715 22716 22717 22718 22719 22720 22721 22722 22723 22724 22725 22726 22727 22728 22729 22730 22731 22732 22733 22734 22735 22736 22737 22738 22739 22740 22741 22742 22743 22744 22745 22746 22747 22748 22749 22750 22751 22752 22753 22754 22755 22756 22757 22758 22759 22760 22761 22762 22763 22764 22765 22766 22767 22768 22769 22770 22771 22772 22773 22774 22775 22776 22777 22778 22779 22780 22781 22782 22783 22784 22785 22786 22787 22788 22789 22790 22791 22792 22793 22794 22795 22796 22797 22798 22799 22800 22801 22802 22803 22804 22805 22806 22807 22808 22809 22810 22811 22812 22813 22814 22815 22816 22817 22818 22819 22820 22821 22822 22823 22824 22825 22826 22827 22828 22829 22830 22831 22832 22833 22834 22835 22836 22837 22838 22839 22840 22841 22842 22843 22844 22845 22846 22847 22848 22849 22850 22851 22852 22853 22854 22855 22856 22857 22858 22859 22860 22861 22862 22863 22864 22865 22866 22867 22868 22869 22870 22871 22872 22873 22874 22875 22876 22877 22878 22879 22880 22881 22882 22883 22884 22885 22886 22887 22888 22889 22890 22891 22892 22893 22894 22895 22896 22897 22898 22899 22900 22901 22902 22903 22904 22905 22906 22907 22908 22909 22910 22911 22912 22913 22914 22915 22916 22917 22918 22919 22920 22921 22922 22923 22924 22925 22926 22927 22928 22929 22930 22931 22932 22933 22934 22935 22936 22937 22938 22939 22940 22941 22942 22943 22944 22945 22946 22947 22948 22949 22950 22951 22952 22953 22954 22955 22956 22957 22958 22959 22960 22961 22962 22963 22964 22965 22966 22967 22968 22969 22970 22971 22972 22973 22974 22975 22976 22977 22978 22979 22980 22981 22982 22983 22984 22985 22986 22987 22988 22989 22990 22991 22992 22993 22994 22995 22996 22997 22998 22999 23000 23001 23002 23003 23004 23005 23006 23007 23008 23009 23010 23011 23012 23013 23014 23015 23016 23017 23018 23019 23020 23021 23022 23023 23024 23025 23026 23027 23028 23029 23030 23031 23032 23033 23034 23035 23036 23037 23038 23039 23040 23041 23042 23043 23044 23045 23046 23047 23048 23049 23050 23051 23052 23053 23054 23055 23056 23057 23058 23059 23060 23061 23062 23063 23064 23065 23066 23067 23068 23069 23070 23071 23072 23073 23074 23075 23076 23077 23078 23079 23080 23081 23082 23083 23084 23085 23086 23087 23088 23089 23090 23091 23092 23093 23094 23095 23096 23097 23098 23099 23100 23101 23102 23103 23104 23105 23106 23107 23108 23109 23110 23111 23112 23113 23114 23115 23116 23117 23118 23119 23120 23121 23122 23123 23124 23125 23126 23127 23128 23129 23130 23131 23132 23133 23134 23135 23136 23137 23138 23139 23140 23141 23142 23143 23144 23145 23146 23147 23148 23149 23150 23151 23152 23153 23154 23155 23156 23157 23158 23159 23160 23161 23162 23163 23164 23165 23166 23167 23168 23169 23170 23171 23172 23173 23174 23175 23176 23177 23178 23179 23180 23181 23182 23183 23184 23185 23186 23187 23188 23189 23190 23191 23192 23193 23194 23195 23196 23197 23198 23199 23200 23201 23202 23203 23204 23205 23206 23207 23208 23209 23210 23211 23212 23213 23214 23215 23216 23217 23218 23219 23220 23221 23222 23223 23224 23225 23226 23227 23228 23229 23230 23231 23232 23233 23234 23235 23236 23237 23238 23239 23240 23241 23242 23243 23244 23245 23246 23247 23248 23249 23250 23251 23252 23253 23254 23255 23256 23257 23258 23259 23260 23261 23262 23263 23264 23265 23266 23267 23268 23269 23270 23271 23272 23273 23274 23275 23276 23277 23278 23279 23280 23281 23282 23283 23284 23285 23286 23287 23288 23289 23290 23291 23292 23293 23294 23295 23296 23297 23298 23299 23300 23301 23302 23303 23304 23305 23306 23307 23308 23309 23310 23311 23312 23313 23314 23315 23316 23317 23318 23319 23320 23321 23322 23323 23324 23325 23326 23327 23328 23329 23330 23331 23332 23333 23334 23335 23336 23337 23338 23339 23340 23341 23342 23343 23344 23345 23346 23347 23348 23349 23350 23351 23352 23353 23354 23355 23356 23357 23358 23359 23360 23361 23362 23363 23364 23365 23366 23367 23368 23369 23370 23371 23372 23373 23374 23375 23376 23377 23378 23379 23380 23381 23382 23383 23384 23385 23386 23387 23388 23389 23390 23391 23392 23393 23394 23395 23396 23397 23398 23399 23400 23401 23402 23403 23404 23405 23406 23407 23408 23409 23410 23411 23412 23413 23414 23415 23416 23417 23418 23419 23420 23421 23422 23423 23424 23425 23426 23427 23428 23429 23430 23431 23432 23433 23434 23435 23436 23437 23438 23439 23440 23441 23442 23443 23444 23445 23446 23447 23448 23449 23450 23451 23452 23453 23454 23455 23456 23457 23458 23459 23460 23461 23462 23463 23464 23465 23466 23467 23468 23469 23470 23471 23472 23473 23474 23475 23476 23477 23478 23479 23480 23481 23482 23483 23484 23485 23486 23487 23488 23489 23490 23491 23492 23493 23494 23495 23496 23497 23498 23499 23500 23501 23502 23503 23504 23505 23506 23507 23508 23509 23510 23511 23512 23513 23514 23515 23516 23517 23518 23519 23520 23521 23522 23523 23524 23525 23526 23527 23528 23529 23530 23531 23532 23533 23534 23535 23536 23537 23538 23539 23540 23541 23542 23543 23544 23545 23546 23547 23548 23549 23550 23551 23552 23553 23554 23555 23556 23557 23558 23559 23560 23561 23562 23563 23564 23565 23566 23567 23568 23569 23570 23571 23572 23573 23574 23575 23576 23577 23578 23579 23580 23581 23582 23583 23584 23585 23586 23587 23588 23589 23590 23591 23592 23593 23594 23595 23596 23597 23598 23599 23600 23601 23602 23603 23604 23605 23606 23607 23608 23609 23610 23611 23612 23613 23614 23615 23616 23617 23618 23619 23620 23621 23622 23623 23624 23625 23626 23627 23628 23629 23630 23631 23632 23633 23634 23635 23636 23637 23638 23639 23640 23641 23642 23643 23644 23645 23646 23647 23648 23649 23650 23651 23652 23653 23654 23655 23656 23657 23658 23659 23660 23661 23662 23663 23664 23665 23666 23667 23668 23669 23670 23671 23672 23673 23674 23675 23676 23677 23678 23679 23680 23681 23682 23683 23684 23685 23686 23687 23688 23689 23690 23691 23692 23693 23694 23695 23696 23697 23698 23699 23700 23701 23702 23703 23704 23705 23706 23707 23708 23709 23710 23711 23712 23713 23714 23715 23716 23717 23718 23719 23720 23721 23722 23723 23724 23725 23726 23727 23728 23729 23730 23731 23732 23733 23734 23735 23736 23737 23738 23739 23740 23741 23742 23743 23744 23745 23746 23747 23748 23749 23750 23751 23752 23753 23754 23755 23756 23757 23758 23759 23760 23761 23762 23763 23764 23765 23766 23767 23768 23769 23770 23771 23772 23773 23774 23775 23776 23777 23778 23779 23780 23781 23782 23783 23784 23785 23786 23787 23788 23789 23790 23791 23792 23793 23794 23795 23796 23797 23798 23799 23800 23801 23802 23803 23804 23805 23806 23807 23808 23809 23810 23811 23812 23813 23814 23815 23816 23817 23818 23819 23820 23821 23822 23823 23824 23825 23826 23827 23828 23829 23830 23831 23832 23833 23834 23835 23836 23837 23838 23839 23840 23841 23842 23843 23844 23845 23846 23847 23848 23849 23850 23851 23852 23853 23854 23855 23856 23857 23858 23859 23860 23861 23862 23863 23864 23865 23866 23867 23868 23869 23870 23871 23872 23873 23874 23875 23876 23877 23878 23879 23880 23881 23882 23883 23884 23885 23886 23887 23888 23889 23890 23891 23892 23893 23894 23895 23896 23897 23898 23899 23900 23901 23902 23903 23904 23905 23906 23907 23908 23909 23910 23911 23912 23913 23914 23915 23916 23917 23918 23919 23920 23921 23922 23923 23924 23925 23926 23927 23928 23929 23930 23931 23932 23933 23934 23935 23936 23937 23938 23939 23940 23941 23942 23943 23944 23945 23946 23947 23948 23949 23950 23951 23952 23953 23954 23955 23956 23957 23958 23959 23960 23961 23962 23963 23964 23965 23966 23967 23968 23969 23970 23971 23972 23973 23974 23975 23976 23977 23978 23979 23980 23981 23982 23983 23984 23985 23986 23987 23988 23989 23990 23991 23992 23993 23994 23995 23996 23997 23998 23999 24000 24001 24002 24003 24004 24005 24006 24007 24008 24009 24010 24011 24012 24013 24014 24015 24016 24017 24018 24019 24020 24021 24022 24023 24024 24025 24026 24027 24028 24029 24030 24031 24032 24033 24034 24035 24036 24037 24038 24039 24040 24041 24042 24043 24044 24045 24046 24047 24048 24049 24050 24051 24052 24053 24054 24055 24056 24057 24058 24059 24060 24061 24062 24063 24064 24065 24066 24067 24068 24069 24070 24071 24072 24073 24074 24075 24076 24077 24078 24079 24080 24081 24082 24083 24084 24085 24086 24087 24088 24089 24090 24091 24092 24093 24094 24095 24096 24097 24098 24099 24100 24101 24102 24103 24104 24105 24106 24107 24108 24109 24110 24111 24112 24113 24114 24115 24116 24117 24118 24119 24120 24121 24122 24123 24124 24125 24126 24127 24128 24129 24130 24131 24132 24133 24134 24135 24136 24137 24138 24139 24140 24141 24142 24143 24144 24145 24146 24147 24148 24149 24150 24151 24152 24153 24154 24155 24156 24157 24158 24159 24160 24161 24162 24163 24164 24165 24166 24167 24168 24169 24170 24171 24172 24173 24174 24175 24176 24177 24178 24179 24180 24181 24182 24183 24184 24185 24186 24187 24188 24189 24190 24191 24192 24193 24194 24195 24196 24197 24198 24199 24200 24201 24202 24203 24204 24205 24206 24207 24208 24209 24210 24211 24212 24213 24214 24215 24216 24217 24218 24219 24220 24221 24222 24223 24224 24225 24226 24227 24228 24229 24230 24231 24232 24233 24234 24235 24236 24237 24238 24239 24240 24241 24242 24243 24244 24245 24246 24247 24248 24249 24250 24251 24252 24253 24254 24255 24256 24257 24258 24259 24260 24261 24262 24263 24264 24265 24266 24267 24268 24269 24270 24271 24272 24273 24274 24275 24276 24277 24278 24279 24280 24281 24282 24283 24284 24285 24286 24287 24288 24289 24290 24291 24292 24293 24294 24295 24296 24297 24298 24299 24300 24301 24302 24303 24304 24305 24306 24307 24308 24309 24310 24311 24312 24313 24314 24315 24316 24317 24318 24319 24320 24321 24322 24323 24324 24325 24326 24327 24328 24329 24330 24331 24332 24333 24334 24335 24336 24337 24338 24339 24340 24341 24342 24343 24344 24345 24346 24347 24348 24349 24350 24351 24352 24353 24354 24355 24356 24357 24358 24359 24360 24361 24362 24363 24364 24365 24366 24367 24368 24369 24370 24371 24372 24373 24374 24375 24376 24377 24378 24379 24380 24381 24382 24383 24384 24385 24386 24387 24388 24389 24390 24391 24392 24393 24394 24395 24396 24397 24398 24399 24400 24401 24402 24403 24404 24405 24406 24407 24408 24409 24410 24411 24412 24413 24414 24415 24416 24417 24418 24419 24420 24421 24422 24423 24424 24425 24426 24427 24428 24429 24430 24431 24432 24433 24434 24435 24436 24437 24438 24439 24440 24441 24442 24443 24444 24445 24446 24447 24448 24449 24450 24451 24452 24453 24454 24455 24456 24457 24458 24459 24460 24461 24462 24463 24464 24465 24466 24467 24468 24469 24470 24471 24472 24473 24474 24475 24476 24477 24478 24479 24480 24481 24482 24483 24484 24485 24486 24487 24488 24489 24490 24491 24492 24493 24494 24495 24496 24497 24498 24499 24500 24501 24502 24503 24504 24505 24506 24507 24508 24509 24510 24511 24512 24513 24514 24515 24516 24517 24518 24519 24520 24521 24522 24523 24524 24525 24526 24527 24528 24529 24530 24531 24532 24533 24534 24535 24536 24537 24538 24539 24540 24541 24542 24543 24544 24545 24546 24547 24548 24549 24550 24551 24552 24553 24554 24555 24556 24557 24558 24559 24560 24561 24562 24563 24564 24565 24566 24567 24568 24569 24570 24571 24572 24573 24574 24575 24576 24577 24578 24579 24580 24581 24582 24583 24584 24585 24586 24587 24588 24589 24590 24591 24592 24593 24594 24595 24596 24597 24598 24599 24600 24601 24602 24603 24604 24605 24606 24607 24608 24609 24610 24611 24612 24613 24614 24615 24616 24617 24618 24619 24620 24621 24622 24623 24624 24625 24626 24627 24628 24629 24630 24631 24632 24633 24634 24635 24636 24637 24638 24639 24640 24641 24642 24643 24644 24645 24646 24647 24648 24649 24650 24651 24652 24653 24654 24655 24656 24657 24658 24659 24660 24661 24662 24663 24664 24665 24666 24667 24668 24669 24670 24671 24672 24673 24674 24675 24676 24677 24678 24679 24680 24681 24682 24683 24684 24685 24686 24687 24688 24689 24690 24691 24692 24693 24694 24695 24696 24697 24698 24699 24700 24701 24702 24703 24704 24705 24706 24707 24708 24709 24710 24711 24712 24713 24714 24715 24716 24717 24718 24719 24720 24721 24722 24723 24724 24725 24726 24727 24728 24729 24730 24731 24732 24733 24734 24735 24736 24737 24738 24739 24740 24741 24742 24743 24744 24745 24746 24747 24748 24749 24750 24751 24752 24753 24754 24755 24756 24757 24758 24759 24760 24761 24762 24763 24764 24765 24766 24767 24768 24769 24770 24771 24772 24773 24774 24775 24776 24777 24778 24779 24780 24781 24782 24783 24784 24785 24786 24787 24788 24789 24790 24791 24792 24793 24794 24795 24796 24797 24798 24799 24800 24801 24802 24803 24804 24805 24806 24807 24808 24809 24810 24811 24812 24813 24814 24815 24816 24817 24818 24819 24820 24821 24822 24823 24824 24825 24826 24827 24828 24829 24830 24831 24832 24833 24834 24835 24836 24837 24838 24839 24840 24841 24842 24843 24844 24845 24846 24847 24848 24849 24850 24851 24852 24853 24854 24855 24856 24857 24858 24859 24860 24861 24862 24863 24864 24865 24866 24867 24868 24869 24870 24871 24872 24873 24874 24875 24876 24877 24878 24879 24880 24881 24882 24883 24884 24885 24886 24887 24888 24889 24890 24891 24892 24893 24894 24895 24896 24897 24898 24899 24900 24901 24902 24903 24904 24905 24906 24907 24908 24909 24910 24911 24912 24913 24914 24915 24916 24917 24918 24919 24920 24921 24922 24923 24924 24925 24926 24927 24928 24929 24930 24931 24932 24933 24934 24935 24936 24937 24938 24939 24940 24941 24942 24943 24944 24945 24946 24947 24948 24949 24950 24951 24952 24953 24954 24955 24956 24957 24958 24959 24960 24961 24962 24963 24964 24965 24966 24967 24968 24969 24970 24971 24972 24973 24974 24975 24976 24977 24978 24979 24980 24981 24982 24983 24984 24985 24986 24987 24988 24989 24990 24991 24992 24993 24994 24995 24996 24997 24998 24999 25000 25001 25002 25003 25004 25005 25006 25007 25008 25009 25010 25011 25012 25013 25014 25015 25016 25017 25018 25019 25020 25021 25022 25023 25024 25025 25026 25027 25028 25029 25030 25031 25032 25033 25034 25035 25036 25037 25038 25039 25040 25041 25042 25043 25044 25045 25046 25047 25048 25049 25050 25051 25052 25053 25054 25055 25056 25057 25058 25059 25060 25061 25062 25063 25064 25065 25066 25067 25068 25069 25070 25071 25072 25073 25074 25075 25076 25077 25078 25079 25080 25081 25082 25083 25084 25085 25086 25087 25088 25089 25090 25091 25092 25093 25094 25095 25096 25097 25098 25099 25100 25101 25102 25103 25104 25105 25106 25107 25108 25109 25110 25111 25112 25113 25114 25115 25116 25117 25118 25119 25120 25121 25122 25123 25124 25125 25126 25127 25128 25129 25130 25131 25132 25133 25134 25135 25136 25137 25138 25139 25140 25141 25142 25143 25144 25145 25146 25147 25148 25149 25150 25151 25152 25153 25154 25155 25156 25157 25158 25159 25160 25161 25162 25163 25164 25165 25166 25167 25168 25169 25170 25171 25172 25173 25174 25175 25176 25177 25178 25179 25180 25181 25182 25183 25184 25185 25186 25187 25188 25189 25190 25191 25192 25193 25194 25195 25196 25197 25198 25199 25200 25201 25202 25203 25204 25205 25206 25207 25208 25209 25210 25211 25212 25213 25214 25215 25216 25217 25218 25219 25220 25221 25222 25223 25224 25225 25226 25227 25228 25229 25230 25231 25232 25233 25234 25235 25236 25237 25238 25239 25240 25241 25242 25243 25244 25245 25246 25247 25248 25249 25250 25251 25252 25253 25254 25255 25256 25257 25258 25259 25260 25261 25262 25263 25264 25265 25266 25267 25268 25269 25270 25271 25272 25273 25274 25275 25276 25277 25278 25279 25280 25281 25282 25283 25284 25285 25286 25287 25288 25289 25290 25291 25292 25293 25294 25295 25296 25297 25298 25299 25300 25301 25302 25303 25304 25305 25306 25307 25308 25309 25310 25311 25312 25313 25314 25315 25316 25317 25318 25319 25320 25321 25322 25323 25324 25325 25326 25327 25328 25329 25330 25331 25332 25333 25334 25335 25336 25337 25338 25339 25340 25341 25342 25343 25344 25345 25346 25347 25348 25349 25350 25351 25352 25353 25354 25355 25356 25357 25358 25359 25360 25361 25362 25363 25364 25365 25366 25367 25368 25369 25370 25371 25372 25373 25374 25375 25376 25377 25378 25379 25380 25381 25382 25383 25384 25385 25386 25387 25388 25389 25390 25391 25392 25393 25394 25395 25396 25397 25398 25399 25400 25401 25402 25403 25404 25405 25406 25407 25408 25409 25410 25411 25412 25413 25414 25415 25416 25417 25418 25419 25420 25421 25422 25423 25424 25425 25426 25427 25428 25429 25430 25431 25432 25433 25434 25435 25436 25437 25438 25439 25440 25441 25442 25443 25444 25445 25446 25447 25448 25449 25450 25451 25452 25453 25454 25455 25456 25457 25458 25459 25460 25461 25462 25463 25464 25465 25466 25467 25468 25469 25470 25471 25472 25473 25474 25475 25476 25477 25478 25479 25480 25481 25482 25483 25484 25485 25486 25487 25488 25489 25490 25491 25492 25493 25494 25495 25496 25497 25498 25499 25500 25501 25502 25503 25504 25505 25506 25507 25508 25509 25510 25511 25512 25513 25514 25515 25516 25517 25518 25519 25520 25521 25522 25523 25524 25525 25526 25527 25528 25529 25530 25531 25532 25533 25534 25535 25536 25537 25538 25539 25540 25541 25542 25543 25544 25545 25546 25547 25548 25549 25550 25551 25552 25553 25554 25555 25556 25557 25558 25559 25560 25561 25562 25563 25564 25565 25566 25567 25568 25569 25570 25571 25572 25573 25574 25575 25576 25577 25578 25579 25580 25581 25582 25583 25584 25585 25586 25587 25588 25589 25590 25591 25592 25593 25594 25595 25596 25597 25598 25599 25600 25601 25602 25603 25604 25605 25606 25607 25608 25609 25610 25611 25612 25613 25614 25615 25616 25617 25618 25619 25620 25621 25622 25623 25624 25625 25626 25627 25628 25629 25630 25631 25632 25633 25634 25635 25636 25637 25638 25639 25640 25641 25642 25643 25644 25645 25646 25647 25648 25649 25650 25651 25652 25653 25654 25655 25656 25657 25658 25659 25660 25661 25662 25663 25664 25665 25666 25667 25668 25669 25670 25671 25672 25673 25674 25675 25676 25677 25678 25679 25680 25681 25682 25683 25684 25685 25686 25687 25688 25689 25690 25691 25692 25693 25694 25695 25696 25697 25698 25699 25700 25701 25702 25703 25704 25705 25706 25707 25708 25709 25710 25711 25712 25713 25714 25715 25716 25717 25718 25719 25720 25721 25722 25723 25724 25725 25726 25727 25728 25729 25730 25731 25732 25733 25734 25735 25736 25737 25738 25739 25740 25741 25742 25743 25744 25745 25746 25747 25748 25749 25750 25751 25752 25753 25754 25755 25756 25757 25758 25759 25760 25761 25762 25763 25764 25765 25766 25767 25768 25769 25770 25771 25772 25773 25774 25775 25776 25777 25778 25779 25780 25781 25782 25783 25784 25785 25786 25787 25788 25789 25790 25791 25792 25793 25794 25795 25796 25797 25798 25799 25800 25801 25802 25803 25804 25805 25806 25807 25808 25809 25810 25811 25812 25813 25814 25815 25816 25817 25818 25819 25820 25821 25822 25823 25824 25825 25826 25827 25828 25829 25830 25831 25832 25833 25834 25835 25836 25837 25838 25839 25840 25841 25842 25843 25844 25845 25846 25847 25848 25849 25850 25851 25852 25853 25854 25855 25856 25857 25858 25859 25860 25861 25862 25863 25864 25865 25866 25867 25868 25869 25870 25871 25872 25873 25874 25875 25876 25877 25878 25879 25880 25881 25882 25883 25884 25885 25886 25887 25888 25889 25890 25891 25892 25893 25894 25895 25896 25897 25898 25899 25900 25901 25902 25903 25904 25905 25906 25907 25908 25909 25910 25911 25912 25913 25914 25915 25916 25917 25918 25919 25920 25921 25922 25923 25924 25925 25926 25927 25928 25929 25930 25931 25932 25933 25934 25935 25936 25937 25938 25939 25940 25941 25942 25943 25944 25945 25946 25947 25948 25949 25950 25951 25952 25953 25954 25955 25956 25957 25958 25959 25960 25961 25962 25963 25964 25965 25966 25967 25968 25969 25970 25971 25972 25973 25974 25975 25976 25977 25978 25979 25980 25981 25982 25983 25984 25985 25986 25987 25988 25989 25990 25991 25992 25993 25994 25995 25996 25997 25998 25999 26000 26001 26002 26003 26004 26005 26006 26007 26008 26009 26010 26011 26012 26013 26014 26015 26016 26017 26018 26019 26020 26021 26022 26023 26024 26025 26026 26027 26028 26029 26030 26031 26032 26033 26034 26035 26036 26037 26038 26039 26040 26041 26042 26043 26044 26045 26046 26047 26048 26049 26050 26051 26052 26053 26054 26055 26056 26057 26058 26059 26060 26061 26062 26063 26064 26065 26066 26067 26068 26069 26070 26071 26072 26073 26074 26075 26076 26077 26078 26079 26080 26081 26082 26083 26084 26085 26086 26087 26088 26089 26090 26091 26092 26093 26094 26095 26096 26097 26098 26099 26100 26101 26102 26103 26104 26105 26106 26107 26108 26109 26110 26111 26112 26113 26114 26115 26116 26117 26118 26119 26120 26121 26122 26123 26124 26125 26126 26127 26128 26129 26130 26131 26132 26133 26134 26135 26136 26137 26138 26139 26140 26141 26142 26143 26144 26145 26146 26147 26148 26149 26150 26151 26152 26153 26154 26155 26156 26157 26158 26159 26160 26161 26162 26163 26164 26165 26166 26167 26168 26169 26170 26171 26172 26173 26174 26175 26176 26177 26178 26179 26180 26181 26182 26183 26184 26185 26186 26187 26188 26189 26190 26191 26192 26193 26194 26195 26196 26197 26198 26199 26200 26201 26202 26203 26204 26205 26206 26207 26208 26209 26210 26211 26212 26213 26214 26215 26216 26217 26218 26219 26220 26221 26222 26223 26224 26225 26226 26227 26228 26229 26230 26231 26232 26233 26234 26235 26236 26237 26238 26239 26240 26241 26242 26243 26244 26245 26246 26247 26248 26249 26250 26251 26252 26253 26254 26255 26256 26257 26258 26259 26260 26261 26262 26263 26264 26265 26266 26267 26268 26269 26270 26271 26272 26273 26274 26275 26276 26277 26278 26279 26280 26281 26282 26283 26284 26285 26286 26287 26288 26289 26290 26291 26292 26293 26294 26295 26296 26297 26298 26299 26300 26301 26302 26303 26304 26305 26306 26307 26308 26309 26310 26311 26312 26313 26314 26315 26316 26317 26318 26319 26320 26321 26322 26323 26324 26325 26326 26327 26328 26329 26330 26331 26332 26333 26334 26335 26336 26337 26338 26339 26340 26341 26342 26343 26344 26345 26346 26347 26348 26349 26350 26351 26352 26353 26354 26355 26356 26357 26358 26359 26360 26361 26362 26363 26364 26365 26366 26367 26368 26369 26370 26371 26372 26373 26374 26375 26376 26377 26378 26379 26380 26381 26382 26383 26384 26385 26386 26387 26388 26389 26390 26391 26392 26393 26394 26395 26396 26397 26398 26399 26400 26401 26402 26403 26404 26405 26406 26407 26408 26409 26410 26411 26412 26413 26414 26415 26416 26417 26418 26419 26420 26421 26422 26423 26424 26425 26426 26427 26428 26429 26430 26431 26432 26433 26434 26435 26436 26437 26438 26439 26440 26441 26442 26443 26444 26445 26446 26447 26448 26449 26450 26451 26452 26453 26454 26455 26456 26457 26458 26459 26460 26461 26462 26463 26464 26465 26466 26467 26468 26469 26470 26471 26472 26473 26474 26475 26476 26477 26478 26479 26480 26481 26482 26483 26484 26485 26486 26487 26488 26489 26490 26491 26492 26493 26494 26495 26496 26497 26498 26499 26500 26501 26502 26503 26504 26505 26506 26507 26508 26509 26510 26511 26512 26513 26514 26515 26516 26517 26518 26519 26520 26521 26522 26523 26524 26525 26526 26527 26528 26529 26530 26531 26532 26533 26534 26535 26536 26537 26538 26539 26540 26541 26542 26543 26544 26545 26546 26547 26548 26549 26550 26551 26552 26553 26554 26555 26556 26557 26558 26559 26560 26561 26562 26563 26564 26565 26566 26567 26568 26569 26570 26571 26572 26573 26574 26575 26576 26577 26578 26579 26580 26581 26582 26583 26584 26585 26586 26587 26588 26589 26590 26591 26592 26593 26594 26595 26596 26597 26598 26599 26600 26601 26602 26603 26604 26605 26606 26607 26608 26609 26610 26611 26612 26613 26614 26615 26616 26617 26618 26619 26620 26621 26622 26623 26624 26625 26626 26627 26628 26629 26630 26631 26632 26633 26634 26635 26636 26637 26638 26639 26640 26641 26642 26643 26644 26645 26646 26647 26648 26649 26650 26651 26652 26653 26654 26655 26656 26657 26658 26659 26660 26661 26662 26663 26664 26665 26666 26667 26668 26669 26670 26671 26672 26673 26674 26675 26676 26677 26678 26679 26680 26681 26682 26683 26684 26685 26686 26687 26688 26689 26690 26691 26692 26693 26694 26695 26696 26697 26698 26699 26700 26701 26702 26703 26704 26705 26706 26707 26708 26709 26710 26711 26712 26713 26714 26715 26716 26717 26718 26719 26720 26721 26722 26723 26724 26725 26726 26727 26728 26729 26730 26731 26732 26733 26734 26735 26736 26737 26738 26739 26740 26741 26742 26743 26744 26745 26746 26747 26748 26749 26750 26751 26752 26753 26754 26755 26756 26757 26758 26759 26760 26761 26762 26763 26764 26765 26766 26767 26768 26769 26770 26771 26772 26773 26774 26775 26776 26777 26778 26779 26780 26781 26782 26783 26784 26785 26786 26787 26788 26789 26790 26791 26792 26793 26794 26795 26796 26797 26798 26799 26800 26801 26802 26803 26804 26805 26806 26807 26808 26809 26810 26811 26812 26813 26814 26815 26816 26817 26818 26819 26820 26821 26822 26823 26824 26825 26826 26827 26828 26829 26830 26831 26832 26833 26834 26835 26836 26837 26838 26839 26840 26841 26842 26843 26844 26845 26846 26847 26848 26849 26850 26851 26852 26853 26854 26855 26856 26857 26858 26859 26860 26861 26862 26863 26864 26865 26866 26867 26868 26869 26870 26871 26872 26873 26874 26875 26876 26877 26878 26879 26880 26881 26882 26883 26884 26885 26886 26887 26888 26889 26890 26891 26892 26893 26894 26895 26896 26897 26898 26899 26900 26901 26902 26903 26904 26905 26906 26907 26908 26909 26910 26911 26912 26913 26914 26915 26916 26917 26918 26919 26920 26921 26922 26923 26924 26925 26926 26927 26928 26929 26930 26931 26932 26933 26934 26935 26936 26937 26938 26939 26940 26941 26942 26943 26944 26945 26946 26947 26948 26949 26950 26951 26952 26953 26954 26955 26956 26957 26958 26959 26960 26961 26962 26963 26964 26965 26966 26967 26968 26969 26970 26971 26972 26973 26974 26975 26976 26977 26978 26979 26980 26981 26982 26983 26984 26985 26986 26987 26988 26989 26990 26991 26992 26993 26994 26995 26996 26997 26998 26999 27000 27001 27002 27003 27004 27005 27006 27007 27008 27009 27010 27011 27012 27013 27014 27015 27016 27017 27018 27019 27020 27021 27022 27023 27024 27025 27026 27027 27028 27029 27030 27031 27032 27033 27034 27035 27036 27037 27038 27039 27040 27041 27042 27043 27044 27045 27046 27047 27048 27049 27050 27051 27052 27053 27054 27055 27056 27057 27058 27059 27060 27061 27062 27063 27064 27065 27066 27067 27068 27069 27070 27071 27072 27073 27074 27075 27076 27077 27078 27079 27080 27081 27082 27083 27084 27085 27086 27087 27088 27089 27090 27091 27092 27093 27094 27095 27096 27097 27098 27099 27100 27101 27102 27103 27104 27105 27106 27107 27108 27109 27110 27111 27112 27113 27114 27115 27116 27117 27118 27119 27120 27121 27122 27123 27124 27125 27126 27127 27128 27129 27130 27131 27132 27133 27134 27135 27136 27137 27138 27139 27140 27141 27142 27143 27144 27145 27146 27147 27148 27149 27150 27151 27152 27153 27154 27155 27156 27157 27158 27159 27160 27161 27162 27163 27164 27165 27166 27167 27168 27169 27170 27171 27172 27173 27174 27175 27176 27177 27178 27179 27180 27181 27182 27183 27184 27185 27186 27187 27188 27189 27190 27191 27192 27193 27194 27195 27196 27197 27198 27199 27200 27201 27202 27203 27204 27205 27206 27207 27208 27209 27210 27211 27212 27213 27214 27215 27216 27217 27218 27219 27220 27221 27222 27223 27224 27225 27226 27227 27228 27229 27230 27231 27232 27233 27234 27235 27236 27237 27238 27239 27240 27241 27242 27243 27244 27245 27246 27247 27248 27249 27250 27251 27252 27253 27254 27255 27256 27257 27258 27259 27260 27261 27262 27263 27264 27265 27266 27267 27268 27269 27270 27271 27272 27273 27274 27275 27276 27277 27278 27279 27280 27281 27282 27283 27284 27285 27286 27287 27288 27289 27290 27291 27292 27293 27294 27295 27296 27297 27298 27299 27300 27301 27302 27303 27304 27305 27306 27307 27308 27309 27310 27311 27312 27313 27314 27315 27316 27317 27318 27319 27320 27321 27322 27323 27324 27325 27326 27327 27328 27329 27330 27331 27332 27333 27334 27335 27336 27337 27338 27339 27340 27341 27342 27343 27344 27345 27346 27347 27348 27349 27350 27351 27352 27353 27354 27355 27356 27357 27358 27359 27360 27361 27362 27363 27364 27365 27366 27367 27368 27369 27370 27371 27372 27373 27374 27375 27376 27377 27378 27379 27380 27381 27382 27383 27384 27385 27386 27387 27388 27389 27390 27391 27392 27393 27394 27395 27396 27397 27398 27399 27400 27401 27402 27403 27404 27405 27406 27407 27408 27409 27410 27411 27412 27413 27414 27415 27416 27417 27418 27419 27420 27421 27422 27423 27424 27425 27426 27427 27428 27429 27430 27431 27432 27433 27434 27435 27436 27437 27438 27439 27440 27441 27442 27443 27444 27445 27446 27447 27448 27449 27450 27451 27452 27453 27454 27455 27456 27457 27458 27459 27460 27461 27462 27463 27464 27465 27466 27467 27468 27469 27470 27471 27472 27473 27474 27475 27476 27477 27478 27479 27480 27481 27482 27483 27484 27485 27486 27487 27488 27489 27490 27491 27492 27493 27494 27495 27496 27497 27498 27499 27500 27501 27502 27503 27504 27505 27506 27507 27508 27509 27510 27511 27512 27513 27514 27515 27516 27517 27518 27519 27520 27521 27522 27523 27524 27525 27526 27527 27528 27529 27530 27531 27532 27533 27534 27535 27536 27537 27538 27539 27540 27541 27542 27543 27544 27545 27546 27547 27548 27549 27550 27551 27552 27553 27554 27555 27556 27557 27558 27559 27560 27561 27562 27563 27564 27565 27566 27567 27568 27569 27570 27571 27572 27573 27574 27575 27576 27577 27578 27579 27580 27581 27582 27583 27584 27585 27586 27587 27588 27589 27590 27591 27592 27593 27594 27595 27596 27597 27598 27599 27600 27601 27602 27603 27604 27605 27606 27607 27608 27609 27610 27611 27612 27613 27614 27615 27616 27617 27618 27619 27620 27621 27622 27623 27624 27625 27626 27627 27628 27629 27630 27631 27632 27633 27634 27635 27636 27637 27638 27639 27640 27641 27642 27643 27644 27645 27646 27647 27648 27649 27650 27651 27652 27653 27654 27655 27656 27657 27658 27659 27660 27661 27662 27663 27664 27665 27666 27667 27668 27669 27670 27671 27672 27673 27674 27675 27676 27677 27678 27679 27680 27681 27682 27683 27684 27685 27686 27687 27688 27689 27690 27691 27692 27693 27694 27695 27696 27697 27698 27699 27700 27701 27702 27703 27704 27705 27706 27707 27708 27709 27710 27711 27712 27713 27714 27715 27716 27717 27718 27719 27720 27721 27722 27723 27724 27725 27726 27727 27728 27729 27730 27731 27732 27733 27734 27735 27736 27737 27738 27739 27740 27741 27742 27743 27744 27745 27746 27747 27748 27749 27750 27751 27752 27753 27754 27755 27756 27757 27758 27759 27760 27761 27762 27763 27764 27765 27766 27767 27768 27769 27770 27771 27772 27773 27774 27775 27776 27777 27778 27779 27780 27781 27782 27783 27784 27785 27786 27787 27788 27789 27790 27791 27792 27793 27794 27795 27796 27797 27798 27799 27800 27801 27802 27803 27804 27805 27806 27807 27808 27809 27810 27811 27812 27813 27814 27815 27816 27817 27818 27819 27820 27821 27822 27823 27824 27825 27826 27827 27828 27829 27830 27831 27832 27833 27834 27835 27836 27837 27838 27839 27840 27841 27842 27843 27844 27845 27846 27847 27848 27849 27850 27851 27852 27853 27854 27855 27856 27857 27858 27859 27860 27861 27862 27863 27864 27865 27866 27867 27868 27869 27870 27871 27872 27873 27874 27875 27876 27877 27878 27879 27880 27881 27882 27883 27884 27885 27886 27887 27888 27889 27890 27891 27892 27893 27894 27895 27896 27897 27898 27899 27900 27901 27902 27903 27904 27905 27906 27907 27908 27909 27910 27911 27912 27913 27914 27915 27916 27917 27918 27919 27920 27921 27922 27923 27924 27925 27926 27927 27928 27929 27930 27931 27932 27933 27934 27935 27936 27937 27938 27939 27940 27941 27942 27943 27944 27945 27946 27947 27948 27949 27950 27951 27952 27953 27954 27955 27956 27957 27958 27959 27960 27961 27962 27963 27964 27965 27966 27967 27968 27969 27970 27971 27972 27973 27974 27975 27976 27977 27978 27979 27980 27981 27982 27983 27984 27985 27986 27987 27988 27989 27990 27991 27992 27993 27994 27995 27996 27997 27998 27999 28000 28001 28002 28003 28004 28005 28006 28007 28008 28009 28010 28011 28012 28013 28014 28015 28016 28017 28018 28019 28020 28021 28022 28023 28024 28025 28026 28027 28028 28029 28030 28031 28032 28033 28034 28035 28036 28037 28038 28039 28040 28041 28042 28043 28044 28045 28046 28047 28048 28049 28050 28051 28052 28053 28054 28055 28056 28057 28058 28059 28060 28061 28062 28063 28064 28065 28066 28067 28068 28069 28070 28071 28072 28073 28074 28075 28076 28077 28078 28079 28080 28081 28082 28083 28084 28085 28086 28087 28088 28089 28090 28091 28092 28093 28094 28095 28096 28097 28098 28099 28100 28101 28102 28103 28104 28105 28106 28107 28108 28109 28110 28111 28112 28113 28114 28115 28116 28117 28118 28119 28120 28121 28122 28123 28124 28125 28126 28127 28128 28129 28130 28131 28132 28133 28134 28135 28136 28137 28138 28139 28140 28141 28142 28143 28144 28145 28146 28147 28148 28149 28150 28151 28152 28153 28154 28155 28156 28157 28158 28159 28160 28161 28162 28163 28164 28165 28166 28167 28168 28169 28170 28171 28172 28173 28174 28175 28176 28177 28178 28179 28180 28181 28182 28183 28184 28185 28186 28187 28188 28189 28190 28191 28192 28193 28194 28195 28196 28197 28198 28199 28200 28201 28202 28203 28204 28205 28206 28207 28208 28209 28210 28211 28212 28213 28214 28215 28216 28217 28218 28219 28220 28221 28222 28223 28224 28225 28226 28227 28228 28229 28230 28231 28232 28233 28234 28235 28236 28237 28238 28239 28240 28241 28242 28243 28244 28245 28246 28247 28248 28249 28250 28251 28252 28253 28254 28255 28256 28257 28258 28259 28260 28261 28262 28263 28264 28265 28266 28267 28268 28269 28270 28271 28272 28273 28274 28275 28276 28277 28278 28279 28280 28281 28282 28283 28284 28285 28286 28287 28288 28289 28290 28291 28292 28293 28294 28295 28296 28297 28298 28299 28300 28301 28302 28303 28304 28305 28306 28307 28308 28309 28310 28311 28312 28313 28314 28315 28316 28317 28318 28319 28320 28321 28322 28323 28324 28325 28326 28327 28328 28329 28330 28331 28332 28333 28334 28335 28336 28337 28338 28339 28340 28341 28342 28343 28344 28345 28346 28347 28348 28349 28350 28351 28352 28353 28354 28355 28356 28357 28358 28359 28360 28361 28362 28363 28364 28365 28366 28367 28368 28369 28370 28371 28372 28373 28374 28375 28376 28377 28378 28379 28380 28381 28382 28383 28384 28385 28386 28387 28388 28389 28390 28391 28392 28393 28394 28395 28396 28397 28398 28399 28400 28401 28402 28403 28404 28405 28406 28407 28408 28409 28410 28411 28412 28413 28414 28415 28416 28417 28418 28419 28420 28421 28422 28423 28424 28425 28426 28427 28428 28429 28430 28431 28432 28433 28434 28435 28436 28437 28438 28439 28440 28441 28442 28443 28444 28445 28446 28447 28448 28449 28450 28451 28452 28453 28454 28455 28456 28457 28458 28459 28460 28461 28462 28463 28464 28465 28466 28467 28468 28469 28470 28471 28472 28473 28474 28475 28476 28477 28478 28479 28480 28481 28482 28483 28484 28485 28486 28487 28488 28489 28490 28491 28492 28493 28494 28495 28496 28497 28498 28499 28500 28501 28502 28503 28504 28505 28506 28507 28508 28509 28510 28511 28512 28513 28514 28515 28516 28517 28518 28519 28520 28521 28522 28523 28524 28525 28526 28527 28528 28529 28530 28531 28532 28533 28534 28535 28536 28537 28538 28539 28540 28541 28542 28543 28544 28545 28546 28547 28548 28549 28550 28551 28552 28553 28554 28555 28556 28557 28558 28559 28560 28561 28562 28563 28564 28565 28566 28567 28568 28569 28570 28571 28572 28573 28574 28575 28576 28577 28578 28579 28580 28581 28582 28583 28584 28585 28586 28587 28588 28589 28590 28591 28592 28593 28594 28595 28596 28597 28598 28599 28600 28601 28602 28603 28604 28605 28606 28607 28608 28609 28610 28611 28612 28613 28614 28615 28616 28617 28618 28619 28620 28621 28622 28623 28624 28625 28626 28627 28628 28629 28630 28631 28632 28633 28634 28635 28636 28637 28638 28639 28640 28641 28642 28643 28644 28645 28646 28647 28648 28649 28650 28651 28652 28653 28654 28655 28656 28657 28658 28659 28660 28661 28662 28663 28664 28665 28666 28667 28668 28669 28670 28671 28672 28673 28674 28675 28676 28677 28678 28679 28680 28681 28682 28683 28684 28685 28686 28687 28688 28689 28690 28691 28692 28693 28694 28695 28696 28697 28698 28699 28700 28701 28702 28703 28704 28705 28706 28707 28708 28709 28710 28711 28712 28713 28714 28715 28716 28717 28718 28719 28720 28721 28722 28723 28724 28725 28726 28727 28728 28729 28730 28731 28732 28733 28734 28735 28736 28737 28738 28739 28740 28741 28742 28743 28744 28745 28746 28747 28748 28749 28750 28751 28752 28753 28754 28755 28756 28757 28758 28759 28760 28761 28762 28763 28764 28765 28766 28767 28768 28769 28770 28771 28772 28773 28774 28775 28776 28777 28778 28779 28780 28781 28782 28783 28784 28785 28786 28787 28788 28789 28790 28791 28792 28793 28794 28795 28796 28797 28798 28799 28800 28801 28802 28803 28804 28805 28806 28807 28808 28809 28810 28811 28812 28813 28814 28815 28816 28817 28818 28819 28820 28821 28822 28823 28824 28825 28826 28827 28828 28829 28830 28831 28832 28833 28834 28835 28836 28837 28838 28839 28840 28841 28842 28843 28844 28845 28846 28847 28848 28849 28850 28851 28852 28853 28854 28855 28856 28857 28858 28859 28860 28861 28862 28863 28864 28865 28866 28867 28868 28869 28870 28871 28872 28873 28874 28875 28876 28877 28878 28879 28880 28881 28882 28883 28884 28885 28886 28887 28888 28889 28890 28891 28892 28893 28894 28895 28896 28897 28898 28899 28900 28901 28902 28903 28904 28905 28906 28907 28908 28909 28910 28911 28912 28913 28914 28915 28916 28917 28918 28919 28920 28921 28922 28923 28924 28925 28926 28927 28928 28929 28930 28931 28932 28933 28934 28935 28936 28937 28938 28939 28940 28941 28942 28943 28944 28945 28946 28947 28948 28949 28950 28951 28952 28953 28954 28955 28956 28957 28958 28959 28960 28961 28962 28963 28964 28965 28966 28967 28968 28969 28970 28971 28972 28973 28974 28975 28976 28977 28978 28979 28980 28981 28982 28983 28984 28985 28986 28987 28988 28989 28990 28991 28992 28993 28994 28995 28996 28997 28998 28999 29000 29001 29002 29003 29004 29005 29006 29007 29008 29009 29010 29011 29012 29013 29014 29015 29016 29017 29018 29019 29020 29021 29022 29023 29024 29025 29026 29027 29028 29029 29030 29031 29032 29033 29034 29035 29036 29037 29038 29039 29040 29041 29042 29043 29044 29045 29046 29047 29048 29049 29050 29051 29052 29053 29054 29055 29056 29057 29058 29059 29060 29061 29062 29063 29064 29065 29066 29067 29068 29069 29070 29071 29072 29073 29074 29075 29076 29077 29078 29079 29080 29081 29082 29083 29084 29085 29086 29087 29088 29089 29090 29091 29092 29093 29094 29095 29096 29097 29098 29099 29100 29101 29102 29103 29104 29105 29106 29107 29108 29109 29110 29111 29112 29113 29114 29115 29116 29117 29118 29119 29120 29121 29122 29123 29124 29125 29126 29127 29128 29129 29130 29131 29132 29133 29134 29135 29136 29137 29138 29139 29140 29141 29142 29143 29144 29145 29146 29147 29148 29149 29150 29151 29152 29153 29154 29155 29156 29157 29158 29159 29160 29161 29162 29163 29164 29165 29166 29167 29168 29169 29170 29171 29172 29173 29174 29175 29176 29177 29178 29179 29180 29181 29182 29183 29184 29185 29186 29187 29188 29189 29190 29191 29192 29193 29194 29195 29196 29197 29198 29199 29200 29201 29202 29203 29204 29205 29206 29207 29208 29209 29210 29211 29212 29213 29214 29215 29216 29217 29218 29219 29220 29221 29222 29223 29224 29225 29226 29227 29228 29229 29230 29231 29232 29233 29234 29235 29236 29237 29238 29239 29240 29241 29242 29243 29244 29245 29246 29247 29248 29249 29250 29251 29252 29253 29254 29255 29256 29257 29258 29259 29260 29261 29262 29263 29264 29265 29266 29267 29268 29269 29270 29271 29272 29273 29274 29275 29276 29277 29278 29279 29280 29281 29282 29283 29284 29285 29286 29287 29288 29289 29290 29291 29292 29293 29294 29295 29296 29297 29298 29299 29300 29301 29302 29303 29304 29305 29306 29307 29308 29309 29310 29311 29312 29313 29314 29315 29316 29317 29318 29319 29320 29321 29322 29323 29324 29325 29326 29327 29328 29329 29330 29331 29332 29333 29334 29335 29336 29337 29338 29339 29340 29341 29342 29343 29344 29345 29346 29347 29348 29349 29350 29351 29352 29353 29354 29355 29356 29357 29358 29359 29360 29361 29362 29363 29364 29365 29366 29367 29368 29369 29370 29371 29372 29373 29374 29375 29376 29377 29378 29379 29380 29381 29382 29383 29384 29385 29386 29387 29388 29389 29390 29391 29392 29393 29394 29395 29396 29397 29398 29399 29400 29401 29402 29403 29404 29405 29406 29407 29408 29409 29410 29411 29412 29413 29414 29415 29416 29417 29418 29419 29420 29421 29422 29423 29424 29425 29426 29427 29428 29429 29430 29431 29432 29433 29434 29435 29436 29437 29438 29439 29440 29441 29442 29443 29444 29445 29446 29447 29448 29449 29450 29451 29452 29453 29454 29455 29456 29457 29458 29459 29460 29461 29462 29463 29464 29465 29466 29467 29468 29469 29470 29471 29472 29473 29474 29475 29476 29477 29478 29479 29480 29481 29482 29483 29484 29485 29486 29487 29488 29489 29490 29491 29492 29493 29494 29495 29496 29497 29498 29499 29500 29501 29502 29503 29504 29505 29506 29507 29508 29509 29510 29511 29512 29513 29514 29515 29516 29517 29518 29519 29520 29521 29522 29523 29524 29525 29526 29527 29528 29529 29530 29531 29532 29533 29534 29535 29536 29537 29538 29539 29540 29541 29542 29543 29544 29545 29546 29547 29548 29549 29550 29551 29552 29553 29554 29555 29556 29557 29558 29559 29560 29561 29562 29563 29564 29565 29566 29567 29568 29569 29570 29571 29572 29573 29574 29575 29576 29577 29578 29579 29580 29581 29582 29583 29584 29585 29586 29587 29588 29589 29590 29591 29592 29593 29594 29595 29596 29597 29598 29599 29600 29601 29602 29603 29604 29605 29606 29607 29608 29609 29610 29611 29612 29613 29614 29615 29616 29617 29618 29619 29620 29621 29622 29623 29624 29625 29626 29627 29628 29629 29630 29631 29632 29633 29634 29635 29636 29637 29638 29639 29640 29641 29642 29643 29644 29645 29646 29647 29648 29649 29650 29651 29652 29653 29654 29655 29656 29657 29658 29659 29660 29661 29662 29663 29664 29665 29666 29667 29668 29669 29670 29671 29672 29673 29674 29675 29676 29677 29678 29679 29680 29681 29682 29683 29684 29685 29686 29687 29688 29689 29690 29691 29692 29693 29694 29695 29696 29697 29698 29699 29700 29701 29702 29703 29704 29705 29706 29707 29708 29709 29710 29711 29712 29713 29714 29715 29716 29717 29718 29719 29720 29721 29722 29723 29724 29725 29726 29727 29728 29729 29730 29731 29732 29733 29734 29735 29736 29737 29738 29739 29740 29741 29742 29743 29744 29745 29746 29747 29748 29749 29750 29751 29752 29753 29754 29755 29756 29757 29758 29759 29760 29761 29762 29763 29764 29765 29766 29767 29768 29769 29770 29771 29772 29773 29774 29775 29776 29777 29778 29779 29780 29781 29782 29783 29784 29785 29786 29787 29788 29789 29790 29791 29792 29793 29794 29795 29796 29797 29798 29799 29800 29801 29802 29803 29804 29805 29806 29807 29808 29809 29810 29811 29812 29813 29814 29815 29816 29817 29818 29819 29820 29821 29822 29823 29824 29825 29826 29827 29828 29829 29830 29831 29832 29833 29834 29835 29836 29837 29838 29839 29840 29841 29842 29843 29844 29845 29846 29847 29848 29849 29850 29851 29852 29853 29854 29855 29856 29857 29858 29859 29860 29861 29862 29863 29864 29865 29866 29867 29868 29869 29870 29871 29872 29873 29874 29875 29876 29877 29878 29879 29880 29881 29882 29883 29884 29885 29886 29887 29888 29889 29890 29891 29892 29893 29894 29895 29896 29897 29898 29899 29900 29901 29902 29903 29904 29905 29906 29907 29908 29909 29910 29911 29912 29913 29914 29915 29916 29917 29918 29919 29920 29921 29922 29923 29924 29925 29926 29927 29928 29929 29930 29931 29932 29933 29934 29935 29936 29937 29938 29939 29940 29941 29942 29943 29944 29945 29946 29947 29948 29949 29950 29951 29952 29953 29954 29955 29956 29957 29958 29959 29960 29961 29962 29963 29964 29965 29966 29967 29968 29969 29970 29971 29972 29973 29974 29975 29976 29977 29978 29979 29980 29981 29982 29983 29984 29985 29986 29987 29988 29989 29990 29991 29992 29993 29994 29995 29996 29997 29998 29999 30000 30001 30002 30003 30004 30005 30006 30007 30008 30009 30010 30011 30012 30013 30014 30015 30016 30017 30018 30019 30020 30021 30022 30023 30024 30025 30026 30027 30028 30029 30030 30031 30032 30033 30034 30035 30036 30037 30038 30039 30040 30041 30042 30043 30044 30045 30046 30047 30048 30049 30050 30051 30052 30053 30054 30055 30056 30057 30058 30059 30060 30061 30062 30063 30064 30065 30066 30067 30068 30069 30070 30071 30072 30073 30074 30075 30076 30077 30078 30079 30080 30081 30082 30083 30084 30085 30086 30087 30088 30089 30090 30091 30092 30093 30094 30095 30096 30097 30098 30099 30100 30101 30102 30103 30104 30105 30106 30107 30108 30109 30110 30111 30112 30113 30114 30115 30116 30117 30118 30119 30120 30121 30122 30123 30124 30125 30126 30127 30128 30129 30130 30131 30132 30133 30134 30135 30136 30137 30138 30139 30140 30141 30142 30143 30144 30145 30146 30147 30148 30149 30150 30151 30152 30153 30154 30155 30156 30157 30158 30159 30160 30161 30162 30163 30164 30165 30166 30167 30168 30169 30170 30171 30172 30173 30174 30175 30176 30177 30178 30179 30180 30181 30182 30183 30184 30185 30186 30187 30188 30189 30190 30191 30192 30193 30194 30195 30196 30197 30198 30199 30200 30201 30202 30203 30204 30205 30206 30207 30208 30209 30210 30211 30212 30213 30214 30215 30216 30217 30218 30219 30220 30221 30222 30223 30224 30225 30226 30227 30228 30229 30230 30231 30232 30233 30234 30235 30236 30237 30238 30239 30240 30241 30242 30243 30244 30245 30246 30247 30248 30249 30250 30251 30252 30253 30254 30255 30256 30257 30258 30259 30260 30261 30262 30263 30264 30265 30266 30267 30268 30269 30270 30271 30272 30273 30274 30275 30276 30277 30278 30279 30280 30281 30282 30283 30284 30285 30286 30287 30288 30289 30290 30291 30292 30293 30294 30295 30296 30297 30298 30299 30300 30301 30302 30303 30304 30305 30306 30307 30308 30309 30310 30311 30312 30313 30314 30315 30316 30317 30318 30319 30320 30321 30322 30323 30324 30325 30326 30327 30328 30329 30330 30331 30332 30333 30334 30335 30336 30337 30338 30339 30340 30341 30342 30343 30344 30345 30346 30347 30348 30349 30350 30351 30352 30353 30354 30355 30356 30357 30358 30359 30360 30361 30362 30363 30364 30365 30366 30367 30368 30369 30370 30371 30372 30373 30374 30375 30376 30377 30378 30379 30380 30381 30382 30383 30384 30385 30386 30387 30388 30389 30390 30391 30392 30393 30394 30395 30396 30397 30398 30399 30400 30401 30402 30403 30404 30405 30406 30407 30408 30409 30410 30411 30412 30413 30414 30415 30416 30417 30418 30419 30420 30421 30422 30423 30424 30425 30426 30427 30428 30429 30430 30431 30432 30433 30434 30435 30436 30437 30438 30439 30440 30441 30442 30443 30444 30445 30446 30447 30448 30449 30450 30451 30452 30453 30454 30455 30456 30457 30458 30459 30460 30461 30462 30463 30464 30465 30466 30467 30468 30469 30470 30471 30472 30473 30474 30475 30476 30477 30478 30479 30480 30481 30482 30483 30484 30485 30486 30487 30488 30489 30490 30491 30492 30493 30494 30495 30496 30497 30498 30499 30500 30501 30502 30503 30504 30505 30506 30507 30508 30509 30510 30511 30512 30513 30514 30515 30516 30517 30518 30519 30520 30521 30522 30523 30524 30525 30526 30527 30528 30529 30530 30531 30532 30533 30534 30535 30536 30537 30538 30539 30540 30541 30542 30543 30544 30545 30546 30547 30548 30549 30550 30551 30552 30553 30554 30555 30556 30557 30558 30559 30560 30561 30562 30563 30564 30565 30566 30567 30568 30569 30570 30571 30572 30573 30574 30575 30576 30577 
</DataArray>
<DataArray type="UInt32" Name="offsets" format="ascii">
3 6 9 12 15 18 20 23 26 29 31 34 37 40 42 45 48 51 54 57 60 62 64 67 70 73 76 78 80 83 85 87 90 92 95 98 101 103 106 109 111 114 117 120 123 126 129 132 134 137 140 143 146 149 152 155 158 160 163 166 168 171 173 176 178 181 183 186 189 192 195 198 201 204 207 210 213 216 219 222 225 228 231 233 236 239 242 245 248 251 254 257 259 262 265 267 269 272 275 278 281 284 287 290 293 296 299 302 305 307 310 313 316 319 322 324 327 330 332 335 338 341 344 347 350 353 356 359 362 365 368 371 374 377 380 383 386 389 391 394 397 400 403 406 408 411 414 417 420 423 426 429 432 435 438 441 444 447 450 453 456 459 462 465 468 471 474 477 480 482 485 487 490 493 496 498 501 504 507 509 512 515 518 520 522 525 528 530 533 536 539 542 544 547 550 553 556 559 561 564 567 570 573 575 578 580 583 586 588 591 594 597 599 602 605 607 610 613 616 619 622 625 628 631 634 637 639 642 645 647 650 653 656 659 662 665 668 670 673 676 679 682 685 688 691 694 697 700 703 706 709 712 715 718 721 724 727 730 733 735 738 740 743 746 749 752 755 757 760 763 766 769 772 775 778 781 783 786 789 792 794 797 800 802 805 808 811 814 816 819 822 824 827 830 833 836 839 841 844 846 849 852 855 858 861 864 867 870 873 876 879 882 885 888 891 894 897 900 902 905 908 911 914 917 919 921 924 927 930 933 936 939 942 945 948 951 953 956 959 962 965 968 971 974 977 980 982 985 988 990 992 995 998 1001 1003 1006 1009 1011 1014 1017 1020 1023 1026 1029 1032 1035 1038 1041 1044 1047 1050 1053 1056 1058 1061 1064 1067 1070 1073 1076 1079 1082 1084 1087 1090 1092 1095 1098 1101 1104 1106 1109 1112 1115 1118 1121 1124 1127 1130 1133 1136 1139 1142 1145 1148 1150 1152 1155 1158 1160 1162 1165 1167 1170 1172 1175 1177 1180 1183 1185 1188 1191 1194 1197 1200 1203 1206 1209 1212 1214 1216 1219 1222 1224 1227 1230 1233 1236 1239 1241 1244 1247 1249 1252 1255 1258 1261 1263 1266 1269 1272 1274 1277 1280 1283 1285 1288 1290 1293 1296 1298 1301 1304 1307 1310 1313 1316 1319 1322 1325 1328 1331 1333 1336 1339 1342 1345 1348 1351 1353 1356 1359 1362 1364 1367 1370 1373 1376 1379 1382 1385 1387 1390 1393 1396 1399 1402 1404 1407 1409 1412 1415 1418 1421 1424 1426 1428 1431 1434 1437 1439 1441 1444 1446 1449 1452 1455 1458 1461 1464 1467 1469 1472 1475 1478 1481 1484 1487 1490 1493 1496 1499 1502 1505 1508 1511 1513 1516 1519 1521 1524 1526 1529 1532 1535 1538 1541 1544 1547 1550 1553 1556 1559 1562 1565 1568 1570 1573 1576 1579 1582 1585 1588 1591 1594 1597 1600 1603 1606 1609 1612 1615 1618 1620 1623 1626 1629 1632 1635 1638 1641 1644 1647 1650 1653 1655 1657 1660 1663 1666 1669 1672 1675 1678 1681 1684 1687 1690 1693 1696 1699 1702 1705 1707 1710 1713 1716 1719 1722 1725 1728 1730 1733 1736 1739 1742 1745 1748 1751 1754 1756 1759 1762 1765 1767 1770 1773 1776 1779 1782 1785 1788 1791 1794 1797 1800 1803 1806 1809 1812 1815 1818 1821 1824 1827 1830 1833 1836 1839 1842 1845 1848 1851 1853 1856 1858 1861 1864 1867 1870 1873 1876 1879 1882 1885 1888 1891 1894 1897 1899 1902 1905 1908 1910 1913 1916 1919 1922 1925 1928 1931 1934 1937 1940 1943 1946 1949 1951 1953 1956 1959 1962 1965 1968 1971 1974 1976 1979 1982 1985 1988 1991 1994 1997 2000 2003 2006 2009 2011 2014 2017 2020 2023 2026 2029 2032 2034 2037 2040 2043 2046 2049 2052 2055 2058 2061 2064 2067 2070 2073 2076 2079 2082 2085 2087 2090 2093 2096 2099 2102 2105 2108 2111 2114 2117 2119 2122 2125 2128 2131 2134 2136 2139 2142 2145 2147 2150 2153 2156 2159 2161 2164 2167 2170 2173 2176 2179 2182 2184 2187 2189 2192 2195 2197 2200 2202 2205 2208 2211 2214 2217 2220 2223 2226 2229 2232 2235 2238 2241 2244 2247 2250 2253 2256 2259 2262 2265 2268 2271 2274 2277 2280 2283 2286 2289 2292 2295 2298 2301 2304 2307 2309 2312 2314 2316 2319 2322 2325 2328 2331 2334 2337 2340 2343 2346 2349 2351 2354 2357 2360 2363 2366 2369 2372 2374 2377 2379 2382 2384 2387 2390 2393 2396 2399 2402 2404 2407 2409 2411 2414 2417 2420 2423 2426 2429 2432 2435 2438 2441 2444 2447 2450 2453 2456 2459 2462 2464 2467 2470 2473 2476 2479 2482 2485 2488 2491 2494 2497 2500 2503 2506 2508 2511 2514 2517 2520 2523 2526 2529 2532 2535 2538 2541 2544 2547 2549 2552 2555 2558 2561 2564 2567 2570 2573 2576 2578 2581 2584 2587 2590 2593 2595 2597 2600 2603 2606 2609 2611 2613 2616 2619 2622 2625 2628 2631 2634 2637 2640 2643 2646 2648 2651 2654 2657 2660 2662 2665 2668 2671 2674 2677 2680 2682 2685 2688 2690 2693 2695 2698 2701 2704 2706 2709 2712 2715 2718 2721 2724 2727 2729 2732 2735 2738 2741 2743 2745 2748 2751 2753 2756 2759 2762 2764 2766 2768 2770 2773 2776 2778 2781 2784 2787 2790 2793 2796 2799 2802 2804 2806 2809 2812 2815 2818 2821 2824 2826 2829 2831 2834 2837 2840 2842 2845 2848 2851 2854 2857 2860 2863 2866 2869 2872 2875 2878 2881 2884 2887 2890 2893 2896 2899 2902 2905 2908 2911 2914 2917 2920 2923 2926 2928 2931 2934 2937 2940 2943 2946 2949 2952 2955 2958 2961 2964 2967 2970 2973 2976 2979 2982 2985 2988 2991 2993 2996 2999 3002 3005 3008 3011 3014 3017 3020 3022 3025 3028 3031 3034 3037 3040 3042 3045 3048 3051 3054 3057 3059 3062 3065 3068 3071 3074 3076 3079 3082 3085 3088 3091 3094 3097 3100 3103 3106 3108 3111 3114 3117 3120 3122 3124 3127 3130 3132 3135 3138 3141 3144 3146 3149 3152 3154 3157 3160 3163 3166 3169 3171 3173 3176 3179 3182 3185 3188 3191 3193 3196 3199 3202 3205 3208 3211 3214 3216 3218 3221 3224 3227 3229 3232 3235 3238 3240 3243 3246 3248 3251 3253 3256 3259 3262 3264 3267 3270 3272 3274 3277 3280 3283 3286 3289 3292 3294 3297 3299 3302 3304 3307 3310 3313 3315 3317 3320 3322 3325 3328 3331 3334 3337 3340 3343 3346 3349 3352 3355 3358 3361 3364 3367 3370 3372 3375 3378 3381 3384 3387 3390 3393 3395 3398 3401 3404 3407 3410 3412 3415 3418 3421 3423 3426 3429 3432 3435 3437 3440 3442 3445 3447 3450 3453 3456 3459 3461 3464 3467 3469 3472 3475 3478 3481 3484 3487 3490 3493 3496 3499 3502 3504 3507 3510 3513 3516 3518 3521 3524 3527 3530 3532 3535 3538 3541 3544 3547 3550 3552 3555 3558 3561 3563 3566 3568 3570 3573 3576 3579 3582 3585 3588 3591 3594 3597 3600 3603 3606 3609 3612 3615 3618 3621 3624 3627 3630 3633 3636 3639 3642 3645 3648 3651 3654 3656 3659 3662 3664 3666 3669 3671 3674 3677 3680 3683 3685 3688 3691 3693 3696 3699 3702 3705 3708 3711 3714 3717 3720 3723 3726 3729 3732 3735 3738 3741 3744 3747 3750 3753 3756 3759 3762 3765 3768 3771 3774 3777 3779 3782 3785 3788 3791 3794 3797 3800 3803 3805 3808 3811 3814 3817 3820 3823 3826 3828 3831 3833 3836 3839 3842 3844 3847 3850 3853 3856 3859 3862 3865 3867 3870 3872 3875 3878 3881 3884 3887 3889 3892 3895 3898 3901 3904 3907 3910 3913 3916 3919 3922 3925 3928 3931 3934 3937 3940 3943 3946 3949 3952 3955 3958 3961 3964 3967 3970 3973 3976 3979 3982 3985 3988 3991 3994 3997 4000 4003 4006 4008 4010 4013 4016 4018 4021 4024 4027 4029 4032 4035 4038 4040 4042 4045 4048 4050 4053 4056 4059 4062 4065 4068 4071 4074 4077 4080 4083 4086 4089 4092 4095 4098 4101 4104 4107 4110 4113 4115 4118 4120 4123 4126 4129 4132 4135 4138 4141 4144 4147 4150 4153 4156 4159 4162 4165 4168 4171 4174 4177 4180 4183 4186 4189 4192 4195 4198 4201 4204 4207 4210 4213 4216 4219 4222 4225 4228 4231 4234 4237 4240 4243 4246 4249 4252 4255 4257 4260 4262 4265 4267 4270 4273 4275 4278 4281 4284 4287 4290 4293 4296 4299 4302 4305 4308 4311 4314 4317 4320 4323 4326 4329 4332 4335 4338 4341 4344 4347 4350 4353 4356 4358 4361 4364 4367 4370 4373 4376 4379 4382 4385 4388 4391 4394 4397 4400 4403 4406 4409 4412 4415 4418 4421 4424 4427 4430 4433 4436 4439 4442 4445 4448 4451 4454 4457 4460 4463 4466 4469 4472 4475 4478 4481 4484 4487 4490 4493 4496 4499 4502 4505 4507 4510 4513 4516 4519 4521 4524 4527 4530 4533 4536 4539 4542 4545 4547 4550 4553 4556 4559 4562 4564 4566 4568 4571 4574 4577 4580 4582 4584 4587 4590 4592 4595 4598 4601 4604 4607 4610 4613 4616 4619 4622 4625 4628 4631 4634 4636 4638 4641 4643 4646 4649 4652 4655 4658 4661 4664 4667 4670 4673 4676 4679 4682 4685 4688 4691 4694 4697 4699 4702 4705 4708 4711 4714 4717 4719 4722 4725 4728 4731 4734 4737 4740 4743 4746 4749 4752 4755 4758 4761 4764 4767 4770 4773 4775 4778 4781 4784 4787 4790 4793 4796 4799 4802 4804 4807 4810 4812 4815 4818 4821 4824 4827 4830 4833 4836 4839 4842 4845 4848 4851 4854 4857 4860 4862 4865 4867 4870 4873 4876 4879 4881 4884 4886 4889 4892 4894 4896 4899 4902 4904 4907 4910 4913 4915 4918 4921 4924 4927 4930 4933 4935 4938 4941 4944 4946 4949 4952 4955 4958 4960 4963 4966 4969 4972 4975 4978 4981 4983 4986 4989 4992 4995 4998 5000 5003 5006 5008 5011 5014 5017 5020 5023 5026 5029 5031 5034 5037 5040 5042 5044 5047 5050 5053 5055 5058 5061 5064 5067 5070 5072 5074 5076 5079 5082 5085 5088 5091 5094 5097 5100 5103 5105 5107 5110 5112 5115 5118 5121 5124 5127 5129 5132 5135 5137 5140 5142 5145 5148 5151 5153 5156 5159 5161 5164 5167 5170 5173 5176 5179 5182 5184 5187 5190 5192 5194 5197 5200 5202 5205 5207 5210 5213 5215 5218 5221 5223 5226 5228 5231 5234 5237 5239 5242 5245 5247 5250 5252 5255 5258 5260 5263 5265 5268 5271 5274 5277 5279 5281 5284 5287 5290 5293 5296 5299 5302 5305 5308 5310 5313 5316 5319 5322 5325 5328 5331 5334 5337 5340 5343 5346 5349 5352 5355 5358 5361 5364 5366 5368 5371 5374 5377 5379 5382 5385 5388 5391 5393 5396 5399 5401 5404 5407 5410 5412 5415 5418 5420 5423 5426 5429 5432 5434 5437 5440 5443 5446 5449 5451 5454 5457 5460 5462 5464 5467 5470 5472 5475 5478 5481 5484 5487 5489 5491 5494 5497 5500 5503 5505 5508 5511 5514 5517 5519 5522 5525 5528 5531 5534 5537 5540 5543 5546 5549 5552 5555 5558 5561 5564 5567 5570 5573 5576 5579 5582 5585 5588 5591 5594 5597 5600 5603 5605 5608 5611 5614 5617 5620 5623 5626 5629 5632 5635 5638 5640 5643 5646 5649 5652 5654 5657 5660 5663 5665 5668 5671 5673 5676 5679 5682 5685 5688 5690 5693 5696 5699 5702 5705 5708 5711 5714 5717 5720 5723 5726 5729 5732 5735 5738 5741 5744 5747 5750 5752 5755 5758 5761 5764 5767 5769 5772 5775 5778 5781 5784 5787 5790 5792 5795 5798 5801 5804 5807 5810 5813 5816 5819 5822 5825 5828 5831 5833 5836 5839 5842 5845 5848 5850 5852 5855 5858 5861 5864 5866 5869 5871 5874 5877 5880 5882 5884 5887 5890 5892 5895 5898 5901 5903 5906 5909 5912 5915 5917 5920 5923 5925 5927 5930 5933 5936 5939 5942 5945 5947 5950 5953 5955 5958 5961 5964 5967 5969 5972 5975 5978 5981 5984 5987 5990 5993 5996 5999 6002 6005 6008 6011 6014 6017 6020 6023 6026 6028 6031 6033 6036 6039 6042 6044 6047 6049 6052 6054 6057 6060 6062 6065 6068 6070 6072 6074 6077 6080 6083 6085 6088 6091 6094 6097 6100 6103 6105 6108 6111 6114 6117 6120 6123 6126 6128 6131 6133 6136 6139 6142 6145 6148 6151 6154 6156 6159 6162 6165 6168 6171 6174 6177 6180 6183 6186 6189 6191 6194 6197 6199 6202 6205 6208 6211 6214 6217 6220 6223 6226 6229 6232 6235 6238 6241 6244 6247 6249 6252 6255 6258 6261 6264 6267 6270 6273 6276 6279 6282 6285 6288 6291 6294 6297 6300 6303 6306 6309 6312 6314 6317 6320 6323 6325 6328 6331 6334 6337 6340 6343 6346 6349 6352 6355 6357 6360 6363 6366 6369 6372 6375 6378 6381 6384 6387 6389 6392 6395 6398 6401 6404 6407 6409 6412 6415 6418 6420 6423 6426 6429 6432 6435 6438 6441 6444 6447 6450 6453 6456 6459 6462 6465 6468 6471 6474 6477 6480 6483 6485 6488 6491 6494 6497 6500 6502 6505 6508 6510 6513 6516 6519 6522 6525 6528 6530 6533 6536 6539 6542 6544 6547 6550 6553 6556 6559 6562 6565 6568 6571 6574 6577 6580 6583 6586 6589 6592 6595 6598 6600 6603 6606 6609 6612 6615 6617 6620 6623 6626 6628 6631 6633 6636 6639 6642 6645 6648 6651 6654 6656 6659 6662 6665 6667 6669 6672 6675 6678 6681 6684 6686 6689 6692 6695 6697 6700 6703 6706 6709 6712 6715 6718 6721 6724 6727 6730 6733 6736 6739 6742 6744 6747 6750 6753 6756 6759 6762 6764 6767 6770 6773 6776 6779 6782 6785 6788 6791 6794 6797 6799 6802 6805 6808 6811 6814 6817 6820 6823 6826 6828 6831 6834 6837 6840 6842 6844 6847 6850 6853 6856 6859 6862 6865 6868 6870 6872 6875 6877 6880 6883 6886 6889 6892 6894 6897 6900 6903 6906 6909 6912 6914 6917 6919 6922 6925 6928 6931 6934 6937 6940 6943 6946 6949 6951 6954 6957 6960 6963 6966 6969 6971 6974 6977 6980 6983 6986 6989 6992 6995 6997 7000 7003 7006 7009 7012 7014 7017 7020 7022 7025 7028 7031 7034 7037 7040 7042 7045 7048 7051 7054 7057 7060 7063 7066 7068 7071 7074 7077 7080 7082 7085 7088 7091 7094 7097 7100 7103 7106 7109 7112 7114 7117 7120 7123 7126 7129 7132 7135 7138 7141 7143 7146 7149 7152 7155 7157 7160 7163 7166 7169 7172 7175 7178 7181 7183 7186 7188 7191 7194 7197 7199 7202 7205 7208 7211 7214 7217 7220 7223 7225 7228 7231 7234 7236 7239 7242 7245 7247 7250 7253 7255 7258 7261 7264 7267 7270 7273 7276 7279 7282 7285 7288 7291 7294 7297 7300 7303 7306 7309 7312 7315 7318 7321 7324 7327 7330 7333 7336 7339 7342 7345 7348 7351 7354 7357 7360 7363 7366 7369 7372 7375 7378 7381 7384 7387 7390 7393 7396 7399 7402 7405 7408 7411 7414 7416 7419 7422 7425 7427 7430 7433 7436 7439 7442 7445 7447 7450 7452 7455 7458 7461 7464 7466 7468 7471 7474 7477 7480 7483 7486 7489 7492 7495 7498 7501 7504 7507 7510 7513 7516 7519 7522 7525 7528 7531 7534 7536 7539 7542 7544 7547 7550 7553 7555 7558 7561 7564 7567 7570 7573 7576 7579 7582 7585 7588 7591 7594 7597 7599 7602 7604 7607 7609 7612 7615 7618 7621 7624 7627 7630 7633 7636 7639 7642 7645 7648 7651 7654 7657 7660 7662 7665 7668 7671 7674 7677 7680 7683 7686 7689 7692 7695 7698 7701 7704 7707 7710 7713 7716 7719 7722 7725 7728 7731 7734 7737 7740 7743 7746 7749 7752 7755 7758 7761 7763 7766 7769 7772 7775 7778 7781 7783 7786 7789 7791 7794 7796 7799 7802 7804 7807 7810 7813 7815 7818 7821 7824 7827 7830 7833 7836 7839 7842 7845 7848 7851 7854 7857 7860 7863 7866 7869 7872 7875 7878 7881 7884 7887 7890 7892 7895 7898 7901 7904 7906 7909 7912 7914 7917 7920 7923 7926 7929 7932 7935 7938 7941 7944 7947 7950 7953 7956 7959 7962 7965 7968 7971 7974 7977 7980 7983 7986 7989 7992 7995 7998 8001 8004 8006 8009 8012 8015 8017 8020 8023 8026 8029 8031 8034 8037 8040 8043 8046 8048 8051 8054 8057 8060 8062 8065 8068 8071 8074 8077 8080 8083 8086 8089 8092 8095 8098 8101 8104 8106 8108 8111 8113 8116 8118 8121 8124 8127 8130 8133 8136 8139 8142 8145 8148 8151 8154 8157 8160 8163 8166 8169 8172 8175 8178 8181 8184 8187 8190 8193 8195 8197 8200 8203 8205 8208 8211 8213 8216 8219 8222 8225 8228 8231 8234 8237 8240 8243 8246 8248 8251 8254 8256 8259 8262 8265 8268 8271 8274 8277 8280 8283 8286 8289 8292 8295 8298 8300 8302 8305 8307 8309 8312 8315 8318 8321 8323 8326 8329 8332 8334 8336 8339 8342 8345 8348 8351 8354 8357 8359 8362 8365 8368 8371 8374 8377 8380 8383 8386 8389 8392 8395 8398 8401 8404 8407 8409 8412 8415 8418 8421 8423 8426 8429 8432 8435 8438 8441 8444 8446 8449 8452 8455 8458 8461 8464 8467 8469 8472 8475 8477 8480 8483 8486 8489 8492 8495 8498 8501 8504 8507 8510 8513 8516 8519 8522 8524 8527 8530 8533 8536 8539 8542 8545 8548 8550 8553 8556 8559 8562 8565 8568 8571 8573 8576 8579 8582 8585 8588 8590 8593 8596 8599 8602 8604 8607 8610 8613 8616 8619 8622 8625 8628 8631 8634 8637 8640 8642 8645 8648 8651 8654 8657 8660 8663 8666 8669 8672 8675 8678 8681 8684 8686 8689 8692 8695 8698 8701 8704 8707 8710 8713 8716 8719 8722 8725 8727 8729 8732 8735 8737 8740 8743 8746 8749 8751 8754 8757 8760 8762 8765 8768 8770 8773 8776 8779 8782 8784 8787 8790 8793 8796 8799 8802 8805 8808 8811 8814 8817 8820 8823 8826 8829 8832 8835 8838 8841 8844 8847 8850 8853 8856 8859 8862 8865 8868 8871 8874 8877 8880 8883 8886 8888 8891 8894 8897 8899 8902 8904 8907 8910 8913 8916 8919 8922 8925 8928 8931 8934 8937 8940 8943 8946 8948 8951 8954 8957 8960 8963 8966 8969 8972 8974 8977 8980 8983 8985 8988 8991 8994 8997 9000 9003 9006 9008 9011 9013 9016 9019 9022 9025 9028 9031 9034 9037 9040 9043 9046 9049 9052 9055 9057 9060 9063 9065 9068 9071 9074 9077 9080 9083 9086 9088 9091 9094 9097 9100 9103 9106 9109 9112 9115 9118 9121 9124 9127 9130 9133 9136 9139 9142 9145 9148 9151 9154 9157 9160 9163 9166 9169 9171 9174 9177 9179 9182 9185 9188 9190 9193 9196 9198 9201 9204 9207 9210 9213 9216 9219 9222 9225 9228 9231 9234 9237 9240 9243 9246 9249 9252 9255 9257 9260 9263 9266 9269 9272 9275 9278 9281 9284 9287 9290 9293 9296 9298 9301 9304 9307 9310 9313 9316 9319 9322 9325 9328 9331 9334 9337 9340 9343 9346 9349 9352 9355 9357 9360 9363 9366 9369 9372 9375 9378 9381 9384 9387 9390 9393 9396 9399 9402 9405 9407 9410 9413 9415 9418 9421 9424 9426 9429 9432 9434 9437 9440 9443 9446 9449 9452 9455 9458 9461 9464 9467 9470 9473 9476 9478 9481 9484 9486 9489 9492 9495 9498 9501 9504 9507 9510 9513 9516 9519 9522 9525 9528 9531 9534 9537 9540 9543 9546 9549 9552 9555 9558 9561 9564 9567 9570 9573 9576 9579 9582 9585 9588 9591 9594 9596 9599 9602 9605 9608 9610 9613 9616 9619 9622 9625 9628 9631 9634 9637 9640 9643 9646 9649 9652 9655 9657 9660 9662 9664 9667 9670 9672 9675 9677 9680 9683 9686 9689 9692 9695 9698 9701 9703 9706 9709 9711 9714 9717 9720 9723 9725 9727 9730 9732 9735 9738 9741 9744 9747 9750 9753 9756 9759 9762 9765 9768 9771 9774 9777 9780 9783 9786 9789 9792 9795 9797 9800 9803 9806 9809 9812 9815 9818 9821 9824 9827 9830 9833 9836 9839 9842 9845 9848 9851 9854 9857 9860 9863 9866 9869 9872 9874 9877 9880 9883 9886 9889 9891 9894 9897 9900 9903 9906 9909 9912 9915 9918 9920 9923 9926 9929 9932 9935 9938 9941 9944 9947 9950 9953 9956 9959 9962 9965 9968 9971 9973 9975 9978 9981 9983 9986 9989 9992 9994 9997 10000 10003 10006 10009 10012 10015 10018 10021 10024 10026 10029 10032 10034 10037 10039 10042 10045 10048 10051 10053 10056 10059 10062 10064 10067 10070 10073 10076 10079 10082 10084 10087 10090 10093 10096 10099 10102 10104 10107 10110 10113 10116 10119 10122 10125 10128 10131 10134 10137 10140 10143 10146 10148 10151 10154 10156 10159 10162 10165 10167 10169 10172 10175 10178 10181 10184 10187 10190 10193 10196 10199 10201 10204 10207 10210 10212 10215 10218 10221 10224 10226 10229 10232 10235 10238 10241 10244 10247 10250 10252 10255 10258 10261 10264 10267 10269 10271 10274 10277 10280 10282 10285 10287 10289 10292 10295 10298 10301 10304 10306 10309 10312 10315 10318 10321 10324 10326 10329 10332 10335 10338 10341 10344 10347 10349 10352 10355 10357 10360 10363 10365 10368 10371 10374 10377 10380 10383 10386 10389 10392 10395 10398 10401 10404 10407 10409 10412 10415 10418 10420 10423 10426 10428 10431 10434 10437 10440 10442 10445 10448 10451 10454 10457 10460 10463 10466 10468 10471 10474 10477 10480 10482 10485 10488 10491 10494 10497 10500 10503 10506 10508 10511 10514 10517 10520 10523 10526 10529 10532 10535 10537 10540 10543 10546 10548 10551 10554 10556 10559 10562 10564 10567 10570 10573 10576 10579 10582 10585 10588 10591 10593 10596 10599 10602 10605 10608 10611 10614 10617 10620 10623 10626 10629 10632 10635 10638 10641 10643 10646 10649 10652 10655 10658 10661 10664 10667 10670 10673 10676 10679 10682 10685 10688 10691 10694 10697 10700 10703 10706 10709 10712 10715 10718 10721 10723 10726 10728 10731 10734 10737 10740 10743 10746 10749 10752 10755 10758 10760 10763 10766 10768 10771 10774 10777 10780 10783 10786 10789 10792 10795 10798 10801 10804 10807 10810 10813 10816 10819 10822 10825 10828 10831 10833 10836 10839 10842 10845 10848 10851 10854 10857 10860 10862 10865 10867 10870 10873 10876 10879 10882 10885 10888 10890 10893 10895 10898 10901 10904 10907 10910 10913 10916 10919 10922 10925 10928 10930 10933 10936 10939 10942 10944 10947 10949 10952 10955 10958 10961 10964 10967 10969 10972 10975 10977 10980 10983 10985 10988 10991 10994 10996 10998 11000 11003 11006 11009 11012 11015 11018 11021 11024 11027 11030 11033 11036 11039 11041 11044 11047 11050 11053 11056 11059 11062 11064 11067 11069 11072 11074 11077 11080 11082 11084 11087 11090 11093 11096 11099 11102 11104 11107 11110 11113 11116 11118 11121 11123 11126 11128 11131 11133 11136 11139 11142 11145 11147 11150 11153 11156 11159 11162 11164 11167 11170 11173 11176 11179 11182 11185 11188 11191 11194 11197 11200 11203 11206 11208 11211 11214 11217 11220 11223 11225 11228 11231 11234 11236 11239 11242 11245 11248 11251 11254 11257 11260 11263 11266 11269 11272 11275 11278 11281 11284 11287 11289 11292 11295 11298 11301 11303 11306 11309 11312 11315 11318 11321 11323 11326 11329 11332 11335 11338 11341 11344 11347 11350 11353 11355 11358 11361 11363 11366 11368 11371 11374 11377 11380 11383 11386 11389 11392 11395 11398 11401 11403 11406 11409 11412 11415 11418 11421 11423 11426 11428 11430 11433 11435 11438 11441 11444 11447 11450 11453 11456 11458 11461 11464 11467 11470 11473 11476 11479 11482 11485 11488 11491 11494 11497 11500 11503 11506 11508 11511 11514 11517 11520 11523 11526 11529 11532 11535 11538 11540 11543 11546 11549 11552 11555 11558 11561 11564 11567 11570 11572 11575 11578 11581 11584 11586 11589 11592 11595 11598 11601 11603 11606 11609 11612 11615 11617 11620 11623 11626 11629 11632 11635 11638 11641 11644 11647 11650 11653 11656 11659 11662 11665 11668 11671 11673 11676 11679 11682 11685 11688 11691 11694 11697 11699 11702 11704 11706 11709 11712 11715 11718 11721 11723 11726 11729 11732 11735 11738 11741 11744 11747 11750 11753 11756 11759 11762 11765 11767 11770 11773 11775 11778 11780 11782 11785 11788 11791 11794 11797 11800 11802 11805 11808 11811 11814 11816 11819 11821 11824 11827 11829 11832 11835 11838 11841 11844 11847 11849 11851 11854 11857 11860 11863 11866 11869 11872 11875 11878 11881 11884 11887 11890 11893 11896 11898 11901 11904 11907 11910 11913 11916 11919 11921 11924 11926 11929 11932 11935 11937 11940 11942 11945 11948 11951 11954 11957 11960 11963 11966 11968 11971 11974 11977 11980 11983 11985 11988 11990 11993 11996 11999 12002 12004 12007 12010 12013 12016 12019 12021 12024 12027 12030 12033 12036 12039 12042 12045 12048 12051 12054 12057 12060 12063 12066 12069 12072 12075 12078 12081 12084 12087 12090 12093 12095 12098 12101 12104 12106 12109 12111 12114 12117 12120 12122 12125 12128 12131 12134 12137 12140 12143 12146 12149 12152 12155 12158 12161 12164 12167 12170 12173 12175 12177 12179 12181 12184 12187 12190 12193 12196 12199 12201 12204 12207 12210 12212 12215 12218 12221 12224 12227 12230 12233 12236 12239 12242 12244 12246 12248 12251 12254 12256 12258 12261 12264 12267 12270 12273 12276 12279 12282 12285 12287 12290 12293 12296 12299 12302 12305 12308 12311 12313 12315 12318 12321 12324 12326 12329 12332 12335 12338 12341 12344 12347 12350 12353 12356 12359 12361 12364 12366 12369 12372 12375 12378 12381 12383 12385 12388 12391 12393 12395 12398 12401 12404 12407 12410 12413 12416 12419 12422 12425 12428 12431 12434 12437 12440 12443 12446 12449 12452 12455 12458 12461 12464 12467 12470 12473 12476 12479 12482 12485 12488 12491 12494 12497 12500 12503 12506 12509 12512 12515 12518 12521 12523 12525 12528 12531 12534 12537 12540 12543 12546 12549 12552 12555 12558 12561 12564 12567 12570 12573 12576 12579 12582 12585 12587 12590 12593 12596 12599 12602 12605 12608 12611 12614 12617 12620 12623 12626 12629 12632 12635 12637 12640 12642 12645 12648 12651 12654 12657 12660 12663 12666 12668 12671 12674 12677 12680 12683 12686 12689 12692 12695 12698 12701 12703 12706 12709 12711 12714 12717 12719 12722 12725 12728 12731 12733 12736 12739 12742 12745 12747 12750 12753 12755 12758 12760 12763 12766 12769 12772 12775 12777 12780 12783 12786 12789 12792 12795 12798 12800 12803 12806 12809 12812 12815 12818 12821 12824 12827 12830 12833 12836 12839 12842 12845 12848 12851 12854 12857 12860 12863 12866 12869 12872 12874 12877 12880 12883 12885 12888 12891 12893 12896 12899 12902 12904 12907 12910 12913 12916 12918 12921 12923 12926 12929 12932 12935 12938 12941 12944 12947 12949 12952 12955 12958 12961 12964 12967 12970 12973 12976 12979 12981 12984 12987 12989 12992 12995 12997 13000 13003 13005 13007 13010 13013 13016 13019 13022 13025 13028 13030 13032 13035 13038 13041 13043 13046 13049 13051 13053 13056 13059 13062 13064 13066 13069 13071 13074 13077 13079 13082 13085 13088 13091 13093 13096 13098 13100 13103 13106 13109 13111 13114 13116 13118 13121 13123 13125 13127 13129 13132 13134 13137 13139 13142 13144 13147 13150 13153 13155 13158 13161 13163 13166 13168 13170 13173 13176 13179 13182 13184 13187 13189 13191 13194 13197 13200 13202 13204 13207 13210 13212 13214 13217 13220 13223 13226 13228 13231 13234 13237 13240 13242 13245 13248 13251 13254 13256 13259 13261 13264 13266 13269 13271 13274 13276 13279 13281 13284 13287 13290 13293 13296 13298 13301 13304 13306 13308 13310 13313 13316 13318 13320 13323 13325 13328 13331 13333 13336 13339 13342 13345 13348 13351 13353 13356 13359 13361 13364 13366 13369 13372 13375 13378 13380 13383 13385 13388 13390 13393 13396 13399 13401 13404 13407 13409 13412 13414 13417 13419 13422 13425 13428 13431 13434 13436 13439 13442 13445 13448 13451 13454 13457 13460 13463 13466 13468 13471 13474 13477 13480 13482 13485 13488 13490 13493 13496 13499 13502 13505 13507 13510 13513 13515 13518 13521 13524 13526 13529 13531 13534 13537 13540 13542 13545 13548 13551 13554 13556 13559 13562 13565 13568 13570 13572 13575 13578 13581 13584 13587 13590 13592 13595 13598 13600 13603 13606 13609 13612 13615 13618 13621 13624 13627 13630 13633 13636 13639 13642 13645 13648 13651 13654 13657 13660 13663 13666 13669 13672 13675 13678 13681 13684 13687 13690 13693 13696 13699 13702 13705 13708 13711 13714 13717 13720 13723 13726 13729 13732 13735 13738 13741 13744 13747 13750 13753 13756 13759 13762 13765 13768 13771 13774 13776 13779 13782 13785 13788 13791 13794 13797 13800 13803 13806 13809 13812 13814 13817 13820 13822 13825 13828 13831 13833 13836 13839 13842 13845 13848 13851 13854 13857 13860 13863 13866 13869 13872 13875 13878 13880 13883 13886 13889 13892 13895 13898 13901 13904 13907 13910 13913 13916 13919 13922 13925 13928 13930 13933 13936 13939 13942 13945 13948 13951 13954 13957 13960 13963 13966 13969 13971 13974 13977 13979 13982 13985 13987 13990 13992 13995 13998 14001 14004 14007 14010 14013 14015 14018 14021 14024 14027 14030 14033 14036 14039 14042 14045 14048 14051 14053 14056 14059 14062 14064 14067 14070 14073 14076 14079 14082 14085 14088 14091 14093 14096 14099 14102 14105 14108 14111 14113 14116 14119 14122 14125 14128 14131 14133 14136 14139 14142 14144 14147 14150 14153 14156 14159 14162 14165 14167 14170 14173 14176 14179 14182 14185 14188 14191 14194 14197 14199 14202 14205 14208 14211 14214 14217 14220 14223 14226 14229 14232 14235 14238 14241 14244 14247 14249 14252 14254 14257 14260 14263 14266 14269 14272 14275 14278 14281 14284 14286 14289 14291 14294 14297 14300 14303 14306 14309 14312 14315 14318 14321 14324 14326 14329 14332 14335 14338 14341 14344 14347 14350 14353 14356 14359 14361 14364 14367 14370 14373 14376 14379 14382 14384 14387 14390 14393 14396 14399 14402 14405 14407 14410 14413 14416 14419 14422 14425 14428 14431 14434 14437 14440 14442 14445 14448 14451 14454 14457 14460 14463 14466 14468 14471 14473 14476 14479 14482 14485 14488 14491 14494 14497 14500 14503 14505 14508 14511 14514 14516 14519 14522 14525 14528 14531 14534 14537 14540 14543 14545 14548 14551 14554 14557 14560 14563 14566 14569 14572 14575 14578 14581 14584 14587 14590 14593 14595 14598 14601 14604 14607 14610 14613 14616 14619 14622 14625 14628 14631 14634 14637 14640 14643 14646 14649 14651 14654 14657 14659 14662 14665 14667 14670 14673 14676 14679 14682 14684 14687 14690 14693 14696 14699 14702 14705 14708 14711 14714 14717 14720 14723 14726 14729 14732 14735 14738 14741 14744 14747 14750 14753 14756 14759 14762 14765 14768 14771 14774 14777 14780 14783 14786 14789 14792 14795 14798 14801 14804 14807 14810 14813 14816 14819 14822 14825 14828 14831 14834 14837 14840 14843 14846 14849 14852 14855 14858 14861 14863 14866 14869 14871 14874 14877 14880 14883 14886 14889 14892 14895 14898 14901 14904 14907 14910 14913 14916 14919 14922 14925 14928 14931 14934 14937 14940 14943 14945 14947 14950 14953 14956 14959 14962 14965 14968 14971 14974 14977 14980 14983 14986 14989 14992 14995 14997 14999 15002 15005 15008 15011 15014 15017 15020 15022 15025 15027 15030 15033 15035 15037 15040 15043 15046 15049 15052 15055 15058 15061 15064 15067 15070 15072 15075 15077 15080 15083 15086 15088 15091 15094 15097 15099 15102 15104 15107 15110 15113 15116 15119 15121 15123 15126 15129 15132 15135 15138 15141 15144 15147 15150 15153 15156 15159 15162 15165 15168 15171 15174 15177 15180 15183 15186 15189 15192 15195 15198 15201 15204 15207 15210 15213 15216 15219 15222 15225 15228 15231 15234 15237 15240 15243 15246 15249 15252 15255 15258 15261 15264 15267 15270 15273 15276 15279 15282 15285 15288 15291 15294 15297 15300 15303 15306 15309 15312 15315 15318 15321 15324 15327 15330 15333 15336 15339 15342 15345 15348 15351 15354 15357 15360 15363 15366 15369 15372 15375 15378 15381 15384 15387 15390 15393 15396 15399 15402 15405 15408 15411 15414 15417 15420 15423 15426 15429 15432 15435 15437 15439 15442 15444 15447 15449 15452 15455 15457 15460 15463 15466 15469 15471 15474 15477 15480 15483 15486 15489 15492 15494 15496 15498 15501 15504 15507 15510 15513 15515 15517 15520 15523 15526 15529 15532 15535 15538 15541 15544 15547 15550 15553 15556 15559 15562 15565 15568 15571 15574 15577 15580 15583 15586 15589 15592 15595 15598 15601 15604 15607 15610 15613 15616 15619 15621 15624 15627 15629 15632 15635 15638 15641 15644 15647 15650 15653 15656 15659 15662 15664 15667 15670 15673 15676 15679 15682 15685 15687 15690 15693 15696 15699 15702 15705 15708 15711 15714 15717 15720 15723 15726 15729 15732 15735 15737 15740 15743 15745 15748 15751 15754 15757 15760 15763 15766 15769 15772 15775 15778 15781 15784 15787 15790 15793 15796 15799 15802 15805 15808 15811 15814 15816 15819 15822 15824 15827 15830 15832 15835 15838 15841 15844 15847 15850 15853 15855 15858 15861 15864 15867 15870 15873 15875 15878 15881 15883 15886 15889 15892 15895 15897 15900 15902 15905 15908 15910 15913 15916 15919 15922 15924 15927 15929 15932 15935 15937 15940 15943 15946 15949 15952 15955 15958 15961 15964 15967 15970 15973 15975 15978 15981 15984 15986 15989 15992 15994 15997 16000 16003 16006 16008 16011 16014 16017 16020 16023 16026 16029 16032 16035 16038 16040 16043 16046 16049 16052 16055 16058 16061 16064 16067 16070 16072 16075 16078 16081 16084 16087 16090 16093 16096 16099 16102 16105 16108 16110 16113 16116 16118 16121 16124 16127 16130 16133 16136 16139 16142 16145 16148 16150 16153 16156 16159 16162 16165 16167 16170 16172 16174 16177 16180 16182 16185 16188 16191 16194 16197 16200 16203 16206 16209 16211 16213 16216 16219 16222 16225 16228 16231 16233 16236 16239 16242 16245 16248 16251 16254 16257 16260 16263 16266 16269 16272 16275 16278 16281 16284 16287 16290 16293 16296 16299 16302 16305 16308 16310 16313 16316 16319 16322 16325 16328 16331 16334 16337 16340 16343 16346 16349 16352 16355 16358 16361 16364 16367 16370 16373 16376 16379 16382 16385 16388 16391 16394 16397 16400 16403 16406 16409 16412 16415 16418 16421 16424 16427 16430 16432 16435 16438 16441 16444 16447 16450 16453 16456 16459 16462 16464 16467 16470 16473 16475 16478 16480 16483 16486 16489 16491 16494 16497 16500 16502 16505 16507 16510 16512 16515 16517 16519 16522 16525 16527 16530 16533 16536 16538 16541 16544 16547 16550 16553 16555 16558 16561 16564 16567 16569 16572 16575 16578 16580 16583 16586 16589 16592 16594 16597 16599 16602 16605 16608 16611 16614 16617 16620 16623 16626 16629 16632 16635 16638 16641 16643 16646 16649 16652 16655 16657 16660 16663 16665 16668 16671 16673 16675 16678 16681 16683 16686 16688 16691 16694 16697 16699 16701 16703 16705 16708 16711 16713 16716 16719 16722 16725 16727 16730 16732 16735 16738 16740 16742 16744 16747 16749 16752 16755 16757 16759 16761 16764 16767 16770 16773 16776 16779 16782 16785 16788 16790 16792 16795 16798 16801 16804 16806 16808 16811 16814 16817 16819 16822 16824 16827 16830 16833 16836 16839 16842 16845 16848 16851 16854 16857 16859 16862 16865 16868 16871 16874 16877 16880 16883 16886 16889 16892 16895 16898 16901 16904 16907 16910 16913 16916 16919 16922 16925 16928 16930 16933 16936 16939 16942 16945 16948 16951 16954 16957 16960 16963 16966 16969 16972 16975 16978 16980 16983 16986 16988 16991 16994 16997 17000 17003 17006 17009 17012 17015 17017 17020 17023 17026 17028 17030 17033 17036 17038 17041 17044 17047 17050 17053 17055 17058 17060 17063 17066 17069 17071 17074 17077 17080 17083 17086 17089 17092 17094 17097 17100 17102 17105 17108 17111 17114 17116 17119 17122 17125 17127 17129 17132 17135 17137 17140 17143 17146 17148 17151 17154 17157 17160 17163 17166 17169 17171 17174 17177 17179 17182 17184 17186 17188 17191 17193 17196 17198 17200 17203 17206 17209 17212 17215 17218 17220 17223 17226 17228 17231 17234 17237 17240 17243 17246 17249 17252 17255 17258 17261 17264 17267 17270 17273 17276 17279 17282 17285 17288 17291 17294 17297 17300 17303 17306 17309 17312 17315 17318 17321 17324 17327 17330 17333 17335 17337 17340 17343 17346 17349 17352 17355 17358 17361 17363 17365 17367 17369 17372 17375 17377 17380 17383 17386 17389 17392 17395 17398 17401 17403 17406 17409 17411 17414 17417 17420 17422 17425 17428 17431 17434 17436 17439 17442 17445 17448 17451 17454 17457 17460 17463 17466 17469 17472 17475 17478 17480 17483 17486 17489 17492 17495 17497 17500 17503 17506 17509 17512 17515 17518 17521 17523 17526 17529 17532 17534 17536 17539 17542 17544 17546 17549 17552 17555 17558 17561 17563 17566 17569 17572 17575 17578 17581 17583 17586 17588 17591 17594 17597 17600 17603 17606 17609 17612 17614 17616 17619 17621 17623 17625 17628 17630 17633 17636 17639 17642 17645 17648 17650 17653 17656 17659 17662 17665 17668 17671 17673 17676 17679 17682 17685 17688 17691 17694 17697 17700 17703 17706 17709 17712 17715 17718 17721 17724 17727 17730 17733 17736 17739 17742 17745 17748 17751 17754 17757 17760 17763 17766 17769 17772 17775 17778 17781 17784 17787 17790 17793 17796 17799 17802 17805 17808 17811 17814 17817 17820 17823 17826 17829 17832 17835 17838 17841 17844 17846 17849 17852 17855 17858 17861 17864 17867 17869 17872 17875 17877 17880 17883 17886 17888 17891 17893 17896 17899 17901 17904 17907 17910 17913 17916 17919 17922 17924 17927 17930 17933 17935 17938 17941 17944 17947 17950 17953 17956 17958 17961 17963 17966 17969 17972 17975 17978 17981 17984 17987 17990 17993 17996 17999 18002 18005 18008 18011 18014 18017 18020 18023 18026 18029 18032 18035 18038 18040 18042 18045 18047 18050 18053 18056 18059 18062 18065 18068 18070 18073 18075 18078 18080 18082 18084 18087 18090 18092 18095 18098 18100 18103 18106 18109 18111 18114 18117 18120 18123 18126 18129 18132 18134 18136 18139 18142 18144 18147 18150 18153 18155 18158 18161 18164 18167 18169 18172 18174 18177 18180 18183 18186 18189 18192 18194 18197 18199 18202 18205 18208 18211 18214 18216 18219 18222 18224 18227 18230 18233 18236 18239 18242 18245 18248 18251 18254 18257 18260 18263 18266 18269 18272 18274 18277 18280 18282 18284 18287 18289 18292 18295 18298 18301 18304 18307 18310 18313 18315 18318 18321 18324 18327 18330 18333 18336 18339 18342 18345 18348 18351 18354 18357 18360 18363 18365 18368 18371 18374 18376 18379 18382 18384 18387 18390 18393 18396 18399 18402 18404 18407 18410 18413 18416 18419 18422 18425 18428 18431 18434 18437 18440 18443 18446 18449 18452 18455 18458 18461 18463 18465 18468 18471 18474 18477 18480 18483 18486 18488 18491 18494 18497 18499 18502 18505 18507 18510 18512 18515 18518 18520 18523 18525 18527 18530 18532 18535 18537 18540 18542 18545 18548 18551 18554 18557 18560 18563 18566 18569 18572 18575 18578 18581 18584 18587 18589 18591 18594 18597 18600 18603 18606 18609 18612 18614 18617 18620 18623 18626 18629 18632 18635 18638 18641 18644 18647 18650 18653 18656 18659 18661 18664 18666 18669 18672 18675 18678 18681 18684 18686 18689 18692 18695 18697 18700 18703 18706 18708 18711 18714 18717 18720 18723 18726 18729 18732 18735 18738 18741 18744 18747 18750 18753 18756 18759 18762 18765 18768 18771 18773 18776 18779 18782 18785 18787 18790 18793 18796 18799 18802 18804 18807 18810 18813 18815 18818 18821 18824 18827 18830 18833 18836 18839 18842 18845 18848 18851 18853 18856 18859 18862 18865 18867 18870 18873 18876 18879 18882 18885 18888 18891 18893 18896 18899 18902 18905 18908 18911 18914 18916 18919 18922 18925 18928 18930 18933 18936 18939 18942 18945 18948 18951 18954 18956 18959 18962 18965 18968 18971 18974 18977 18980 18983 18985 18988 18991 18994 18997 19000 19003 19006 19009 19012 19015 19018 19021 19024 19027 19030 19033 19036 19039 19042 19045 19048 19051 19054 19057 19060 19063 19066 19069 19071 19074 19077 19080 19083 19086 19089 19092 19094 19097 19100 19103 19106 19109 19112 19115 19118 19121 19124 19127 19130 19133 19136 19139 19142 19145 19148 19151 19154 19157 19160 19163 19166 19169 19172 19175 19178 19181 19183 19186 19189 19192 19195 19198 19201 19204 19207 19210 19213 19216 19219 19222 19225 19228 19231 19234 19237 19240 19243 19246 19249 19252 19255 19258 19261 19264 19267 19270 19273 19276 19279 19281 19284 19287 19289 19292 19295 19298 19301 19303 19306 19309 19311 19314 19317 19320 19323 19325 19328 19331 19334 19336 19339 19342 19345 19347 19350 19353 19356 19359 19362 19365 19368 19371 19374 19377 19379 19382 19385 19387 19390 19393 19396 19399 19402 19405 19407 19410 19413 19416 19419 19422 19424 19427 19430 19433 19436 19438 19441 19444 19447 19450 19453 19456 19459 19462 19465 19468 19470 19473 19476 19479 19482 19485 19488 19491 19494 19497 19499 19502 19505 19508 19511 19514 19517 19520 19523 19526 19529 19532 19535 19538 19540 19543 19546 19549 19552 19555 19558 19561 19563 19566 19569 19572 19575 19578 19580 19583 19586 19589 19592 19595 19598 19601 19604 19607 19610 19613 19616 19619 19622 19624 19627 19630 19633 19636 19639 19642 19645 19648 19650 19653 19656 19659 19662 19665 19668 19671 19674 19677 19680 19683 19686 19689 19692 19695 19698 19701 19704 19707 19710 19713 19716 19719 19722 19725 19728 19731 19734 19737 19740 19743 19746 19749 19751 19754 19757 19760 19763 19765 19767 19770 19773 19775 19778 19781 19783 19786 19789 19791 19794 19797 19800 19803 19806 19809 19812 19815 19818 19821 19824 19827 19830 19833 19836 19839 19842 19845 19848 19850 19853 19856 19859 19862 19864 19867 19870 19873 19876 19879 19882 19885 19888 19891 19894 19897 19900 19903 19906 19909 19912 19915 19918 19921 19924 19927 19930 19933 19936 19939 19942 19945 19948 19951 19954 19957 19960 19963 19966 19969 19972 19975 19978 19981 19984 19987 19990 19993 19996 19999 20002 20005 20008 20011 20014 20017 20020 20023 20026 20029 20032 20035 20038 20041 20044 20047 20050 20053 20056 20059 20062 20065 20068 20071 20074 20077 20079 20082 20085 20088 20091 20093 20096 20098 20101 20104 20106 20109 20112 20115 20118 20120 20123 20126 20128 20131 20134 20137 20140 20143 20146 20149 20152 20155 20158 20161 20164 20167 20170 20173 20176 20179 20182 20185 20188 20191 20194 20197 20200 20203 20206 20209 20212 20215 20218 20221 20224 20227 20230 20233 20236 20239 20242 20245 20248 20251 20254 20257 20260 20263 20266 20269 20272 20275 20278 20281 20284 20287 20290 20293 20296 20299 20302 20305 20308 20310 20313 20316 20319 20322 20325 20328 20331 20334 20337 20339 20342 20345 20348 20351 20354 20357 20360 20362 20365 20368 20371 20374 20377 20380 20383 20386 20389 20392 20395 20398 20401 20404 20407 20410 20413 20416 20419 20421 20423 20426 20429 20431 20434 20436 20439 20442 20445 20448 20451 20454 20457 20460 20463 20466 20469 20472 20475 20478 20481 20484 20487 20490 20493 20496 20499 20502 20505 20508 20511 20514 20517 20520 20523 20526 20529 20532 20535 20538 20541 20544 20547 20550 20553 20556 20559 20562 20565 20568 20571 20574 20577 20580 20583 20586 20589 20592 20595 20598 20601 20603 20605 20608 20611 20614 20617 20620 20623 20626 20629 20632 20635 20638 20641 20644 20647 20650 20653 20656 20659 20662 20665 20667 20670 20673 20676 20679 20682 20685 20688 20691 20694 20697 20699 20702 20705 20708 20710 20713 20716 20719 20722 20725 20728 20730 20733 20736 20739 20742 20745 20748 20751 20754 20757 20760 20763 20766 20769 20771 20774 20777 20780 20783 20786 20789 20791 20793 20796 20798 20801 20804 20806 20809 20812 20815 20817 20820 20823 20826 20828 20831 20834 20837 20840 20843 20845 20848 20850 20853 20856 20859 20862 20864 20867 20870 20873 20876 20878 20881 20883 20886 20889 20891 20893 20896 20899 20902 20905 20908 20910 20913 20916 20919 20922 20925 20927 20929 20931 20934 20936 20939 20941 20944 20947 20950 20953 20956 20958 20961 20964 20967 20970 20973 20976 20979 20982 20984 20986 20989 20992 20994 20997 21000 21003 21006 21008 21011 21014 21016 21019 21022 21024 21027 21030 21033 21036 21039 21042 21045 21048 21051 21053 21056 21059 21062 21065 21068 21071 21074 21077 21079 21082 21085 21088 21091 21094 21097 21100 21103 21106 21108 21110 21113 21116 21119 21122 21125 21128 21131 21134 21137 21140 21143 21146 21149 21152 21155 21158 21161 21164 21167 21170 21173 21176 21179 21182 21185 21188 21191 21194 21197 21200 21203 21206 21209 21212 21215 21217 21220 21223 21226 21229 21231 21234 21237 21240 21243 21246 21249 21252 21255 21258 21261 21264 21267 21270 21273 21276 21279 21281 21283 21286 21289 21292 21295 21298 21301 21304 21307 21310 21312 21315 21318 21321 21324 21326 21329 21332 21334 21337 21340 21343 21346 21349 21352 21355 21358 21361 21364 21367 21370 21373 21375 21378 21381 21384 21387 21390 21393 21396 21399 21402 21405 21408 21411 21414 21417 21420 21423 21426 21429 21432 21435 21438 21441 21444 21447 21450 21452 21455 21458 21461 21464 21467 21469 21472 21475 21478 21480 21483 21486 21489 21491 21493 21496 21499 21502 21505 21508 21511 21514 21517 21520 21523 21526 21529 21532 21535 21537 21540 21543 21546 21548 21551 21554 21557 21560 21562 21564 21567 21570 21573 21576 21579 21582 21585 21588 21591 21594 21597 21600 21603 21606 21609 21612 21615 21618 21621 21624 21627 21630 21633 21635 21638 21641 21644 21647 21650 21653 21656 21659 21662 21664 21667 21670 21673 21676 21678 21681 21683 21686 21689 21692 21695 21697 21700 21703 21706 21709 21712 21715 21718 21721 21724 21727 21730 21733 21736 21739 21742 21744 21747 21750 21752 21755 21758 21761 21764 21767 21770 21773 21776 21779 21782 21784 21786 21789 21792 21795 21798 21800 21803 21806 21809 21811 21814 21817 21820 21823 21825 21827 21830 21832 21835 21837 21840 21842 21845 21848 21850 21853 21856 21858 21861 21864 21866 21869 21872 21875 21877 21880 21883 21885 21888 21890 21893 21895 21898 21901 21903 21906 21909 21912 21915 21918 21921 21924 21927 21930 21933 21936 21939 21942 21944 21947 21950 21953 21956 21959 21962 21965 21968 21971 21974 21977 21980 21983 21986 21989 21992 21994 21996 21999 22002 22005 22008 22011 22013 22016 22019 22022 22025 22027 22030 22033 22035 22038 22041 22044 22047 22049 22052 22055 22058 22061 22064 22067 22070 22073 22076 22079 22082 22085 22088 22091 22094 22097 22100 22103 22106 22109 22112 22115 22118 22121 22124 22127 22130 22133 22136 22139 22142 22145 22148 22151 22154 22157 22160 22163 22165 22168 22171 22174 22177 22180 22183 22186 22189 22192 22195 22198 22201 22204 22206 22209 22211 22214 22217 22220 22223 22225 22228 22231 22234 22237 22240 22243 22246 22249 22252 22255 22258 22261 22264 22267 22270 22273 22276 22279 22281 22284 22286 22289 22292 22294 22297 22300 22303 22305 22308 22311 22314 22317 22320 22323 22326 22329 22332 22335 22338 22341 22344 22347 22350 22353 22356 22359 22362 22365 22368 22371 22374 22377 22380 22383 22386 22388 22391 22394 22396 22399 22402 22405 22408 22411 22414 22417 22420 22423 22426 22429 22432 22435 22438 22441 22444 22447 22450 22453 22456 22459 22462 22465 22468 22471 22474 22477 22480 22483 22486 22489 22492 22495 22498 22501 22503 22506 22508 22511 22514 22517 22520 22523 22526 22529 22532 22535 22538 22541 22544 22547 22550 22553 22556 22559 22561 22563 22566 22569 22572 22575 22578 22580 22583 22586 22589 22592 22594 22597 22600 22603 22606 22608 22611 22614 22617 22620 22623 22626 22629 22632 22635 22638 22641 22644 22647 22650 22653 22656 22659 22662 22664 22667 22670 22673 22676 22679 22682 22684 22687 22690 22692 22695 22698 22701 22704 22707 22710 22713 22716 22719 22722 22725 22728 22730 22733 22736 22738 22741 22744 22747 22750 22753 22756 22759 22762 22764 22767 22770 22773 22776 22779 22782 22784 22787 22790 22792 22795 22798 22801 22804 22807 22810 22813 22816 22819 22822 22825 22828 22831 22834 22837 22840 22843 22846 22849 22852 22855 22858 22861 22864 22867 22870 22873 22876 22879 22882 22885 22888 22891 22894 22897 22900 22902 22905 22908 22911 22913 22916 22919 22921 22924 22927 22930 22933 22936 22939 22941 22944 22947 22950 22953 22956 22958 22961 22964 22967 22970 22973 22976 22978 22981 22984 22987 22990 22992 22995 22997 23000 23003 23005 23008 23011 23014 23016 23019 23022 23025 23028 23031 23034 23037 23040 23043 23046 23049 23052 23055 23057 23060 23063 23066 23069 23072 23075 23078 23081 23084 23087 23090 23093 23096 23099 23102 23105 23108 23111 23114 23117 23120 23123 23126 23129 23131 23134 23136 23139 23141 23144 23146 23149 23152 23155 23158 23160 23163 23166 23169 23172 23174 23177 23180 23183 23186 23189 23192 23195 23198 23201 23204 23207 23210 23213 23216 23218 23221 23224 23227 23229 23232 23235 23238 23240 23243 23246 23248 23251 23254 23257 23259 23262 23265 23268 23271 23273 23276 23279 23282 23285 23287 23290 23293 23296 23299 23302 23305 23308 23311 23314 23317 23319 23322 23325 23328 23331 23334 23336 23339 23341 23344 23347 23350 23353 23356 23358 23360 23363 23366 23368 23371 23373 23376 23379 23381 23384 23387 23390 23393 23396 23399 23402 23405 23408 23411 23414 23417 23420 23422 23425 23428 23431 23434 23437 23439 23442 23445 23448 23451 23454 23457 23460 23463 23466 23469 23471 23474 23476 23479 23482 23484 23487 23490 23492 23495 23497 23500 23502 23505 23508 23511 23514 23517 23519 23521 23524 23527 23530 23533 23536 23539 23542 23545 23548 23551 23554 23556 23559 23562 23565 23568 23571 23573 23576 23579 23582 23584 23587 23589 23592 23595 23598 23601 23604 23607 23610 23613 23616 23619 23622 23625 23628 23631 23634 23636 23639 23642 23645 23648 23650 23653 23656 23659 23662 23665 23668 23671 23674 23677 23680 23683 23686 23689 23692 23695 23698 23701 23704 23707 23710 23713 23716 23719 23721 23724 23727 23729 23732 23735 23738 23741 23744 23747 23750 23752 23755 23758 23760 23763 23765 23768 23771 23774 23777 23780 23783 23786 23789 23792 23794 23797 23800 23802 23805 23808 23811 23813 23816 23819 23822 23825 23828 23831 23834 23836 23839 23842 23845 23848 23850 23852 23855 23858 23861 23864 23867 23870 23873 23876 23879 23881 23884 23887 23890 23893 23896 23899 23902 23905 23908 23911 23914 23917 23920 23923 23926 23929 23931 23934 23936 23939 23942 23945 23947 23950 23953 23956 23959 23962 23965 23968 23971 23974 23977 23980 23983 23986 23988 23991 23994 23997 24000 24003 24005 24008 24011 24014 24016 24018 24021 24024 24027 24029 24032 24035 24037 24040 24043 24046 24049 24051 24053 24056 24059 24062 24064 24067 24070 24072 24075 24078 24081 24084 24086 24089 24091 24094 24097 24100 24102 24105 24108 24111 24114 24117 24120 24123 24126 24129 24132 24135 24138 24141 24144 24147 24150 24153 24156 24159 24162 24165 24167 24170 24173 24176 24179 24182 24185 24188 24191 24194 24196 24199 24202 24205 24207 24210 24212 24215 24218 24221 24224 24227 24230 24233 24236 24239 24242 24245 24247 24250 24253 24256 24259 24262 24264 24267 24270 24273 24276 24279 24281 24284 24287 24290 24293 24296 24299 24302 24305 24308 24311 24314 24317 24320 24323 24326 24329 24331 24334 24337 24340 24343 24346 24349 24352 24355 24358 24360 24363 24366 24369 24372 24375 24378 24381 24384 24387 24390 24393 24396 24399 24402 24405 24407 24410 24413 24416 24419 24422 24425 24428 24431 24434 24437 24440 24443 24446 24449 24452 24455 24458 24461 24464 24467 24470 24473 24476 24479 24482 24485 24488 24491 24494 24496 24499 24502 24505 24508 24510 24513 24515 24517 24520 24523 24526 24529 24532 24535 24537 24540 24542 24545 24548 24551 24553 24556 24559 24561 24564 24567 24570 24573 24576 24579 24581 24584 24587 24590 24593 24596 24599 24602 24604 24607 24610 24613 24616 24618 24621 24624 24627 24630 24633 24636 24638 24641 24644 24647 24650 24653 24656 24659 24662 24665 24668 24671 24674 24676 24679 24681 24684 24687 24690 24693 24696 24699 24702 24704 24706 24709 24712 24715 24718 24721 24724 24727 24730 24732 24735 24738 24741 24743 24746 24749 24751 24754 24757 24760 24763 24766 24769 24772 24775 24778 24781 24784 24787 24790 24793 24796 24799 24802 24805 24808 24811 24814 24817 24820 24823 24826 24828 24831 24834 24836 24839 24842 24845 24848 24851 24853 24856 24859 24861 24864 24866 24869 24872 24875 24877 24880 24883 24886 24889 24891 24894 24897 24899 24901 24904 24907 24910 24913 24916 24918 24921 24924 24926 24929 24932 24935 24938 24941 24943 24946 24949 24952 24955 24958 24961 24964 24967 24970 24972 24975 24978 24981 24984 24986 24989 24992 24995 24998 25001 25004 25006 25009 25011 25014 25017 25020 25022 25025 25027 25030 25033 25035 25038 25040 25043 25046 25049 25051 25054 25057 25060 25063 25066 25069 25072 25075 25078 25081 25084 25087 25090 25092 25095 25098 25101 25104 25106 25109 25112 25115 25118 25121 25124 25126 25129 25132 25135 25138 25141 25144 25147 25149 25152 25155 25158 25161 25164 25167 25169 25172 25175 25178 25181 25184 25187 25190 25192 25195 25198 25200 25203 25206 25209 25212 25215 25218 25221 25224 25227 25229 25231 25234 25237 25240 25243 25246 25249 25252 25255 25258 25261 25264 25267 25269 25272 25275 25278 25281 25284 25287 25290 25292 25295 25298 25301 25303 25306 25308 25311 25314 25316 25319 25322 25325 25328 25331 25333 25336 25339 25342 25344 25347 25350 25353 25356 25358 25361 25364 25367 25369 25372 25375 25378 25381 25384 25387 25390 25392 25395 25398 25400 25403 25406 25409 25411 25414 25417 25420 25422 25425 25428 25431 25434 25436 25439 25442 25445 25447 25450 25453 25456 25459 25462 25465 25468 25471 25474 25476 25479 25482 25485 25488 25491 25494 25497 25500 25503 25505 25508 25511 25514 25517 25519 25522 25525 25527 25530 25533 25536 25539 25542 25545 25548 25551 25554 25557 25560 25563 25566 25569 25572 25575 25578 25581 25584 25587 25590 25593 25596 25599 25602 25605 25607 25610 25613 25616 25619 25622 25625 25628 25631 25634 25637 25640 25642 25645 25648 25651 25653 25656 25659 25662 25665 25668 25671 25673 25676 25679 25682 25685 25688 25691 25694 25697 25700 25703 25706 25709 25712 25715 25718 25721 25724 25727 25730 25733 25736 25739 25742 25745 25748 25751 25753 25756 25758 25761 25764 25766 25768 25771 25774 25777 25780 25783 25786 25789 25792 25795 25798 25801 25804 25807 25810 25813 25816 25819 25821 25824 25827 25830 25833 25836 25839 25842 25845 25848 25851 25854 25857 25860 25863 25866 25869 25872 25875 25878 25881 25884 25887 25890 25893 25896 25899 25902 25905 25908 25911 25914 25917 25920 25923 25926 25929 25932 25935 25938 25941 25944 25947 25950 25953 25956 25959 25962 25965 25968 25971 25974 25977 25980 25983 25986 25989 25992 25995 25998 26001 26004 26006 26009 26012 26014 26017 26020 26023 26026 26028 26031 26034 26037 26040 26043 26046 26049 26052 26055 26058 26060 26063 26065 26068 26071 26074 26076 26079 26082 26085 26087 26090 26092 26095 26098 26101 26103 26106 26108 26111 26113 26116 26119 26122 26124 26127 26130 26133 26136 26138 26141 26143 26146 26149 26152 26155 26158 26160 26163 26165 26167 26170 26173 26176 26179 26182 26185 26187 26190 26193 26196 26198 26201 26204 26207 26210 26213 26216 26219 26222 26225 26228 26231 26234 26237 26240 26243 26246 26249 26252 26255 26257 26260 26263 26266 26268 26270 26273 26276 26279 26282 26285 26287 26290 26293 26296 26299 26302 26305 26308 26311 26314 26317 26320 26323 26326 26329 26331 26334 26337 26339 26342 26344 26347 26350 26353 26355 26358 26360 26363 26366 26368 26371 26374 26377 26380 26383 26386 26389 26392 26395 26398 26401 26403 26406 26409 26412 26415 26418 26421 26424 26427 26430 26433 26435 26437 26440 26443 26446 26449 26452 26455 26458 26460 26463 26466 26469 26472 26475 26478 26481 26484 26487 26490 26493 26496 26499 26502 26504 26507 26510 26513 26516 26519 26522 26525 26528 26531 26534 26536 26539 26542 26545 26547 26550 26552 26554 26557 26560 26563 26566 26569 26572 26575 26578 26580 26583 26586 26589 26592 26595 26598 26601 26604 26607 26609 26612 26614 26617 26619 26622 26625 26628 26631 26634 26637 26640 26643 26645 26648 26650 26653 26656 26659 26662 26665 26668 26670 26673 26676 26678 26681 26683 26686 26689 26692 26695 26698 26701 26704 26707 26710 26713 26716 26719 26722 26725 26727 26730 26733 26736 26739 26742 26745 26748 26751 26754 26757 26759 26762 26765 26768 26771 26774 26777 26779 26782 26785 26788 26791 26794 26797 26800 26803 26806 26809 26812 26815 26818 26821 26824 26827 26830 26833 26836 26839 26842 26845 26848 26851 26854 26856 26859 26862 26865 26868 26871 26873 26876 26879 26882 26885 26888 26891 26894 26897 26900 26903 26906 26908 26911 26914 26917 26920 26922 26925 26928 26931 26934 26937 26939 26942 26945 26948 26951 26954 26956 26959 26962 26964 26967 26970 26973 26976 26979 26982 26985 26988 26991 26994 26997 27000 27003 27006 27009 27012 27015 27018 27021 27024 27027 27030 27033 27036 27039 27042 27044 27047 27050 27052 27055 27058 27061 27064 27067 27070 27073 27076 27079 27082 27085 27088 27091 27094 27097 27099 27102 27105 27108 27111 27114 27117 27120 27123 27126 27128 27131 27134 27137 27140 27143 27146 27149 27151 27154 27157 27160 27163 27166 27168 27171 27174 27177 27180 27183 27186 27188 27191 27194 27197 27200 27202 27205 27208 27211 27214 27217 27220 27223 27225 27228 27231 27233 27236 27239 27241 27244 27247 27250 27253 27255 27258 27261 27264 27267 27270 27273 27276 27279 27281 27284 27287 27289 27292 27295 27298 27301 27304 27307 27310 27313 27316 27318 27321 27324 27327 27330 27333 27335 27338 27341 27344 27347 27349 27352 27355 27358 27360 27363 27366 27369 27372 27375 27378 27381 27384 27387 27390 27393 27395 27397 27400 27403 27406 27409 27412 27415 27418 27421 27424 27427 27430 27432 27435 27438 27441 27444 27447 27449 27452 27454 27456 27459 27461 27463 27466 27469 27471 27474 27477 27480 27483 27486 27489 27491 27494 27496 27498 27501 27504 27507 27510 27513 27515 27518 27521 27524 27527 27530 27533 27536 27539 27541 27544 27547 27550 27553 27555 27558 27561 27564 27567 27570 27572 27575 27578 27580 27583 27586 27589 27592 27595 27598 27601 27603 27606 27608 27611 27614 27617 27620 27623 27626 27629 27631 27633 27636 27639 27642 27645 27648 27651 27654 27656 27659 27662 27665 27668 27671 27674 27676 27679 27682 27685 27688 27691 27694 27697 27700 27703 27706 27709 27712 27715 27718 27720 27723 27726 27728 27731 27734 27737 27740 27742 27745 27748 27751 27754 27756 27759 27762 27765 27768 27771 27774 27776 27779 27782 27785 27788 27791 27794 27797 27799 27802 27805 27808 27810 27813 27816 27819 27822 27824 27827 27830 27832 27835 27838 27841 27844 27847 27850 27853 27855 27858 27861 27864 27867 27869 27872 27874 27877 27880 27883 27886 27889 27892 27895 27898 27901 27904 27907 27910 27913 27916 27918 27921 27924 27927 27930 27933 27936 27939 27941 27944 27947 27949 27952 27955 27957 27960 27963 27966 27969 27972 27975 27978 27981 27984 27986 27989 27992 27995 27997 28000 28003 28006 28009 28012 28015 28018 28021 28024 28026 28029 28032 28035 28038 28041 28044 28047 28050 28053 28056 28059 28061 28064 28067 28070 28072 28075 28078 28081 28084 28087 28090 28093 28096 28099 28102 28105 28107 28110 28113 28116 28119 28122 28125 28128 28131 28134 28137 28139 28142 28145 28148 28151 28154 28156 28159 28162 28165 28168 28171 28174 28177 28180 28182 28185 28188 28190 28193 28196 28198 28201 28204 28207 28210 28212 28214 28217 28220 28223 28226 28228 28231 28234 28237 28240 28242 28245 28248 28250 28253 28256 28259 28262 28264 28267 28270 28272 28275 28278 28281 28284 28287 28289 28292 28295 28298 28301 28304 28307 28310 28313 28315 28318 28320 28323 28326 28329 28332 28335 28338 28341 28344 28347 28349 28351 28354 28357 28360 28363 28366 28369 28371 28374 28377 28379 28382 28385 28387 28390 28392 28395 28398 28401 28403 28406 28409 28411 28414 28417 28420 28423 28426 28429 28432 28435 28437 28439 28442 28445 28447 28449 28452 28455 28458 28461 28463 28466 28469 28472 28474 28477 28479 28482 28484 28486 28488 28491 28493 28496 28499 28502 28504 28507 28510 28513 28516 28519 28522 28525 28528 28531 28533 28536 28539 28541 28544 28547 28550 28553 28556 28559 28561 28564 28567 28570 28573 28576 28579 28581 28583 28585 28588 28591 28594 28597 28600 28603 28606 28609 28612 28615 28618 28620 28623 28626 28629 28632 28634 28637 28640 28643 28646 28649 28652 28655 28658 28660 28663 28666 28668 28671 28674 28677 28679 28682 28685 28688 28691 28694 28697 28700 28703 28706 28708 28711 28714 28717 28720 28723 28726 28729 28732 28734 28737 28740 28743 28745 28748 28751 28753 28756 28759 28762 28764 28767 28769 28772 28775 28777 28780 28782 28785 28788 28790 28793 28796 28799 28802 28805 28808 28810 28813 28816 28818 28821 28824 28827 28830 28833 28836 28839 28842 28845 28848 28851 28854 28857 28860 28863 28866 28869 28872 28875 28878 28881 28884 28887 28890 28893 28896 28899 28902 28905 28908 28911 28914 28917 28920 28923 28926 28929 28932 28935 28938 28941 28944 28947 28950 28953 28956 28959 28962 28965 28968 28971 28974 28977 28980 28983 28986 28989 28992 28995 28998 29001 29004 29007 29010 29013 29016 29019 29022 29025 29028 29031 29034 29037 29040 29043 29046 29049 29052 29055 29058 29061 29064 29067 29070 29073 29076 29079 29082 29085 29088 29091 29094 29097 29100 29103 29106 29108 29111 29114 29117 29120 29122 29125 29128 29131 29134 29137 29140 29143 29146 29149 29152 29155 29158 29160 29162 29165 29168 29171 29174 29177 29180 29183 29186 29189 29192 29195 29198 29201 29204 29207 29209 29212 29215 29218 29220 29223 29226 29229 29232 29235 29238 29241 29244 29247 29250 29252 29255 29257 29260 29263 29266 29269 29272 29275 29278 29281 29284 29287 29290 29293 29296 29299 29302 29305 29308 29311 29314 29317 29320 29323 29326 29329 29331 29334 29337 29340 29343 29345 29348 29351 29354 29357 29360 29363 29366 29369 29371 29374 29377 29380 29383 29386 29389 29392 29395 29398 29401 29404 29407 29410 29413 29416 29419 29422 29425 29428 29431 29434 29437 29440 29443 29446 29449 29452 29455 29458 29461 29464 29467 29470 29473 29476 29479 29482 29485 29488 29491 29494 29497 29500 29503 29506 29509 29512 29515 29518 29520 29523 29526 29529 29532 29535 29538 29541 29544 29547 29550 29553 29556 29559 29562 29565 29568 29571 29574 29577 29580 29583 29586 29589 29592 29595 29598 29601 29604 29607 29610 29613 29616 29618 29621 29624 29627 29630 29633 29636 29638 29641 29644 29647 29650 29653 29656 29658 29661 29664 29666 29669 29671 29674 29676 29679 29682 29685 29688 29690 29693 29696 29699 29702 29705 29707 29710 29713 29716 29718 29720 29723 29726 29729 29731 29734 29737 29740 29743 29745 29747 29750 29753 29756 29759 29762 29765 29768 29771 29774 29777 29780 29783 29786 29789 29791 29794 29797 29799 29802 29805 29807 29809 29812 29815 29818 29821 29824 29827 29830 29833 29836 29839 29841 29844 29846 29849 29852 29855 29858 29861 29864 29867 29870 29873 29876 29879 29881 29884 29887 29890 29893 29896 29899 29902 29904 29907 29910 29913 29916 29919 29922 29925 29928 29931 29934 29937 29940 29943 29946 29949 29952 29955 29958 29960 29962 29965 29968 29971 29974 29977 29980 29983 29986 29989 29992 29995 29998 30001 30004 30007 30010 30013 30015 30018 30021 30024 30027 30030 30033 30036 30039 30042 30044 30047 30050 30053 30056 30059 30062 30065 30068 30071 30074 30077 30080 30082 30085 30088 30091 30094 30096 30099 30101 30104 30107 30110 30113 30116 30119 30122 30125 30128 30130 30133 30136 30139 30142 30144 30147 30150 30153 30156 30158 30161 30163 30166 30169 30172 30175 30178 30181 30184 30187 30190 30193 30196 30199 30201 30204 30207 30210 30213 30216 30219 30222 30225 30228 30231 30234 30237 30240 30243 30246 30248 30251 30253 30256 30259 30261 30264 30267 30270 30272 30275 30277 30280 30283 30285 30288 30291 30293 30296 30298 30301 30304 30307 30310 30313 30316 30319 30321 30323 30326 30329 30332 30335 30337 30339 30342 30345 30347 30349 30352 30354 30357 30360 30362 30364 30367 30370 30372 30375 30378 30380 30383 30386 30389 30392 30395 30398 30401 30404 30406 30409 30412 30414 30417 30419 30422 30425 30428 30430 30433 30436 30439 30442 30445 30448 30451 30454 30456 30459 30462 30465 30468 30471 30474 30477 30480 30483 30486 30489 30492 30495 30498 30501 30504 30507 30510 30513 30516 30519 30522 30524 30527 30530 30533 30536 30539 30542 30545 30548 30551 30554 30557 30560 30563 30566 30569 30572 30575 30578 
</DataArray>
<DataArray type="UInt32" Name="types" format="ascii">
5 5 5 5 5 5 3 5 5 5 3 5 5 5 3 5 5 5 5 5 5 3 3 5 5 5 5 3 3 5 3 3 5 3 5 5 5 3 5 5 3 5 5 5 5 5 5 5 3 5 5 5 5 5 5 5 5 3 5 5 3 5 3 5 3 5 3 5 5 5 5 5 5 5 5 5 5 5 5 5 5 5 5 3 5 5 5 5 5 5 5 5 3 5 5 3 3 5 5 5 5 5 5 5 5 5 5 5 5 3 5 5 5 5 5 3 5 5 3 5 5 5 5 5 5 5 5 5 5 5 5 5 5 5 5 5 5 5 3 5 5 5 5 5 3 5 5 5 5 5 5 5 5 5 5 5 5 5 5 5 5 5 5 5 5 5 5 5 5 3 5 3 5 5 5 3 5 5 5 3 5 5 5 3 3 5 5 3 5 5 5 5 3 5 5 5 5 5 3 5 5 5 5 3 5 3 5 5 3 5 5 5 3 5 5 3 5 5 5 5 5 5 5 5 5 5 3 5 5 3 5 5 5 5 5 5 5 3 5 5 5 5 5 5 5 5 5 5 5 5 5 5 5 5 5 5 5 5 5 3 5 3 5 5 5 5 5 3 5 5 5 5 5 5 5 5 3 5 5 5 3 5 5 3 5 5 5 5 3 5 5 3 5 5 5 5 5 3 5 3 5 5 5 5 5 5 5 5 5 5 5 5 5 5 5 5 5 5 3 5 5 5 5 5 3 3 5 5 5 5 5 5 5 5 5 5 3 5 5 5 5 5 5 5 5 5 3 5 5 3 3 5 5 5 3 5 5 3 5 5 5 5 5 5 5 5 5 5 5 5 5 5 5 3 5 5 5 5 5 5 5 5 3 5 5 3 5 5 5 5 3 5 5 5 5 5 5 5 5 5 5 5 5 5 5 3 3 5 5 3 3 5 3 5 3 5 3 5 5 3 5 5 5 5 5 5 5 5 5 3 3 5 5 3 5 5 5 5 5 3 5 5 3 5 5 5 5 3 5 5 5 3 5 5 5 3 5 3 5 5 3 5 5 5 5 5 5 5 5 5 5 5 3 5 5 5 5 5 5 3 5 5 5 3 5 5 5 5 5 5 5 3 5 5 5 5 5 3 5 3 5 5 5 5 5 3 3 5 5 5 3 3 5 3 5 5 5 5 5 5 5 3 5 5 5 5 5 5 5 5 5 5 5 5 5 5 3 5 5 3 5 3 5 5 5 5 5 5 5 5 5 5 5 5 5 5 3 5 5 5 5 5 5 5 5 5 5 5 5 5 5 5 5 3 5 5 5 5 5 5 5 5 5 5 5 3 3 5 5 5 5 5 5 5 5 5 5 5 5 5 5 5 5 3 5 5 5 5 5 5 5 3 5 5 5 5 5 5 5 5 3 5 5 5 3 5 5 5 5 5 5 5 5 5 5 5 5 5 5 5 5 5 5 5 5 5 5 5 5 5 5 5 5 3 5 3 5 5 5 5 5 5 5 5 5 5 5 5 5 3 5 5 5 3 5 5 5 5 5 5 5 5 5 5 5 5 5 3 3 5 5 5 5 5 5 5 3 5 5 5 5 5 5 5 5 5 5 5 3 5 5 5 5 5 5 5 3 5 5 5 5 5 5 5 5 5 5 5 5 5 5 5 5 5 3 5 5 5 5 5 5 5 5 5 5 3 5 5 5 5 5 3 5 5 5 3 5 5 5 5 3 5 5 5 5 5 5 5 3 5 3 5 5 3 5 3 5 5 5 5 5 5 5 5 5 5 5 5 5 5 5 5 5 5 5 5 5 5 5 5 5 5 5 5 5 5 5 5 5 5 5 3 5 3 3 5 5 5 5 5 5 5 5 5 5 5 3 5 5 5 5 5 5 5 3 5 3 5 3 5 5 5 5 5 5 3 5 3 3 5 5 5 5 5 5 5 5 5 5 5 5 5 5 5 5 5 3 5 5 5 5 5 5 5 5 5 5 5 5 5 5 3 5 5 5 5 5 5 5 5 5 5 5 5 5 3 5 5 5 5 5 5 5 5 5 3 5 5 5 5 5 3 3 5 5 5 5 3 3 5 5 5 5 5 5 5 5 5 5 5 3 5 5 5 5 3 5 5 5 5 5 5 3 5 5 3 5 3 5 5 5 3 5 5 5 5 5 5 5 3 5 5 5 5 3 3 5 5 3 5 5 5 3 3 3 3 5 5 3 5 5 5 5 5 5 5 5 3 3 5 5 5 5 5 5 3 5 3 5 5 5 3 5 5 5 5 5 5 5 5 5 5 5 5 5 5 5 5 5 5 5 5 5 5 5 5 5 5 5 5 3 5 5 5 5 5 5 5 5 5 5 5 5 5 5 5 5 5 5 5 5 5 3 5 5 5 5 5 5 5 5 5 3 5 5 5 5 5 5 3 5 5 5 5 5 3 5 5 5 5 5 3 5 5 5 5 5 5 5 5 5 5 3 5 5 5 5 3 3 5 5 3 5 5 5 5 3 5 5 3 5 5 5 5 5 3 3 5 5 5 5 5 5 3 5 5 5 5 5 5 5 3 3 5 5 5 3 5 5 5 3 5 5 3 5 3 5 5 5 3 5 5 3 3 5 5 5 5 5 5 3 5 3 5 3 5 5 5 3 3 5 3 5 5 5 5 5 5 5 5 5 5 5 5 5 5 5 5 3 5 5 5 5 5 5 5 3 5 5 5 5 5 3 5 5 5 3 5 5 5 5 3 5 3 5 3 5 5 5 5 3 5 5 3 5 5 5 5 5 5 5 5 5 5 5 3 5 5 5 5 3 5 5 5 5 3 5 5 5 5 5 5 3 5 5 5 3 5 3 3 5 5 5 5 5 5 5 5 5 5 5 5 5 5 5 5 5 5 5 5 5 5 5 5 5 5 5 5 3 5 5 3 3 5 3 5 5 5 5 3 5 5 3 5 5 5 5 5 5 5 5 5 5 5 5 5 5 5 5 5 5 5 5 5 5 5 5 5 5 5 5 3 5 5 5 5 5 5 5 5 3 5 5 5 5 5 5 5 3 5 3 5 5 5 3 5 5 5 5 5 5 5 3 5 3 5 5 5 5 5 3 5 5 5 5 5 5 5 5 5 5 5 5 5 5 5 5 5 5 5 5 5 5 5 5 5 5 5 5 5 5 5 5 5 5 5 5 5 5 5 3 3 5 5 3 5 5 5 3 5 5 5 3 3 5 5 3 5 5 5 5 5 5 5 5 5 5 5 5 5 5 5 5 5 5 5 5 5 3 5 3 5 5 5 5 5 5 5 5 5 5 5 5 5 5 5 5 5 5 5 5 5 5 5 5 5 5 5 5 5 5 5 5 5 5 5 5 5 5 5 5 5 5 5 5 5 3 5 3 5 3 5 5 3 5 5 5 5 5 5 5 5 5 5 5 5 5 5 5 5 5 5 5 5 5 5 5 5 5 5 5 3 5 5 5 5 5 5 5 5 5 5 5 5 5 5 5 5 5 5 5 5 5 5 5 5 5 5 5 5 5 5 5 5 5 5 5 5 5 5 5 5 5 5 5 5 5 5 5 5 5 3 5 5 5 5 3 5 5 5 5 5 5 5 5 3 5 5 5 5 5 3 3 3 5 5 5 5 3 3 5 5 3 5 5 5 5 5 5 5 5 5 5 5 5 5 5 3 3 5 3 5 5 5 5 5 5 5 5 5 5 5 5 5 5 5 5 5 5 3 5 5 5 5 5 5 3 5 5 5 5 5 5 5 5 5 5 5 5 5 5 5 5 5 5 3 5 5 5 5 5 5 5 5 5 3 5 5 3 5 5 5 5 5 5 5 5 5 5 5 5 5 5 5 5 3 5 3 5 5 5 5 3 5 3 5 5 3 3 5 5 3 5 5 5 3 5 5 5 5 5 5 3 5 5 5 3 5 5 5 5 3 5 5 5 5 5 5 5 3 5 5 5 5 5 3 5 5 3 5 5 5 5 5 5 5 3 5 5 5 3 3 5 5 5 3 5 5 5 5 5 3 3 3 5 5 5 5 5 5 5 5 5 3 3 5 3 5 5 5 5 5 3 5 5 3 5 3 5 5 5 3 5 5 3 5 5 5 5 5 5 5 3 5 5 3 3 5 5 3 5 3 5 5 3 5 5 3 5 3 5 5 5 3 5 5 3 5 3 5 5 3 5 3 5 5 5 5 3 3 5 5 5 5 5 5 5 5 5 3 5 5 5 5 5 5 5 5 5 5 5 5 5 5 5 5 5 5 3 3 5 5 5 3 5 5 5 5 3 5 5 3 5 5 5 3 5 5 3 5 5 5 5 3 5 5 5 5 5 3 5 5 5 3 3 5 5 3 5 5 5 5 5 3 3 5 5 5 5 3 5 5 5 5 3 5 5 5 5 5 5 5 5 5 5 5 5 5 5 5 5 5 5 5 5 5 5 5 5 5 5 5 5 3 5 5 5 5 5 5 5 5 5 5 5 3 5 5 5 5 3 5 5 5 3 5 5 3 5 5 5 5 5 3 5 5 5 5 5 5 5 5 5 5 5 5 5 5 5 5 5 5 5 5 3 5 5 5 5 5 3 5 5 5 5 5 5 5 3 5 5 5 5 5 5 5 5 5 5 5 5 5 3 5 5 5 5 5 3 3 5 5 5 5 3 5 3 5 5 5 3 3 5 5 3 5 5 5 3 5 5 5 5 3 5 5 3 3 5 5 5 5 5 5 3 5 5 3 5 5 5 5 3 5 5 5 5 5 5 5 5 5 5 5 5 5 5 5 5 5 5 5 3 5 3 5 5 5 3 5 3 5 3 5 5 3 5 5 3 3 3 5 5 5 3 5 5 5 5 5 5 3 5 5 5 5 5 5 5 3 5 3 5 5 5 5 5 5 5 3 5 5 5 5 5 5 5 5 5 5 5 3 5 5 3 5 5 5 5 5 5 5 5 5 5 5 5 5 5 5 5 3 5 5 5 5 5 5 5 5 5 5 5 5 5 5 5 5 5 5 5 5 5 3 5 5 5 3 5 5 5 5 5 5 5 5 5 5 3 5 5 5 5 5 5 5 5 5 5 3 5 5 5 5 5 5 3 5 5 5 3 5 5 5 5 5 5 5 5 5 5 5 5 5 5 5 5 5 5 5 5 5 3 5 5 5 5 5 3 5 5 3 5 5 5 5 5 5 3 5 5 5 5 3 5 5 5 5 5 5 5 5 5 5 5 5 5 5 5 5 5 5 3 5 5 5 5 5 3 5 5 5 3 5 3 5 5 5 5 5 5 5 3 5 5 5 3 3 5 5 5 5 5 3 5 5 5 3 5 5 5 5 5 5 5 5 5 5 5 5 5 5 5 3 5 5 5 5 5 5 3 5 5 5 5 5 5 5 5 5 5 5 3 5 5 5 5 5 5 5 5 5 3 5 5 5 5 3 3 5 5 5 5 5 5 5 5 3 3 5 3 5 5 5 5 5 3 5 5 5 5 5 5 3 5 3 5 5 5 5 5 5 5 5 5 5 3 5 5 5 5 5 5 3 5 5 5 5 5 5 5 5 3 5 5 5 5 5 3 5 5 3 5 5 5 5 5 5 3 5 5 5 5 5 5 5 5 3 5 5 5 5 3 5 5 5 5 5 5 5 5 5 5 3 5 5 5 5 5 5 5 5 5 3 5 5 5 5 3 5 5 5 5 5 5 5 5 3 5 3 5 5 5 3 5 5 5 5 5 5 5 5 3 5 5 5 3 5 5 5 3 5 5 3 5 5 5 5 5 5 5 5 5 5 5 5 5 5 5 5 5 5 5 5 5 5 5 5 5 5 5 5 5 5 5 5 5 5 5 5 5 5 5 5 5 5 5 5 5 5 5 5 5 5 5 5 5 3 5 5 5 3 5 5 5 5 5 5 3 5 3 5 5 5 5 3 3 5 5 5 5 5 5 5 5 5 5 5 5 5 5 5 5 5 5 5 5 5 5 3 5 5 3 5 5 5 3 5 5 5 5 5 5 5 5 5 5 5 5 5 5 3 5 3 5 3 5 5 5 5 5 5 5 5 5 5 5 5 5 5 5 5 5 3 5 5 5 5 5 5 5 5 5 5 5 5 5 5 5 5 5 5 5 5 5 5 5 5 5 5 5 5 5 5 5 5 5 3 5 5 5 5 5 5 3 5 5 3 5 3 5 5 3 5 5 5 3 5 5 5 5 5 5 5 5 5 5 5 5 5 5 5 5 5 5 5 5 5 5 5 5 5 3 5 5 5 5 3 5 5 3 5 5 5 5 5 5 5 5 5 5 5 5 5 5 5 5 5 5 5 5 5 5 5 5 5 5 5 5 5 5 3 5 5 5 3 5 5 5 5 3 5 5 5 5 5 3 5 5 5 5 3 5 5 5 5 5 5 5 5 5 5 5 5 5 5 3 3 5 3 5 3 5 5 5 5 5 5 5 5 5 5 5 5 5 5 5 5 5 5 5 5 5 5 5 5 5 3 3 5 5 3 5 5 3 5 5 5 5 5 5 5 5 5 5 5 3 5 5 3 5 5 5 5 5 5 5 5 5 5 5 5 5 5 3 3 5 3 3 5 5 5 5 3 5 5 5 3 3 5 5 5 5 5 5 5 3 5 5 5 5 5 5 5 5 5 5 5 5 5 5 5 5 3 5 5 5 5 3 5 5 5 5 5 5 5 3 5 5 5 5 5 5 5 3 5 5 3 5 5 5 5 5 5 5 5 5 5 5 5 5 5 5 3 5 5 5 5 5 5 5 5 3 5 5 5 5 5 5 5 3 5 5 5 5 5 3 5 5 5 5 3 5 5 5 5 5 5 5 5 5 5 5 5 3 5 5 5 5 5 5 5 5 5 5 5 5 5 5 3 5 5 5 5 5 5 5 5 5 5 5 5 5 3 3 5 5 3 5 5 5 5 3 5 5 5 3 5 5 3 5 5 5 5 3 5 5 5 5 5 5 5 5 5 5 5 5 5 5 5 5 5 5 5 5 5 5 5 5 5 5 5 5 5 5 5 5 5 5 3 5 5 5 3 5 3 5 5 5 5 5 5 5 5 5 5 5 5 5 5 3 5 5 5 5 5 5 5 5 3 5 5 5 3 5 5 5 5 5 5 5 3 5 3 5 5 5 5 5 5 5 5 5 5 5 5 5 5 3 5 5 3 5 5 5 5 5 5 5 3 5 5 5 5 5 5 5 5 5 5 5 5 5 5 5 5 5 5 5 5 5 5 5 5 5 5 5 3 5 5 3 5 5 5 3 5 5 3 5 5 5 5 5 5 5 5 5 5 5 5 5 5 5 5 5 5 5 3 5 5 5 5 5 5 5 5 5 5 5 5 5 3 5 5 5 5 5 5 5 5 5 5 5 5 5 5 5 5 5 5 5 3 5 5 5 5 5 5 5 5 5 5 5 5 5 5 5 5 3 5 5 3 5 5 5 3 5 5 3 5 5 5 5 5 5 5 5 5 5 5 5 5 5 3 5 5 3 5 5 5 5 5 5 5 5 5 5 5 5 5 5 5 5 5 5 5 5 5 5 5 5 5 5 5 5 5 5 5 5 5 5 5 5 3 5 5 5 5 3 5 5 5 5 5 5 5 5 5 5 5 5 5 5 5 3 5 3 3 5 5 3 5 3 5 5 5 5 5 5 5 5 3 5 5 3 5 5 5 5 3 3 5 3 5 5 5 5 5 5 5 5 5 5 5 5 5 5 5 5 5 5 5 5 5 3 5 5 5 5 5 5 5 5 5 5 5 5 5 5 5 5 5 5 5 5 5 5 5 5 5 3 5 5 5 5 5 3 5 5 5 5 5 5 5 5 5 3 5 5 5 5 5 5 5 5 5 5 5 5 5 5 5 5 5 3 3 5 5 3 5 5 5 3 5 5 5 5 5 5 5 5 5 5 3 5 5 3 5 3 5 5 5 5 3 5 5 5 3 5 5 5 5 5 5 3 5 5 5 5 5 5 3 5 5 5 5 5 5 5 5 5 5 5 5 5 5 3 5 5 3 5 5 5 3 3 5 5 5 5 5 5 5 5 5 5 3 5 5 5 3 5 5 5 5 3 5 5 5 5 5 5 5 5 3 5 5 5 5 5 3 3 5 5 5 3 5 3 3 5 5 5 5 5 3 5 5 5 5 5 5 3 5 5 5 5 5 5 5 3 5 5 3 5 5 3 5 5 5 5 5 5 5 5 5 5 5 5 5 5 3 5 5 5 3 5 5 3 5 5 5 5 3 5 5 5 5 5 5 5 5 3 5 5 5 5 3 5 5 5 5 5 5 5 5 3 5 5 5 5 5 5 5 5 5 3 5 5 5 3 5 5 3 5 5 3 5 5 5 5 5 5 5 5 5 3 5 5 5 5 5 5 5 5 5 5 5 5 5 5 5 5 3 5 5 5 5 5 5 5 5 5 5 5 5 5 5 5 5 5 5 5 5 5 5 5 5 5 5 3 5 3 5 5 5 5 5 5 5 5 5 5 3 5 5 3 5 5 5 5 5 5 5 5 5 5 5 5 5 5 5 5 5 5 5 5 5 3 5 5 5 5 5 5 5 5 5 3 5 3 5 5 5 5 5 5 5 3 5 3 5 5 5 5 5 5 5 5 5 5 5 3 5 5 5 5 3 5 3 5 5 5 5 5 5 3 5 5 3 5 5 3 5 5 5 3 3 3 5 5 5 5 5 5 5 5 5 5 5 5 5 3 5 5 5 5 5 5 5 3 5 3 5 3 5 5 3 3 5 5 5 5 5 5 3 5 5 5 5 3 5 3 5 3 5 3 5 5 5 5 3 5 5 5 5 5 3 5 5 5 5 5 5 5 5 5 5 5 5 5 5 3 5 5 5 5 5 3 5 5 5 3 5 5 5 5 5 5 5 5 5 5 5 5 5 5 5 5 5 3 5 5 5 5 3 5 5 5 5 5 5 3 5 5 5 5 5 5 5 5 5 5 3 5 5 3 5 3 5 5 5 5 5 5 5 5 5 5 5 3 5 5 5 5 5 5 3 5 3 3 5 3 5 5 5 5 5 5 5 3 5 5 5 5 5 5 5 5 5 5 5 5 5 5 5 5 3 5 5 5 5 5 5 5 5 5 5 3 5 5 5 5 5 5 5 5 5 5 3 5 5 5 5 3 5 5 5 5 5 3 5 5 5 5 3 5 5 5 5 5 5 5 5 5 5 5 5 5 5 5 5 5 5 3 5 5 5 5 5 5 5 5 3 5 3 3 5 5 5 5 5 3 5 5 5 5 5 5 5 5 5 5 5 5 5 5 3 5 5 3 5 3 3 5 5 5 5 5 5 3 5 5 5 5 3 5 3 5 5 3 5 5 5 5 5 5 3 3 5 5 5 5 5 5 5 5 5 5 5 5 5 5 5 3 5 5 5 5 5 5 5 3 5 3 5 5 5 3 5 3 5 5 5 5 5 5 5 5 3 5 5 5 5 5 3 5 3 5 5 5 5 3 5 5 5 5 5 3 5 5 5 5 5 5 5 5 5 5 5 5 5 5 5 5 5 5 5 5 5 5 5 5 3 5 5 5 3 5 3 5 5 5 3 5 5 5 5 5 5 5 5 5 5 5 5 5 5 5 5 5 3 3 3 3 5 5 5 5 5 5 3 5 5 5 3 5 5 5 5 5 5 5 5 5 5 3 3 3 5 5 3 3 5 5 5 5 5 5 5 5 5 3 5 5 5 5 5 5 5 5 3 3 5 5 5 3 5 5 5 5 5 5 5 5 5 5 5 3 5 3 5 5 5 5 5 3 3 5 5 3 3 5 5 5 5 5 5 5 5 5 5 5 5 5 5 5 5 5 5 5 5 5 5 5 5 5 5 5 5 5 5 5 5 5 5 5 5 5 5 5 5 5 5 3 3 5 5 5 5 5 5 5 5 5 5 5 5 5 5 5 5 5 5 5 5 3 5 5 5 5 5 5 5 5 5 5 5 5 5 5 5 5 3 5 3 5 5 5 5 5 5 5 5 3 5 5 5 5 5 5 5 5 5 5 5 3 5 5 3 5 5 3 5 5 5 5 3 5 5 5 5 3 5 5 3 5 3 5 5 5 5 5 3 5 5 5 5 5 5 5 3 5 5 5 5 5 5 5 5 5 5 5 5 5 5 5 5 5 5 5 5 5 5 5 5 3 5 5 5 3 5 5 3 5 5 5 3 5 5 5 5 3 5 3 5 5 5 5 5 5 5 5 3 5 5 5 5 5 5 5 5 5 5 3 5 5 3 5 5 3 5 5 3 3 5 5 5 5 5 5 5 3 3 5 5 5 3 5 5 3 3 5 5 5 3 3 5 3 5 5 3 5 5 5 5 3 5 3 3 5 5 5 3 5 3 3 5 3 3 3 3 5 3 5 3 5 3 5 5 5 3 5 5 3 5 3 3 5 5 5 5 3 5 3 3 5 5 5 3 3 5 5 3 3 5 5 5 5 3 5 5 5 5 3 5 5 5 5 3 5 3 5 3 5 3 5 3 5 3 5 5 5 5 5 3 5 5 3 3 3 5 5 3 3 5 3 5 5 3 5 5 5 5 5 5 3 5 5 3 5 3 5 5 5 5 3 5 3 5 3 5 5 5 3 5 5 3 5 3 5 3 5 5 5 5 5 3 5 5 5 5 5 5 5 5 5 5 3 5 5 5 5 3 5 5 3 5 5 5 5 5 3 5 5 3 5 5 5 3 5 3 5 5 5 3 5 5 5 5 3 5 5 5 5 3 3 5 5 5 5 5 5 3 5 5 3 5 5 5 5 5 5 5 5 5 5 5 5 5 5 5 5 5 5 5 5 5 5 5 5 5 5 5 5 5 5 5 5 5 5 5 5 5 5 5 5 5 5 5 5 5 5 5 5 5 5 5 5 5 5 5 5 5 5 3 5 5 5 5 5 5 5 5 5 5 5 5 3 5 5 3 5 5 5 3 5 5 5 5 5 5 5 5 5 5 5 5 5 5 5 3 5 5 5 5 5 5 5 5 5 5 5 5 5 5 5 5 3 5 5 5 5 5 5 5 5 5 5 5 5 5 3 5 5 3 5 5 3 5 3 5 5 5 5 5 5 5 3 5 5 5 5 5 5 5 5 5 5 5 5 3 5 5 5 3 5 5 5 5 5 5 5 5 5 3 5 5 5 5 5 5 3 5 5 5 5 5 5 3 5 5 5 3 5 5 5 5 5 5 5 3 5 5 5 5 5 5 5 5 5 5 3 5 5 5 5 5 5 5 5 5 5 5 5 5 5 5 5 3 5 3 5 5 5 5 5 5 5 5 5 5 3 5 3 5 5 5 5 5 5 5 5 5 5 5 3 5 5 5 5 5 5 5 5 5 5 5 3 5 5 5 5 5 5 5 3 5 5 5 5 5 5 5 3 5 5 5 5 5 5 5 5 5 5 5 3 5 5 5 5 5 5 5 5 3 5 3 5 5 5 5 5 5 5 5 5 5 3 5 5 5 3 5 5 5 5 5 5 5 5 5 3 5 5 5 5 5 5 5 5 5 5 5 5 5 5 5 5 3 5 5 5 5 5 5 5 5 5 5 5 5 5 5 5 5 5 5 3 5 5 3 5 5 3 5 5 5 5 5 3 5 5 5 5 5 5 5 5 5 5 5 5 5 5 5 5 5 5 5 5 5 5 5 5 5 5 5 5 5 5 5 5 5 5 5 5 5 5 5 5 5 5 5 5 5 5 5 5 5 5 5 5 5 5 5 5 5 5 5 3 5 5 3 5 5 5 5 5 5 5 5 5 5 5 5 5 5 5 5 5 5 5 5 5 5 5 5 3 3 5 5 5 5 5 5 5 5 5 5 5 5 5 5 5 5 3 3 5 5 5 5 5 5 5 3 5 3 5 5 3 3 5 5 5 5 5 5 5 5 5 5 5 3 5 3 5 5 5 3 5 5 5 3 5 3 5 5 5 5 5 3 3 5 5 5 5 5 5 5 5 5 5 5 5 5 5 5 5 5 5 5 5 5 5 5 5 5 5 5 5 5 5 5 5 5 5 5 5 5 5 5 5 5 5 5 5 5 5 5 5 5 5 5 5 5 5 5 5 5 5 5 5 5 5 5 5 5 5 5 5 5 5 5 5 5 5 5 5 5 5 5 5 5 5 5 5 5 5 5 5 5 5 5 5 5 5 5 5 5 5 5 5 5 5 5 5 3 3 5 3 5 3 5 5 3 5 5 5 5 3 5 5 5 5 5 5 5 3 3 3 5 5 5 5 5 3 3 5 5 5 5 5 5 5 5 5 5 5 5 5 5 5 5 5 5 5 5 5 5 5 5 5 5 5 5 5 5 5 5 5 5 3 5 5 3 5 5 5 5 5 5 5 5 5 5 5 3 5 5 5 5 5 5 5 3 5 5 5 5 5 5 5 5 5 5 5 5 5 5 5 5 3 5 5 3 5 5 5 5 5 5 5 5 5 5 5 5 5 5 5 5 5 5 5 5 5 5 5 3 5 5 3 5 5 3 5 5 5 5 5 5 5 3 5 5 5 5 5 5 3 5 5 3 5 5 5 5 3 5 3 5 5 3 5 5 5 5 3 5 3 5 5 3 5 5 5 5 5 5 5 5 5 5 5 5 3 5 5 5 3 5 5 3 5 5 5 5 3 5 5 5 5 5 5 5 5 5 5 3 5 5 5 5 5 5 5 5 5 5 3 5 5 5 5 5 5 5 5 5 5 5 5 3 5 5 3 5 5 5 5 5 5 5 5 5 5 3 5 5 5 5 5 3 5 3 3 5 5 3 5 5 5 5 5 5 5 5 5 3 3 5 5 5 5 5 5 3 5 5 5 5 5 5 5 5 5 5 5 5 5 5 5 5 5 5 5 5 5 5 5 5 5 3 5 5 5 5 5 5 5 5 5 5 5 5 5 5 5 5 5 5 5 5 5 5 5 5 5 5 5 5 5 5 5 5 5 5 5 5 5 5 5 5 3 5 5 5 5 5 5 5 5 5 5 3 5 5 5 3 5 3 5 5 5 3 5 5 5 3 5 3 5 3 5 3 3 5 5 3 5 5 5 3 5 5 5 5 5 3 5 5 5 5 3 5 5 5 3 5 5 5 5 3 5 3 5 5 5 5 5 5 5 5 5 5 5 5 5 5 3 5 5 5 5 3 5 5 3 5 5 3 3 5 5 3 5 3 5 5 5 3 3 3 3 5 5 3 5 5 5 5 3 5 3 5 5 3 3 3 5 3 5 5 3 3 3 5 5 5 5 5 5 5 5 5 3 3 5 5 5 5 3 3 5 5 5 3 5 3 5 5 5 5 5 5 5 5 5 5 5 3 5 5 5 5 5 5 5 5 5 5 5 5 5 5 5 5 5 5 5 5 5 5 5 3 5 5 5 5 5 5 5 5 5 5 5 5 5 5 5 5 3 5 5 3 5 5 5 5 5 5 5 5 5 3 5 5 5 3 3 5 5 3 5 5 5 5 5 3 5 3 5 5 5 3 5 5 5 5 5 5 5 3 5 5 3 5 5 5 5 3 5 5 5 3 3 5 5 3 5 5 5 3 5 5 5 5 5 5 5 3 5 5 3 5 3 3 3 5 3 5 3 3 5 5 5 5 5 5 3 5 5 3 5 5 5 5 5 5 5 5 5 5 5 5 5 5 5 5 5 5 5 5 5 5 5 5 5 5 5 5 5 5 5 5 5 5 5 3 3 5 5 5 5 5 5 5 5 3 3 3 3 5 5 3 5 5 5 5 5 5 5 5 3 5 5 3 5 5 5 3 5 5 5 5 3 5 5 5 5 5 5 5 5 5 5 5 5 5 5 3 5 5 5 5 5 3 5 5 5 5 5 5 5 5 3 5 5 5 3 3 5 5 3 3 5 5 5 5 5 3 5 5 5 5 5 5 3 5 3 5 5 5 5 5 5 5 5 3 3 5 3 3 3 5 3 5 5 5 5 5 5 3 5 5 5 5 5 5 5 3 5 5 5 5 5 5 5 5 5 5 5 5 5 5 5 5 5 5 5 5 5 5 5 5 5 5 5 5 5 5 5 5 5 5 5 5 5 5 5 5 5 5 5 5 5 5 5 5 5 5 5 5 5 5 5 5 5 3 5 5 5 5 5 5 5 3 5 5 3 5 5 5 3 5 3 5 5 3 5 5 5 5 5 5 5 3 5 5 5 3 5 5 5 5 5 5 5 3 5 3 5 5 5 5 5 5 5 5 5 5 5 5 5 5 5 5 5 5 5 5 5 5 5 5 5 3 3 5 3 5 5 5 5 5 5 5 3 5 3 5 3 3 3 5 5 3 5 5 3 5 5 5 3 5 5 5 5 5 5 5 3 3 5 5 3 5 5 5 3 5 5 5 5 3 5 3 5 5 5 5 5 5 3 5 3 5 5 5 5 5 3 5 5 3 5 5 5 5 5 5 5 5 5 5 5 5 5 5 5 5 3 5 5 3 3 5 3 5 5 5 5 5 5 5 5 3 5 5 5 5 5 5 5 5 5 5 5 5 5 5 5 5 3 5 5 5 3 5 5 3 5 5 5 5 5 5 3 5 5 5 5 5 5 5 5 5 5 5 5 5 5 5 5 5 5 5 3 3 5 5 5 5 5 5 5 3 5 5 5 3 5 5 3 5 3 5 5 3 5 3 3 5 3 5 3 5 3 5 5 5 5 5 5 5 5 5 5 5 5 5 5 5 3 3 5 5 5 5 5 5 5 3 5 5 5 5 5 5 5 5 5 5 5 5 5 5 5 3 5 3 5 5 5 5 5 5 3 5 5 5 3 5 5 5 3 5 5 5 5 5 5 5 5 5 5 5 5 5 5 5 5 5 5 5 5 5 3 5 5 5 5 3 5 5 5 5 5 3 5 5 5 3 5 5 5 5 5 5 5 5 5 5 5 5 3 5 5 5 5 3 5 5 5 5 5 5 5 5 3 5 5 5 5 5 5 5 3 5 5 5 5 3 5 5 5 5 5 5 5 5 3 5 5 5 5 5 5 5 5 5 3 5 5 5 5 5 5 5 5 5 5 5 5 5 5 5 5 5 5 5 5 5 5 5 5 5 5 5 5 3 5 5 5 5 5 5 5 3 5 5 5 5 5 5 5 5 5 5 5 5 5 5 5 5 5 5 5 5 5 5 5 5 5 5 5 5 5 3 5 5 5 5 5 5 5 5 5 5 5 5 5 5 5 5 5 5 5 5 5 5 5 5 5 5 5 5 5 5 5 5 3 5 5 3 5 5 5 5 3 5 5 3 5 5 5 5 3 5 5 5 3 5 5 5 3 5 5 5 5 5 5 5 5 5 5 3 5 5 3 5 5 5 5 5 5 3 5 5 5 5 5 3 5 5 5 5 3 5 5 5 5 5 5 5 5 5 5 3 5 5 5 5 5 5 5 5 5 3 5 5 5 5 5 5 5 5 5 5 5 5 5 3 5 5 5 5 5 5 5 3 5 5 5 5 5 3 5 5 5 5 5 5 5 5 5 5 5 5 5 5 3 5 5 5 5 5 5 5 5 3 5 5 5 5 5 5 5 5 5 5 5 5 5 5 5 5 5 5 5 5 5 5 5 5 5 5 5 5 5 5 5 5 5 3 5 5 5 5 3 3 5 5 3 5 5 3 5 5 3 5 5 5 5 5 5 5 5 5 5 5 5 5 5 5 5 5 5 5 3 5 5 5 5 3 5 5 5 5 5 5 5 5 5 5 5 5 5 5 5 5 5 5 5 5 5 5 5 5 5 5 5 5 5 5 5 5 5 5 5 5 5 5 5 5 5 5 5 5 5 5 5 5 5 5 5 5 5 5 5 5 5 5 5 5 5 5 5 5 5 5 5 5 5 5 5 3 5 5 5 5 3 5 3 5 5 3 5 5 5 5 3 5 5 3 5 5 5 5 5 5 5 5 5 5 5 5 5 5 5 5 5 5 5 5 5 5 5 5 5 5 5 5 5 5 5 5 5 5 5 5 5 5 5 5 5 5 5 5 5 5 5 5 5 5 5 5 5 5 5 5 5 5 5 5 3 5 5 5 5 5 5 5 5 5 3 5 5 5 5 5 5 5 3 5 5 5 5 5 5 5 5 5 5 5 5 5 5 5 5 5 5 5 3 3 5 5 3 5 3 5 5 5 5 5 5 5 5 5 5 5 5 5 5 5 5 5 5 5 5 5 5 5 5 5 5 5 5 5 5 5 5 5 5 5 5 5 5 5 5 5 5 5 5 5 5 5 5 5 5 5 5 5 5 5 3 3 5 5 5 5 5 5 5 5 5 5 5 5 5 5 5 5 5 5 5 5 3 5 5 5 5 5 5 5 5 5 5 3 5 5 5 3 5 5 5 5 5 5 3 5 5 5 5 5 5 5 5 5 5 5 5 5 3 5 5 5 5 5 5 3 3 5 3 5 5 3 5 5 5 3 5 5 5 3 5 5 5 5 5 3 5 3 5 5 5 5 3 5 5 5 5 3 5 3 5 5 3 3 5 5 5 5 5 3 5 5 5 5 5 3 3 3 5 3 5 3 5 5 5 5 5 3 5 5 5 5 5 5 5 5 3 3 5 5 3 5 5 5 5 3 5 5 3 5 5 3 5 5 5 5 5 5 5 5 5 3 5 5 5 5 5 5 5 5 3 5 5 5 5 5 5 5 5 5 3 3 5 5 5 5 5 5 5 5 5 5 5 5 5 5 5 5 5 5 5 5 5 5 5 5 5 5 5 5 5 5 5 5 5 5 5 3 5 5 5 5 3 5 5 5 5 5 5 5 5 5 5 5 5 5 5 5 5 3 3 5 5 5 5 5 5 5 5 5 3 5 5 5 5 3 5 5 3 5 5 5 5 5 5 5 5 5 5 5 5 5 3 5 5 5 5 5 5 5 5 5 5 5 5 5 5 5 5 5 5 5 5 5 5 5 5 5 3 5 5 5 5 5 3 5 5 5 3 5 5 5 3 3 5 5 5 5 5 5 5 5 5 5 5 5 5 5 3 5 5 5 3 5 5 5 5 3 3 5 5 5 5 5 5 5 5 5 5 5 5 5 5 5 5 5 5 5 5 5 5 5 3 5 5 5 5 5 5 5 5 5 3 5 5 5 5 3 5 3 5 5 5 5 3 5 5 5 5 5 5 5 5 5 5 5 5 5 5 5 3 5 5 3 5 5 5 5 5 5 5 5 5 5 3 3 5 5 5 5 3 5 5 5 3 5 5 5 5 3 3 5 3 5 3 5 3 5 5 3 5 5 3 5 5 3 5 5 5 3 5 5 3 5 3 5 3 5 5 3 5 5 5 5 5 5 5 5 5 5 5 5 5 3 5 5 5 5 5 5 5 5 5 5 5 5 5 5 5 5 3 3 5 5 5 5 5 3 5 5 5 5 3 5 5 3 5 5 5 5 3 5 5 5 5 5 5 5 5 5 5 5 5 5 5 5 5 5 5 5 5 5 5 5 5 5 5 5 5 5 5 5 5 5 5 5 5 5 5 3 5 5 5 5 5 5 5 5 5 5 5 5 5 3 5 3 5 5 5 5 3 5 5 5 5 5 5 5 5 5 5 5 5 5 5 5 5 5 5 3 5 3 5 5 3 5 5 5 3 5 5 5 5 5 5 5 5 5 5 5 5 5 5 5 5 5 5 5 5 5 5 5 5 5 5 5 3 5 5 3 5 5 5 5 5 5 5 5 5 5 5 5 5 5 5 5 5 5 5 5 5 5 5 5 5 5 5 5 5 5 5 5 5 5 5 3 5 3 5 5 5 5 5 5 5 5 5 5 5 5 5 5 5 5 5 3 3 5 5 5 5 5 3 5 5 5 5 3 5 5 5 5 3 5 5 5 5 5 5 5 5 5 5 5 5 5 5 5 5 5 5 3 5 5 5 5 5 5 3 5 5 3 5 5 5 5 5 5 5 5 5 5 5 5 3 5 5 3 5 5 5 5 5 5 5 5 3 5 5 5 5 5 5 3 5 5 3 5 5 5 5 5 5 5 5 5 5 5 5 5 5 5 5 5 5 5 5 5 5 5 5 5 5 5 5 5 5 5 5 5 5 5 5 3 5 5 5 3 5 5 3 5 5 5 5 5 5 3 5 5 5 5 5 3 5 5 5 5 5 5 3 5 5 5 5 3 5 3 5 5 3 5 5 5 3 5 5 5 5 5 5 5 5 5 5 5 5 5 3 5 5 5 5 5 5 5 5 5 5 5 5 5 5 5 5 5 5 5 5 5 5 5 5 3 5 3 5 3 5 3 5 5 5 5 3 5 5 5 5 3 5 5 5 5 5 5 5 5 5 5 5 5 5 5 3 5 5 5 3 5 5 5 3 5 5 3 5 5 5 3 5 5 5 5 3 5 5 5 5 3 5 5 5 5 5 5 5 5 5 5 3 5 5 5 5 5 3 5 3 5 5 5 5 5 3 3 5 5 3 5 3 5 5 3 5 5 5 5 5 5 5 5 5 5 5 5 5 3 5 5 5 5 5 3 5 5 5 5 5 5 5 5 5 5 3 5 3 5 5 3 5 5 3 5 3 5 3 5 5 5 5 5 3 3 5 5 5 5 5 5 5 5 5 5 5 3 5 5 5 5 5 3 5 5 5 3 5 3 5 5 5 5 5 5 5 5 5 5 5 5 5 5 5 3 5 5 5 5 3 5 5 5 5 5 5 5 5 5 5 5 5 5 5 5 5 5 5 5 5 5 5 5 3 5 5 3 5 5 5 5 5 5 5 3 5 5 3 5 3 5 5 5 5 5 5 5 5 5 3 5 5 3 5 5 5 3 5 5 5 5 5 5 5 3 5 5 5 5 3 3 5 5 5 5 5 5 5 5 5 3 5 5 5 5 5 5 5 5 5 5 5 5 5 5 5 5 3 5 3 5 5 5 3 5 5 5 5 5 5 5 5 5 5 5 5 5 3 5 5 5 5 5 3 5 5 5 3 3 5 5 5 3 5 5 3 5 5 5 5 3 3 5 5 5 3 5 5 3 5 5 5 5 3 5 3 5 5 5 3 5 5 5 5 5 5 5 5 5 5 5 5 5 5 5 5 5 5 5 5 5 3 5 5 5 5 5 5 5 5 5 3 5 5 5 3 5 3 5 5 5 5 5 5 5 5 5 5 5 3 5 5 5 5 5 3 5 5 5 5 5 3 5 5 5 5 5 5 5 5 5 5 5 5 5 5 5 5 3 5 5 5 5 5 5 5 5 5 3 5 5 5 5 5 5 5 5 5 5 5 5 5 5 5 3 5 5 5 5 5 5 5 5 5 5 5 5 5 5 5 5 5 5 5 5 5 5 5 5 5 5 5 5 5 3 5 5 5 5 3 5 3 3 5 5 5 5 5 5 3 5 3 5 5 5 3 5 5 3 5 5 5 5 5 5 3 5 5 5 5 5 5 5 3 5 5 5 5 3 5 5 5 5 5 5 3 5 5 5 5 5 5 5 5 5 5 5 5 3 5 3 5 5 5 5 5 5 5 3 3 5 5 5 5 5 5 5 5 3 5 5 5 3 5 5 3 5 5 5 5 5 5 5 5 5 5 5 5 5 5 5 5 5 5 5 5 5 5 5 5 5 3 5 5 3 5 5 5 5 5 3 5 5 3 5 3 5 5 5 3 5 5 5 5 3 5 5 3 3 5 5 5 5 5 3 5 5 3 5 5 5 5 5 3 5 5 5 5 5 5 5 5 5 3 5 5 5 5 3 5 5 5 5 5 5 3 5 3 5 5 5 3 5 3 5 5 3 5 3 5 5 5 3 5 5 5 5 5 5 5 5 5 5 5 5 5 3 5 5 5 5 3 5 5 5 5 5 5 3 5 5 5 5 5 5 5 3 5 5 5 5 5 5 3 5 5 5 5 5 5 5 3 5 5 3 5 5 5 5 5 5 5 5 5 3 3 5 5 5 5 5 5 5 5 5 5 5 5 3 5 5 5 5 5 5 5 3 5 5 5 3 5 3 5 5 3 5 5 5 5 5 3 5 5 5 3 5 5 5 5 3 5 5 5 3 5 5 5 5 5 5 5 3 5 5 3 5 5 5 3 5 5 5 3 5 5 5 5 3 5 5 5 3 5 5 5 5 5 5 5 5 5 3 5 5 5 5 5 5 5 5 5 3 5 5 5 5 3 5 5 3 5 5 5 5 5 5 5 5 5 5 5 5 5 5 5 5 5 5 5 5 5 5 5 5 5 5 3 5 5 5 5 5 5 5 5 5 5 5 3 5 5 5 3 5 5 5 5 5 5 3 5 5 5 5 5 5 5 5 5 5 5 5 5 5 5 5 5 5 5 5 5 5 5 5 5 5 3 5 3 5 5 3 3 5 5 5 5 5 5 5 5 5 5 5 5 5 5 5 5 5 3 5 5 5 5 5 5 5 5 5 5 5 5 5 5 5 5 5 5 5 5 5 5 5 5 5 5 5 5 5 5 5 5 5 5 5 5 5 5 5 5 5 5 5 5 5 5 5 5 5 5 5 5 5 5 5 5 5 5 5 5 5 3 5 5 3 5 5 5 5 3 5 5 5 5 5 5 5 5 5 5 3 5 3 5 5 5 3 5 5 5 3 5 3 5 5 5 3 5 3 5 3 5 5 5 3 5 5 5 5 3 5 3 5 5 5 5 5 3 5 3 3 5 5 5 5 5 5 3 5 5 5 3 5 5 5 5 5 5 5 5 5 5 5 5 5 5 5 5 5 5 5 3 5 5 5 3 3 5 5 5 5 5 3 5 5 5 5 5 5 5 5 5 5 5 5 5 5 3 5 5 3 5 3 5 5 5 3 5 3 5 5 3 5 5 5 5 5 5 5 5 5 5 5 3 5 5 5 5 5 5 5 5 5 5 3 3 5 5 5 5 5 5 5 3 5 5 5 5 5 5 5 5 5 5 5 5 5 5 3 5 5 5 5 5 5 5 5 5 5 3 5 5 5 3 5 3 3 5 5 5 5 5 5 5 5 3 5 5 5 5 5 5 5 5 5 3 5 3 5 3 5 5 5 5 5 5 5 5 3 5 3 5 5 5 5 5 5 3 5 5 3 5 3 5 5 5 5 5 5 5 5 5 5 5 5 5 5 3 5 5 5 5 5 5 5 5 5 5 3 5 5 5 5 5 5 3 5 5 5 5 5 5 5 5 5 5 5 5 5 5 5 5 5 5 5 5 5 5 5 5 5 3 5 5 5 5 5 3 5 5 5 5 5 5 5 5 5 5 5 3 5 5 5 5 3 5 5 5 5 5 3 5 5 5 5 5 3 5 5 3 5 5 5 5 5 5 5 5 5 5 5 5 5 5 5 5 5 5 5 5 5 5 5 5 5 5 3 5 5 3 5 5 5 5 5 5 5 5 5 5 5 5 5 5 5 3 5 5 5 5 5 5 5 5 5 3 5 5 5 5 5 5 5 3 5 5 5 5 5 3 5 5 5 5 5 5 3 5 5 5 5 3 5 5 5 5 5 5 5 3 5 5 3 5 5 3 5 5 5 5 3 5 5 5 5 5 5 5 5 3 5 5 3 5 5 5 5 5 5 5 5 5 3 5 5 5 5 5 3 5 5 5 5 3 5 5 5 3 5 5 5 5 5 5 5 5 5 5 5 3 3 5 5 5 5 5 5 5 5 5 5 5 3 5 5 5 5 5 3 5 3 3 5 3 3 5 5 3 5 5 5 5 5 5 3 5 3 3 5 5 5 5 5 3 5 5 5 5 5 5 5 5 3 5 5 5 5 3 5 5 5 5 5 3 5 5 3 5 5 5 5 5 5 5 3 5 3 5 5 5 5 5 5 5 3 3 5 5 5 5 5 5 5 3 5 5 5 5 5 5 3 5 5 5 5 5 5 5 5 5 5 5 5 5 5 3 5 5 3 5 5 5 5 3 5 5 5 5 3 5 5 5 5 5 5 3 5 5 5 5 5 5 5 3 5 5 5 3 5 5 5 5 3 5 5 3 5 5 5 5 5 5 5 3 5 5 5 5 3 5 3 5 5 5 5 5 5 5 5 5 5 5 5 5 5 3 5 5 5 5 5 5 5 3 5 5 3 5 5 3 5 5 5 5 5 5 5 5 5 3 5 5 5 3 5 5 5 5 5 5 5 5 5 3 5 5 5 5 5 5 5 5 5 5 5 3 5 5 5 3 5 5 5 5 5 5 5 5 5 5 5 3 5 5 5 5 5 5 5 5 5 5 3 5 5 5 5 5 3 5 5 5 5 5 5 5 5 3 5 5 3 5 5 3 5 5 5 5 3 3 5 5 5 5 3 5 5 5 5 3 5 5 3 5 5 5 5 3 5 5 3 5 5 5 5 5 3 5 5 5 5 5 5 5 5 3 5 3 5 5 5 5 5 5 5 5 5 3 3 5 5 5 5 5 5 3 5 5 3 5 5 3 5 3 5 5 5 3 5 5 3 5 5 5 5 5 5 5 5 3 3 5 5 3 3 5 5 5 5 3 5 5 5 3 5 3 5 3 3 3 5 3 5 5 5 3 5 5 5 5 5 5 5 5 5 3 5 5 3 5 5 5 5 5 5 3 5 5 5 5 5 5 3 3 3 5 5 5 5 5 5 5 5 5 5 5 3 5 5 5 5 3 5 5 5 5 5 5 5 5 3 5 5 3 5 5 5 3 5 5 5 5 5 5 5 5 5 3 5 5 5 5 5 5 5 5 3 5 5 5 3 5 5 3 5 5 5 3 5 3 5 5 3 5 3 5 5 3 5 5 5 5 5 5 3 5 5 3 5 5 5 5 5 5 5 5 5 5 5 5 5 5 5 5 5 5 5 5 5 5 5 5 5 5 5 5 5 5 5 5 5 5 5 5 5 5 5 5 5 5 5 5 5 5 5 5 5 5 5 5 5 5 5 5 5 5 5 5 5 5 5 5 5 5 5 5 5 5 5 5 5 5 5 5 5 5 5 5 5 5 5 5 5 5 5 5 5 5 5 5 5 5 5 5 3 5 5 5 5 3 5 5 5 5 5 5 5 5 5 5 5 5 3 3 5 5 5 5 5 5 5 5 5 5 5 5 5 5 5 3 5 5 5 3 5 5 5 5 5 5 5 5 5 5 3 5 3 5 5 5 5 5 5 5 5 5 5 5 5 5 5 5 5 5 5 5 5 5 5 5 5 3 5 5 5 5 3 5 5 5 5 5 5 5 5 3 5 5 5 5 5 5 5 5 5 5 5 5 5 5 5 5 5 5 5 5 5 5 5 5 5 5 5 5 5 5 5 5 5 5 5 5 5 5 5 5 5 5 5 5 5 5 5 5 5 3 5 5 5 5 5 5 5 5 5 5 5 5 5 5 5 5 5 5 5 5 5 5 5 5 5 5 5 5 5 5 5 5 3 5 5 5 5 5 5 3 5 5 5 5 5 5 3 5 5 3 5 3 5 3 5 5 5 5 3 5 5 5 5 5 3 5 5 5 3 3 5 5 5 3 5 5 5 5 3 3 5 5 5 5 5 5 5 5 5 5 5 5 5 5 3 5 5 3 5 5 3 3 5 5 5 5 5 5 5 5 5 5 3 5 3 5 5 5 5 5 5 5 5 5 5 5 3 5 5 5 5 5 5 5 3 5 5 5 5 5 5 5 5 5 5 5 5 5 5 5 5 5 5 3 3 5 5 5 5 5 5 5 5 5 5 5 5 5 5 5 5 5 3 5 5 5 5 5 5 5 5 5 3 5 5 5 5 5 5 5 5 5 5 5 5 3 5 5 5 5 3 5 3 5 5 5 5 5 5 5 5 5 3 5 5 5 5 3 5 5 5 5 3 5 3 5 5 5 5 5 5 5 5 5 5 5 5 3 5 5 5 5 5 5 5 5 5 5 5 5 5 5 5 3 5 3 5 5 3 5 5 5 3 5 3 5 5 3 5 5 3 5 3 5 5 5 5 5 5 5 3 3 5 5 5 5 3 3 5 5 3 3 5 3 5 5 3 3 5 5 3 5 5 3 5 5 5 5 5 5 5 5 3 5 5 3 5 3 5 5 5 3 5 5 5 5 5 5 5 5 3 5 5 5 5 5 5 5 5 5 5 5 5 5 5 5 5 5 5 5 5 5 5 3 5 5 5 5 5 5 5 5 5 5 5 5 5 5 5 5 5 5 
</DataArray>
</Cells>
<PointData Scalars="" Vectors="displacement," Tensors="">
<DataArray type="Float64" Name="displacement" NumberOfComponents="3" format="ascii">
-0.024998066647731458 -7.9863922176799116e-07 0 -0.024273496189327236 -0.00011889269814071773 0 -0.024999307728628822 1.2236876605577883e-08 0 -0.024998066647731458 -7.9863922176799116e-07 0 -0.024273496189327236 -0.00011889269814071773 0 -0.021855737845475943 1.4322001597903655e-06 0 -0.024273496189327236 -0.00011889269814071773 0 -0.023861212755879165 1.2700383584340303e-05 0 -0.021855737845475943 1.4322001597903655e-06 0 -0.024273496189327236 -0.00011889269814071773 0 -0.023861212755879165 1.2700383584340303e-05 0 -0.02438857571157798 -2.0590413899180484e-05 0 -0.023861212755879165 1.2700383584340303e-05 0 -0.024105552500306254 0.00039673756397704153 0 -0.02438857571157798 -2.0590413899180484e-05 0 -0.023861212755879165 1.2700383584340303e-05 0 -0.024105552500306254 0.00039673756397704153 0 -0.021855737845475943 1.4322001597903655e-06 0 -0.022781999491447387 9.747170898812109e-05 0 -0.021851613844741435 6.7790961086787001e-08 0 -0.022387513976855601 -0.00040788045547947939 0 -0.022610972296142201 8.8593769979670745e-05 0 -0.02196962785741258 8.5432186895848466e-05 0 -0.024105552500306254 0.00039673756397704153 0 -0.024409850744555716 -0.00016268343498255453 0 -0.02438857571157798 -2.0590413899180484e-05 0 -0.021424644622849948 -8.9584323250627601e-05 0 -0.022387513976855601 -0.00040788045547947939 0 -0.02196962785741258 8.5432186895848466e-05 0 -0.022781999491447387 9.747170898812109e-05 0 -0.023357882107063518 -0.00024489261382812838 0 -0.02438857571157798 -2.0590413899180484e-05 0 -0.024616830197180826 7.4408845145934474e-05 0 -0.024277831078028816 -1.9698612688660399e-05 0 -0.024409850744555716 -0.00016268343498255453 0 -0.02438857571157798 -2.0590413899180484e-05 0 -0.024277831078028816 -1.9698612688660399e-05 0 -0.024616830197180826 7.4408845145934474e-05 0 -0.023974905791547155 0.00031018967207192496 0 -0.024277831078028816 -1.9698612688660399e-05 0 -0.024614204341808058 9.6683709847230443e-05 0 -0.024409233912277992 0.00017571450779649118 0 -0.024273496189327236 -0.00011889269814071773 0 -0.024616830197180826 7.4408845145934474e-05 0 -0.024999307728628822 1.2236876605577883e-08 0 -0.024273496189327236 -0.00011889269814071773 0 -0.02438857571157798 -2.0590413899180484e-05 0 -0.024616830197180826 7.4408845145934474e-05 0 -0.024616830197180826 7.4408845145934474e-05 0 -0.024999307728628822 1.2236876605577883e-08 0 -0.024934558188696294 5.0478106212080838e-05 0 -0.024999307728628822 1.2236876605577883e-08 0 -0.024995276484040128 2.0493407523084475e-06 0 -0.024934558188696294 5.0478106212080838e-05 0 -0.024999307728628822 1.2236876605577883e-08 0 -0.024995276484040128 2.0493407523084475e-06 0 -0.025000290328841421 4.9905638061655178e-09 0 -0.024995276484040128 2.0493407523084475e-06 0 -0.025012429918673463 4.3855397053175717e-05 0 -0.024934558188696294 5.0478106212080838e-05 0 -0.02514652343947929 8.7506169919883203e-05 0 -0.024398739974582077 4.6129686144879871e-06 0 -0.024398739974582077 4.6129686144879871e-06 0 -0.024409233912277992 0.00017571450779649118 0 -0.023378034183213634 0.00027478332171619878 0 -0.023974905791547155 0.00031018967207192496 0 -0.023417757271972969 -0.00027789373345757243 0 -0.024995276484040128 2.0493407523084475e-06 0 -0.024994434750494586 2.5206064625556142e-06 0 -0.025000290328841421 4.9905638061655178e-09 0 -0.025000016429446385 -1.0471117702558534e-08 0 -0.025003606096515672 -8.1451784883446055e-06 0 -0.024999023298969893 -8.3151154434795668e-06 0 -0.024994434750494586 2.5206064625556142e-06 0 -0.025000290328841421 4.9905638061655178e-09 0 -0.02499795131579239 1.7797958254803514e-06 0 -0.024916956196643792 -7.4866462077203104e-05 0 -0.02502772085289404 -1.4637819301890756e-05 0 -0.024999983920525184 2.3653716042438975e-08 0 -0.024916956196643792 -7.4866462077203104e-05 0 -0.024368382356652656 -8.397966941323634e-05 0 -0.024487165080024527 -0.00010218311037868097 0 -0.02444595396485575 -2.6812738207962092e-06 0 -0.024398739974582077 4.6129686144879871e-06 0 -0.024916956196643792 -7.4866462077203104e-05 0 -0.024398739974582077 4.6129686144879871e-06 0 -0.023966681110020371 -0.00010665980194074204 0 -0.025023775661643183 -1.5594195271833927e-05 0 -0.025015452244878875 -3.7215471303698029e-05 0 -0.025033059614584088 -4.8891380825673246e-05 0 -0.024916956196643792 -7.4866462077203104e-05 0 -0.023966681110020371 -0.00010665980194074204 0 -0.025023775661643183 -1.5594195271833927e-05 0 -0.025015452244878875 -3.7215471303698029e-05 0 -0.024999023298969893 -8.3151154434795668e-06 0 -0.023483203755499883 -0.00025946942036959457 0 -0.023483907524039459 -0.00017206049222311969 0 -0.023537640951010658 -0.00017907343962842248 0 -0.025015452244878875 -3.7215471303698029e-05 0 -0.025033059614584088 -4.8891380825673246e-05 0 -0.025012379118664947 -7.9142203699449163e-05 0 -0.023966681110020371 -0.00010665980194074204 0 -0.024395558954207384 -2.9671184306574032e-05 0 -0.023378034183213634 0.00027478332171619878 0 -0.023201639228489682 -0.00010225956571711485 0 -0.023417757271972969 -0.00027789373345757243 0 -0.023201639228489682 -0.00010225956571711485 0 -0.023399214779173044 -0.00014828409217032404 0 -0.023417757271972969 -0.00027789373345757243 0 -0.023966681110020371 -0.00010665980194074204 0 -0.023242711363030855 -0.00012517213969096474 0 -0.023483203755499883 -0.00025946942036959457 0 -0.023399214779173044 -0.00014828409217032404 0 -0.023483907524039459 -0.00017206049222311969 0 -0.023399214779173044 -0.00014828409217032404 0 -0.023470689346292553 -0.0001168436690677021 0 -0.023483907524039459 -0.00017206049222311969 0 -0.023508467231573207 -0.00013937258475169999 0 -0.023537640951010658 -0.00017907343962842248 0 -0.023582283652762291 -0.00012426418310463913 0 -0.023483907524039459 -0.00017206049222311969 0 -0.023508467231573207 -0.00013937258475169999 0 -0.023537640951010658 -0.00017907343962842248 0 -0.023470689346292553 -0.0001168436690677021 0 -0.023508467231573207 -0.00013937258475169999 0 -0.023483281856367982 -9.8041876429234165e-05 0 -0.023470689346292553 -0.0001168436690677021 0 -0.023483907524039459 -0.00017206049222311969 0 -0.023508467231573207 -0.00013937258475169999 0 -0.023974905791547155 0.00031018967207192496 0 -0.024277831078028816 -1.9698612688660399e-05 0 -0.023417757271972969 -0.00027789373345757243 0 -0.023357882107063518 -0.00024489261382812838 0 -0.023394230116148461 -0.00028275161038884486 0 -0.024409850744555716 -0.00016268343498255453 0 -0.024277831078028816 -1.9698612688660399e-05 0 -0.023417757271972969 -0.00027789373345757243 0 -0.023399214779173044 -0.00014828409217032404 0 -0.023417757271972969 -0.00027789373345757243 0 -0.023071259110134211 -7.6375277053624861e-05 0 -0.022387513976855601 -0.00040788045547947939 0 -0.023417757271972969 -0.00027789373345757243 0 -0.023071259110134211 -7.6375277053624861e-05 0 -0.022387513976855601 -0.00040788045547947939 0 -0.023071259110134211 -7.6375277053624861e-05 0 -0.022610972296142201 8.8593769979670745e-05 0 -0.022610972296142201 8.8593769979670745e-05 0 -0.023153709442156507 0.00029545345245139307 0 -0.022390108334367973 0.00055874476905242311 0 -0.023071259110134211 -7.6375277053624861e-05 0 -0.022610972296142201 8.8593769979670745e-05 0 -0.023153709442156507 0.00029545345245139307 0 -0.023399214779173044 -0.00014828409217032404 0 -0.023071259110134211 -7.6375277053624861e-05 0 -0.023153709442156507 0.00029545345245139307 0 -0.016367766578976019 -0.0015194706819301204 0 -0.01657088330187044 -0.0013769969789628831 0 -0.016299364662543069 -0.0012529807521407563 0 -0.019631449707460828 -0.00054753578375804602 0 -0.019177121314390158 -0.00047755584015276442 0 -0.016367766578976019 -0.0015194706819301204 0 -0.016299364662543069 -0.0012529807521407563 0 -0.016055473816141141 -0.0014132357660164717 0 -0.023508467231573207 -0.00013937258475169999 0 -0.023483281856367982 -9.8041876429234165e-05 0 -0.023582283652762291 -0.00012426418310463913 0 -0.020729895991920801 -0.0011095387186913846 0 -0.023743176670951986 -0.00053854982517732917 0 -0.023470689346292553 -0.0001168436690677021 0 -0.023153709442156507 0.00029545345245139307 0 -0.023591333632348263 7.5170680892295007e-05 0 -0.019631449707460828 -0.00054753578375804602 0 -0.020729895991920801 -0.0011095387186913846 0 -0.023399214779173044 -0.00014828409217032404 0 -0.023470689346292553 -0.0001168436690677021 0 -0.023153709442156507 0.00029545345245139307 0 -0.02347839340859224 0.00056012749743736224 0 -0.020729895991920801 -0.0011095387186913846 0 -0.016367766578976019 -0.0015194706819301204 0 -0.01669847353469919 -0.0016054091647878844 0 -0.01657088330187044 -0.0013769969789628831 0 -0.020729895991920801 -0.0011095387186913846 0 -0.018853549989238161 -0.0012044806565710299 0 -0.01669847353469919 -0.0016054091647878844 0 -0.01657088330187044 -0.0013769969789628831 0 -0.016860592559583998 -0.0013518050027867606 0 -0.01657088330187044 -0.0013769969789628831 0 -0.016751960452236519 -0.0011685801406035447 0 -0.016860592559583998 -0.0013518050027867606 0 -0.01657088330187044 -0.0013769969789628831 0 -0.016751960452236519 -0.0011685801406035447 0 -0.016531716012898191 -0.001185508338311647 0 -0.01657088330187044 -0.0013769969789628831 0 -0.016531716012898191 -0.001185508338311647 0 -0.016299364662543069 -0.0012529807521407563 0 -0.016531716012898191 -0.001185508338311647 0 -0.016372442542661941 -0.0010476614939658416 0 -0.016586370544602106 -0.0008886252657172314 0 -0.016751960452236519 -0.0011685801406035447 0 -0.016826534192983546 -0.00097793673336149176 0 -0.016586370544602106 -0.0008886252657172314 0 -0.016751960452236519 -0.0011685801406035447 0 -0.016531716012898191 -0.001185508338311647 0 -0.016586370544602106 -0.0008886252657172314 0 -0.016299364662543069 -0.0012529807521407563 0 -0.016044304730824677 -0.0011726827307227312 0 -0.016055473816141141 -0.0014132357660164717 0 -0.016299364662543069 -0.0012529807521407563 0 -0.016182539144315063 -0.0010263695302888971 0 -0.016044304730824677 -0.0011726827307227312 0 -0.016531716012898191 -0.001185508338311647 0 -0.016299364662543069 -0.0012529807521407563 0 -0.016372442542661941 -0.0010476614939658416 0 -0.016299364662543069 -0.0012529807521407563 0 -0.016372442542661941 -0.0010476614939658416 0 -0.016182539144315063 -0.0010263695302888971 0 -0.016372442542661941 -0.0010476614939658416 0 -0.016182539144315063 -0.0010263695302888971 0 -0.016278835735587981 -0.00087933333336046059 0 -0.016182539144315063 -0.0010263695302888971 0 -0.016044304730824677 -0.0011726827307227312 0 -0.015995508883324804 -0.00092423566227395587 0 -0.016044304730824677 -0.0011726827307227312 0 -0.015837102436691584 -0.0010404118804624627 0 -0.015995508883324804 -0.00092423566227395587 0 -0.015932600140044956 -0.0012352997634252963 0 -0.016044304730824677 -0.0011726827307227312 0 -0.015837102436691584 -0.0010404118804624627 0 -0.015932600140044956 -0.0012352997634252963 0 -0.016044304730824677 -0.0011726827307227312 0 -0.016055473816141141 -0.0014132357660164717 0 -0.015857012716466799 -0.00063132067932122362 0 -0.019041323914434079 5.6345430404587645e-05 0 -0.016663159978772657 -4.0942924705746032e-05 0 -0.017637929179762583 0.00046537107630575508 0 -0.017342104061665458 0.0013215510828340224 0 -0.015932600140044956 -0.0012352997634252963 0 -0.015837102436691584 -0.0010404118804624627 0 -0.015797046439085419 -0.0013158301663307554 0 -0.016663159978772657 -4.0942924705746032e-05 0 -0.017465058176377123 -6.1489058462447781e-06 0 -0.017637929179762583 0.00046537107630575508 0 -0.017465058176377123 -6.1489058462447781e-06 0 -0.018456188215237278 6.8062055733207817e-05 0 -0.017711018353798964 -0.00012725854589712727 0 -0.017465058176377123 -6.1489058462447781e-06 0 -0.018456188215237278 6.8062055733207817e-05 0 -0.017637929179762583 0.00046537107630575508 0 -0.018749969550596005 -9.1853662727905115e-07 0 -0.018456188215237278 6.8062055733207817e-05 0 -0.020067671483081837 2.6624631015945902e-06 0 -0.018749969550596005 -9.1853662727905115e-07 0 -0.018456188215237278 6.8062055733207817e-05 0 -0.017711018353798964 -0.00012725854589712727 0 -0.018456188215237278 6.8062055733207817e-05 0 -0.020067671483081837 2.6624631015945902e-06 0 -0.018373101662814088 0.0010210659910578402 0 -0.020069931393190868 3.063641650777884e-07 0 -0.019713875416711799 0.00047193536572982006 0 -0.018373101662814088 0.0010210659910578402 0 -0.017637929179762583 0.00046537107630575508 0 -0.017342104061665458 0.0013215510828340224 0 -0.018456188215237278 6.8062055733207817e-05 0 -0.018373101662814088 0.0010210659910578402 0 -0.017637929179762583 0.00046537107630575508 0 -0.019713875416711799 0.00047193536572982006 0 -0.019041323914434079 5.6345430404587645e-05 0 -0.021591341232764051 0.00039828349955826193 0 -0.019041323914434079 5.6345430404587645e-05 0 -0.021264099970857785 -3.1047089181351e-05 0 -0.02133854642294282 3.9023526487719858e-05 0 -0.021266342300581425 3.6916246799739726e-05 0 -0.021086034672046894 7.9820725746268005e-05 0 -0.021264099970857785 -3.1047089181351e-05 0 -0.021266342300581425 3.6916246799739726e-05 0 -0.021086034672046894 7.9820725746268005e-05 0 -0.021264099970857785 -3.1047089181351e-05 0 -0.020960974483566493 -5.0053424505918435e-07 0 -0.020071611670945299 9.5238590549791168e-07 0 -0.021086034672046894 7.9820725746268005e-05 0 -0.020960974483566493 -5.0053424505918435e-07 0 -0.021264099970857785 -3.1047089181351e-05 0 -0.020960974483566493 -5.0053424505918435e-07 0 -0.021849180679094707 1.5926922048876559e-07 0 -0.021264099970857785 -3.1047089181351e-05 0 -0.021849180679094707 1.5926922048876559e-07 0 -0.02133854642294282 3.9023526487719858e-05 0 -0.021424644622849948 -8.9584323250627601e-05 0 -0.021849180679094707 1.5926922048876559e-07 0 -0.02133854642294282 3.9023526487719858e-05 0 -0.02133854642294282 3.9023526487719858e-05 0 -0.021809600267537851 0.00035735087849681955 0 -0.02196962785741258 8.5432186895848466e-05 0 -0.021424644622849948 -8.9584323250627601e-05 0 -0.02133854642294282 3.9023526487719858e-05 0 -0.02196962785741258 8.5432186895848466e-05 0 -0.022610972296142201 8.8593769979670745e-05 0 -0.02196962785741258 8.5432186895848466e-05 0 -0.022390108334367973 0.00055874476905242311 0 -0.021809600267537851 0.00035735087849681955 0 -0.02196962785741258 8.5432186895848466e-05 0 -0.022390108334367973 0.00055874476905242311 0 -0.021809600267537851 0.00035735087849681955 0 -0.022390108334367973 0.00055874476905242311 0 -0.021510929075933615 0.0007531906077219492 0 -0.019177121314390158 -0.00047755584015276442 0 -0.019041323914434079 5.6345430404587645e-05 0 -0.015932600140044956 -0.0012352997634252963 0 -0.016055473816141141 -0.0014132357660164717 0 -0.015797046439085419 -0.0013158301663307554 0 -0.02133854642294282 3.9023526487719858e-05 0 -0.021809600267537851 0.00035735087849681955 0 -0.021510929075933615 0.0007531906077219492 0 -0.024795585907594311 9.9299243536408798e-05 0 -0.02482372133525897 0.00025066476640411687 0 -0.024901581582301931 0.00011215185935407005 0 -0.024672205046866673 0.00022536247855135859 0 -0.024795585907594311 9.9299243536408798e-05 0 -0.02482372133525897 0.00025066476640411687 0 -0.02495332690912145 0.00010844078827953766 0 -0.024945778476131428 3.8237353603060888e-05 0 -0.024994022751582357 3.3455201119921597e-05 0 -0.024794649836980227 0.00017401578846233825 0 -0.02489638913606633 6.7421908746528213e-05 0 -0.024945778476131428 3.8237353603060888e-05 0 -0.024984325900282163 1.6281294981957226e-06 0 -0.02493640774889426 8.0529018619335915e-06 0 -0.024945778476131428 3.8237353603060888e-05 0 -0.024994022751582357 3.3455201119921597e-05 0 -0.024984325900282163 1.6281294981957226e-06 0 -0.02489638913606633 6.7421908746528213e-05 0 -0.024956140069271059 1.2403167873591276e-05 0 -0.024994022751582357 3.3455201119921597e-05 0 -0.024984325900282163 1.6281294981957226e-06 0 -0.025003896322322344 4.4543173529374589e-06 0 -0.024995882361610235 -4.6566979108754879e-07 0 -0.024984325900282163 1.6281294981957226e-06 0 -0.025003896322322344 4.4543173529374589e-06 0 -0.024995882361610235 -4.6566979108754879e-07 0 -0.025000000091134053 8.5474104917287403e-09 0 -0.024999968423480075 -1.3215609180055056e-08 0 -0.024995882361610235 -4.6566979108754879e-07 0 -0.025000000091134053 8.5474104917287403e-09 0 -0.024999915650882498 2.621202446499062e-07 0 -0.024995882361610235 -4.6566979108754879e-07 0 -0.024999968423480075 -1.3215609180055056e-08 0 -0.024984325900282163 1.6281294981957226e-06 0 -0.024999968423480075 -1.3215609180055056e-08 0 -0.024984325900282163 1.6281294981957226e-06 0 -0.024972105475947689 -3.8070071211926005e-06 0 -0.024984325900282163 1.6281294981957226e-06 0 -0.02493640774889426 8.0529018619335915e-06 0 -0.024972105475947689 -3.8070071211926005e-06 0 -0.02493640774889426 8.0529018619335915e-06 0 -0.024972105475947689 -3.8070071211926005e-06 0 -0.024940153742787678 -5.3830792061973387e-06 0 -0.024999968423480075 -1.3215609180055056e-08 0 -0.024972105475947689 -3.8070071211926005e-06 0 -0.024999917946082573 -9.3354297039798474e-09 0 -0.024972105475947689 -3.8070071211926005e-06 0 -0.024999917946082573 -9.3354297039798474e-09 0 -0.024940153742787678 -5.3830792061973387e-06 0 -0.024999917946082573 -9.3354297039798474e-09 0 -0.024940153742787678 -5.3830792061973387e-06 0 -0.024999911010850882 5.9124697151805008e-09 0 -0.02493640774889426 8.0529018619335915e-06 0 -0.024940153742787678 -5.3830792061973387e-06 0 -0.024857730576081226 3.0541679054250063e-05 0 -0.024940153742787678 -5.3830792061973387e-06 0 -0.024857730576081226 3.0541679054250063e-05 0 -0.024914587579567625 -1.1117321852565152e-05 0 -0.024945778476131428 3.8237353603060888e-05 0 -0.02493640774889426 8.0529018619335915e-06 0 -0.024857730576081226 3.0541679054250063e-05 0 -0.024945778476131428 3.8237353603060888e-05 0 -0.024857730576081226 3.0541679054250063e-05 0 -0.024831675421419525 9.9805924434637818e-05 0 -0.02495332690912145 0.00010844078827953766 0 -0.024945778476131428 3.8237353603060888e-05 0 -0.024831675421419525 9.9805924434637818e-05 0 -0.024857730576081226 3.0541679054250063e-05 0 -0.024831675421419525 9.9805924434637818e-05 0 -0.02473324759092033 0.00011057480822953609 0 -0.02473324759092033 0.00011057480822953609 0 -0.024759556317939382 6.0586630656863489e-05 0 -0.024655610447058031 0.00016998711938896765 0 -0.024857730576081226 3.0541679054250063e-05 0 -0.02473324759092033 0.00011057480822953609 0 -0.024759556317939382 6.0586630656863489e-05 0 -0.024829030627410806 -3.702086799836543e-06 0 -0.024782906850977362 1.3775699844513522e-05 0 -0.024892944999978506 -8.0269183943752957e-05 0 -0.024923332990925192 -0.00010894267912226576 0 -0.024939149875321417 -5.5666737463174747e-05 0 -0.024923332990925192 -0.00010894267912226576 0 -0.024939149875321417 -5.5666737463174747e-05 0 -0.024955156508140813 -8.3075205548540577e-05 0 -0.024892944999978506 -8.0269183943752957e-05 0 -0.024923332990925192 -0.00010894267912226576 0 -0.02487553172100632 -0.00014974941627449623 0 -0.024857730576081226 3.0541679054250063e-05 0 -0.024759556317939382 6.0586630656863489e-05 0 -0.024914587579567625 -1.1117321852565152e-05 0 -0.024892944999978506 -8.0269183943752957e-05 0 -0.024939149875321417 -5.5666737463174747e-05 0 -0.024914587579567625 -1.1117321852565152e-05 0 -0.024829030627410806 -3.702086799836543e-06 0 -0.024895723928652039 -4.6728135274183733e-06 0 -0.024940153742787678 -5.3830792061973387e-06 0 -0.024914587579567625 -1.1117321852565152e-05 0 -0.024999911010850882 5.9124697151805008e-09 0 -0.024914587579567625 -1.1117321852565152e-05 0 -0.024999911010850882 5.9124697151805008e-09 0 -0.024969159350567132 -1.1116042484132621e-05 0 -0.024999911010850882 5.9124697151805008e-09 0 -0.024969159350567132 -1.1116042484132621e-05 0 -0.024999983812957802 -2.439054312931637e-09 0 -0.024939149875321417 -5.5666737463174747e-05 0 -0.024969159350567132 -1.1116042484132621e-05 0 -0.024970399303828328 -4.6709430071161832e-05 0 -0.024939149875321417 -5.5666737463174747e-05 0 -0.024914587579567625 -1.1117321852565152e-05 0 -0.024969159350567132 -1.1116042484132621e-05 0 -0.024969159350567132 -1.1116042484132621e-05 0 -0.024986064491755638 -1.7333191548205623e-05 0 -0.024970399303828328 -4.6709430071161832e-05 0 -0.024986064491755638 -1.7333191548205623e-05 0 -0.024995272244082975 -4.3803763141694973e-05 0 -0.024970399303828328 -4.6709430071161832e-05 0 -0.024986064491755638 -1.7333191548205623e-05 0 -0.024999983812957802 -2.439054312931637e-09 0 -0.024999023298969893 -8.3151154434795668e-06 0 -0.024969159350567132 -1.1116042484132621e-05 0 -0.024986064491755638 -1.7333191548205623e-05 0 -0.024999983812957802 -2.439054312931637e-09 0 -0.025000016429446385 -1.0471117702558534e-08 0 -0.024999983812957802 -2.439054312931637e-09 0 -0.024999023298969893 -8.3151154434795668e-06 0 -0.025015452244878875 -3.7215471303698029e-05 0 -0.024999023298969893 -8.3151154434795668e-06 0 -0.024995272244082975 -4.3803763141694973e-05 0 -0.024986064491755638 -1.7333191548205623e-05 0 -0.024999023298969893 -8.3151154434795668e-06 0 -0.024995272244082975 -4.3803763141694973e-05 0 -0.025012379118664947 -7.9142203699449163e-05 0 -0.024995272244082975 -4.3803763141694973e-05 0 -0.024983046694914818 -7.9429738032196976e-05 0 -0.025015452244878875 -3.7215471303698029e-05 0 -0.025012379118664947 -7.9142203699449163e-05 0 -0.024995272244082975 -4.3803763141694973e-05 0 -0.024995272244082975 -4.3803763141694973e-05 0 -0.024970399303828328 -4.6709430071161832e-05 0 -0.024983046694914818 -7.9429738032196976e-05 0 -0.024939149875321417 -5.5666737463174747e-05 0 -0.024970399303828328 -4.6709430071161832e-05 0 -0.024955156508140813 -8.3075205548540577e-05 0 -0.024970399303828328 -4.6709430071161832e-05 0 -0.024955156508140813 -8.3075205548540577e-05 0 -0.024983046694914818 -7.9429738032196976e-05 0 -0.024966423357570999 -9.700685789390278e-05 0 -0.024955156508140813 -8.3075205548540577e-05 0 -0.024983046694914818 -7.9429738032196976e-05 0 -0.024966423357570999 -9.700685789390278e-05 0 -0.024955156508140813 -8.3075205548540577e-05 0 -0.024948966054103384 -0.00010832049084074609 0 -0.024923332990925192 -0.00010894267912226576 0 -0.024948966054103384 -0.00010832049084074609 0 -0.024937413231026238 -0.00013312699761332833 0 -0.024948966054103384 -0.00010832049084074609 0 -0.024964817035693077 -0.00011895431210661841 0 -0.024937413231026238 -0.00013312699761332833 0 -0.024923332990925192 -0.00010894267912226576 0 -0.024955156508140813 -8.3075205548540577e-05 0 -0.024948966054103384 -0.00010832049084074609 0 -0.024966423357570999 -9.700685789390278e-05 0 -0.024948966054103384 -0.00010832049084074609 0 -0.024964817035693077 -0.00011895431210661841 0 -0.024966423357570999 -9.700685789390278e-05 0 -0.024964817035693077 -0.00011895431210661841 0 -0.024981218343010338 -0.00012145461860651952 0 -0.024752961889531987 -0.00050225634810989841 0 -0.023743176670951986 -0.00053854982517732917 0 -0.024966423357570999 -9.700685789390278e-05 0 -0.024983046694914818 -7.9429738032196976e-05 0 -0.024981218343010338 -0.00012145461860651952 0 -0.024395558954207384 -2.9671184306574032e-05 0 -0.023743176670951986 -0.00053854982517732917 0 -0.025012379118664947 -7.9142203699449163e-05 0 -0.024983046694914818 -7.9429738032196976e-05 0 -0.024981218343010338 -0.00012145461860651952 0 -0.021030345258469405 -0.0015034440146770827 0 -0.021869105415326526 -0.0017170847435959528 0 -0.021562971323925918 -0.00075014245588317342 0 -0.024964817035693077 -0.00011895431210661841 0 -0.024980126080227264 -0.00012530186464955592 0 -0.024935662382702072 -0.00018016025354858397 0 -0.023743176670951986 -0.00053854982517732917 0 -0.023582083829567519 -0.00076256903793298103 0 -0.024964817035693077 -0.00011895431210661841 0 -0.024937413231026238 -0.00013312699761332833 0 -0.024935662382702072 -0.00018016025354858397 0 -0.022449752051923143 -0.0011229428936233349 0 -0.021562971323925918 -0.00075014245588317342 0 -0.022147987494182574 -0.00053044861965089059 0 -0.021869105415326526 -0.0017170847435959528 0 -0.022449752051923143 -0.0011229428936233349 0 -0.021562971323925918 -0.00075014245588317342 0 -0.018853549989238161 -0.0012044806565710299 0 -0.019935954909462445 -0.00065288586974949158 0 -0.021562971323925918 -0.00075014245588317342 0 -0.022101447929681686 1.8384272494595328e-05 0 -0.022147987494182574 -0.00053044861965089059 0 -0.016751960452236519 -0.0011685801406035447 0 -0.016860592559583998 -0.0013518050027867606 0 -0.017059532883445395 -0.0010895580592831769 0 -0.016751960452236519 -0.0011685801406035447 0 -0.016826534192983546 -0.00097793673336149176 0 -0.017059532883445395 -0.0010895580592831769 0 -0.016446631445821723 -0.00088315002173130889 0 -0.019935954909462445 -0.00065288586974949158 0 -0.019935954909462445 -0.00065288586974949158 0 -0.021073174392158438 -0.00046608892162631208 0 -0.024065943926748608 -0.00026059629283260553 0 -0.024160824244782837 -0.00029925084622137881 0 -0.024239031062515449 -0.00022179382272511411 0 -0.024065943926748608 -0.00026059629283260553 0 -0.024239031062515449 -0.00022179382272511411 0 -0.024169720383885353 -0.0001803880492336261 0 -0.019935954909462445 -0.00065288586974949158 0 -0.023604095846036566 -0.00048679344732316046 0 -0.022449752051923143 -0.0011229428936233349 0 -0.022147987494182574 -0.00053044861965089059 0 -0.022577863646869305 -0.00024739912237996367 0 -0.022101447929681686 1.8384272494595328e-05 0 -0.022147987494182574 -0.00053044861965089059 0 -0.022577863646869305 -0.00024739912237996367 0 -0.022449752051923143 -0.0011229428936233349 0 -0.023048837238979342 -0.00051585567291187202 0 -0.022577863646869305 -0.00024739912237996367 0 -0.024265581085233631 -0.00036235954855104701 0 -0.024265622969771469 -0.00026634905429882957 0 -0.024160824244782837 -0.00029925084622137881 0 -0.02419306831984875 -0.00022677532905626387 0 -0.023604095846036566 -0.00048679344732316046 0 -0.024265622969771469 -0.00026634905429882957 0 -0.024160824244782837 -0.00029925084622137881 0 -0.024239031062515449 -0.00022179382272511411 0 -0.024239031062515449 -0.00022179382272511411 0 -0.024375024168431434 -0.00021471426839467304 0 -0.024279538304106865 -0.00020884539996659786 0 -0.024375024168431434 -0.00021471426839467304 0 -0.024295264585602085 -0.00020490272905651248 0 -0.024279538304106865 -0.00020884539996659786 0 -0.024265622969771469 -0.00026634905429882957 0 -0.024239031062515449 -0.00022179382272511411 0 -0.024375024168431434 -0.00021471426839467304 0 -0.024375024168431434 -0.00021471426839467304 0 -0.024486632694134192 -6.6229285598491436e-05 0 -0.024371335544917754 -0.00013747333467797684 0 -0.02419306831984875 -0.00022677532905626387 0 -0.024435073285945668 -0.00017208756358846265 0 -0.024634435986608482 -6.4629869614399744e-05 0 -0.024375024168431434 -0.00021471426839467304 0 -0.024549608807371209 -8.3837906731698667e-05 0 -0.024375024168431434 -0.00021471426839467304 0 -0.024549608807371209 -8.3837906731698667e-05 0 -0.024486632694134192 -6.6229285598491436e-05 0 -0.024265581085233631 -0.00036235954855104701 0 -0.024265622969771469 -0.00026634905429882957 0 -0.024375024168431434 -0.00021471426839467304 0 -0.024634435986608482 -6.4629869614399744e-05 0 -0.024549608807371209 -8.3837906731698667e-05 0 -0.024548104419060364 -7.1647367526910303e-06 0 -0.024574996160645006 -0.00010729469209911168 0 -0.024581317297685316 -0.00015196191182940115 0 -0.024549608807371209 -8.3837906731698667e-05 0 -0.024553414172377712 -4.2827691387715188e-05 0 -0.024486632694134192 -6.6229285598491436e-05 0 -0.02419306831984875 -0.00022677532905626387 0 -0.024581317297685316 -0.00015196191182940115 0 -0.024486632694134192 -6.6229285598491436e-05 0 -0.024537200272384891 2.0719827403779225e-05 0 -0.024427611267783471 -2.9169323933109952e-05 0 -0.024553414172377712 -4.2827691387715188e-05 0 -0.024486632694134192 -6.6229285598491436e-05 0 -0.024537200272384891 2.0719827403779225e-05 0 -0.024581317297685316 -0.00015196191182940115 0 -0.024782906850977362 1.3775699844513522e-05 0 -0.024537200272384891 2.0719827403779225e-05 0 -0.024655610447058031 0.00016998711938896765 0 -0.02453649409442666 8.6699573956676272e-05 0 -0.02460647660261911 -2.1754993059120984e-05 0 -0.024537200272384891 2.0719827403779225e-05 0 -0.024655610447058031 0.00016998711938896765 0 -0.024866631070923604 -0.0002274736076173214 0 -0.024894240154522903 -0.00018871632092353228 0 -0.02487553172100632 -0.00014974941627449623 0 -0.024581317297685316 -0.00015196191182940115 0 -0.024514221917727848 -3.3484576018408075e-05 0 -0.024880508899747585 -0.00023651469436624758 0 -0.024866631070923604 -0.0002274736076173214 0 -0.024894240154522903 -0.00018871632092353228 0 -0.024935662382702072 -0.00018016025354858397 0 -0.024880508899747585 -0.00023651469436624758 0 -0.024894240154522903 -0.00018871632092353228 0 -0.023582083829567519 -0.00076256903793298103 0 -0.02419306831984875 -0.00022677532905626387 0 -0.024935662382702072 -0.00018016025354858397 0 -0.024894240154522903 -0.00018871632092353228 0 -0.024913959253697535 -0.00015183666494744896 0 -0.024894240154522903 -0.00018871632092353228 0 -0.024913959253697535 -0.00015183666494744896 0 -0.02487553172100632 -0.00014974941627449623 0 -0.024937413231026238 -0.00013312699761332833 0 -0.024935662382702072 -0.00018016025354858397 0 -0.024913959253697535 -0.00015183666494744896 0 -0.024923332990925192 -0.00010894267912226576 0 -0.024937413231026238 -0.00013312699761332833 0 -0.024913959253697535 -0.00015183666494744896 0 -0.024923332990925192 -0.00010894267912226576 0 -0.024913959253697535 -0.00015183666494744896 0 -0.02487553172100632 -0.00014974941627449623 0 -0.02473324759092033 0.00011057480822953609 0 -0.024655610447058031 0.00016998711938896765 0 -0.024607420630946526 0.00017584290257985816 0 -0.024655610447058031 0.00016998711938896765 0 -0.024607420630946526 0.00017584290257985816 0 -0.02453649409442666 8.6699573956676272e-05 0 -0.024831675421419525 9.9805924434637818e-05 0 -0.024607420630946526 0.00017584290257985816 0 -0.024850709091704368 0.00024777724745028533 0 -0.024831675421419525 9.9805924434637818e-05 0 -0.02473324759092033 0.00011057480822953609 0 -0.024607420630946526 0.00017584290257985816 0 -0.02495332690912145 0.00010844078827953766 0 -0.024831675421419525 9.9805924434637818e-05 0 -0.024850709091704368 0.00024777724745028533 0 -0.024794649836980227 0.00017401578846233825 0 -0.02482770166097106 0.0003111445634473913 0 -0.024230533518583054 0.00011662089763300282 0 -0.024203821696926243 9.6178467423607632e-05 0 -0.024225429450039384 4.9524549644004588e-05 0 -0.024210582303418778 0.00014223048354512511 0 -0.024230533518583054 0.00011662089763300282 0 -0.024203821696926243 9.6178467423607632e-05 0 -0.02482770166097106 0.0003111445634473913 0 -0.024742487994536572 0.00033288233705145484 0 -0.024210582303418778 0.00014223048354512511 0 -0.024203821696926243 9.6178467423607632e-05 0 -0.024149912397523753 7.2714718161982596e-05 0 -0.024149912397523753 7.2714718161982596e-05 0 -0.024178311261248461 -7.9445144353905456e-06 0 -0.02408423010555491 -2.427367324132751e-05 0 -0.024203821696926243 9.6178467423607632e-05 0 -0.024149912397523753 7.2714718161982596e-05 0 -0.024225429450039384 4.9524549644004588e-05 0 -0.024149912397523753 7.2714718161982596e-05 0 -0.024178311261248461 -7.9445144353905456e-06 0 -0.024225429450039384 4.9524549644004588e-05 0 -0.024230533518583054 0.00011662089763300282 0 -0.024225429450039384 4.9524549644004588e-05 0 -0.024343694438912846 5.6486151796291527e-05 0 -0.024178311261248461 -7.9445144353905456e-06 0 -0.024225429450039384 4.9524549644004588e-05 0 -0.02425466038654996 -2.7197336532611383e-05 0 -0.024225429450039384 4.9524549644004588e-05 0 -0.024343694438912846 5.6486151796291527e-05 0 -0.02425466038654996 -2.7197336532611383e-05 0 -0.024475437488738549 0.00015559503895080758 0 -0.02482770166097106 0.0003111445634473913 0 -0.024607420630946526 0.00017584290257985816 0 -0.024230533518583054 0.00011662089763300282 0 -0.024343694438912846 5.6486151796291527e-05 0 -0.024607420630946526 0.00017584290257985816 0 -0.02419389144270602 0.00016749160375153027 0 -0.024230533518583054 0.00011662089763300282 0 -0.024349399927913972 -1.0046642309320752e-05 0 -0.024343694438912846 5.6486151796291527e-05 0 -0.02425466038654996 -2.7197336532611383e-05 0 -0.024349399927913972 -1.0046642309320752e-05 0 -0.024343694438912846 5.6486151796291527e-05 0 -0.024443993036393968 5.3262800649100796e-05 0 -0.024607420630946526 0.00017584290257985816 0 -0.024343694438912846 5.6486151796291527e-05 0 -0.024443993036393968 5.3262800649100796e-05 0 -0.024607420630946526 0.00017584290257985816 0 -0.02453649409442666 8.6699573956676272e-05 0 -0.024443993036393968 5.3262800649100796e-05 0 -0.024537200272384891 2.0719827403779225e-05 0 -0.02453649409442666 8.6699573956676272e-05 0 -0.024427611267783471 -2.9169323933109952e-05 0 -0.02453649409442666 8.6699573956676272e-05 0 -0.024443993036393968 5.3262800649100796e-05 0 -0.024427611267783471 -2.9169323933109952e-05 0 -0.024349399927913972 -1.0046642309320752e-05 0 -0.024443993036393968 5.3262800649100796e-05 0 -0.024427611267783471 -2.9169323933109952e-05 0 -0.024486632694134192 -6.6229285598491436e-05 0 -0.024427611267783471 -2.9169323933109952e-05 0 -0.024371335544917754 -0.00013747333467797684 0 -0.024427611267783471 -2.9169323933109952e-05 0 -0.024304600354719284 -0.00010445222822913796 0 -0.024371335544917754 -0.00013747333467797684 0 -0.024349399927913972 -1.0046642309320752e-05 0 -0.024427611267783471 -2.9169323933109952e-05 0 -0.024304600354719284 -0.00010445222822913796 0 -0.024349399927913972 -1.0046642309320752e-05 0 -0.024304600354719284 -0.00010445222822913796 0 -0.02425466038654996 -2.7197336532611383e-05 0 -0.024304600354719284 -0.00010445222822913796 0 -0.024371335544917754 -0.00013747333467797684 0 -0.024295264585602085 -0.00020490272905651248 0 -0.024375024168431434 -0.00021471426839467304 0 -0.024371335544917754 -0.00013747333467797684 0 -0.024295264585602085 -0.00020490272905651248 0 -0.024295264585602085 -0.00020490272905651248 0 -0.024185328462600856 -0.00012108021168300859 0 -0.024131811760929111 -0.00025806304107810993 0 -0.024304600354719284 -0.00010445222822913796 0 -0.024295264585602085 -0.00020490272905651248 0 -0.024185328462600856 -0.00012108021168300859 0 -0.024304600354719284 -0.00010445222822913796 0 -0.024185328462600856 -0.00012108021168300859 0 -0.02425466038654996 -2.7197336532611383e-05 0 -0.024178311261248461 -7.9445144353905456e-06 0 -0.024185328462600856 -0.00012108021168300859 0 -0.02425466038654996 -2.7197336532611383e-05 0 -0.024178311261248461 -7.9445144353905456e-06 0 -0.024185328462600856 -0.00012108021168300859 0 -0.02408423010555491 -2.427367324132751e-05 0 -0.02408423010555491 -2.427367324132751e-05 0 -0.024021091397218135 -0.00012955495916505569 0 -0.023900807279107011 7.3088804397578253e-05 0 -0.020001559777559973 -0.00047818984947024101 0 -0.022447121998438447 -5.4017139872083908e-05 0 -0.024185328462600856 -0.00012108021168300859 0 -0.02408423010555491 -2.427367324132751e-05 0 -0.024021091397218135 -0.00012955495916505569 0 -0.020001559777559973 -0.00047818984947024101 0 -0.019250796057746152 -0.0011726072233862904 0 -0.024185328462600856 -0.00012108021168300859 0 -0.024021091397218135 -0.00012955495916505569 0 -0.024131811760929111 -0.00025806304107810993 0 -0.016238342080365172 -0.0010194741482108232 0 -0.016202595104368403 -0.00092167997899895158 0 -0.016185549839198544 -0.00090957044116872932 0 -0.016238342080365172 -0.0010194741482108232 0 -0.016237398488443508 -0.00091694307799894425 0 -0.016271345630215674 -0.00096266381238410605 0 -0.016238342080365172 -0.0010194741482108232 0 -0.016237398488443508 -0.00091694307799894425 0 -0.016202595104368403 -0.00092167997899895158 0 -0.016237398488443508 -0.00091694307799894425 0 -0.016202595104368403 -0.00092167997899895158 0 -0.016211033805366034 -0.00090008264965347692 0 -0.017864965705006852 -0.00066138742684604922 0 -0.019250796057746152 -0.0011726072233862904 0 -0.016271345630215674 -0.00096266381238410605 0 -0.016275277862084762 -0.00090194764715672887 0 -0.016311244852964871 -0.00096149689879919875 0 -0.016237398488443508 -0.00091694307799894425 0 -0.016271345630215674 -0.00096266381238410605 0 -0.016275277862084762 -0.00090194764715672887 0 -0.016271345630215674 -0.00096266381238410605 0 -0.016301626385306172 -0.0010313478408022247 0 -0.016311244852964871 -0.00096149689879919875 0 -0.016301626385306172 -0.0010313478408022247 0 -0.016355809611224081 -0.0010380374192880532 0 -0.016311244852964871 -0.00096149689879919875 0 -0.016238342080365172 -0.0010194741482108232 0 -0.016301626385306172 -0.0010313478408022247 0 -0.016318916763890686 -0.0011193521049912547 0 -0.016301626385306172 -0.0010313478408022247 0 -0.016318916763890686 -0.0011193521049912547 0 -0.016393252576382984 -0.0011201939365103155 0 -0.016238342080365172 -0.0010194741482108232 0 -0.016271345630215674 -0.00096266381238410605 0 -0.016301626385306172 -0.0010313478408022247 0 -0.025324561560563515 -0.00091429959868753546 0 -0.024841024723707909 -0.00025888072392065293 0 -0.024397859409408806 -0.0012097697372695586 0 -0.022447121998438447 -5.4017139872083908e-05 0 -0.02007829162935916 -0.0012774247606669028 0 -0.024210582303418778 0.00014223048354512511 0 -0.024149912397523753 7.2714718161982596e-05 0 -0.023900807279107011 7.3088804397578253e-05 0 -0.024149912397523753 7.2714718161982596e-05 0 -0.02408423010555491 -2.427367324132751e-05 0 -0.023900807279107011 7.3088804397578253e-05 0 -0.0245632421325696 0.00035907658350546547 0 -0.024736113298907063 0.00039849517394128386 0 -0.024687714601966389 0.00031520162658673132 0 -0.02482770166097106 0.0003111445634473913 0 -0.022447121998438447 -5.4017139872083908e-05 0 -0.024672205046866673 0.00022536247855135859 0 -0.024687714601966389 0.00031520162658673132 0 -0.02482372133525897 0.00025066476640411687 0 -0.024672205046866673 0.00022536247855135859 0 -0.0245632421325696 0.00035907658350546547 0 -0.024687714601966389 0.00031520162658673132 0 -0.022447121998438447 -5.4017139872083908e-05 0 -0.025186511431534234 -0.00011383665736673398 0 -0.024736113298907063 0.00039849517394128386 0 -0.024687714601966389 0.00031520162658673132 0 -0.02482372133525897 0.00025066476640411687 0 -0.025324561560563515 -0.00091429959868753546 0 -0.024919490993190217 -0.00013958234111537016 0 -0.024841024723707909 -0.00025888072392065293 0 -0.01534629561241079 -0.00029730256185930072 0 -0.015120930945207145 -0.00042518376006290187 0 -0.015278614215115531 -1.0486712099931717e-05 0 -0.01534629561241079 -0.00029730256185930072 0 -0.015120930945207145 -0.00042518376006290187 0 -0.015474350378589066 -0.00047904001040798401 0 -0.015510158309809284 -0.00054865919422231993 0 -0.014588702744164005 6.2866829348639329e-05 0 -0.01534629561241079 -0.00029730256185930072 0 -0.015474350378589066 -0.00047904001040798401 0 -0.015554698769095557 -0.00027155215340429777 0 -0.01534629561241079 -0.00029730256185930072 0 -0.015278614215115531 -1.0486712099931717e-05 0 -0.015554698769095557 -0.00027155215340429777 0 -0.014588702744164005 6.2866829348639329e-05 0 -0.015402840748684926 -0.00011747885315622927 0 -0.015201020551867868 0.00034525112286018777 0 -0.014844382162190101 0.00041941500310179055 0 -0.015228988559263577 6.4187286825509931e-05 0 -0.014478774702020194 -0.00013693049849926412 0 -0.01454429359341463 -0.00026734608123610244 0 -0.014604717563135179 -9.4880934596745385e-05 0 -0.014478774702020194 -0.00013693049849926412 0 -0.01454429359341463 -0.00026734608123610244 0 -0.014314007497462864 -0.00023180931147785428 0 -0.016211889596079922 -0.00072638949903462561 0 -0.016231587702354597 -0.00075025864784655381 0 -0.016194798498840587 -0.00076866552184588017 0 -0.016233448794306198 -0.00064925402365423595 0 -0.016205219143966512 -0.00073885831629428851 0 -0.016163635939937002 -0.00067046925024566949 0 -0.015510158309809284 -0.00054865919422231993 0 -0.016200789261558036 -0.00073286249395666011 0 -0.016205219143966512 -0.00073885831629428851 0 -0.016153656024768571 -0.00073948839740461427 0 -0.016163635939937002 -0.00067046925024566949 0 -0.015510158309809284 -0.00054865919422231993 0 -0.015916495681580559 -0.0006149090237906401 0 -0.016211889596079922 -0.00072638949903462561 0 -0.016231587702354597 -0.00075025864784655381 0 -0.01625062959347225 -0.00074016318716232585 0 -0.016231587702354597 -0.00075025864784655381 0 -0.016239991256905211 -0.00077770186676774091 0 -0.016258655553452128 -0.00074819488544735128 0 -0.016231587702354597 -0.00075025864784655381 0 -0.01625062959347225 -0.00074016318716232585 0 -0.016258655553452128 -0.00074819488544735128 0 -0.016239991256905211 -0.00077770186676774091 0 -0.016261548546191891 -0.00077104020989715485 0 -0.016258655553452128 -0.00074819488544735128 0 -0.016239991256905211 -0.00077770186676774091 0 -0.016251521333331267 -0.00080650615080932664 0 -0.016221615004430416 -0.00081518361948038358 0 -0.016239991256905211 -0.00077770186676774091 0 -0.016251521333331267 -0.00080650615080932664 0 -0.016261548546191891 -0.00077104020989715485 0 -0.016251521333331267 -0.00080650615080932664 0 -0.016275346381975381 -0.00083039096933683809 0 -0.016261548546191891 -0.00077104020989715485 0 -0.016251521333331267 -0.00080650615080932664 0 -0.016245717351532254 -0.00085357792058135843 0 -0.016275346381975381 -0.00083039096933683809 0 -0.016251521333331267 -0.00080650615080932664 0 -0.016245717351532254 -0.00085357792058135843 0 -0.016221615004430416 -0.00081518361948038358 0 -0.016237398488443508 -0.00091694307799894425 0 -0.016245717351532254 -0.00085357792058135843 0 -0.016275277862084762 -0.00090194764715672887 0 -0.016245717351532254 -0.00085357792058135843 0 -0.016275277862084762 -0.00090194764715672887 0 -0.016275346381975381 -0.00083039096933683809 0 -0.016211033805366034 -0.00090008264965347692 0 -0.016212788264029866 -0.00086394174562584634 0 -0.016182668282745324 -0.00091007500310841098 0 -0.016202595104368403 -0.00092167997899895158 0 -0.016211033805366034 -0.00090008264965347692 0 -0.016182668282745324 -0.00091007500310841098 0 -0.016237398488443508 -0.00091694307799894425 0 -0.016211033805366034 -0.00090008264965347692 0 -0.016212788264029866 -0.00086394174562584634 0 -0.016237398488443508 -0.00091694307799894425 0 -0.016245717351532254 -0.00085357792058135843 0 -0.016212788264029866 -0.00086394174562584634 0 -0.016245717351532254 -0.00085357792058135843 0 -0.016212788264029866 -0.00086394174562584634 0 -0.016221615004430416 -0.00081518361948038358 0 -0.016212788264029866 -0.00086394174562584634 0 -0.016221615004430416 -0.00081518361948038358 0 -0.016174541844178013 -0.00083107142976111858 0 -0.016212788264029866 -0.00086394174562584634 0 -0.016174541844178013 -0.00083107142976111858 0 -0.016182668282745324 -0.00091007500310841098 0 -0.016200789261558036 -0.00073286249395666011 0 -0.016174024135968034 -0.00082764259620281614 0 -0.016221615004430416 -0.00081518361948038358 0 -0.016194798498840587 -0.00076866552184588017 0 -0.016174541844178013 -0.00083107142976111858 0 -0.016205219143966512 -0.00073885831629428851 0 -0.016153656024768571 -0.00073948839740461427 0 -0.016174541844178013 -0.00083107142976111858 0 -0.016239991256905211 -0.00077770186676774091 0 -0.016221615004430416 -0.00081518361948038358 0 -0.016194798498840587 -0.00076866552184588017 0 -0.016231587702354597 -0.00075025864784655381 0 -0.016239991256905211 -0.00077770186676774091 0 -0.016194798498840587 -0.00076866552184588017 0 -0.016153656024768571 -0.00073948839740461427 0 -0.016109695627243254 -0.00076672221616434571 0 -0.016174541844178013 -0.00083107142976111858 0 -0.019250796057746152 -0.0011726072233862904 0 -0.021787566278160097 -0.00094498286136582592 0 -0.017092752355143841 -0.0008543531626951903 0 -0.019250796057746152 -0.0011726072233862904 0 -0.016109695627243254 -0.00076672221616434571 0 -0.016174541844178013 -0.00083107142976111858 0 -0.016182668282745324 -0.00091007500310841098 0 -0.024295264585602085 -0.00020490272905651248 0 -0.024131811760929111 -0.00025806304107810993 0 -0.024268946043303031 -0.00022931898479225179 0 -0.018439444060118122 -0.00090871454733158546 0 -0.018903909999895423 -0.0018891800164456613 0 -0.017961644963964817 -0.00138320555109805 0 -0.024295264585602085 -0.00020490272905651248 0 -0.024268946043303031 -0.00022931898479225179 0 -0.024279538304106865 -0.00020884539996659786 0 -0.017961644963964817 -0.00138320555109805 0 -0.017992266789870842 -0.00093796795866321571 0 -0.017583396082405937 -0.00078968013446957237 0 -0.018439444060118122 -0.00090871454733158546 0 -0.017961644963964817 -0.00138320555109805 0 -0.017992266789870842 -0.00093796795866321571 0 -0.018439444060118122 -0.00090871454733158546 0 -0.017992266789870842 -0.00093796795866321571 0 -0.017859970261316409 -0.00054138047608964465 0 -0.017992266789870842 -0.00093796795866321571 0 -0.017859970261316409 -0.00054138047608964465 0 -0.017583396082405937 -0.00078968013446957237 0 -0.018439444060118122 -0.00090871454733158546 0 -0.017859970261316409 -0.00054138047608964465 0 -0.017958774588099129 9.1979507041797188e-05 0 -0.017859970261316409 -0.00054138047608964465 0 -0.017700479237191126 -0.00016979873361924652 0 -0.017958774588099129 9.1979507041797188e-05 0 -0.017092752355143841 -0.0008543531626951903 0 -0.01662442934224766 -0.00018997323485886385 0 -0.017859970261316409 -0.00054138047608964465 0 -0.017700479237191126 -0.00016979873361924652 0 -0.017493246408093764 -0.00043175527777180602 0 -0.016109695627243254 -0.00076672221616434571 0 -0.016113792624405879 -0.00068930679778913162 0 -0.016037172621477143 -0.00061124228378380766 0 -0.016233448794306198 -0.00064925402365423595 0 -0.016163635939937002 -0.00067046925024566949 0 -0.016095312955548443 -0.00062418442558573567 0 -0.016153656024768571 -0.00073948839740461427 0 -0.016109695627243254 -0.00076672221616434571 0 -0.016113792624405879 -0.00068930679778913162 0 -0.016153656024768571 -0.00073948839740461427 0 -0.016113792624405879 -0.00068930679778913162 0 -0.016163635939937002 -0.00067046925024566949 0 -0.016163635939937002 -0.00067046925024566949 0 -0.016119132871709962 -0.00065720882400606949 0 -0.016095312955548443 -0.00062418442558573567 0 -0.016113792624405879 -0.00068930679778913162 0 -0.016163635939937002 -0.00067046925024566949 0 -0.016119132871709962 -0.00065720882400606949 0 -0.016113792624405879 -0.00068930679778913162 0 -0.016093502772435476 -0.00063677862537934928 0 -0.016037172621477143 -0.00061124228378380766 0 -0.016113792624405879 -0.00068930679778913162 0 -0.016119132871709962 -0.00065720882400606949 0 -0.016093502772435476 -0.00063677862537934928 0 -0.01514077492103025 -0.00025213671337602332 0 -0.013304300537174052 -1.6083270438322911e-06 0 -0.0146567796374638 -0.00010853217462504767 0 -0.014605617787438754 -0.00010006653681964921 0 -0.014671289348335814 1.0311729714072174e-05 0 -0.014478774702020194 -0.00013693049849926412 0 -0.014314007497462864 -0.00023180931147785428 0 -0.014350200057456798 -2.2058452173307106e-05 0 -0.015510158309809284 -0.00054865919422231993 0 -0.01514077492103025 -0.00025213671337602332 0 -0.01514077492103025 -0.00025213671337602332 0 -0.015188842710194632 -0.00029653610354447293 0 -0.016119132871709962 -0.00065720882400606949 0 -0.016095312955548443 -0.00062418442558573567 0 -0.016093502772435476 -0.00063677862537934928 0 -0.017832686204467828 0.00011142889697632636 0 -0.01795497434475634 9.2308463141614413e-05 0 -0.017509385903063081 0.0010243502992745501 0 -0.017700479237191126 -0.00016979873361924652 0 -0.017832686204467828 0.00011142889697632636 0 -0.017514935798290041 6.4169612416731004e-05 0 -0.017000494117810832 -0.00020216933715296959 0 -0.01662442934224766 -0.00018997323485886385 0 -0.017700479237191126 -0.00016979873361924652 0 -0.017832686204467828 0.00011142889697632636 0 -0.017958774588099129 9.1979507041797188e-05 0 -0.016096249043511302 -0.0006219628944928924 0 -0.016093502772435476 -0.00063677862537934928 0 -0.016037172621477143 -0.00061124228378380766 0 -0.01514077492103025 -0.00025213671337602332 0 -0.01662442934224766 -0.00018997323485886385 0 -0.017832686204467828 0.00011142889697632636 0 -0.017392681033302517 0.00036752095744725015 0 -0.017509385903063081 0.0010243502992745501 0 -0.017259918411183971 0.00012579374429770509 0 -0.016945148957827099 -0.00021482059117164205 0 -0.017387727700140024 -0.00011418742942297568 0 -0.017259918411183971 0.00012579374429770509 0 -0.017006438458580787 0.00027195887882912827 0 -0.016945148957827099 -0.00021482059117164205 0 -0.017259918411183971 0.00012579374429770509 0 -0.017514935798290041 6.4169612416731004e-05 0 -0.017387727700140024 -0.00011418742942297568 0 -0.017832686204467828 0.00011142889697632636 0 -0.017514935798290041 6.4169612416731004e-05 0 -0.017392681033302517 0.00036752095744725015 0 -0.017700479237191126 -0.00016979873361924652 0 -0.017514935798290041 6.4169612416731004e-05 0 -0.017387727700140024 -0.00011418742942297568 0 -0.017259918411183971 0.00012579374429770509 0 -0.017514935798290041 6.4169612416731004e-05 0 -0.017392681033302517 0.00036752095744725015 0 -0.017259918411183971 0.00012579374429770509 0 -0.017392681033302517 0.00036752095744725015 0 -0.017006438458580787 0.00027195887882912827 0 -0.017392681033302517 0.00036752095744725015 0 -0.017006438458580787 0.00027195887882912827 0 -0.017082838119853103 0.00065294893050331056 0 -0.017006438458580787 0.00027195887882912827 0 -0.016685132153172286 0.00053967517157392985 0 -0.017082838119853103 0.00065294893050331056 0 -0.017006438458580787 0.00027195887882912827 0 -0.016554397531268254 0.00015393182537006567 0 -0.016685132153172286 0.00053967517157392985 0 -0.016554397531268254 0.00015393182537006567 0 -0.016220104494856974 0.00051560621379003998 0 -0.016685132153172286 0.00053967517157392985 0 -0.017006438458580787 0.00027195887882912827 0 -0.016554397531268254 0.00015393182537006567 0 -0.016945148957827099 -0.00021482059117164205 0 -0.016945148957827099 -0.00021482059117164205 0 -0.016983090860916119 -0.00087209040943755543 0 -0.015980821953688568 -0.00031902723358969554 0 -0.016554397531268254 0.00015393182537006567 0 -0.016945148957827099 -0.00021482059117164205 0 -0.015980821953688568 -0.00031902723358969554 0 -0.01937983238215275 -0.00034354361003055995 0 -0.016118248242302187 -0.00033476175033699223 0 -0.016945148957827099 -0.00021482059117164205 0 -0.017193538482812337 -0.00057524163432200626 0 -0.016983090860916119 -0.00087209040943755543 0 -0.017193538482812337 -0.00057524163432200626 0 -0.01725540055526387 -0.00033427189728624002 0 -0.017493246408093764 -0.00043175527777180602 0 -0.016945148957827099 -0.00021482059117164205 0 -0.017193538482812337 -0.00057524163432200626 0 -0.01725540055526387 -0.00033427189728624002 0 -0.016945148957827099 -0.00021482059117164205 0 -0.01725540055526387 -0.00033427189728624002 0 -0.017387727700140024 -0.00011418742942297568 0 -0.01725540055526387 -0.00033427189728624002 0 -0.017387727700140024 -0.00011418742942297568 0 -0.017493246408093764 -0.00043175527777180602 0 -0.017700479237191126 -0.00016979873361924652 0 -0.017387727700140024 -0.00011418742942297568 0 -0.017493246408093764 -0.00043175527777180602 0 -0.017859970261316409 -0.00054138047608964465 0 -0.017493246408093764 -0.00043175527777180602 0 -0.017583396082405937 -0.00078968013446957237 0 -0.017193538482812337 -0.00057524163432200626 0 -0.017493246408093764 -0.00043175527777180602 0 -0.017583396082405937 -0.00078968013446957237 0 -0.021787566278160097 -0.00094498286136582592 0 -0.01937983238215275 -0.00034354361003055995 0 -0.017961644963964817 -0.00138320555109805 0 -0.017583396082405937 -0.00078968013446957237 0 -0.017001672008287744 -0.00086418054555961071 0 -0.017193538482812337 -0.00057524163432200626 0 -0.017583396082405937 -0.00078968013446957237 0 -0.017001672008287744 -0.00086418054555961071 0 -0.017722667274837595 -0.0011580855583947971 0 -0.01937983238215275 -0.00034354361003055995 0 -0.024268946043303031 -0.00022931898479225179 0 -0.024279538304106865 -0.00020884539996659786 0 -0.024206590570344924 -0.00015300435067942667 0 -0.024239031062515449 -0.00022179382272511411 0 -0.024279538304106865 -0.00020884539996659786 0 -0.024169720383885353 -0.0001803880492336261 0 -0.024279538304106865 -0.00020884539996659786 0 -0.024169720383885353 -0.0001803880492336261 0 -0.024206590570344924 -0.00015300435067942667 0 -0.017680541360522575 -0.00061001526685632056 0 -0.017347600604545963 -0.00068569178025549367 0 -0.017197204490572441 -0.00038729427926043552 0 -0.021073174392158438 -0.00046608892162631208 0 -0.01937983238215275 -0.00034354361003055995 0 -0.017435093461732009 -0.00094554084505818882 0 -0.017680541360522575 -0.00061001526685632056 0 -0.017347600604545963 -0.00068569178025549367 0 -0.017435093461732009 -0.00094554084505818882 0 -0.017347600604545963 -0.00068569178025549367 0 -0.017082171595078261 -0.00080072808995589289 0 -0.017347600604545963 -0.00068569178025549367 0 -0.017082171595078261 -0.00080072808995589289 0 -0.017197204490572441 -0.00038729427926043552 0 -0.017201598227083292 -0.0012690353721018081 0 -0.017435093461732009 -0.00094554084505818882 0 -0.017082171595078261 -0.00080072808995589289 0 -0.016878346635755069 -0.0010890924081987533 0 -0.017201598227083292 -0.0012690353721018081 0 -0.017082171595078261 -0.00080072808995589289 0 -0.016878346635755069 -0.0010890924081987533 0 -0.017082171595078261 -0.00080072808995589289 0 -0.016709900197865397 -0.00071517168692785565 0 -0.017082171595078261 -0.00080072808995589289 0 -0.016910103846033291 -0.00057098017775446968 0 -0.016709900197865397 -0.00071517168692785565 0 -0.017082171595078261 -0.00080072808995589289 0 -0.016910103846033291 -0.00057098017775446968 0 -0.017197204490572441 -0.00038729427926043552 0 -0.016910103846033291 -0.00057098017775446968 0 -0.017197204490572441 -0.00038729427926043552 0 -0.016734604876171909 -0.000443258621787401 0 -0.017197204490572441 -0.00038729427926043552 0 -0.016734604876171909 -0.000443258621787401 0 -0.016747356973668647 -0.00020099742738124044 0 -0.016554397531268254 0.00015393182537006567 0 -0.015980821953688568 -0.00031902723358969554 0 -0.016220104494856974 0.00051560621379003998 0 -0.015980821953688568 -0.00031902723358969554 0 -0.015671998388719403 0.00034001196226423952 0 -0.016220104494856974 0.00051560621379003998 0 -0.015671998388719403 0.00034001196226423952 0 -0.01542951187552109 0.00094544540129632034 0 -0.01506303540582065 0.00020428603651825557 0 -0.015980821953688568 -0.00031902723358969554 0 -0.015671998388719403 0.00034001196226423952 0 -0.01506303540582065 0.00020428603651825557 0 -0.016118248242302187 -0.00033476175033699223 0 -0.01635316730036095 5.5873460364260986e-05 0 -0.015072973550109649 0.00074544865748461711 0 -0.01635316730036095 5.5873460364260986e-05 0 -0.015255844602554657 0.0010258707066781042 0 -0.016220104494856974 0.00051560621379003998 0 -0.015364680946952878 0.0012454503281859586 0 -0.015671998388719403 0.00034001196226423952 0 -0.01542951187552109 0.00094544540129632034 0 -0.016220104494856974 0.00051560621379003998 0 -0.015072973550109649 0.00074544865748461711 0 -0.013025153234580844 0.0014731655933182537 0 -0.015072973550109649 0.00074544865748461711 0 -0.013231710720163313 0.0016596135719384453 0 -0.016220104494856974 0.00051560621379003998 0 -0.015364680946952878 0.0012454503281859586 0 -0.016489028353506255 0.0011331574370122611 0 -0.015072973550109649 0.00074544865748461711 0 -0.016243205546942821 0.00057781017168331524 0 -0.012575451603666113 0.00098759772436002682 0 -0.012750610660288025 0.0013696088032569688 0 -0.012950936900257622 0.0012011828417750868 0 -0.013025153234580844 0.0014731655933182537 0 -0.015183488708433925 0.0010313055325005 0 -0.012575451603666113 0.00098759772436002682 0 -0.012950936900257622 0.0012011828417750868 0 -0.01296156330177344 0.00094252876524989783 0 -0.013025153234580844 0.0014731655933182537 0 -0.010758834831417994 0.0022537284837156478 0 -0.0096921007856677118 0.003603495508472155 0 -0.0095710907440803954 0.0031118904237046963 0 -0.0092905890394149541 0.0027637048604587941 0 -0.0096921007856677118 0.003603495508472155 0 -0.0098951783425890952 0.0033018578392232487 0 -0.010171682008456143 0.0035802061056341085 0 -0.013025153234580844 0.0014731655933182537 0 -0.013231710720163313 0.0016596135719384453 0 -0.013964983018001696 0.0013192718543165718 0 -0.014078920741775691 0.0015527985873862824 0 -0.013443619808883527 0.0016139844733306487 0 -0.0096921007856677118 0.003603495508472155 0 -0.0098951783425890952 0.0033018578392232487 0 -0.0095710907440803954 0.0031118904237046963 0 -0.0098951783425890952 0.0033018578392232487 0 -0.0095710907440803954 0.0031118904237046963 0 -0.010107451235021457 0.0029093623485009802 0 -0.0095710907440803954 0.0031118904237046963 0 -0.0096345249815135963 0.0026153555689308779 0 -0.010107451235021457 0.0029093623485009802 0 -0.0095710907440803954 0.0031118904237046963 0 -0.0096345249815135963 0.0026153555689308779 0 -0.0090838032489622394 0.0024285352973782404 0 -0.0096345249815135963 0.0026153555689308779 0 -0.0099223547498276752 0.0023753887196038166 0 -0.010107451235021457 0.0029093623485009802 0 -0.0096345249815135963 0.0026153555689308779 0 -0.0099223547498276752 0.0023753887196038166 0 -0.0094587250076796393 0.0022297773209072245 0 -0.0096345249815135963 0.0026153555689308779 0 -0.0094587250076796393 0.0022297773209072245 0 -0.0090838032489622394 0.0024285352973782404 0 -0.0099223547498276752 0.0023753887196038166 0 -0.0094587250076796393 0.0022297773209072245 0 -0.0097866694881489514 0.0019519095542100857 0 -0.0090879097484994169 0.0024296301492317891 0 -0.0097711732241683742 0.0015896081158458457 0 -0.010758834831417994 0.0022537284837156478 0 -0.011041315585744019 0.0014262177170099595 0 -0.0092739118783598858 0.0024730621068326506 0 -0.0092905890394149541 0.0027637048604587941 0 -0.0089534290305527467 0.0019296358579006473 0 -0.0094587250076796393 0.0022297773209072245 0 -0.0090838032489622394 0.0024285352973782404 0 -0.0090864469517523451 0.0019807657133655236 0 -0.0095545921197117949 0.0030748243669141708 0 -0.0090879097484994169 0.0024296301492317891 0 -0.0095710907440803954 0.0031118904237046963 0 -0.0092739118783598858 0.0024730621068326506 0 -0.0092905890394149541 0.0027637048604587941 0 -0.012950936900257622 0.0012011828417750868 0 -0.013063350261949555 0.0014720286760248509 0 -0.013212440423110129 0.0011907000660320351 0 -0.012750610660288025 0.0013696088032569688 0 -0.012950936900257622 0.0012011828417750868 0 -0.013063350261949555 0.0014720286760248509 0 -0.011243602731593827 0.00078868274304118931 0 -0.011260288163243801 0.00098912253128103397 0 -0.011366438131630716 0.0010223937537497251 0 -0.011243602731593827 0.00078868274304118931 0 -0.011181474366621978 0.001011340540931418 0 -0.011260288163243801 0.00098912253128103397 0 -0.012257394466494671 0.0010399760487305152 0 -0.011041315585744019 0.0014262177170099595 0 -0.012750610660288025 0.0013696088032569688 0 -0.013063350261949555 0.0014720286760248509 0 -0.012918250104868649 0.0017458697103634696 0 -0.011243602731593827 0.00078868274304118931 0 -0.011463833808980198 0.0008223517548889244 0 -0.011366438131630716 0.0010223937537497251 0 -0.012257394466494671 0.0010399760487305152 0 -0.012130775102471977 0.0009681187310481862 0 -0.011463833808980198 0.0008223517548889244 0 -0.011355472348616145 0.00050862341624974738 0 -0.011651747733153483 0.00064288945893357984 0 -0.011243602731593827 0.00078868274304118931 0 -0.011463833808980198 0.0008223517548889244 0 -0.011355472348616145 0.00050862341624974738 0 -0.011355472348616145 0.00050862341624974738 0 -0.011498126445753291 0.00022057368904333205 0 -0.011580117117763467 0.00044857184709830907 0 -0.013212440423110129 0.0011907000660320351 0 -0.01296156330177344 0.00094252876524989783 0 -0.013359363782147762 0.00089688237444248082 0 -0.012130775102471977 0.0009681187310481862 0 -0.014180117244702183 0.00049008986661696155 0 -0.012950936900257622 0.0012011828417750868 0 -0.013212440423110129 0.0011907000660320351 0 -0.01296156330177344 0.00094252876524989783 0 -0.016220104494856974 0.00051560621379003998 0 -0.016489028353506255 0.0011331574370122611 0 -0.016685132153172286 0.00053967517157392985 0 -0.016489028353506255 0.0011331574370122611 0 -0.016685132153172286 0.00053967517157392985 0 -0.017082838119853103 0.00065294893050331056 0 -0.015183488708433925 0.0010313055325005 0 -0.014180117244702183 0.00049008986661696155 0 -0.016489028353506255 0.0011331574370122611 0 -0.017082838119853103 0.00065294893050331056 0 -0.017509385903063081 0.0010243502992745501 0 -0.017392681033302517 0.00036752095744725015 0 -0.017082838119853103 0.00065294893050331056 0 -0.017509385903063081 0.0010243502992745501 0 -0.014605617787438754 -0.00010006653681964921 0 -0.014541223698618254 2.6000281858914909e-05 0 -0.014671289348335814 1.0311729714072174e-05 0 -0.014180117244702183 0.00049008986661696155 0 -0.013304300537174052 -1.6083270438322911e-06 0 -0.011498126445753291 0.00022057368904333205 0 -0.011876581802741558 0.00018409504942610178 0 -0.011691952054543509 0.00033026268729073377 0 -0.01662442934224766 -0.00018997323485886385 0 -0.014180117244702183 0.00049008986661696155 0 -0.011876581802741558 0.00018409504942610178 0 -0.011825936335228852 0.00036244578559667536 0 -0.011691952054543509 0.00033026268729073377 0 -0.011876581802741558 0.00018409504942610178 0 -0.011825936335228852 0.00036244578559667536 0 -0.011913899607838936 0.00040000548629420005 0 -0.013304300537174052 -1.6083270438322911e-06 0 -0.012292948701250778 0.00041350852904973201 0 -0.011825936335228852 0.00036244578559667536 0 -0.011913899607838936 0.00040000548629420005 0 -0.011747672698150949 0.00048514783722721888 0 -0.011825936335228852 0.00036244578559667536 0 -0.011747672698150949 0.00048514783722721888 0 -0.011691952054543509 0.00033026268729073377 0 -0.011747672698150949 0.00048514783722721888 0 -0.011691952054543509 0.00033026268729073377 0 -0.011580117117763467 0.00044857184709830907 0 -0.011498126445753291 0.00022057368904333205 0 -0.011691952054543509 0.00033026268729073377 0 -0.011580117117763467 0.00044857184709830907 0 -0.011355472348616145 0.00050862341624974738 0 -0.011580117117763467 0.00044857184709830907 0 -0.011651747733153483 0.00064288945893357984 0 -0.011747672698150949 0.00048514783722721888 0 -0.011580117117763467 0.00044857184709830907 0 -0.011651747733153483 0.00064288945893357984 0 -0.011463833808980198 0.0008223517548889244 0 -0.011705866779756579 0.00084400031797585032 0 -0.011481408500614809 0.0010748150519087156 0 -0.011463833808980198 0.0008223517548889244 0 -0.011651747733153483 0.00064288945893357984 0 -0.011705866779756579 0.00084400031797585032 0 -0.011705866779756579 0.00084400031797585032 0 -0.011843143335496147 0.00094687586252648807 0 -0.011976502750783578 0.00067386632674130335 0 -0.011843143335496147 0.00094687586252648807 0 -0.011976502750783578 0.00067386632674130335 0 -0.012088377741196006 0.0010053238312356444 0 -0.011651747733153483 0.00064288945893357984 0 -0.011705866779756579 0.00084400031797585032 0 -0.011976502750783578 0.00067386632674130335 0 -0.012292948701250778 0.00041350852904973201 0 -0.011998475445418726 0.00066704631796442467 0 -0.011747672698150949 0.00048514783722721888 0 -0.011651747733153483 0.00064288945893357984 0 -0.011976502750783578 0.00067386632674130335 0 -0.011913899607838936 0.00040000548629420005 0 -0.011747672698150949 0.00048514783722721888 0 -0.011976502750783578 0.00067386632674130335 0 -0.012052834780214589 0.00067808791364954433 0 -0.012160919682062354 0.00048115612058563908 0 -0.012333024419497443 0.00055910205757357808 0 -0.011991962671004094 0.00035029205265070269 0 -0.012052834780214589 0.00067808791364954433 0 -0.012160919682062354 0.00048115612058563908 0 -0.012052834780214589 0.00067808791364954433 0 -0.012265013866218708 0.00078259098200395721 0 -0.012333024419497443 0.00055910205757357808 0 -0.012160919682062354 0.00048115612058563908 0 -0.012333024419497443 0.00055910205757357808 0 -0.012266188899808916 0.00033724195895607195 0 -0.011998475445418726 0.00066704631796442467 0 -0.012085532359906011 0.00098736402026716329 0 -0.012052834780214589 0.00067808791364954433 0 -0.012265013866218708 0.00078259098200395721 0 -0.012088377741196006 0.0010053238312356444 0 -0.012265013866218708 0.00078259098200395721 0 -0.012360977352378986 0.00093291314999417382 0 -0.012088377741196006 0.0010053238312356444 0 -0.012532998921385517 0.00087758359105453499 0 -0.012438648049779927 0.00072588292914380515 0 -0.012642348784331429 0.00058231181394164549 0 -0.012520017385539687 0.00078772713154098687 0 -0.013831934661683235 0.0011599533908983393 0 -0.012532998921385517 0.00087758359105453499 0 -0.012360977352378986 0.00093291314999417382 0 -0.01242039150100282 0.0011262554240687051 0 -0.012532998921385517 0.00087758359105453499 0 -0.012360977352378986 0.00093291314999417382 0 -0.012438648049779927 0.00072588292914380515 0 -0.012265013866218708 0.00078259098200395721 0 -0.012360977352378986 0.00093291314999417382 0 -0.012438648049779927 0.00072588292914380515 0 -0.012333024419497443 0.00055910205757357808 0 -0.012542934452757658 0.00031836794477199247 0 -0.012642348784331429 0.00058231181394164549 0 -0.012438648049779927 0.00072588292914380515 0 -0.012333024419497443 0.00055910205757357808 0 -0.012642348784331429 0.00058231181394164549 0 -0.012265013866218708 0.00078259098200395721 0 -0.012438648049779927 0.00072588292914380515 0 -0.012333024419497443 0.00055910205757357808 0 -0.012542934452757658 0.00031836794477199247 0 -0.01238273756837268 0.00021093985414143891 0 -0.012266188899808916 0.00033724195895607195 0 -0.013816811376060422 0.00067379569030893689 0 -0.013831934661683235 0.0011599533908983393 0 -0.012333024419497443 0.00055910205757357808 0 -0.012542934452757658 0.00031836794477199247 0 -0.012266188899808916 0.00033724195895607195 0 -0.012542934452757658 0.00031836794477199247 0 -0.01238273756837268 0.00021093985414143891 0 -0.012446810974434721 5.27893115549655e-05 0 -0.01238273756837268 0.00021093985414143891 0 -0.012266188899808916 0.00033724195895607195 0 -0.012300867585205865 6.4835007900248691e-05 0 -0.011991962671004094 0.00035029205265070269 0 -0.012160919682062354 0.00048115612058563908 0 -0.012266188899808916 0.00033724195895607195 0 -0.011991962671004094 0.00035029205265070269 0 -0.012266188899808916 0.00033724195895607195 0 -0.012300867585205865 6.4835007900248691e-05 0 -0.012292948701250778 0.00041350852904973201 0 -0.013609799125443658 0.00015447470038633371 0 -0.014478774702020194 -0.00013693049849926412 0 -0.014350200057456798 -2.2058452173307106e-05 0 -0.014543974716985424 -3.8788345091918727e-05 0 -0.013304300537174052 -1.6083270438322911e-06 0 -0.013609799125443658 0.00015447470038633371 0 -0.012867509308912794 6.7069670855552104e-05 0 -0.012948004257649177 0.00044276316447061171 0 -0.013394673270073753 1.9611655103289269e-05 0 -0.014478774702020194 -0.00013693049849926412 0 -0.014543974716985424 -3.8788345091918727e-05 0 -0.014604717563135179 -9.4880934596745385e-05 0 -0.013941876886280279 0.0002260752977901282 0 -0.014163310529826882 1.5665669168364929e-05 0 -0.014234884851360265 0.00019918904814228866 0 -0.015092349616785574 0.001045131334469601 0 -0.015030670946672027 0.00057098987050614703 0 -0.015252964994589535 0.00074886681031588259 0 -0.015092349616785574 0.001045131334469601 0 -0.014910175749541401 0.00058097954866643728 0 -0.015030670946672027 0.00057098987050614703 0 -0.013609799125443658 0.00015447470038633371 0 -0.014588702744164005 6.2866829348639329e-05 0 -0.014588702744164005 6.2866829348639329e-05 0 -0.014034980701690673 0.00015130401050838466 0 -0.014844382162190101 0.00041941500310179055 0 -0.01490754917094605 0.00058154635978933673 0 -0.015030670946672027 0.00057098987050614703 0 -0.015201020551867868 0.00034525112286018777 0 -0.014844382162190101 0.00041941500310179055 0 -0.015030670946672027 0.00057098987050614703 0 -0.015201020551867868 0.00034525112286018777 0 -0.015030670946672027 0.00057098987050614703 0 -0.015227177737391321 0.0005458863784504307 0 -0.014034980701690673 0.00015130401050838466 0 -0.014448742426845634 0.00018720663102572024 0 -0.013816811376060422 0.00067379569030893689 0 -0.014034980701690673 0.00015130401050838466 0 -0.015030670946672027 0.00057098987050614703 0 -0.015252964994589535 0.00074886681031588259 0 -0.015227177737391321 0.0005458863784504307 0 -0.013609799125443658 0.00015447470038633371 0 -0.014034980701690673 0.00015130401050838466 0 -0.01238273756837268 0.00021093985414143891 0 -0.012300867585205865 6.4835007900248691e-05 0 -0.012446810974434721 5.27893115549655e-05 0 -0.015638759693719285 -0.00059586007080101276 0 -0.015563950238234101 -0.00064909403440468344 0 -0.015844447414767503 -0.00071896523363349863 0 -0.015798406735902704 -0.00066286386332579906 0 -0.015694106356457981 -0.00045841277041142248 0 -0.015936626513487234 -0.00059316604362775387 0 -0.015638759693719285 -0.00059586007080101276 0 -0.015798406735902704 -0.00066286386332579906 0 -0.015694106356457981 -0.00045841277041142248 0 -0.015638759693719285 -0.00059586007080101276 0 -0.015844447414767503 -0.00071896523363349863 0 -0.015798406735902704 -0.00066286386332579906 0 -0.015638759693719285 -0.00059586007080101276 0 -0.015694106356457981 -0.00045841277041142248 0 -0.015415236256140932 -0.00040553344275405328 0 -0.015694106356457981 -0.00045841277041142248 0 -0.015415236256140932 -0.00040553344275405328 0 -0.015426667399153828 -0.00018433625708607663 0 -0.015828996819263395 -0.00040882201025250678 0 -0.015113560511941765 -0.00017034138141290017 0 -0.015563950238234101 -0.00064909403440468344 0 -0.015415236256140932 -0.00040553344275405328 0 -0.014941946297294227 -0.00010965640884530578 0 -0.016140168779303115 -0.00015008966019075328 0 -0.015710002631220091 -0.00016288678536900735 0 -0.014941946297294227 -0.00010965640884530578 0 -0.015638759693719285 -0.00059586007080101276 0 -0.015563950238234101 -0.00064909403440468344 0 -0.015415236256140932 -0.00040553344275405328 0 -0.016140168779303115 -0.00015008966019075328 0 -0.015710002631220091 -0.00016288678536900735 0 -0.016278598793392204 -0.00010336257053397662 0 -0.015710002631220091 -0.00016288678536900735 0 -0.016278598793392204 -0.00010336257053397662 0 -0.015607089945026241 -0.00012680399420876651 0 -0.016110579326450353 -2.7933682227823473e-07 0 -0.016278598793392204 -0.00010336257053397662 0 -0.015607089945026241 -0.00012680399420876651 0 -0.016110579326450353 -2.7933682227823473e-07 0 -0.016278598793392204 -0.00010336257053397662 0 -0.017429980531887976 -1.0069054486588188e-07 0 -0.016278598793392204 -0.00010336257053397662 0 -0.016922882312354108 -9.8968187665554542e-05 0 -0.017429980531887976 -1.0069054486588188e-07 0 -0.016140168779303115 -0.00015008966019075328 0 -0.016278598793392204 -0.00010336257053397662 0 -0.016922882312354108 -9.8968187665554542e-05 0 -0.016140168779303115 -0.00015008966019075328 0 -0.017100276273611957 -0.00013074826626856091 0 -0.016922882312354108 -9.8968187665554542e-05 0 -0.017100276273611957 -0.00013074826626856091 0 -0.016922882312354108 -9.8968187665554542e-05 0 -0.017711018353798964 -0.00012725854589712727 0 -0.016922882312354108 -9.8968187665554542e-05 0 -0.017429980531887976 -1.0069054486588188e-07 0 -0.017711018353798964 -0.00012725854589712727 0 -0.018749969550596005 -9.1853662727905115e-07 0 -0.017429980531887976 -1.0069054486588188e-07 0 -0.017711018353798964 -0.00012725854589712727 0 -0.017465058176377123 -6.1489058462447781e-06 0 -0.017100276273611957 -0.00013074826626856091 0 -0.017711018353798964 -0.00012725854589712727 0 -0.01734857660298271 9.2868285563944798e-06 0 -0.016757621032126069 -0.00039575318179034243 0 -0.016663159978772657 -4.0942924705746032e-05 0 -0.017465058176377123 -6.1489058462447781e-06 0 -0.016423973052882894 -0.00072446766138665672 0 -0.016663159978772657 -4.0942924705746032e-05 0 -0.016423973052882894 -0.00072446766138665672 0 -0.015889845233567561 -0.00072019597678555465 0 -0.015857012716466799 -0.00063132067932122362 0 -0.016043028081331234 -0.0006920750471169385 0 -0.015844447414767503 -0.00071896523363349863 0 -0.016423973052882894 -0.00072446766138665672 0 -0.015889845233567561 -0.00072019597678555465 0 -0.015828996819263395 -0.00040882201025250678 0 -0.016757621032126069 -0.00039575318179034243 0 -0.015563950238234101 -0.00064909403440468344 0 -0.015844447414767503 -0.00071896523363349863 0 -0.016423973052882894 -0.00072446766138665672 0 -0.015798406735902704 -0.00066286386332579906 0 -0.015889845233567561 -0.00072019597678555465 0 -0.015965001321522645 -0.0007365155471116962 0 -0.015844447414767503 -0.00071896523363349863 0 -0.015798406735902704 -0.00066286386332579906 0 -0.015889845233567561 -0.00072019597678555465 0 -0.015889845233567561 -0.00072019597678555465 0 -0.015995508883324804 -0.00092423566227395587 0 -0.015965001321522645 -0.0007365155471116962 0 -0.015837102436691584 -0.0010404118804624627 0 -0.015889845233567561 -0.00072019597678555465 0 -0.015995508883324804 -0.00092423566227395587 0 -0.016182539144315063 -0.0010263695302888971 0 -0.015995508883324804 -0.00092423566227395587 0 -0.016104994421200475 -0.00085284526249418218 0 -0.015995508883324804 -0.00092423566227395587 0 -0.016104994421200475 -0.00085284526249418218 0 -0.015965001321522645 -0.0007365155471116962 0 -0.016182539144315063 -0.0010263695302888971 0 -0.016104994421200475 -0.00085284526249418218 0 -0.016278835735587981 -0.00087933333336046059 0 -0.016104994421200475 -0.00085284526249418218 0 -0.016278835735587981 -0.00087933333336046059 0 -0.016130460203232725 -0.00071821656851126089 0 -0.016278835735587981 -0.00087933333336046059 0 -0.016130460203232725 -0.00071821656851126089 0 -0.016372101853941178 -0.00071294289016618007 0 -0.016130460203232725 -0.00071821656851126089 0 -0.016372101853941178 -0.00071294289016618007 0 -0.016219579685316201 -0.0005274108007928993 0 -0.016130460203232725 -0.00071821656851126089 0 -0.015965001321522645 -0.0007365155471116962 0 -0.015936626513487234 -0.00059316604362775387 0 -0.015798406735902704 -0.00066286386332579906 0 -0.015965001321522645 -0.0007365155471116962 0 -0.015936626513487234 -0.00059316604362775387 0 -0.016104994421200475 -0.00085284526249418218 0 -0.016130460203232725 -0.00071821656851126089 0 -0.015965001321522645 -0.0007365155471116962 0 -0.016446631445821723 -0.00088315002173130889 0 -0.01675412244947827 -0.00097699357428479594 0 -0.016878346635755069 -0.0010890924081987533 0 -0.016586370544602106 -0.0008886252657172314 0 -0.016709900197865397 -0.00071517168692785565 0 -0.016278835735587981 -0.00087933333336046059 0 -0.016586370544602106 -0.0008886252657172314 0 -0.016372101853941178 -0.00071294289016618007 0 -0.016372442542661941 -0.0010476614939658416 0 -0.016278835735587981 -0.00087933333336046059 0 -0.016586370544602106 -0.0008886252657172314 0 -0.016372101853941178 -0.00071294289016618007 0 -0.016709900197865397 -0.00071517168692785565 0 -0.016485345974137994 -0.00055259828050983949 0 -0.016586370544602106 -0.0008886252657172314 0 -0.016372101853941178 -0.00071294289016618007 0 -0.016709900197865397 -0.00071517168692785565 0 -0.016910103846033291 -0.00057098017775446968 0 -0.016709900197865397 -0.00071517168692785565 0 -0.016734604876171909 -0.000443258621787401 0 -0.016709900197865397 -0.00071517168692785565 0 -0.016734604876171909 -0.000443258621787401 0 -0.016485345974137994 -0.00055259828050983949 0 -0.016734604876171909 -0.000443258621787401 0 -0.016517269790855962 -0.00035255616373864251 0 -0.016634934043593647 -0.00028236920351891286 0 -0.016734604876171909 -0.000443258621787401 0 -0.016485345974137994 -0.00055259828050983949 0 -0.016517269790855962 -0.00035255616373864251 0 -0.016485345974137994 -0.00055259828050983949 0 -0.016517269790855962 -0.00035255616373864251 0 -0.016219579685316201 -0.0005274108007928993 0 -0.016517269790855962 -0.00035255616373864251 0 -0.016219579685316201 -0.0005274108007928993 0 -0.01619889208200212 -0.0002802190348559571 0 -0.016372101853941178 -0.00071294289016618007 0 -0.016485345974137994 -0.00055259828050983949 0 -0.016219579685316201 -0.0005274108007928993 0 -0.016517269790855962 -0.00035255616373864251 0 -0.016540099998023451 -0.0001072908909014187 0 -0.01619889208200212 -0.0002802190348559571 0 -0.016517269790855962 -0.00035255616373864251 0 -0.016634934043593647 -0.00028236920351891286 0 -0.016540099998023451 -0.0001072908909014187 0 -0.016540099998023451 -0.0001072908909014187 0 -0.016722840405976866 -0.00020102125856594956 0 -0.0166753609295353 5.8097346843965884e-05 0 -0.016634934043593647 -0.00028236920351891286 0 -0.016540099998023451 -0.0001072908909014187 0 -0.016747356973668647 -0.00020099742738124044 0 -0.016670707463840306 -0.0001619952380227129 0 -0.01635316730036095 5.5873460364260986e-05 0 -0.016734604876171909 -0.000443258621787401 0 -0.016634934043593647 -0.00028236920351891286 0 -0.016747356973668647 -0.00020099742738124044 0 -0.015694106356457981 -0.00045841277041142248 0 -0.015936626513487234 -0.00059316604362775387 0 -0.01599608135414549 -0.00041591342304965793 0 -0.016130460203232725 -0.00071821656851126089 0 -0.015936626513487234 -0.00059316604362775387 0 -0.016219579685316201 -0.0005274108007928993 0 -0.015936626513487234 -0.00059316604362775387 0 -0.016219579685316201 -0.0005274108007928993 0 -0.01599608135414549 -0.00041591342304965793 0 -0.016219579685316201 -0.0005274108007928993 0 -0.01619889208200212 -0.0002802190348559571 0 -0.01599608135414549 -0.00041591342304965793 0 -0.01619889208200212 -0.0002802190348559571 0 -0.015888002583985684 -0.000197000704423898 0 -0.01599608135414549 -0.00041591342304965793 0 -0.015694106356457981 -0.00045841277041142248 0 -0.015888002583985684 -0.000197000704423898 0 -0.015426667399153828 -0.00018433625708607663 0 -0.015694106356457981 -0.00045841277041142248 0 -0.015888002583985684 -0.000197000704423898 0 -0.01599608135414549 -0.00041591342304965793 0 -0.015888002583985684 -0.000197000704423898 0 -0.015593053759604639 0.00011415566999115902 0 -0.016211947997028086 0.0001381537528851681 0 -0.015888002583985684 -0.000197000704423898 0 -0.015593053759604639 0.00011415566999115902 0 -0.015426667399153828 -0.00018433625708607663 0 -0.01619889208200212 -0.0002802190348559571 0 -0.015888002583985684 -0.000197000704423898 0 -0.016211947997028086 0.0001381537528851681 0 -0.01617593837072211 -0.00016919846579319659 0 -0.016259283229627514 -1.0473580568683433e-05 0 -0.016259283229627514 -1.0473580568683433e-05 0 -0.014928503080110253 0.0016164654660684968 0 -0.016108951708462847 0.00019942073119774857 0 -0.016398715573896348 0.00048192039904261503 0 -0.016061553216265512 0.00068074218801580043 0 -0.016211947997028086 0.0001381537528851681 0 -0.015766411146371673 0.00054869882646715374 0 -0.01622235479816405 0.00087901847666024694 0 -0.015593053759604639 0.00011415566999115902 0 -0.016211947997028086 0.0001381537528851681 0 -0.015766411146371673 0.00054869882646715374 0 -0.015766411146371673 0.00054869882646715374 0 -0.015298549475551561 0.00080620978624647852 0 -0.015287097372028128 0.00041877544857961218 0 -0.015593053759604639 0.00011415566999115902 0 -0.015766411146371673 0.00054869882646715374 0 -0.015287097372028128 0.00041877544857961218 0 -0.016888150576253588 0.00016388157386627749 0 -0.016722840405976866 -0.00020102125856594956 0 -0.0166753609295353 5.8097346843965884e-05 0 -0.016888150576253588 0.00016388157386627749 0 -0.016701182432078708 0.00020552718859168353 0 -0.0166753609295353 5.8097346843965884e-05 0 -0.016888150576253588 0.00016388157386627749 0 -0.016701182432078708 0.00020552718859168353 0 -0.016693836665830419 0.00028524403219602697 0 -0.016540099998023451 -0.0001072908909014187 0 -0.0166753609295353 5.8097346843965884e-05 0 -0.016426935924181447 0.00012134277752587815 0 -0.016701182432078708 0.00020552718859168353 0 -0.0166753609295353 5.8097346843965884e-05 0 -0.016565390650606034 0.00023406752669669968 0 -0.0166753609295353 5.8097346843965884e-05 0 -0.016426935924181447 0.00012134277752587815 0 -0.016565390650606034 0.00023406752669669968 0 -0.016540099998023451 -0.0001072908909014187 0 -0.01619889208200212 -0.0002802190348559571 0 -0.016426935924181447 0.00012134277752587815 0 -0.01619889208200212 -0.0002802190348559571 0 -0.016108951708462847 0.00019942073119774857 0 -0.016426935924181447 0.00012134277752587815 0 -0.016426935924181447 0.00012134277752587815 0 -0.016398715573896348 0.00048192039904261503 0 -0.016565390650606034 0.00023406752669669968 0 -0.016108951708462847 0.00019942073119774857 0 -0.016426935924181447 0.00012134277752587815 0 -0.016398715573896348 0.00048192039904261503 0 -0.010734115823789322 0.0032865195463650508 0 -0.010225635543147435 0.0032696554169033801 0 -0.010171682008456143 0.0035802061056341085 0 -0.013391988579059266 0.0019782550951009323 0 -0.013231710720163313 0.0016596135719384453 0 -0.016398715573896348 0.00048192039904261503 0 -0.016565390650606034 0.00023406752669669968 0 -0.016693836665830419 0.00028524403219602697 0 -0.010734115823789322 0.0032865195463650508 0 -0.010225635543147435 0.0032696554169033801 0 -0.010107451235021457 0.0029093623485009802 0 -0.0098951783425890952 0.0033018578392232487 0 -0.010225635543147435 0.0032696554169033801 0 -0.010107451235021457 0.0029093623485009802 0 -0.0098951783425890952 0.0033018578392232487 0 -0.010225635543147435 0.0032696554169033801 0 -0.010171682008456143 0.0035802061056341085 0 -0.016701182432078708 0.00020552718859168353 0 -0.016565390650606034 0.00023406752669669968 0 -0.016693836665830419 0.00028524403219602697 0 -0.010734115823789322 0.0032865195463650508 0 -0.010107451235021457 0.0029093623485009802 0 -0.010714194129217199 0.0026670051877995624 0 -0.010107451235021457 0.0029093623485009802 0 -0.010714194129217199 0.0026670051877995624 0 -0.010315311812891997 0.0025021120410176484 0 -0.013391988579059266 0.0019782550951009323 0 -0.014928503080110253 0.0016164654660684968 0 -0.010734115823789322 0.0032865195463650508 0 -0.010714194129217199 0.0026670051877995624 0 -0.01131201001041523 0.0029745268355811814 0 -0.010714194129217199 0.0026670051877995624 0 -0.010518652697534122 0.0020510890347468008 0 -0.011329633539829666 0.0022103639869139853 0 -0.010714194129217199 0.0026670051877995624 0 -0.010518652697534122 0.0020510890347468008 0 -0.010315311812891997 0.0025021120410176484 0 -0.0099223547498276752 0.0023753887196038166 0 -0.010518652697534122 0.0020510890347468008 0 -0.010315311812891997 0.0025021120410176484 0 -0.0099223547498276752 0.0023753887196038166 0 -0.010518652697534122 0.0020510890347468008 0 -0.0097866694881489514 0.0019519095542100857 0 -0.0099223547498276752 0.0023753887196038166 0 -0.010107451235021457 0.0029093623485009802 0 -0.010315311812891997 0.0025021120410176484 0 -0.015738184364073725 0.0011829707518578808 0 -0.015298549475551561 0.00080620978624647852 0 -0.014916718096072005 0.0013061074317727228 0 -0.015766411146371673 0.00054869882646715374 0 -0.015738184364073725 0.0011829707518578808 0 -0.015298549475551561 0.00080620978624647852 0 -0.014928503080110253 0.0016164654660684968 0 -0.013745939813310414 0.0020855761234655078 0 -0.015766411146371673 0.00054869882646715374 0 -0.015738184364073725 0.0011829707518578808 0 -0.01622235479816405 0.00087901847666024694 0 -0.015738184364073725 0.0011829707518578808 0 -0.016360312384603646 0.00083591729132807943 0 -0.016339532375958709 0.0018907380728026332 0 -0.010714194129217199 0.0026670051877995624 0 -0.01131201001041523 0.0029745268355811814 0 -0.011329633539829666 0.0022103639869139853 0 -0.016197824317429624 0.00091846544949621709 0 -0.014928503080110253 0.0016164654660684968 0 -0.015738184364073725 0.0011829707518578808 0 -0.015412063048840723 0.0016732516481425444 0 -0.014916718096072005 0.0013061074317727228 0 -0.016339532375958709 0.0018907380728026332 0 -0.015412063048840723 0.0016732516481425444 0 -0.015395232712097695 0.0023177630050889822 0 -0.015738184364073725 0.0011829707518578808 0 -0.016339532375958709 0.0018907380728026332 0 -0.015412063048840723 0.0016732516481425444 0 -0.015412063048840723 0.0016732516481425444 0 -0.014859500089602903 0.0018914384699781287 0 -0.015395232712097695 0.0023177630050889822 0 -0.014859500089602903 0.0018914384699781287 0 -0.01413073853966006 0.0019206043690434293 0 -0.014539542543003018 0.0023801616495896733 0 -0.014859500089602903 0.0018914384699781287 0 -0.01413073853966006 0.0019206043690434293 0 -0.014916718096072005 0.0013061074317727228 0 -0.01413073853966006 0.0019206043690434293 0 -0.014267730634323844 0.0012740047761191791 0 -0.014916718096072005 0.0013061074317727228 0 -0.015412063048840723 0.0016732516481425444 0 -0.014859500089602903 0.0018914384699781287 0 -0.014916718096072005 0.0013061074317727228 0 -0.013493844230470828 0.0021382362765786345 0 -0.01413073853966006 0.0019206043690434293 0 -0.013445598252622188 0.0016891059422482365 0 -0.01413073853966006 0.0019206043690434293 0 -0.014267730634323844 0.0012740047761191791 0 -0.013445598252622188 0.0016891059422482365 0 -0.013995294363763497 0.00084587679785456244 0 -0.014267730634323844 0.0012740047761191791 0 -0.013445598252622188 0.0016891059422482365 0 -0.013995294363763497 0.00084587679785456244 0 -0.014267730634323844 0.0012740047761191791 0 -0.014807240422261142 0.00067970182526700936 0 -0.014267730634323844 0.0012740047761191791 0 -0.014916718096072005 0.0013061074317727228 0 -0.014807240422261142 0.00067970182526700936 0 -0.015298549475551561 0.00080620978624647852 0 -0.014916718096072005 0.0013061074317727228 0 -0.014807240422261142 0.00067970182526700936 0 -0.015593053759604639 0.00011415566999115902 0 -0.015287097372028128 0.00041877544857961218 0 -0.015095361661715384 0.00013918723172778901 0 -0.015298549475551561 0.00080620978624647852 0 -0.015287097372028128 0.00041877544857961218 0 -0.014807240422261142 0.00067970182526700936 0 -0.015287097372028128 0.00041877544857961218 0 -0.014807240422261142 0.00067970182526700936 0 -0.015095361661715384 0.00013918723172778901 0 -0.013995294363763497 0.00084587679785456244 0 -0.014588953177642403 0.00029313316911842662 0 -0.014003682974488531 8.2539069749807537e-05 0 -0.013995294363763497 0.00084587679785456244 0 -0.014807240422261142 0.00067970182526700936 0 -0.014588953177642403 0.00029313316911842662 0 -0.014807240422261142 0.00067970182526700936 0 -0.014588953177642403 0.00029313316911842662 0 -0.015095361661715384 0.00013918723172778901 0 -0.014588953177642403 0.00029313316911842662 0 -0.014941946297294227 -0.00010965640884530578 0 -0.015095361661715384 0.00013918723172778901 0 -0.015415236256140932 -0.00040553344275405328 0 -0.014941946297294227 -0.00010965640884530578 0 -0.015426667399153828 -0.00018433625708607663 0 -0.014588953177642403 0.00029313316911842662 0 -0.014941946297294227 -0.00010965640884530578 0 -0.014003682974488531 8.2539069749807537e-05 0 -0.015593053759604639 0.00011415566999115902 0 -0.015426667399153828 -0.00018433625708607663 0 -0.015095361661715384 0.00013918723172778901 0 -0.014941946297294227 -0.00010965640884530578 0 -0.015426667399153828 -0.00018433625708607663 0 -0.015095361661715384 0.00013918723172778901 0 -0.015607089945026241 -0.00012680399420876651 0 -0.01511410866917642 -8.4685912796916604e-05 0 -0.014790887156697605 -2.2434467453677851e-07 0 -0.016110579326450353 -2.7933682227823473e-07 0 -0.015607089945026241 -0.00012680399420876651 0 -0.014790887156697605 -2.2434467453677851e-07 0 -0.015710002631220091 -0.00016288678536900735 0 -0.014941946297294227 -0.00010965640884530578 0 -0.014003682974488531 8.2539069749807537e-05 0 -0.015513160519587007 -0.00014194909928877758 0 -0.014566429252294904 3.3691143446023458e-05 0 -0.015710002631220091 -0.00016288678536900735 0 -0.015607089945026241 -0.00012680399420876651 0 -0.01511410866917642 -8.4685912796916604e-05 0 -0.014566429252294904 3.3691143446023458e-05 0 -0.01342458613463551 0.00062734330723611766 0 -0.01511410866917642 -8.4685912796916604e-05 0 -0.014442532866835523 -3.5732394893617788e-05 0 -0.013877758450068141 2.7398260613257829e-05 0 -0.01511410866917642 -8.4685912796916604e-05 0 -0.014442532866835523 -3.5732394893617788e-05 0 -0.014790887156697605 -2.2434467453677851e-07 0 -0.014442532866835523 -3.5732394893617788e-05 0 -0.014790887156697605 -2.2434467453677851e-07 0 -0.013471345865053257 1.0581556265261074e-08 0 -0.014442532866835523 -3.5732394893617788e-05 0 -0.013471345865053257 1.0581556265261074e-08 0 -0.013877758450068141 2.7398260613257829e-05 0 -0.013995294363763497 0.00084587679785456244 0 -0.014003682974488531 8.2539069749807537e-05 0 -0.012771519590032166 0.0012905358007863441 0 -0.013995294363763497 0.00084587679785456244 0 -0.012771519590032166 0.0012905358007863441 0 -0.013445598252622188 0.0016891059422482365 0 -0.012771519590032166 0.0012905358007863441 0 -0.013445598252622188 0.0016891059422482365 0 -0.012653103866080586 0.0020966125245352797 0 -0.013445598252622188 0.0016891059422482365 0 -0.012653103866080586 0.0020966125245352797 0 -0.012972304631864105 0.0022099967241984166 0 -0.013493844230470828 0.0021382362765786345 0 -0.013445598252622188 0.0016891059422482365 0 -0.012972304631864105 0.0022099967241984166 0 -0.013471345865053257 1.0581556265261074e-08 0 -0.013877758450068141 2.7398260613257829e-05 0 -0.012906752099786093 2.9119435365242094e-05 0 -0.013471345865053257 1.0581556265261074e-08 0 -0.012906752099786093 2.9119435365242094e-05 0 -0.012151509492472803 2.142410392930553e-07 0 -0.013877758450068141 2.7398260613257829e-05 0 -0.012906752099786093 2.9119435365242094e-05 0 -0.012500205051061739 0.00010330211832018576 0 -0.012771519590032166 0.0012905358007863441 0 -0.012653103866080586 0.0020966125245352797 0 -0.012064756937776472 0.0027010732050448509 0 -0.01342458613463551 0.00062734330723611766 0 -0.011718613065852703 0.0012752083736146628 0 -0.012906752099786093 2.9119435365242094e-05 0 -0.012151509492472803 2.142410392930553e-07 0 -0.012588077870901814 5.6595714214929158e-05 0 -0.012906752099786093 2.9119435365242094e-05 0 -0.012588077870901814 5.6595714214929158e-05 0 -0.012500205051061739 0.00010330211832018576 0 -0.012151509492472803 2.142410392930553e-07 0 -0.012588077870901814 5.6595714214929158e-05 0 -0.012317946476351442 2.4522416737817747e-05 0 -0.011777997423999931 0.0006668571394201759 0 -0.011718613065852703 0.0012752083736146628 0 -0.012064756937776472 0.0027010732050448509 0 -0.012480395303258831 0.0025820377417199044 0 -0.01244375573047044 0.002998089155462862 0 -0.012653103866080586 0.0020966125245352797 0 -0.012064756937776472 0.0027010732050448509 0 -0.012480395303258831 0.0025820377417199044 0 -0.012653103866080586 0.0020966125245352797 0 -0.012972304631864105 0.0022099967241984166 0 -0.012480395303258831 0.0025820377417199044 0 -0.012480395303258831 0.0025820377417199044 0 -0.012877851492172658 0.0025140311383237707 0 -0.012600356512027122 0.0027830395588608909 0 -0.013493844230470828 0.0021382362765786345 0 -0.012972304631864105 0.0022099967241984166 0 -0.012877851492172658 0.0025140311383237707 0 -0.012972304631864105 0.0022099967241984166 0 -0.012480395303258831 0.0025820377417199044 0 -0.012877851492172658 0.0025140311383237707 0 -0.012877851492172658 0.0025140311383237707 0 -0.012600356512027122 0.0027830395588608909 0 -0.012565832596102333 0.0029758274427201404 0 -0.012600356512027122 0.0027830395588608909 0 -0.012565832596102333 0.0029758274427201404 0 -0.01244375573047044 0.002998089155462862 0 -0.012480395303258831 0.0025820377417199044 0 -0.012600356512027122 0.0027830395588608909 0 -0.01244375573047044 0.002998089155462862 0 -0.01244375573047044 0.002998089155462862 0 -0.012062723725980185 0.0034525771071182514 0 -0.012516979690384506 0.003178010866864445 0 -0.012064756937776472 0.0027010732050448509 0 -0.01244375573047044 0.002998089155462862 0 -0.012516979690384506 0.003178010866864445 0 -0.012565832596102333 0.0029758274427201404 0 -0.01244375573047044 0.002998089155462862 0 -0.012062723725980185 0.0034525771071182514 0 -0.012151509492472803 2.142410392930553e-07 0 -0.012317946476351442 2.4522416737817747e-05 0 -0.010831749500768073 3.0999626522859905e-08 0 -0.011718613065852703 0.0012752083736146628 0 -0.010831474640008483 -4.3407244786557254e-07 0 -0.011718613065852703 0.0012752083736146628 0 -0.010962286858218217 0.0019589144058939352 0 -0.010304781152999936 0.001944505698087133 0 -0.0095620761943841122 0.00039752750208645521 0 -0.010829219429794337 1.5747203527192553e-06 0 -0.014539542543003018 0.0023801616495896733 0 -0.013592047264315585 0.0027710592244235199 0 -0.015153388092513284 0.0031458297710226756 0 -0.01413073853966006 0.0019206043690434293 0 -0.014539542543003018 0.0023801616495896733 0 -0.013592047264315585 0.0027710592244235199 0 -0.014859500089602903 0.0018914384699781287 0 -0.014539542543003018 0.0023801616495896733 0 -0.015395232712097695 0.0023177630050889822 0 -0.013493844230470828 0.0021382362765786345 0 -0.01413073853966006 0.0019206043690434293 0 -0.013592047264315585 0.0027710592244235199 0 -0.013493844230470828 0.0021382362765786345 0 -0.012877851492172658 0.0025140311383237707 0 -0.013592047264315585 0.0027710592244235199 0 -0.012877851492172658 0.0025140311383237707 0 -0.012565832596102333 0.0029758274427201404 0 -0.013592047264315585 0.0027710592244235199 0 -0.01188056091897979 0.0033812355359707641 0 -0.011952287170306683 0.0037168525984421549 0 -0.012062723725980185 0.0034525771071182514 0 -0.013592047264315585 0.0027710592244235199 0 -0.01461566543814664 0.0040863453167477373 0 -0.012565832596102333 0.0029758274427201404 0 -0.012062723725980185 0.0034525771071182514 0 -0.013592047264315585 0.0027710592244235199 0 -0.013592047264315585 0.0027710592244235199 0 -0.01461566543814664 0.0040863453167477373 0 -0.015153388092513284 0.0031458297710226756 0 -0.0086285740739362807 0.0028466225268199159 0 -0.010562292405320448 0.0021977992203431654 0 -0.0083964869243600554 0.00070672307138536054 0 -0.012062723725980185 0.0034525771071182514 0 -0.0086285740739362807 0.0028466225268199159 0 -0.010562292405320448 0.0021977992203431654 0 -0.010562292405320448 0.0021977992203431654 0 -0.0083964869243600554 0.00070672307138536054 0 -0.010941392645567535 0.0012298287374245295 0 -0.0083964869243600554 0.00070672307138536054 0 -0.010941392645567535 0.0012298287374245295 0 -0.0088304275546153138 -8.5655950262481827e-05 0 -0.0096735423116304873 -6.100944191081395e-05 0 -0.010829219429794337 1.5747203527192553e-06 0 -0.0095593077309170781 -7.4613417343673434e-07 0 -0.0095620761943841122 0.00039752750208645521 0 -0.0096735423116304873 -6.100944191081395e-05 0 -0.010829219429794337 1.5747203527192553e-06 0 -0.012062723725980185 0.0034525771071182514 0 -0.012516979690384506 0.003178010866864445 0 -0.010562292405320448 0.0021977992203431654 0 -0.0095620761943841122 0.00039752750208645521 0 -0.0096735423116304873 -6.100944191081395e-05 0 -0.0090550152532917275 -0.00012423247894706923 0 -0.010962286858218217 0.0019589144058939352 0 -0.0099696081371191507 0.00058190974063385993 0 -0.012516979690384506 0.003178010866864445 0 -0.010562292405320448 0.0021977992203431654 0 -0.010941392645567535 0.0012298287374245295 0 -0.0096735423116304873 -6.100944191081395e-05 0 -0.0090550152532917275 -0.00012423247894706923 0 -0.0088555188700219882 -0.00013029513287040459 0 -0.0096735423116304873 -6.100944191081395e-05 0 -0.0095593077309170781 -7.4613417343673434e-07 0 -0.0088555188700219882 -0.00013029513287040459 0 -0.0095593077309170781 -7.4613417343673434e-07 0 -0.0082870180730478873 -1.9016005831057792e-07 0 -0.0088555188700219882 -0.00013029513287040459 0 -0.0082870180730478873 -1.9016005831057792e-07 0 -0.0088555188700219882 -0.00013029513287040459 0 -0.0079900887974488702 -0.00014331617657567739 0 -0.0088555188700219882 -0.00013029513287040459 0 -0.0088304275546153138 -8.5655950262481827e-05 0 -0.0079900887974488702 -0.00014331617657567739 0 -0.0090550152532917275 -0.00012423247894706923 0 -0.0088555188700219882 -0.00013029513287040459 0 -0.0088304275546153138 -8.5655950262481827e-05 0 -0.0099696081371191507 0.00058190974063385993 0 -0.0090368769951210959 -2.9426560841650145e-05 0 -0.0083964869243600554 0.00070672307138536054 0 -0.0088304275546153138 -8.5655950262481827e-05 0 -0.0078742161193468291 -0.00017695954683321377 0 -0.0088304275546153138 -8.5655950262481827e-05 0 -0.0081146117280281871 -0.00022767681466466852 0 -0.0078742161193468291 -0.00017695954683321377 0 -0.0088304275546153138 -8.5655950262481827e-05 0 -0.0081146117280281871 -0.00022767681466466852 0 -0.0079900887974488702 -0.00014331617657567739 0 -0.0081146117280281871 -0.00022767681466466852 0 -0.007664478484940891 -0.00021538996924141593 0 -0.0079900887974488702 -0.00014331617657567739 0 -0.0081146117280281871 -0.00022767681466466852 0 -0.007664478484940891 -0.00021538996924141593 0 -0.0077014517456879513 -0.00023759802063685081 0 -0.0081146117280281871 -0.00022767681466466852 0 -0.0077014517456879513 -0.00023759802063685081 0 -0.0078742161193468291 -0.00017695954683321377 0 -0.007664478484940891 -0.00021538996924141593 0 -0.0074609452294454011 -0.00018848759322590087 0 -0.0077014517456879513 -0.00023759802063685081 0 -0.0074609452294454011 -0.00018848759322590087 0 -0.0077014517456879513 -0.00023759802063685081 0 -0.0075021432758986331 -0.00011540197902338619 0 -0.007664478484940891 -0.00021538996924141593 0 -0.0074609452294454011 -0.00018848759322590087 0 -0.0072069026718915375 -0.00014874224112453713 0 -0.007664478484940891 -0.00021538996924141593 0 -0.0072069026718915375 -0.00014874224112453713 0 -0.0069813112549838435 -0.00013361760354448229 0 -0.0069813112549838435 -0.00013361760354448229 0 -0.0070156034566651116 -1.3915180282180727e-07 0 -0.0057429088296754825 -7.4843613775053198e-07 0 -0.0082870180730478873 -1.9016005831057792e-07 0 -0.0070156034566651116 -1.3915180282180727e-07 0 -0.0079900887974488702 -0.00014331617657567739 0 -0.0069813112549838435 -0.00013361760354448229 0 -0.0070156034566651116 -1.3915180282180727e-07 0 -0.0079900887974488702 -0.00014331617657567739 0 -0.007664478484940891 -0.00021538996924141593 0 -0.0069813112549838435 -0.00013361760354448229 0 -0.0079900887974488702 -0.00014331617657567739 0 -0.0077880046346549877 -9.0692657168619576e-05 0 -0.0077396238104504786 -0.00010011688221882436 0 -0.0077488451362763573 -0.00011787640832149452 0 -0.0077396238104504786 -0.00010011688221882436 0 -0.007718843016865577 -0.00015482537323788765 0 -0.0077488451362763573 -0.00011787640832149452 0 -0.0077880046346549877 -9.0692657168619576e-05 0 -0.0077488451362763573 -0.00011787640832149452 0 -0.0077857398474507518 -6.5189662779593525e-05 0 -0.0077500903030519224 -9.258994858735225e-06 0 -0.0077181448816839963 1.2051777961051148e-05 0 -0.0077880046346549877 -9.0692657168619576e-05 0 -0.0077396238104504786 -0.00010011688221882436 0 -0.0077187233627574294 1.0103154502926937e-05 0 -0.0077396238104504786 -0.00010011688221882436 0 -0.0076510394194179822 -9.1640652204023288e-05 0 -0.007718843016865577 -0.00015482537323788765 0 -0.0077396238104504786 -0.00010011688221882436 0 -0.0076510394194179822 -9.1640652204023288e-05 0 -0.0077187233627574294 1.0103154502926937e-05 0 -0.0076510394194179822 -9.1640652204023288e-05 0 -0.0077014517456879513 -0.00023759802063685081 0 -0.0075021432758986331 -0.00011540197902338619 0 -0.0076510394194179822 -9.1640652204023288e-05 0 -0.0077014517456879513 -0.00023759802063685081 0 -0.007718843016865577 -0.00015482537323788765 0 -0.0077014517456879513 -0.00023759802063685081 0 -0.0078742161193468291 -0.00017695954683321377 0 -0.0077542385038077456 -0.00017444866178699698 0 -0.0077014517456879513 -0.00023759802063685081 0 -0.007718843016865577 -0.00015482537323788765 0 -0.0077542385038077456 -0.00017444866178699698 0 -0.007718843016865577 -0.00015482537323788765 0 -0.0077542385038077456 -0.00017444866178699698 0 -0.0077488451362763573 -0.00011787640832149452 0 -0.0077421294236594898 -0.00011563284799813386 0 -0.0077542385038077456 -0.00017444866178699698 0 -0.0077488451362763573 -0.00011787640832149452 0 -0.0077421294236594898 -0.00011563284799813386 0 -0.0078742161193468291 -0.00017695954683321377 0 -0.0077542385038077456 -0.00017444866178699698 0 -0.007496420707664115 3.4201347108141688e-05 0 -0.0078473910216640495 -0.00014989823794532361 0 -0.0083964869243600554 0.00070672307138536054 0 -0.0078742161193468291 -0.00017695954683321377 0 -0.0076319908200788746 0.00033394309873680786 0 -0.0071855578697904935 0.00019468110112510508 0 -0.0078742161193468291 -0.00017695954683321377 0 -0.0076319908200788746 0.00033394309873680786 0 -0.0071855578697904935 0.00019468110112510508 0 -0.0070990811236415017 0.00047974767922584428 0 -0.0072213750656481626 0.00041832979934144942 0 -0.0071855578697904935 0.00019468110112510508 0 -0.0076319908200788746 0.00033394309873680786 0 -0.0070990811236415017 0.00047974767922584428 0 -0.0070990811236415017 0.00047974767922584428 0 -0.0072213750656481626 0.00041832979934144942 0 -0.007202028376660086 0.00030726264706259251 0 -0.007496420707664115 3.4201347108141688e-05 0 -0.0074959523943584488 0.00015365145807264263 0 -0.0077421294236594898 -0.00011563284799813386 0 -0.0077667967892591947 -8.5523053546225194e-05 0 -0.0077488451362763573 -0.00011787640832149452 0 -0.0077667967892591947 -8.5523053546225194e-05 0 -0.0077488451362763573 -0.00011787640832149452 0 -0.0077857398474507518 -6.5189662779593525e-05 0 -0.0077667967892591947 -8.5523053546225194e-05 0 -0.0077857398474507518 -6.5189662779593525e-05 0 -0.00779720622866491 -2.8857856473333486e-05 0 -0.0074959523943584488 0.00015365145807264263 0 -0.0076556474916105281 0.00013455857371722879 0 -0.0072213750656481626 0.00041832979934144942 0 -0.0073572536089530601 0.00015650814457822835 0 -0.0075353521104357581 0.00030480319427613574 0 -0.0072213750656481626 0.00041832979934144942 0 -0.007202028376660086 0.00030726264706259251 0 -0.0073572536089530601 0.00015650814457822835 0 -0.010301769826228879 0.00034203902394958145 0 -0.011375316611710005 0.00060698391267243639 0 -0.010629151655649786 0.0012264759833530274 0 -0.007202028376660086 0.00030726264706259251 0 -0.0073572536089530601 0.00015650814457822835 0 -0.0070996159458163793 0.00016022183661695765 0 -0.0085654556142897454 5.9934286954952082e-05 0 -0.010342294284880925 0.0015356121358592279 0 -0.010301769826228879 0.00034203902394958145 0 -0.0098567396335047033 0.00099107101917773259 0 -0.0095316289062163783 0.00059512633684018928 0 -0.010301769826228879 0.00034203902394958145 0 -0.010629151655649786 0.0012264759833530274 0 -0.0098567396335047033 0.00099107101917773259 0 -0.0076319908200788746 0.00033394309873680786 0 -0.0070990811236415017 0.00047974767922584428 0 -0.0075880838774690712 0.0012620324591747585 0 -0.0083964869243600554 0.00070672307138536054 0 -0.0076319908200788746 0.00033394309873680786 0 -0.0075880838774690712 0.0012620324591747585 0 -0.0086285740739362807 0.0028466225268199159 0 -0.0083964869243600554 0.00070672307138536054 0 -0.0075880838774690712 0.0012620324591747585 0 -0.0070990811236415017 0.00047974767922584428 0 -0.007202028376660086 0.00030726264706259251 0 -0.0070996159458163793 0.00016022183661695765 0 -0.0070990811236415017 0.00047974767922584428 0 -0.0075880838774690712 0.0012620324591747585 0 -0.006760038529133516 0.0021205659145105008 0 -0.0063521801616575856 0.00039620835854173141 0 -0.010342294284880925 0.0015356121358592279 0 -0.0086285740739362807 0.0028466225268199159 0 -0.0075880838774690712 0.0012620324591747585 0 -0.006760038529133516 0.0021205659145105008 0 -0.011952287170306683 0.0037168525984421549 0 -0.010342294284880925 0.0015356121358592279 0 -0.01461566543814664 0.0040863453167477373 0 -0.016247952616796554 0.0043618709927845216 0 -0.015153388092513284 0.0031458297710226756 0 -0.011375316611710005 0.00060698391267243639 0 -0.011354867503522261 0.001424863952349806 0 -0.010629151655649786 0.0012264759833530274 0 -0.010342294284880925 0.0015356121358592279 0 -0.01406487538862909 0.0024231077152037533 0 -0.016247952616796554 0.0043618709927845216 0 -0.015153388092513284 0.0031458297710226756 0 -0.016313446888291474 0.0030983143787179394 0 -0.013745939813310414 0.0020855761234655078 0 -0.01406487538862909 0.0024231077152037533 0 -0.011329633539829666 0.0022103639869139853 0 -0.011354867503522261 0.001424863952349806 0 -0.010959367286236898 0.0017301645390712863 0 -0.016339532375958709 0.0018907380728026332 0 -0.016313446888291474 0.0030983143787179394 0 -0.015395232712097695 0.0023177630050889822 0 -0.015153388092513284 0.0031458297710226756 0 -0.016313446888291474 0.0030983143787179394 0 -0.015395232712097695 0.0023177630050889822 0 -0.014539542543003018 0.0023801616495896733 0 -0.015153388092513284 0.0031458297710226756 0 -0.015395232712097695 0.0023177630050889822 0 -0.010629151655649786 0.0012264759833530274 0 -0.0099682963402355929 0.0015208991539192073 0 -0.0098567396335047033 0.00099107101917773259 0 -0.010518652697534122 0.0020510890347468008 0 -0.010629151655649786 0.0012264759833530274 0 -0.010959367286236898 0.0017301645390712863 0 -0.010518652697534122 0.0020510890347468008 0 -0.011329633539829666 0.0022103639869139853 0 -0.010959367286236898 0.0017301645390712863 0 -0.011354867503522261 0.001424863952349806 0 -0.010629151655649786 0.0012264759833530274 0 -0.010959367286236898 0.0017301645390712863 0 -0.010518652697534122 0.0020510890347468008 0 -0.0099682963402355929 0.0015208991539192073 0 -0.0097866694881489514 0.0019519095542100857 0 -0.010518652697534122 0.0020510890347468008 0 -0.010629151655649786 0.0012264759833530274 0 -0.0099682963402355929 0.0015208991539192073 0 -0.0094587250076796393 0.0022297773209072245 0 -0.0097866694881489514 0.0019519095542100857 0 -0.0093084740505041882 0.0018717876453030859 0 -0.0097866694881489514 0.0019519095542100857 0 -0.0093084740505041882 0.0018717876453030859 0 -0.0095312362463386719 0.0016530604866711763 0 -0.0095312362463386719 0.0016530604866711763 0 -0.0094420306784513564 0.0013093628418318608 0 -0.0092496503098399002 0.0015883638897330899 0 -0.0093084740505041882 0.0018717876453030859 0 -0.0095312362463386719 0.0016530604866711763 0 -0.0092496503098399002 0.0015883638897330899 0 -0.0099682963402355929 0.0015208991539192073 0 -0.0095312362463386719 0.0016530604866711763 0 -0.0094420306784513564 0.0013093628418318608 0 -0.0099682963402355929 0.0015208991539192073 0 -0.0097866694881489514 0.0019519095542100857 0 -0.0095312362463386719 0.0016530604866711763 0 -0.0099682963402355929 0.0015208991539192073 0 -0.0094420306784513564 0.0013093628418318608 0 -0.0098567396335047033 0.00099107101917773259 0 -0.0094420306784513564 0.0013093628418318608 0 -0.0092799905851942057 0.00097155891133755563 0 -0.0090713892095676141 0.0013427488459368813 0 -0.0094420306784513564 0.0013093628418318608 0 -0.0092799905851942057 0.00097155891133755563 0 -0.0098567396335047033 0.00099107101917773259 0 -0.0092799905851942057 0.00097155891133755563 0 -0.0086836540806100159 0.0010441183616638906 0 -0.0090713892095676141 0.0013427488459368813 0 -0.0094420306784513564 0.0013093628418318608 0 -0.0090713892095676141 0.0013427488459368813 0 -0.0092496503098399002 0.0015883638897330899 0 -0.0086836540806100159 0.0010441183616638906 0 -0.008864131971212115 0.0014445499383062396 0 -0.0086576380514205107 0.0015767669679432451 0 -0.0086836540806100159 0.0010441183616638906 0 -0.0090713892095676141 0.0013427488459368813 0 -0.008864131971212115 0.0014445499383062396 0 -0.0090838032489622394 0.0024285352973782404 0 -0.0090864469517523451 0.0019807657133655236 0 -0.0086103269129693856 0.0017014865613985439 0 -0.0090713892095676141 0.0013427488459368813 0 -0.008864131971212115 0.0014445499383062396 0 -0.0089663346938964779 0.0016697233745526774 0 -0.0092739118783598858 0.0024730621068326506 0 -0.0089534290305527467 0.0019296358579006473 0 -0.0089963033568451999 0.0018406766319770409 0 -0.0089663346938964779 0.0016697233745526774 0 -0.0086576380514205107 0.0015767669679432451 0 -0.0086103269129693856 0.0017014865613985439 0 -0.008864131971212115 0.0014445499383062396 0 -0.0089663346938964779 0.0016697233745526774 0 -0.0086576380514205107 0.0015767669679432451 0 -0.0090713892095676141 0.0013427488459368813 0 -0.0089663346938964779 0.0016697233745526774 0 -0.0092496503098399002 0.0015883638897330899 0 -0.0093084740505041882 0.0018717876453030859 0 -0.0089663346938964779 0.0016697233745526774 0 -0.0092496503098399002 0.0015883638897330899 0 -0.0093084740505041882 0.0018717876453030859 0 -0.0089663346938964779 0.0016697233745526774 0 -0.0090864469517523451 0.0019807657133655236 0 -0.0094587250076796393 0.0022297773209072245 0 -0.0093084740505041882 0.0018717876453030859 0 -0.0090864469517523451 0.0019807657133655236 0 -0.0089663346938964779 0.0016697233745526774 0 -0.0090864469517523451 0.0019807657133655236 0 -0.0086103269129693856 0.0017014865613985439 0 -0.011181474366621978 0.001011340540931418 0 -0.011260288163243801 0.00098912253128103397 0 -0.011208494233860718 0.0010443990398235512 0 -0.011260288163243801 0.00098912253128103397 0 -0.011297183751925066 0.0010706947625043664 0 -0.011208494233860718 0.0010443990398235512 0 -0.0095770621969288976 0.001715084449715814 0 -0.0097711732241683742 0.0015896081158458457 0 -0.011192946381150232 0.0010202943822845444 0 -0.011182578517410157 0.0010412573049882225 0 -0.011208494233860718 0.0010443990398235512 0 -0.011041315585744019 0.0014262177170099595 0 -0.0097711732241683742 0.0015896081158458457 0 -0.011041315585744019 0.0014262177170099595 0 -0.011026238424483061 0.001288437234732255 0 -0.011463833808980198 0.0008223517548889244 0 -0.011366438131630716 0.0010223937537497251 0 -0.011481408500614809 0.0010748150519087156 0 -0.011260288163243801 0.00098912253128103397 0 -0.011297183751925066 0.0010706947625043664 0 -0.011366438131630716 0.0010223937537497251 0 -0.011297183751925066 0.0010706947625043664 0 -0.011366438131630716 0.0010223937537497251 0 -0.011350485656806089 0.0011123432899679453 0 -0.011366438131630716 0.0010223937537497251 0 -0.011350485656806089 0.0011123432899679453 0 -0.01141622330747143 0.0011067152662629222 0 -0.011366438131630716 0.0010223937537497251 0 -0.011481408500614809 0.0010748150519087156 0 -0.01141622330747143 0.0011067152662629222 0 -0.011350485656806089 0.0011123432899679453 0 -0.01141622330747143 0.0011067152662629222 0 -0.011377424270210008 0.0011447712530819512 0 -0.011297183751925066 0.0010706947625043664 0 -0.011350485656806089 0.0011123432899679453 0 -0.011307246165360881 0.0011430420487139358 0 -0.011350485656806089 0.0011123432899679453 0 -0.011307246165360881 0.0011430420487139358 0 -0.011358569782627038 0.0011347932650600423 0 -0.011350485656806089 0.0011123432899679453 0 -0.011358569782627038 0.0011347932650600423 0 -0.011377424270210008 0.0011447712530819512 0 -0.0086836540806100159 0.0010441183616638906 0 -0.0086576380514205107 0.0015767669679432451 0 -0.0081317108747122509 0.00093652874044862576 0 -0.011297183751925066 0.0010706947625043664 0 -0.011208494233860718 0.0010443990398235512 0 -0.011307246165360881 0.0011430420487139358 0 -0.0097711732241683742 0.0015896081158458457 0 -0.0097320708750606669 0.0010091331846575852 0 -0.011182578517410157 0.0010412573049882225 0 -0.011208494233860718 0.0010443990398235512 0 -0.011307246165360881 0.0011430420487139358 0 -0.0086576380514205107 0.0015767669679432451 0 -0.0086011908970763593 0.0017100665146428233 0 -0.0081317108747122509 0.00093652874044862576 0 -0.0086836540806100159 0.0010441183616638906 0 -0.0081317108747122509 0.00093652874044862576 0 -0.0084629188574528672 0.00046637204078204484 0 -0.0081317108747122509 0.00093652874044862576 0 -0.0080948670920914633 0.00031811949845784245 0 -0.0084629188574528672 0.00046637204078204484 0 -0.011358569782627038 0.0011347932650600423 0 -0.011300085284690261 0.0011016584174109488 0 -0.011336871409488542 0.0011125608391474744 0 -0.011307246165360881 0.0011430420487139358 0 -0.011358569782627038 0.0011347932650600423 0 -0.011336871409488542 0.0011125608391474744 0 -0.0081317108747122509 0.00093652874044862576 0 -0.0080948670920914633 0.00031811949845784245 0 -0.0078106865194948289 0.00020130812278808331 0 -0.0097320708750606669 0.0010091331846575852 0 -0.009498907936567734 0.00064275936639677969 0 -0.011358569782627038 0.0011347932650600423 0 -0.011333470486744266 0.00089958093135228607 0 -0.011284257318398385 0.001023385595143148 0 -0.011343799470875918 0.0010858991556360234 0 -0.011348750288846658 0.001085037436529084 0 -0.011300085284690261 0.0011016584174109488 0 -0.011336871409488542 0.0011125608391474744 0 -0.011270068588779407 0.00097060889584543644 0 -0.009498907936567734 0.00064275936639677969 0 -0.010362870161735406 0.00042348294284153416 0 -0.0078106865194948289 0.00020130812278808331 0 -0.007943844722699123 9.7135265868251769e-06 0 -0.007814265642887697 8.6806476982806139e-06 0 -0.0080948670920914633 0.00031811949845784245 0 -0.0078106865194948289 0.00020130812278808331 0 -0.007943844722699123 9.7135265868251769e-06 0 -0.0080948670920914633 0.00031811949845784245 0 -0.0084629188574528672 0.00046637204078204484 0 -0.007943844722699123 9.7135265868251769e-06 0 -0.0084629188574528672 0.00046637204078204484 0 -0.007943844722699123 9.7135265868251769e-06 0 -0.0086431029629991628 0.00027358413001940681 0 -0.007943844722699123 9.7135265868251769e-06 0 -0.0077975455480883546 5.9614354334713875e-05 0 -0.0078438280933069305 3.3388257156459036e-05 0 -0.007943844722699123 9.7135265868251769e-06 0 -0.0077975455480883546 5.9614354334713875e-05 0 -0.0077107835738595585 6.7470114610851167e-05 0 -0.0079563611765899548 -3.9398943051581505e-06 0 -0.0085126780097669608 0.00011888511779839731 0 -0.007943844722699123 9.7135265868251769e-06 0 -0.0086431029629991628 0.00027358413001940681 0 -0.0091783437604415694 7.7885042567523254e-05 0 -0.0077767469459629548 7.5530624375795075e-05 0 -0.0076556474916105281 0.00013455857371722879 0 -0.0085654556142897454 5.9934286954952082e-05 0 -0.0085126780097669608 0.00011888511779839731 0 -0.0073572536089530601 0.00015650814457822835 0 -0.0077107835738595585 6.7470114610851167e-05 0 -0.0075353521104357581 0.00030480319427613574 0 -0.0077975455480883546 5.9614354334713875e-05 0 -0.0077107835738595585 6.7470114610851167e-05 0 -0.0075353521104357581 0.00030480319427613574 0 -0.010301769826228879 0.00034203902394958145 0 -0.0091783437604415694 7.7885042567523254e-05 0 -0.0095316289062163783 0.00059512633684018928 0 -0.0091783437604415694 7.7885042567523254e-05 0 -0.0095316289062163783 0.00059512633684018928 0 -0.0089951732490303471 0.00056647186698871783 0 -0.0092799905851942057 0.00097155891133755563 0 -0.0098567396335047033 0.00099107101917773259 0 -0.0095316289062163783 0.00059512633684018928 0 -0.0092799905851942057 0.00097155891133755563 0 -0.0095316289062163783 0.00059512633684018928 0 -0.0089951732490303471 0.00056647186698871783 0 -0.0092799905851942057 0.00097155891133755563 0 -0.0086836540806100159 0.0010441183616638906 0 -0.0089951732490303471 0.00056647186698871783 0 -0.0086836540806100159 0.0010441183616638906 0 -0.0084629188574528672 0.00046637204078204484 0 -0.0089951732490303471 0.00056647186698871783 0 -0.0084629188574528672 0.00046637204078204484 0 -0.0086431029629991628 0.00027358413001940681 0 -0.0089951732490303471 0.00056647186698871783 0 -0.0086431029629991628 0.00027358413001940681 0 -0.0091783437604415694 7.7885042567523254e-05 0 -0.0089951732490303471 0.00056647186698871783 0 -0.01152434261969618 0.0011222308767375247 0 -0.011517881726802031 0.0011419808537523029 0 -0.011544436147358108 0.001137721925993877 0 -0.01152434261969618 0.0011222308767375247 0 -0.011503681208664353 0.0011299630792731277 0 -0.011517881726802031 0.0011419808537523029 0 -0.01152434261969618 0.0011222308767375247 0 -0.011547586556370854 0.0011120172207535967 0 -0.011544436147358108 0.001137721925993877 0 -0.01152434261969618 0.0011222308767375247 0 -0.011526473966372906 0.0010979057138918126 0 -0.011547586556370854 0.0011120172207535967 0 -0.012532998921385517 0.00087758359105453499 0 -0.01242039150100282 0.0011262554240687051 0 -0.012630866067920264 0.00098851164960331935 0 -0.01152434261969618 0.0011222308767375247 0 -0.011526473966372906 0.0010979057138918126 0 -0.011504715888078646 0.0011134053532143851 0 -0.011526473966372906 0.0010979057138918126 0 -0.011504715888078646 0.0011134053532143851 0 -0.011482768899305669 0.001100833848823098 0 -0.011982139537632965 0.0011198938521947762 0 -0.011715932604810344 0.0011106315313384777 0 -0.01242039150100282 0.0011262554240687051 0 -0.012088377741196006 0.0010053238312356444 0 -0.011955150095221334 0.0011336382957711779 0 -0.012360977352378986 0.00093291314999417382 0 -0.01242039150100282 0.0011262554240687051 0 -0.012088377741196006 0.0010053238312356444 0 -0.011504715888078646 0.0011134053532143851 0 -0.011487658961626084 0.0011161893228824526 0 -0.011482768899305669 0.001100833848823098 0 -0.011504715888078646 0.0011134053532143851 0 -0.011503681208664353 0.0011299630792731277 0 -0.011487658961626084 0.0011161893228824526 0 -0.01152434261969618 0.0011222308767375247 0 -0.011504715888078646 0.0011134053532143851 0 -0.011503681208664353 0.0011299630792731277 0 -0.011503681208664353 0.0011299630792731277 0 -0.011486642187366477 0.0011382268641950502 0 -0.011487658961626084 0.0011161893228824526 0 -0.011486642187366477 0.0011382268641950502 0 -0.011474098817253659 0.0011227750176726642 0 -0.011487658961626084 0.0011161893228824526 0 -0.011486642187366477 0.0011382268641950502 0 -0.011474098817253659 0.0011227750176726642 0 -0.011466515766000522 0.0011490532659930144 0 -0.011474098817253659 0.0011227750176726642 0 -0.01145703494083306 0.0011255813593035911 0 -0.011466515766000522 0.0011490532659930144 0 -0.011474098817253659 0.0011227750176726642 0 -0.011477719114423189 0.0011043410823664218 0 -0.011466413937878029 0.001105517292169721 0 -0.011474098817253659 0.0011227750176726642 0 -0.011466413937878029 0.001105517292169721 0 -0.01145703494083306 0.0011255813593035911 0 -0.011474098817253659 0.0011227750176726642 0 -0.011477719114423189 0.0011043410823664218 0 -0.011487658961626084 0.0011161893228824526 0 -0.011843143335496147 0.00094687586252648807 0 -0.011955150095221334 0.0011336382957711779 0 -0.011481408500614809 0.0010748150519087156 0 -0.011477719114423189 0.0011043410823664218 0 -0.011482768899305669 0.001100833848823098 0 -0.011481408500614809 0.0010748150519087156 0 -0.011715932604810344 0.0011106315313384777 0 -0.011500873629243994 0.0010858826532912558 0 -0.011477719114423189 0.0011043410823664218 0 -0.011487658961626084 0.0011161893228824526 0 -0.011482768899305669 0.001100833848823098 0 -0.011843143335496147 0.00094687586252648807 0 -0.012088377741196006 0.0010053238312356444 0 -0.011955150095221334 0.0011336382957711779 0 -0.011705866779756579 0.00084400031797585032 0 -0.011843143335496147 0.00094687586252648807 0 -0.011481408500614809 0.0010748150519087156 0 -0.011477719114423189 0.0011043410823664218 0 -0.011481408500614809 0.0010748150519087156 0 -0.011466413937878029 0.001105517292169721 0 -0.011481408500614809 0.0010748150519087156 0 -0.01141622330747143 0.0011067152662629222 0 -0.011450071338055571 0.0011072018159150804 0 -0.01141622330747143 0.0011067152662629222 0 -0.011450071338055571 0.0011072018159150804 0 -0.011427701020609032 0.0011266132018447389 0 -0.011481408500614809 0.0010748150519087156 0 -0.011466413937878029 0.001105517292169721 0 -0.011450071338055571 0.0011072018159150804 0 -0.011466413937878029 0.001105517292169721 0 -0.011450071338055571 0.0011072018159150804 0 -0.01145703494083306 0.0011255813593035911 0 -0.011450071338055571 0.0011072018159150804 0 -0.01145703494083306 0.0011255813593035911 0 -0.011427701020609032 0.0011266132018447389 0 -0.01145703494083306 0.0011255813593035911 0 -0.011427701020609032 0.0011266132018447389 0 -0.011441834996143204 0.0011453479379803298 0 -0.01145703494083306 0.0011255813593035911 0 -0.011441834996143204 0.0011453479379803298 0 -0.011466515766000522 0.0011490532659930144 0 -0.011377424270210008 0.0011447712530819512 0 -0.011427701020609032 0.0011266132018447389 0 -0.011441834996143204 0.0011453479379803298 0 -0.01141622330747143 0.0011067152662629222 0 -0.011377424270210008 0.0011447712530819512 0 -0.011427701020609032 0.0011266132018447389 0 -0.011352447727223854 0.0011318139997873718 0 -0.01130267163934493 0.0010974453374786117 0 -0.011358569782627038 0.0011347932650600423 0 -0.011299082443374265 0.0010822875556746818 0 -0.011284257318398385 0.001023385595143148 0 -0.011377424270210008 0.0011447712530819512 0 -0.011299082443374265 0.0010822875556746818 0 -0.01113625939650527 0.0010253255233365465 0 -0.011358569782627038 0.0011347932650600423 0 -0.011377424270210008 0.0011447712530819512 0 -0.011299082443374265 0.0010822875556746818 0 -0.011441834996143204 0.0011453479379803298 0 -0.011452294422735352 0.0011704657512936587 0 -0.011466515766000522 0.0011490532659930144 0 -0.011377424270210008 0.0011447712530819512 0 -0.011441834996143204 0.0011453479379803298 0 -0.011452294422735352 0.0011704657512936587 0 -0.01113625939650527 0.0010253255233365465 0 -0.011235767776989789 0.00094271122216012433 0 -0.011132665795559476 0.0009065134688772188 0 -0.011333470486744266 0.00089958093135228607 0 -0.011284257318398385 0.001023385595143148 0 -0.011235767776989789 0.00094271122216012433 0 -0.011299082443374265 0.0010822875556746818 0 -0.01113625939650527 0.0010253255233365465 0 -0.011284257318398385 0.001023385595143148 0 -0.01113625939650527 0.0010253255233365465 0 -0.011284257318398385 0.001023385595143148 0 -0.011235767776989789 0.00094271122216012433 0 -0.011348750288846658 0.001085037436529084 0 -0.010362870161735406 0.00042348294284153416 0 -0.011333470486744266 0.00089958093135228607 0 -0.011235767776989789 0.00094271122216012433 0 -0.011194353487260859 0.00078692729013437733 0 -0.011333470486744266 0.00089958093135228607 0 -0.011194353487260859 0.00078692729013437733 0 -0.011265391399127149 0.00059105745614980963 0 -0.011194353487260859 0.00078692729013437733 0 -0.011071723106859463 0.00073307034004301247 0 -0.011129476821652586 0.00059538888046230633 0 -0.011194353487260859 0.00078692729013437733 0 -0.011071723106859463 0.00073307034004301247 0 -0.011132665795559476 0.0009065134688772188 0 -0.011235767776989789 0.00094271122216012433 0 -0.011194353487260859 0.00078692729013437733 0 -0.011132665795559476 0.0009065134688772188 0 -0.01130267163934493 0.0010974453374786117 0 -0.011095962321309719 0.0010063648682417773 0 -0.011036523352074995 0.00087843650580034249 0 -0.011095962321309719 0.0010063648682417773 0 -0.01113625939650527 0.0010253255233365465 0 -0.011132665795559476 0.0009065134688772188 0 -0.010953404597240025 0.00081196528766279896 0 -0.011452294422735352 0.0011704657512936587 0 -0.011469536575320139 0.0011811600926590828 0 -0.011469920559716434 0.0011686708213494051 0 -0.011071723106859463 0.00073307034004301247 0 -0.010910048193588283 0.00079957780761304783 0 -0.010993001637136913 0.00057790460707494626 0 -0.011071723106859463 0.00073307034004301247 0 -0.011132665795559476 0.0009065134688772188 0 -0.010910048193588283 0.00079957780761304783 0 -0.011095962321309719 0.0010063648682417773 0 -0.010662783885045686 0.00067541446876505536 0 -0.011095962321309719 0.0010063648682417773 0 -0.0099324220200548447 0.00046190810186140849 0 -0.011469536575320139 0.0011811600926590828 0 -0.011469920559716434 0.0011686708213494051 0 -0.011487158589256039 0.0011702471553160288 0 -0.011481595264216004 0.0011577079699722169 0 -0.011469920559716434 0.0011686708213494051 0 -0.011487158589256039 0.0011702471553160288 0 -0.011481595264216004 0.0011577079699722169 0 -0.011469920559716434 0.0011686708213494051 0 -0.011466515766000522 0.0011490532659930144 0 -0.011452294422735352 0.0011704657512936587 0 -0.011469920559716434 0.0011686708213494051 0 -0.011466515766000522 0.0011490532659930144 0 -0.011486642187366477 0.0011382268641950502 0 -0.011481595264216004 0.0011577079699722169 0 -0.011466515766000522 0.0011490532659930144 0 -0.011501059720430354 0.0011525946205455048 0 -0.011487158589256039 0.0011702471553160288 0 -0.011516084994090663 0.0011669045621856956 0 -0.011503681208664353 0.0011299630792731277 0 -0.011486642187366477 0.0011382268641950502 0 -0.011501059720430354 0.0011525946205455048 0 -0.011486642187366477 0.0011382268641950502 0 -0.011481595264216004 0.0011577079699722169 0 -0.011501059720430354 0.0011525946205455048 0 -0.011503681208664353 0.0011299630792731277 0 -0.011501059720430354 0.0011525946205455048 0 -0.011517881726802031 0.0011419808537523029 0 -0.011481595264216004 0.0011577079699722169 0 -0.011501059720430354 0.0011525946205455048 0 -0.011487158589256039 0.0011702471553160288 0 -0.011487158589256039 0.0011702471553160288 0 -0.011516084994090663 0.0011669045621856956 0 -0.011487059566423227 0.0011910330863221744 0 -0.011176805060193758 0.0010662128613712393 0 -0.010662783885045686 0.00067541446876505536 0 -0.010737908297872991 0.00080973558344607228 0 -0.010743869649271086 0.00094750880426687446 0 -0.010876040976173286 0.00078239823107390384 0 -0.011469536575320139 0.0011811600926590828 0 -0.011487158589256039 0.0011702471553160288 0 -0.011487059566423227 0.0011910330863221744 0 -0.010737908297872991 0.00080973558344607228 0 -0.010743869649271086 0.00094750880426687446 0 -0.010616678650724914 0.00088654878843938921 0 -0.011516084994090663 0.0011669045621856956 0 -0.011517881726802031 0.0011419808537523029 0 -0.011544436147358108 0.001137721925993877 0 -0.011176805060193758 0.0010662128613712393 0 -0.011071244543935743 0.0011557729539786216 0 -0.010743869649271086 0.00094750880426687446 0 -0.010616678650724914 0.00088654878843938921 0 -0.010601566774319124 0.0011158303071450637 0 -0.011501059720430354 0.0011525946205455048 0 -0.011516084994090663 0.0011669045621856956 0 -0.011517881726802031 0.0011419808537523029 0 -0.0099292499008831088 0.0001066831424881181 0 -0.0099181845042237652 0.0001537934599330104 0 -0.0099967382979430988 0.00017924173963716856 0 -0.0099292499008831088 0.0001066831424881181 0 -0.0099181845042237652 0.0001537934599330104 0 -0.009895943350932742 0.00010332728384229286 0 -0.010737908297872991 0.00080973558344607228 0 -0.010687253816925568 0.00067677117145809246 0 -0.010616678650724914 0.00088654878843938921 0 -0.010737908297872991 0.00080973558344607228 0 -0.010687253816925568 0.00067677117145809246 0 -0.010876040976173286 0.00078239823107390384 0 -0.010252360618578189 0.00038063712983236884 0 -0.010662783885045686 0.00067541446876505536 0 -0.0099181845042237652 0.0001537934599330104 0 -0.0099849096642508454 0.0001959016992546395 0 -0.0099967382979430988 0.00017924173963716856 0 -0.010884455349086995 0.0010369815087043306 0 -0.010262222748524048 0.00069595706245911013 0 -0.010445538590404226 0.00047526099183323666 0 -0.010662783885045686 0.00067541446876505536 0 -0.0099324220200548447 0.00046190810186140849 0 -0.0088011711625185715 0.00023724502930562089 0 -0.0089697668595346332 0.00043708801393383079 0 -0.0089408395721146863 0.00025616964455447641 0 -0.00940361620030538 0.00011348292829401241 0 -0.0099324220200548447 0.00046190810186140849 0 -0.0089408395721146863 0.00025616964455447641 0 -0.0090707227356036715 0.00030712781818863227 0 -0.0089951601577897451 0.00013164159007480249 0 -0.0089697668595346332 0.00043708801393383079 0 -0.0089408395721146863 0.00025616964455447641 0 -0.0090707227356036715 0.00030712781818863227 0 -0.010949349933607518 0.00035644570158410699 0 -0.010993001637136913 0.00057790460707494626 0 -0.011090478641296062 0.00037927589977591376 0 -0.0099324220200548447 0.00046190810186140849 0 -0.010127688406503669 0.00024802552287441154 0 -0.010747608299542315 0.00059351144479479075 0 -0.010949349933607518 0.00035644570158410699 0 -0.010993001637136913 0.00057790460707494626 0 -0.010910048193588283 0.00079957780761304783 0 -0.010747608299542315 0.00059351144479479075 0 -0.010993001637136913 0.00057790460707494626 0 -0.010993001637136913 0.00057790460707494626 0 -0.011129476821652586 0.00059538888046230633 0 -0.011090478641296062 0.00037927589977591376 0 -0.011129476821652586 0.00059538888046230633 0 -0.01119561648027927 0.00049087798358294992 0 -0.011090478641296062 0.00037927589977591376 0 -0.011071723106859463 0.00073307034004301247 0 -0.010993001637136913 0.00057790460707494626 0 -0.011129476821652586 0.00059538888046230633 0 -0.011194353487260859 0.00078692729013437733 0 -0.011129476821652586 0.00059538888046230633 0 -0.011265391399127149 0.00059105745614980963 0 -0.011129476821652586 0.00059538888046230633 0 -0.011265391399127149 0.00059105745614980963 0 -0.01119561648027927 0.00049087798358294992 0 -0.010362870161735406 0.00042348294284153416 0 -0.01078107276765067 0.00066669238033377585 0 -0.011249733277954971 0.00058231212164089297 0 -0.01119561648027927 0.00049087798358294992 0 -0.011148768407625648 0.00014021056012100477 0 -0.010949349933607518 0.00035644570158410699 0 -0.011090478641296062 0.00037927589977591376 0 -0.011121647512386548 0.00013302037868506242 0 -0.01119561648027927 0.00049087798358294992 0 -0.011090478641296062 0.00037927589977591376 0 -0.011148768407625648 0.00014021056012100477 0 -0.011090478641296062 0.00037927589977591376 0 -0.011148768407625648 0.00014021056012100477 0 -0.011121647512386548 0.00013302037868506242 0 -0.010362870161735406 0.00042348294284153416 0 -0.008590194537383947 0.00022159585499590681 0 -0.010127688406503669 0.00024802552287441154 0 -0.0088208692089210561 0.00016655116028932857 0 -0.0077781683233216258 6.1844930267564965e-05 0 -0.0077747209665494617 6.3007620444941926e-05 0 -0.0077563457980642176 7.3507967598717295e-05 0 -0.0074859407812927561 0.0005803975876244881 0 -0.0074483056628170752 0.00041277897122578999 0 -0.0073880869644226514 0.00050827541771721735 0 -0.008590194537383947 0.00022159585499590681 0 -0.0076465263567353546 -8.1287119398373929e-07 0 -0.0077770770444636293 6.4709624962910463e-05 0 -0.0077747209665494617 6.3007620444941926e-05 0 -0.0077814231765495822 6.0506593376698593e-05 0 -0.0077770770444636293 6.4709624962910463e-05 0 -0.0077763273297325082 6.4111466980576004e-05 0 -0.0077747209665494617 6.3007620444941926e-05 0 -0.00858407498747717 0.00037123638476455891 0 -0.0085304675428203528 1.8844274704525526e-05 0 -0.0083012760066255315 0.00029368321047661838 0 -0.008590194537383947 0.00022159585499590681 0 -0.0084211676611118096 0.00030721470962652236 0 -0.008590194537383947 0.00022159585499590681 0 -0.0088208692089210561 0.00016655116028932857 0 -0.0084211676611118096 0.00030721470962652236 0 -0.0088208692089210561 0.00016655116028932857 0 -0.0084211676611118096 0.00030721470962652236 0 -0.0083158735085111513 0.00032376144271408679 0 -0.0074859407812927561 0.0005803975876244881 0 -0.0074726102318629856 0.00059717216089335071 0 -0.0073880869644226514 0.00050827541771721735 0 -0.0077747209665494617 6.3007620444941926e-05 0 -0.0077591548691986331 6.9940512737771306e-05 0 -0.0077814231765495822 6.0506593376698593e-05 0 -0.0084211676611118096 0.00030721470962652236 0 -0.0075867556027638594 0.00021299778035410599 0 -0.0077747209665494617 6.3007620444941926e-05 0 -0.0077591548691986331 6.9940512737771306e-05 0 -0.0077563457980642176 7.3507967598717295e-05 0 -0.0074483056628170752 0.00041277897122578999 0 -0.0073880869644226514 0.00050827541771721735 0 -0.0073460301888027659 0.00034399343113197518 0 -0.0077591548691986331 6.9940512737771306e-05 0 -0.0077563457980642176 7.3507967598717295e-05 0 -0.0077381864778075819 8.4613372606806586e-05 0 -0.0072772860655131036 0.0005465403516604605 0 -0.0073880869644226514 0.00050827541771721735 0 -0.0072386757892382598 0.0004300535857317731 0 -0.0073880869644226514 0.00050827541771721735 0 -0.0072386757892382598 0.0004300535857317731 0 -0.0073460301888027659 0.00034399343113197518 0 -0.0072386757892382598 0.0004300535857317731 0 -0.0072190163135408252 0.00032427935419787629 0 -0.0073460301888027659 0.00034399343113197518 0 -0.0090707227356036715 0.00030712781818863227 0 -0.0091712453305837442 0.00017989267029676557 0 -0.0089951601577897451 0.00013164159007480249 0 -0.0074726102318629856 0.00059717216089335071 0 -0.0072772860655131036 0.0005465403516604605 0 -0.0073880869644226514 0.00050827541771721735 0 -0.0088208692089210561 0.00016655116028932857 0 -0.00807564495350728 0.00034418337322546851 0 -0.00807564495350728 0.00034418337322546851 0 -0.0078293105131561 0.0002618310082888154 0 -0.0089408395721146863 0.00025616964455447641 0 -0.0089951601577897451 0.00013164159007480249 0 -0.0088152652131308785 8.2807064145040565e-05 0 -0.0088011711625185715 0.00023724502930562089 0 -0.0089408395721146863 0.00025616964455447641 0 -0.0088152652131308785 8.2807064145040565e-05 0 -0.0072386757892382598 0.0004300535857317731 0 -0.0071170948184823115 0.00036587881392577328 0 -0.0070896054506535237 0.00049271961488306902 0 -0.0072772860655131036 0.0005465403516604605 0 -0.0072386757892382598 0.0004300535857317731 0 -0.0070896054506535237 0.00049271961488306902 0 -0.0072386757892382598 0.0004300535857317731 0 -0.0071170948184823115 0.00036587881392577328 0 -0.0072190163135408252 0.00032427935419787629 0 -0.0070896054506535237 0.00049271961488306902 0 -0.0069821465328025979 0.0003829878286187648 0 -0.0069116696891367421 0.00043110254853545056 0 -0.0078293105131561 0.0002618310082888154 0 -0.008501289445913553 0.00027808863074843635 0 -0.0071170948184823115 0.00036587881392577328 0 -0.0070896054506535237 0.00049271961488306902 0 -0.0069821465328025979 0.0003829878286187648 0 -0.00940361620030538 0.00011348292829401241 0 -0.008501289445913553 0.00027808863074843635 0 -0.0088011711625185715 0.00023724502930562089 0 -0.0088152652131308785 8.2807064145040565e-05 0 -0.0086342193852404943 3.537778524513426e-05 0 -0.0077985777116695298 -5.775969535183234e-06 0 -0.0078158302434377675 2.4521858540731761e-05 0 -0.0077856837811615363 -5.1664860641308429e-05 0 -0.0078158302434377675 2.4521858540731761e-05 0 -0.0077664162343314622 5.7551571040942097e-05 0 -0.0077265010130588979 5.529698004854928e-05 0 -0.0078090608172180402 1.7265239026323892e-05 0 -0.0077620384095312281 2.9865360821513817e-06 0 -0.0077857398474507518 -6.5189662779593525e-05 0 -0.0077985777116695298 -5.775969535183234e-06 0 -0.0077856837811615363 -5.1664860641308429e-05 0 -0.0077857398474507518 -6.5189662779593525e-05 0 -0.00779720622866491 -2.8857856473333486e-05 0 -0.0077985777116695298 -5.775969535183234e-06 0 -0.0077975455480883546 5.9614354334713875e-05 0 -0.00779720622866491 -2.8857856473333486e-05 0 -0.0077985777116695298 -5.775969535183234e-06 0 -0.0077985777116695298 -5.775969535183234e-06 0 -0.0078158302434377675 2.4521858540731761e-05 0 -0.0078438280933069305 3.3388257156459036e-05 0 -0.0077975455480883546 5.9614354334713875e-05 0 -0.0077985777116695298 -5.775969535183234e-06 0 -0.0078438280933069305 3.3388257156459036e-05 0 -0.007943844722699123 9.7135265868251769e-06 0 -0.0078158302434377675 2.4521858540731761e-05 0 -0.0078438280933069305 3.3388257156459036e-05 0 -0.007943844722699123 9.7135265868251769e-06 0 -0.0078158302434377675 2.4521858540731761e-05 0 -0.0078226383585034021 1.8088915572529054e-05 0 -0.007943844722699123 9.7135265868251769e-06 0 -0.007814265642887697 8.6806476982806139e-06 0 -0.0078226383585034021 1.8088915572529054e-05 0 -0.007814265642887697 8.6806476982806139e-06 0 -0.0078264864032377875 5.0309982004527949e-05 0 -0.0078226383585034021 1.8088915572529054e-05 0 -0.0078264864032377875 5.0309982004527949e-05 0 -0.0078226383585034021 1.8088915572529054e-05 0 -0.0078000753155363653 5.1592088101899315e-05 0 -0.0078226383585034021 1.8088915572529054e-05 0 -0.0078000753155363653 5.1592088101899315e-05 0 -0.0077757974200853104 5.9824072598649072e-05 0 -0.0078158302434377675 2.4521858540731761e-05 0 -0.0078226383585034021 1.8088915572529054e-05 0 -0.0077664162343314622 5.7551571040942097e-05 0 -0.0078226383585034021 1.8088915572529054e-05 0 -0.0077664162343314622 5.7551571040942097e-05 0 -0.0077757974200853104 5.9824072598649072e-05 0 -0.0077664162343314622 5.7551571040942097e-05 0 -0.0077757974200853104 5.9824072598649072e-05 0 -0.0077386547163935332 7.8253959462887772e-05 0 -0.0077757974200853104 5.9824072598649072e-05 0 -0.0077602261141305751 6.9186136837377852e-05 0 -0.0077386547163935332 7.8253959462887772e-05 0 -0.0078000753155363653 5.1592088101899315e-05 0 -0.0077757974200853104 5.9824072598649072e-05 0 -0.0077814231765495822 6.0506593376698593e-05 0 -0.0077770770444636293 6.4709624962910463e-05 0 -0.0078000753155363653 5.1592088101899315e-05 0 -0.0077814231765495822 6.0506593376698593e-05 0 -0.0077757974200853104 5.9824072598649072e-05 0 -0.0077814231765495822 6.0506593376698593e-05 0 -0.0077602261141305751 6.9186136837377852e-05 0 -0.0077591548691986331 6.9940512737771306e-05 0 -0.0077814231765495822 6.0506593376698593e-05 0 -0.0077602261141305751 6.9186136837377852e-05 0 -0.0077591548691986331 6.9940512737771306e-05 0 -0.0077602261141305751 6.9186136837377852e-05 0 -0.0077357001213238597 8.0775330466134463e-05 0 -0.0077602261141305751 6.9186136837377852e-05 0 -0.0077357001213238597 8.0775330466134463e-05 0 -0.0077386547163935332 7.8253959462887772e-05 0 -0.0077357001213238597 8.0775330466134463e-05 0 -0.0077386547163935332 7.8253959462887772e-05 0 -0.0077186555020186476 8.9720040129610709e-05 0 -0.0077591548691986331 6.9940512737771306e-05 0 -0.0077357001213238597 8.0775330466134463e-05 0 -0.0077381864778075819 8.4613372606806586e-05 0 -0.0077386547163935332 7.8253959462887772e-05 0 -0.0077228839052304954 8.1832256408017918e-05 0 -0.0077008016089131709 0.00010013437091807884 0 -0.0077664162343314622 5.7551571040942097e-05 0 -0.0077386547163935332 7.8253959462887772e-05 0 -0.0077228839052304954 8.1832256408017918e-05 0 -0.0077664162343314622 5.7551571040942097e-05 0 -0.0077228839052304954 8.1832256408017918e-05 0 -0.0077265010130588979 5.529698004854928e-05 0 -0.0077167200889977196 6.9207624151925744e-05 0 -0.0077228839052304954 8.1832256408017918e-05 0 -0.0077265010130588979 5.529698004854928e-05 0 -0.0077880046346549877 -9.0692657168619576e-05 0 -0.0077857398474507518 -6.5189662779593525e-05 0 -0.0077856837811615363 -5.1664860641308429e-05 0 -0.0077500903030519224 -9.258994858735225e-06 0 -0.0077620384095312281 2.9865360821513817e-06 0 -0.0077167200889977196 6.9207624151925744e-05 0 -0.0077228839052304954 8.1832256408017918e-05 0 -0.0077168652715403647 8.2367815314759383e-05 0 -0.0077168652715403647 8.2367815314759383e-05 0 -0.0077151226053163184 9.0802022845985522e-05 0 -0.007725445202179583 7.0710628672158025e-05 0 -0.0077168652715403647 8.2367815314759383e-05 0 -0.0077151226053163184 9.0802022845985522e-05 0 -0.0077067901984475421 9.376489940078622e-05 0 -0.0077151226053163184 9.0802022845985522e-05 0 -0.0077094156369206654 9.6603078982639571e-05 0 -0.0077055590469837102 9.0986184218240664e-05 0 -0.0077151226053163184 9.0802022845985522e-05 0 -0.0076995780908266772 8.5144717722536659e-05 0 -0.0077055590469837102 9.0986184218240664e-05 0 -0.0077151226053163184 9.0802022845985522e-05 0 -0.0077094156369206654 9.6603078982639571e-05 0 -0.0077193306373504163 0.00011188168308732955 0 -0.0076995780908266772 8.5144717722536659e-05 0 -0.0077067901984475421 9.376489940078622e-05 0 -0.0076795422811853156 9.7452018495218691e-05 0 -0.0077151226053163184 9.0802022845985522e-05 0 -0.0076995780908266772 8.5144717722536659e-05 0 -0.0077067901984475421 9.376489940078622e-05 0 -0.0077228839052304954 8.1832256408017918e-05 0 -0.0077067901984475421 9.376489940078622e-05 0 -0.0077008016089131709 0.00010013437091807884 0 -0.0077228839052304954 8.1832256408017918e-05 0 -0.0077168652715403647 8.2367815314759383e-05 0 -0.0077067901984475421 9.376489940078622e-05 0 -0.0077386547163935332 7.8253959462887772e-05 0 -0.0077008016089131709 0.00010013437091807884 0 -0.0077186555020186476 8.9720040129610709e-05 0 -0.0077008016089131709 0.00010013437091807884 0 -0.00770402700892982 9.5442681455085596e-05 0 -0.0076308619128528377 0.00012355877887636037 0 -0.0077008016089131709 0.00010013437091807884 0 -0.0077186555020186476 8.9720040129610709e-05 0 -0.00770402700892982 9.5442681455085596e-05 0 -0.0077357001213238597 8.0775330466134463e-05 0 -0.00770402700892982 9.5442681455085596e-05 0 -0.0077381864778075819 8.4613372606806586e-05 0 -0.0077357001213238597 8.0775330466134463e-05 0 -0.0077186555020186476 8.9720040129610709e-05 0 -0.00770402700892982 9.5442681455085596e-05 0 -0.00770402700892982 9.5442681455085596e-05 0 -0.0077297824603457712 9.8045256295202984e-05 0 -0.0077157189224536255 0.00010930038305201415 0 -0.00770402700892982 9.5442681455085596e-05 0 -0.0077381864778075819 8.4613372606806586e-05 0 -0.0077297824603457712 9.8045256295202984e-05 0 -0.00770402700892982 9.5442681455085596e-05 0 -0.0076308619128528377 0.00012355877887636037 0 -0.0077157189224536255 0.00010930038305201415 0 -0.0077008016089131709 0.00010013437091807884 0 -0.0076308619128528377 0.00012355877887636037 0 -0.0076795422811853156 9.7452018495218691e-05 0 -0.0077067901984475421 9.376489940078622e-05 0 -0.0077008016089131709 0.00010013437091807884 0 -0.0076795422811853156 9.7452018495218691e-05 0 -0.00053923873971022497 0.00056566746029462094 0 -0.00078400194865368576 0.00047855042703084781 0 -0.001041962315140515 0.00070020211278660149 0 -0.0040344017215774358 0.00028505371712160224 0 -0.0042869313402378031 0.00034898367208720444 0 -0.0076795422811853156 9.7452018495218691e-05 0 -0.0075200625145476737 -5.1124482733646073e-05 0 -0.0076781577715491966 3.7715000393115696e-05 0 -0.0076308619128528377 0.00012355877887636037 0 -0.0076795422811853156 9.7452018495218691e-05 0 -0.0075200625145476737 -5.1124482733646073e-05 0 -0.0076308619128528377 0.00012355877887636037 0 -0.0075200625145476737 -5.1124482733646073e-05 0 -0.007323405455851863 2.6291094331174527e-05 0 -0.00053923873971022497 0.00056566746029462094 0 -0.00047872854154120146 0.00035652226192482668 0 -0.00078400194865368576 0.00047855042703084781 0 -0.00053923873971022497 0.00056566746029462094 0 -0.00047872854154120146 0.00035652226192482668 0 -0.00050019450880163237 0.00045526999133320179 0 -0.00047872854154120146 0.00035652226192482668 0 -0.00078400194865368576 0.00047855042703084781 0 -0.00087449095950070113 0.00029504219595866658 0 -0.00078400194865368576 0.00047855042703084781 0 -0.0010377616119146887 0.00048792001412034875 0 -0.001041962315140515 0.00070020211278660149 0 -0.00078400194865368576 0.00047855042703084781 0 -0.00087449095950070113 0.00029504219595866658 0 -0.0010377616119146887 0.00048792001412034875 0 -0.00087449095950070113 0.00029504219595866658 0 -0.0010377616119146887 0.00048792001412034875 0 -0.0012892665733798842 0.00018837288084187868 0 -0.0012419457081770677 0.00066473965605661097 0 -0.0012928368657913565 0.00034514314302123999 0 -0.0013886485614754609 0.00059517308215023882 0 -0.0012244877501127686 0.00068995758035813313 0 -0.001352562872492771 0.00045320209259965233 0 -0.0010377616119146887 0.00048792001412034875 0 -0.0012244877501127686 0.00068995758035813313 0 -0.0012892665733798842 0.00018837288084187868 0 -0.0014957115042734017 0.00053949964254362934 0 -0.0013886485614754609 0.00059517308215023882 0 -0.001352562872492771 0.00045320209259965233 0 -0.0014957115042734017 0.00053949964254362934 0 -0.0013886485614754609 0.00059517308215023882 0 -0.0014852740135623747 0.00073787194777338719 0 -0.0013886485614754609 0.00059517308215023882 0 -0.0014852740135623747 0.00073787194777338719 0 -0.0012244877501127686 0.00068995758035813313 0 -0.0076981691382406788 8.6983370145810911e-05 0 -0.0076982883139619929 9.392031543354015e-05 0 -0.0076781577715491966 3.7715000393115696e-05 0 -0.006198214261350996 6.7218846292284467e-05 0 -0.0049230308260756134 0.00050605332633652184 0 -0.0077046296099960113 9.2531690098286471e-05 0 -0.0077094156369206654 9.6603078982639571e-05 0 -0.0077193306373504163 0.00011188168308732955 0 -0.0076981691382406788 8.6983370145810911e-05 0 -0.0077046296099960113 9.2531690098286471e-05 0 -0.0077094156369206654 9.6603078982639571e-05 0 -0.0076995780908266772 8.5144717722536659e-05 0 -0.0076981691382406788 8.6983370145810911e-05 0 -0.0077055590469837102 9.0986184218240664e-05 0 -0.0076981691382406788 8.6983370145810911e-05 0 -0.0077094156369206654 9.6603078982639571e-05 0 -0.0077055590469837102 9.0986184218240664e-05 0 -0.0076995780908266772 8.5144717722536659e-05 0 -0.0076981691382406788 8.6983370145810911e-05 0 -0.0076781577715491966 3.7715000393115696e-05 0 -0.0049230308260756134 0.00050605332633652184 0 -0.0042869313402378031 0.00034898367208720444 0 -0.0014852740135623747 0.00073787194777338719 0 -0.001041962315140515 0.00070020211278660149 0 -0.0012244877501127686 0.00068995758035813313 0 -0.0076995780908266772 8.5144717722536659e-05 0 -0.0076795422811853156 9.7452018495218691e-05 0 -0.0076781577715491966 3.7715000393115696e-05 0 -0.0010377616119146887 0.00048792001412034875 0 -0.001041962315140515 0.00070020211278660149 0 -0.0012244877501127686 0.00068995758035813313 0 -0.0056064916447099537 0.0002134041476531886 0 -0.0059448882295638997 0.00036132815900250567 0 -0.0061681300820366136 0.00015577165677785627 0 -0.0070253064114325151 0.00023092589234376628 0 -0.0071204305364660691 0.00015389008449500236 0 -0.0069099636508974721 0.00017852352520874047 0 -0.006376325272366778 0.00016415579511000589 0 -0.0065396171548685929 0.000178655012676465 0 -0.0056064916447099537 0.0002134041476531886 0 -0.0056952253273406528 0.00039024233090857431 0 -0.0059448882295638997 0.00036132815900250567 0 -0.0070253064114325151 0.00023092589234376628 0 -0.0071260453292638038 0.00026490197469614498 0 -0.0071204305364660691 0.00015389008449500236 0 -0.0070253064114325151 0.00023092589234376628 0 -0.0070214191598925047 0.00030289068224431816 0 -0.0069517707750926692 0.00025508911635174238 0 -0.0069821465328025979 0.0003829878286187648 0 -0.0070214191598925047 0.00030289068224431816 0 -0.0069074008604951475 0.00031721151009356534 0 -0.0071170948184823115 0.00036587881392577328 0 -0.0070214191598925047 0.00030289068224431816 0 -0.0071260453292638038 0.00026490197469614498 0 -0.0071170948184823115 0.00036587881392577328 0 -0.0069821465328025979 0.0003829878286187648 0 -0.0070214191598925047 0.00030289068224431816 0 -0.0070253064114325151 0.00023092589234376628 0 -0.0070214191598925047 0.00030289068224431816 0 -0.0071260453292638038 0.00026490197469614498 0 -0.0071170948184823115 0.00036587881392577328 0 -0.0071260453292638038 0.00026490197469614498 0 -0.0072190163135408252 0.00032427935419787629 0 -0.0071260453292638038 0.00026490197469614498 0 -0.0072190163135408252 0.00032427935419787629 0 -0.0072595916258625989 0.00024580558246288249 0 -0.0056064916447099537 0.0002134041476531886 0 -0.0052076407326817238 0.00025083129230542869 0 -0.0055579538892959303 0.00043268777497551775 0 -0.006376325272366778 0.00016415579511000589 0 -0.0062380650466177228 0.00037940705129890469 0 -0.0071260453292638038 0.00026490197469614498 0 -0.0071204305364660691 0.00015389008449500236 0 -0.0072595916258625989 0.00024580558246288249 0 -0.0056064916447099537 0.0002134041476531886 0 -0.0055579538892959303 0.00043268777497551775 0 -0.0056952253273406528 0.00039024233090857431 0 -0.0073360372570602898 0.0001400802594503602 0 -0.0072595916258625989 0.00024580558246288249 0 -0.0074124339085874158 0.00024986234765763218 0 -0.0071204305364660691 0.00015389008449500236 0 -0.0073360372570602898 0.0001400802594503602 0 -0.0072595916258625989 0.00024580558246288249 0 -0.0062380650466177228 0.00037940705129890469 0 -0.006912334458588713 0.00041076099701865083 0 -0.0062380650466177228 0.00037940705129890469 0 -0.0072979970586299738 0.0002953408429687998 0 -0.0072595916258625989 0.00024580558246288249 0 -0.0073460301888027659 0.00034399343113197518 0 -0.0074124339085874158 0.00024986234765763218 0 -0.0072190163135408252 0.00032427935419787629 0 -0.0072595916258625989 0.00024580558246288249 0 -0.0073460301888027659 0.00034399343113197518 0 -0.0075867556027638594 0.00021299778035410599 0 -0.0072979970586299738 0.0002953408429687998 0 -0.0077563457980642176 7.3507967598717295e-05 0 -0.0077507038705390448 9.8779873669532184e-05 0 -0.0077381864778075819 8.4613372606806586e-05 0 -0.0074483056628170752 0.00041277897122578999 0 -0.0073460301888027659 0.00034399343113197518 0 -0.0074124339085874158 0.00024986234765763218 0 -0.0077507038705390448 9.8779873669532184e-05 0 -0.0077297824603457712 9.8045256295202984e-05 0 -0.0077157189224536255 0.00010930038305201415 0 -0.0077507038705390448 9.8779873669532184e-05 0 -0.0077381864778075819 8.4613372606806586e-05 0 -0.0077297824603457712 9.8045256295202984e-05 0 -0.0078640580645623227 6.8254077201019124e-05 0 -0.006912334458588713 0.00041076099701865083 0 -0.0076308619128528377 0.00012355877887636037 0 -0.0071783778649092012 0.00021375653063252675 0 -0.007323405455851863 2.6291094331174527e-05 0 -0.0076308619128528377 0.00012355877887636037 0 -0.0077157189224536255 0.00010930038305201415 0 -0.0077638756024440616 0.00014869713145322674 0 -0.0072979970586299738 0.0002953408429687998 0 -0.006912334458588713 0.00041076099701865083 0 -0.0068236669127812568 0.00033627372302432113 0 -0.00689619380009925 0.0004439777802256718 0 -0.0068761037290119191 0.00033386030840937281 0 -0.0077507038705390448 9.8779873669532184e-05 0 -0.0077157189224536255 0.00010930038305201415 0 -0.0077638756024440616 0.00014869713145322674 0 -0.00053923873971022497 0.00056566746029462094 0 -0.00051831598576476993 0.00045494566391498262 0 -0.00053808645105851434 0.00041670302555089618 0 -0.0075200625145476737 -5.1124482733646073e-05 0 -0.007323405455851863 2.6291094331174527e-05 0 -0.0071121402997624521 -0.00011673303582158826 0 -0.0071783778649092012 0.00021375653063252675 0 -0.007323405455851863 2.6291094331174527e-05 0 -0.0071121402997624521 -0.00011673303582158826 0 -0.0040344017215774358 0.00028505371712160224 0 -0.0039221098413854908 -9.6890996372293783e-05 0 -0.00054911661081509142 0.0003530022870159518 0 -4.5459126018702258e-06 0.00048927102987334013 0 -0.00047872854154120146 0.00035652226192482668 0 0.00014693902782796195 0.00041501957510622559 0 -6.8462358358207633e-05 0.00017305394897705988 0 -0.00053923873971022497 0.00056566746029462094 0 -0.00050019450880163237 0.00045526999133320179 0 -0.00051831598576476993 0.00045494566391498262 0 -0.00047872854154120146 0.00035652226192482668 0 -0.00050019450880163237 0.00045526999133320179 0 -0.00052001659387162819 0.00050017645744685304 0 -0.00052001659387162819 0.00050017645744685304 0 -0.00051831598576476993 0.00045494566391498262 0 -0.00053690857887400776 0.00045488284680840995 0 -0.00050019450880163237 0.00045526999133320179 0 -0.00052001659387162819 0.00050017645744685304 0 -0.00051831598576476993 0.00045494566391498262 0 -0.00051831598576476993 0.00045494566391498262 0 -0.00053690857887400776 0.00045488284680840995 0 -0.00053808645105851434 0.00041670302555089618 0 -4.5459126018702258e-06 0.00048927102987334013 0 -0.0010229008380266741 0.00023908236730126704 0 -0.00053690857887400776 0.00045488284680840995 0 -0.00057934229464819099 0.00044467504760623623 0 -0.00053808645105851434 0.00041670302555089618 0 0.00014693902782796195 0.00041501957510622559 0 0.00036012823362861855 0.00029743227096035369 0 0.00057581514334765051 0.00043233494357275312 0 -0.00052001659387162819 0.00050017645744685304 0 -0.00063206612762757282 0.00044985830170396105 0 -0.00077257708194036941 0.00048687020252224418 0 -0.00057934229464819099 0.00044467504760623623 0 -0.00063206612762757282 0.00044985830170396105 0 -0.00053808645105851434 0.00041670302555089618 0 -0.00052001659387162819 0.00050017645744685304 0 -0.00057934229464819099 0.00044467504760623623 0 -0.00063206612762757282 0.00044985830170396105 0 -0.00052001659387162819 0.00050017645744685304 0 -0.00053690857887400776 0.00045488284680840995 0 -0.00057934229464819099 0.00044467504760623623 0 0.00014693902782796195 0.00041501957510622559 0 0.00036012823362861855 0.00029743227096035369 0 0.00020759544802488624 0.00016437173069221329 0 -0.0062380650466177228 0.00037940705129890469 0 -0.0031152883755708729 0.00028731676626201188 0 -0.006912334458588713 0.00041076099701865083 0 -0.0039221098413854908 -9.6890996372293783e-05 0 -0.00063206612762757282 0.00044985830170396105 0 -0.00053808645105851434 0.00041670302555089618 0 -0.00073040082789063764 0.00040071544936646727 0 -0.0048682901143398526 0.00084962651775700895 0 -0.0050119170480293369 -0.00027368302887838248 0 -0.0041190727381656862 -0.00031653880525808086 0 -0.0048682901143398526 0.00084962651775700895 0 -0.0051943414149271091 0.00083466640099211155 0 -0.0050119170480293369 -0.00027368302887838248 0 -0.0039221098413854908 -9.6890996372293783e-05 0 -0.0031152883755708729 0.00028731676626201188 0 -0.0052076407326817238 0.00025083129230542869 0 -0.0055579538892959303 0.00043268777497551775 0 -0.0054272418798979255 0.00059303120284402049 0 -0.0055579538892959303 0.00043268777497551775 0 -0.0057003784286795058 0.00054394372691708704 0 -0.0056952253273406528 0.00039024233090857431 0 -0.0055579538892959303 0.00043268777497551775 0 -0.0056834005580208248 0.00057337970054993507 0 -0.0057003784286795058 0.00054394372691708704 0 -0.0031152883755708729 0.00028731676626201188 0 -0.0046333869178454314 0.00038837727405728747 0 -0.0055579538892959303 0.00043268777497551775 0 -0.0054272418798979255 0.00059303120284402049 0 -0.0056834005580208248 0.00057337970054993507 0 -0.00063206612762757282 0.00044985830170396105 0 -0.00073040082789063764 0.00040071544936646727 0 -0.00077257708194036941 0.00048687020252224418 0 -0.0010229008380266741 0.00023908236730126704 0 -0.00026246136144947356 0.00019216628797779207 0 0.00057581514334765051 0.00043233494357275312 0 0.00059353263934681553 0.00033835207611070421 0 0.00071355225605043736 0.00017295328296966378 0 -0.0031152883755708729 0.00028731676626201188 0 -0.0010229008380266741 0.00023908236730126704 0 0.00057581514334765051 0.00043233494357275312 0 0.00059353263934681553 0.00033835207611070421 0 0.0004838974446486102 0.00025791276924676964 0 0.00036012823362861855 0.00029743227096035369 0 0.00057581514334765051 0.00043233494357275312 0 0.0004838974446486102 0.00025791276924676964 0 -0.0024136663788247251 0.00016055586750400561 0 -0.0025829356440522366 0.00043432008087081837 0 -0.0030401091509176738 0.00018736033041047957 0 -0.0010229008380266741 0.00023908236730126704 0 -0.0034949525420427448 0.00028930564768942722 0 -0.0025829356440522366 0.00043432008087081837 0 -0.0030401091509176738 0.00018736033041047957 0 -0.0036670033060222642 0.0002145906791604441 0 -0.0012945053597878033 0.00018527000098718616 0 -0.0013314082829655911 0.00025225323065209391 0 -0.0013957440625179999 0.00016823005512901532 0 -0.0046333869178454314 0.00038837727405728747 0 -0.0034949525420427448 0.00028930564768942722 0 -0.005722646532655121 0.00055241286545165572 0 -0.0058382990836215965 0.00055506082685093864 0 -0.0057003784286795058 0.00054394372691708704 0 -0.0059448882295638997 0.00036132815900250567 0 -0.00622979073585379 0.00050363520327700211 0 -0.0057003784286795058 0.00054394372691708704 0 -0.0054920847075985513 0.00061812544309307793 0 -0.0055694794823880752 0.0004981735884109573 0 -0.0056834005580208248 0.00057337970054993507 0 -0.0057003784286795058 0.00054394372691708704 0 -0.0055694794823880752 0.0004981735884109573 0 -0.0057003784286795058 0.00054394372691708704 0 -0.0056952253273406528 0.00039024233090857431 0 -0.0059448882295638997 0.00036132815900250567 0 -0.0013641713837078404 0.00031885955116015604 0 -0.0013314082829655911 0.00025225323065209391 0 -0.0013970775075247432 0.00025843259813584783 0 0.00084293731426687173 -3.9837973021864841e-05 0 0.00071355225605043736 0.00017295328296966378 0 0.00077601194440633683 -6.3205623419736816e-05 0 1.9971805772187084e-05 0.00022739337370437682 0 -0.00026246136144947356 0.00019216628797779207 0 0.00071355225605043736 0.00017295328296966378 0 0.00055536986269020508 0.00013132045128259897 0 0.00077601194440633683 -6.3205623419736816e-05 0 1.9971805772187084e-05 0.00022739337370437682 0 0.0014712983166985363 0.00013620150244635714 0 -0.0013314082829655911 0.00025225323065209391 0 -0.0013970775075247432 0.00025843259813584783 0 -0.0013957440625179999 0.00016823005512901532 0 0.00059232895920085702 0.00029740103924043993 0 0.00062857411594237757 6.8977241555919907e-05 0 0.00059353263934681553 0.00033835207611070421 0 0.00071355225605043736 0.00017295328296966378 0 0.00055536986269020508 0.00013132045128259897 0 0.00059353263934681553 0.00033835207611070421 0 0.0004838974446486102 0.00025791276924676964 0 0.00055846199194309516 -2.1622008512291009e-06 0 0.0004838974446486102 0.00025791276924676964 0 0.00055846199194309516 -2.1622008512291009e-06 0 0.00043495822779257912 0.00010312361385852142 0 0.00062857411594237757 6.8977241555919907e-05 0 0.00051164396932738951 0.0001048846933972608 0 0.00062857411594237757 6.8977241555919907e-05 0 0.0014712983166985363 0.00013620150244635714 0 0.0010200068563244716 0.00017354288554923268 0 0.000959829287728479 -0.00013305963629387942 0 0.0012545956006890426 -3.5197221852416749e-05 0 0.00062857411594237757 6.8977241555919907e-05 0 0.0011110055107549726 -0.00020260636559283628 0 0.00055296424410761669 -4.5106837525814507e-05 0 0.00031762453702223931 -0.00019782906413882585 0 0.00036728141034547251 -0.00048014241133526134 0 0.00031762453702223931 -0.00019782906413882585 0 0.00016309549562933248 -0.00028709560794653709 0 0.000254014759733975 -0.00041360615747432417 0 0.00031762453702223931 -0.00019782906413882585 0 0.00031659022983976896 -5.3446153209514011e-06 0 6.133368065945804e-05 -5.6323844619634665e-05 0 0.00055296424410761669 -4.5106837525814507e-05 0 0.00031762453702223931 -0.00019782906413882585 0 0.00031659022983976896 -5.3446153209514011e-06 0 0.00055296424410761669 -4.5106837525814507e-05 0 0.00031659022983976896 -5.3446153209514011e-06 0 0.00043495822779257912 0.00010312361385852142 0 0.00031659022983976896 -5.3446153209514011e-06 0 0.00043495822779257912 0.00010312361385852142 0 0.00020759544802488624 0.00016437173069221329 0 0.00036012823362861855 0.00029743227096035369 0 0.00043495822779257912 0.00010312361385852142 0 0.00020759544802488624 0.00016437173069221329 0 0.00036012823362861855 0.00029743227096035369 0 0.0004838974446486102 0.00025791276924676964 0 0.00043495822779257912 0.00010312361385852142 0 0.00031659022983976896 -5.3446153209514011e-06 0 0.00020759544802488624 0.00016437173069221329 0 6.133368065945804e-05 -5.6323844619634665e-05 0 0.00020759544802488624 0.00016437173069221329 0 6.133368065945804e-05 -5.6323844619634665e-05 0 -6.8462358358207633e-05 0.00017305394897705988 0 0.00014693902782796195 0.00041501957510622559 0 0.00020759544802488624 0.00016437173069221329 0 -6.8462358358207633e-05 0.00017305394897705988 0 6.133368065945804e-05 -5.6323844619634665e-05 0 -6.8462358358207633e-05 0.00017305394897705988 0 -0.00031830660181769103 9.3622415721198513e-06 0 6.133368065945804e-05 -5.6323844619634665e-05 0 -0.00031830660181769103 9.3622415721198513e-06 0 -0.00021592880619954554 -0.00028864470054567416 0 6.133368065945804e-05 -5.6323844619634665e-05 0 0.00016309549562933248 -0.00028709560794653709 0 -0.00021592880619954554 -0.00028864470054567416 0 0.00031762453702223931 -0.00019782906413882585 0 6.133368065945804e-05 -5.6323844619634665e-05 0 0.00016309549562933248 -0.00028709560794653709 0 0.00016309549562933248 -0.00028709560794653709 0 0.00024858029233688569 -0.00052943993633242266 0 -0.00021592880619954554 -0.00028864470054567416 0 0.00027681593838519634 -0.00055302398441164447 0 0.00037706113929270908 -0.00060154954858815423 0 0.00024858029233688569 -0.00052943993633242266 0 -0.00021592880619954554 -0.00028864470054567416 0 -0.00043294574346361045 -0.00068090371887160315 0 0.00024858029233688569 -0.00052943993633242266 0 0.00045999411149274909 -0.00030781203611899991 0 0.0011605505858868911 -0.00056056360300799123 0 0.00016309549562933248 -0.00028709560794653709 0 0.00024858029233688569 -0.00052943993633242266 0 0.000254014759733975 -0.00041360615747432417 0 0.00024858029233688569 -0.00052943993633242266 0 0.00045999411149274909 -0.00030781203611899991 0 0.00020152893042201184 -0.00043549113945328955 0 0.00075613155943574757 4.2759203453038337e-06 0 0.00026155782430550644 -4.8852452902679443e-05 0 0.00070058106053420062 0.00068550897817705773 0 0.00045999411149274909 -0.00030781203611899991 0 0.00075613155943574757 4.2759203453038337e-06 0 0.0011605505858868911 -0.00056056360300799123 0 0.00045999411149274909 -0.00030781203611899991 0 0.00075613155943574757 4.2759203453038337e-06 0 0.00026155782430550644 -4.8852452902679443e-05 0 0.0011110055107549726 -0.00020260636559283628 0 0.0037960219928408678 0.00023757702963208316 0 0.0028617455310991618 0.00012341933766346801 0 0.0028628252605449917 -0.0001468616783092162 0 0.0030012438871744266 0.00043426634404821732 0 0.00026155782430550644 -4.8852452902679443e-05 0 -6.843205750051635e-05 -0.00052206108296807467 0 3.5777982193886939e-05 0.00028714405818644565 0 0.00045999411149274909 -0.00030781203611899991 0 0.00026155782430550644 -4.8852452902679443e-05 0 0.00020152893042201184 -0.00043549113945328955 0 0.0028617455310991618 0.00012341933766346801 0 0.0027878026467223573 0.00032999621881998615 0 0.0030012438871744266 0.00043426634404821732 0 0.00031762453702223931 -0.00019782906413882585 0 0.00036728141034547251 -0.00048014241133526134 0 0.000254014759733975 -0.00041360615747432417 0 0.0011110055107549726 -0.00020260636559283628 0 0.00016070686008252469 -0.0004876462629905524 0 0.00026155782430550644 -4.8852452902679443e-05 0 -6.843205750051635e-05 -0.00052206108296807467 0 0.00020152893042201184 -0.00043549113945328955 0 0.00024858029233688569 -0.00052943993633242266 0 0.00020152893042201184 -0.00043549113945328955 0 0.000254014759733975 -0.00041360615747432417 0 0.00036728141034547251 -0.00048014241133526134 0 0.00020152893042201184 -0.00043549113945328955 0 0.000254014759733975 -0.00041360615747432417 0 0.0011110055107549726 -0.00020260636559283628 0 0.0014712983166985363 0.00013620150244635714 0 0.0028628252605449917 -0.0001468616783092162 0 0.0026318083772043726 2.1565112045713136e-05 0 0.0022779283530354045 -0.00033449477828260672 0 0.0028617455310991618 0.00012341933766346801 0 0.0028628252605449917 -0.0001468616783092162 0 0.0026318083772043726 2.1565112045713136e-05 0 0.0042578307301626176 0.00010380948518407043 0 0.0040256200829620024 -7.8435692953274619e-06 0 0.00405149181578406 0.00020176368603184159 0 0.0027831368035046971 0.00033331882509910789 0 0.0026318083772043726 2.1565112045713136e-05 0 0.002376558728145451 0.00013761790007515678 0 0.0041592772981956022 0.00014414409003881329 0 0.003224307535338122 6.4414290639278402e-05 0 0.0028617455310991618 0.00012341933766346801 0 0.0027831368035046971 0.00033331882509910789 0 0.0026318083772043726 2.1565112045713136e-05 0 0.0032977832704192992 0.00041715638466796899 0 0.0041592772981956022 0.00014414409003881329 0 0.0040256200829620024 -7.8435692953274619e-06 0 0.00405149181578406 0.00020176368603184159 0 0.0038824133360461366 0.00016068270882223983 0 0.003224307535338122 6.4414290639278402e-05 0 0.0019989606742450957 0.00022789787529426352 0 0.0040256200829620024 -7.8435692953274619e-06 0 0.0037886010749072431 -0.00011711305589154145 0 0.0038824133360461366 0.00016068270882223983 0 0.002376558728145451 0.00013761790007515678 0 0.0022779283530354045 -0.00033449477828260672 0 0.0019750408636030605 -5.5526424821671951e-05 0 0.0026318083772043726 2.1565112045713136e-05 0 0.002376558728145451 0.00013761790007515678 0 0.0022779283530354045 -0.00033449477828260672 0 0.00079535608290858895 0.00023421919663386875 0 0.00093862879611309456 0.00028083351914162154 0 0.00071333244130769872 0.00036595119670033418 0 0.0014712983166985363 0.00013620150244635714 0 0.0019989606742450957 0.00022789787529426352 0 -0.0013484182999071608 -0.00035167382621065479 0 -0.0012892665733798842 0.00018837288084187868 0 -0.00075800328308749229 -0.00010255594994824414 0 -0.0013484182999071608 -0.00035167382621065479 0 -0.00075800328308749229 -0.00010255594994824414 0 -0.00095950933296253579 -0.00045500078395140233 0 -0.0015857637038034227 -6.8235848606325251e-05 0 -0.0012928368657913565 0.00034514314302123999 0 -0.0013999591919678137 0.00031487879346895112 0 -0.0014747857747213263 0.00031337560750009538 0 -0.0015102958412570781 0.00037859458554021191 0 -0.0013999591919678137 0.00031487879346895112 0 -0.001352562872492771 0.00045320209259965233 0 -0.0015102958412570781 0.00037859458554021191 0 -0.0014957115042734017 0.00053949964254362934 0 -0.001352562872492771 0.00045320209259965233 0 -0.0015102958412570781 0.00037859458554021191 0 -0.00087449095950070113 0.00029504219595866658 0 -0.0012892665733798842 0.00018837288084187868 0 -0.00075800328308749229 -0.00010255594994824414 0 -0.00047872854154120146 0.00035652226192482668 0 -0.00087449095950070113 0.00029504219595866658 0 -0.00075800328308749229 -0.00010255594994824414 0 -0.00047872854154120146 0.00035652226192482668 0 -0.00031830660181769103 9.3622415721198513e-06 0 -0.00075800328308749229 -0.00010255594994824414 0 -0.00047872854154120146 0.00035652226192482668 0 -6.8462358358207633e-05 0.00017305394897705988 0 -0.00031830660181769103 9.3622415721198513e-06 0 -0.00031830660181769103 9.3622415721198513e-06 0 -0.00021592880619954554 -0.00028864470054567416 0 -0.00075800328308749229 -0.00010255594994824414 0 -0.00021592880619954554 -0.00028864470054567416 0 -0.00075800328308749229 -0.00010255594994824414 0 -0.00043294574346361045 -0.00068090371887160315 0 -0.00075800328308749229 -0.00010255594994824414 0 -0.00043294574346361045 -0.00068090371887160315 0 -0.00095950933296253579 -0.00045500078395140233 0 -0.00093508973556912618 -0.00076895416127766817 0 -0.00043294574346361045 -0.00068090371887160315 0 -0.00095950933296253579 -0.00045500078395140233 0 0.00054650524553497459 -0.00061587706560366196 0 0.00037706113929270908 -0.00060154954858815423 0 0.00075613155943574757 4.2759203453038337e-06 0 0.0011605505858868911 -0.00056056360300799123 0 0.001432841131386621 0.00021849273126621575 0 0.0020423963116244521 -0.00041482621643706654 0 0.0023617698198578722 0.00018755519343628915 0 0.001432841131386621 0.00021849273126621575 0 0.0020423963116244521 -0.00041482621643706654 0 0.0011605505858868911 -0.00056056360300799123 0 0.001432841131386621 0.00021849273126621575 0 0.0020423963116244521 -0.00041482621643706654 0 0.0023617698198578722 0.00018755519343628915 0 0.0029123329244174676 -0.00022352173174711878 0 0.00054650524553497459 -0.00061587706560366196 0 0.00076741917902279472 -0.0002402368124448148 0 -0.00093508973556912618 -0.00076895416127766817 0 -0.0011636865315009968 -0.00060643698084959091 0 -0.00095950933296253579 -0.00045500078395140233 0 -0.00093508973556912618 -0.00076895416127766817 0 -0.0011636865315009968 -0.00060643698084959091 0 -0.0013932769390626834 -0.00087224528453721292 0 -0.0013484182999071608 -0.00035167382621065479 0 -0.0011636865315009968 -0.00060643698084959091 0 -0.00095950933296253579 -0.00045500078395140233 0 -0.0013999591919678137 0.00031487879346895112 0 -0.0014445790353864196 0.0002768808951378231 0 -0.0014168883406143085 0.00023659007304779997 0 -0.0015857637038034227 -6.8235848606325251e-05 0 0.00076741917902279472 -0.0002402368124448148 0 -0.0013484182999071608 -0.00035167382621065479 0 -0.0011636865315009968 -0.00060643698084959091 0 -0.0013932769390626834 -0.00087224528453721292 0 -0.0013999591919678137 0.00031487879346895112 0 -0.0014445790353864196 0.0002768808951378231 0 -0.0014747857747213263 0.00031337560750009538 0 -0.0014445790353864196 0.0002768808951378231 0 -0.0014549309597533808 0.00026065130673317915 0 -0.0014433497135880251 0.00025126690345865412 0 -0.0014433497135880251 0.00025126690345865412 0 -0.0014521897906542419 0.00023941353286474718 0 -0.0014622836883905986 0.00025102382856505583 0 -0.0014548900375487344 0.00023445574839559477 0 -0.0014521897906542419 0.00023941353286474718 0 -0.0014168883406143085 0.00023659007304779997 0 -0.0014445790353864196 0.0002768808951378231 0 -0.0014433497135880251 0.00025126690345865412 0 -0.0014168883406143085 0.00023659007304779997 0 0.00076741917902279472 -0.0002402368124448148 0 0.0030256996395882476 0.00046218479411364613 0 -0.0014549309597533808 0.00026065130673317915 0 -0.0014433497135880251 0.00025126690345865412 0 -0.0014622836883905986 0.00025102382856505583 0 0.0023617698198578722 0.00018755519343628915 0 0.0029123329244174676 -0.00022352173174711878 0 0.0030329410589721986 0.00041138332460238466 0 0.0033802986900799423 -0.00019193118053351704 0 0.0029546653674176445 -0.00030129970716538651 0 0.0030765522446710601 0.0003828041587157931 0 -5.2204486022793683e-06 0.00034230766334609331 0 0.00076741917902279472 -0.0002402368124448148 0 -0.0014433497135880251 0.00025126690345865412 0 -0.0014521897906542419 0.00023941353286474718 0 -0.0014168883406143085 0.00023659007304779997 0 -5.2204486022793683e-06 0.00034230766334609331 0 -9.6177662542974149e-05 0.00027131469642300573 0 -5.2204486022793683e-06 0.00034230766334609331 0 -0.0020254680399767961 0.00014234447930417147 0 -0.0014593318651689694 0.00023753126655164049 0 -0.0014773570483212787 0.00024776400807183176 0 -0.0014988650216267536 0.00023813382401483623 0 -0.0014773570483212787 0.00024776400807183176 0 -0.0014988650216267536 0.00023813382401483623 0 -0.001498126551300577 0.00026160542361343148 0 -0.0014773570483212787 0.00024776400807183176 0 -0.0014756923213417998 0.00026058288791942313 0 -0.001498126551300577 0.00026160542361343148 0 -0.0014622836883905986 0.00025102382856505583 0 -0.0014773570483212787 0.00024776400807183176 0 -0.0014756923213417998 0.00026058288791942313 0 -0.0014549309597533808 0.00026065130673317915 0 -0.0014622836883905986 0.00025102382856505583 0 -0.0014756923213417998 0.00026058288791942313 0 -0.0014622836883905986 0.00025102382856505583 0 -0.0014636026950823782 0.00024384507456304077 0 -0.0014773570483212787 0.00024776400807183176 0 -0.0014593318651689694 0.00023753126655164049 0 -0.0014636026950823782 0.00024384507456304077 0 -0.0014773570483212787 0.00024776400807183176 0 -0.0014521897906542419 0.00023941353286474718 0 -0.0014622836883905986 0.00025102382856505583 0 -0.0014636026950823782 0.00024384507456304077 0 -0.0014593318651689694 0.00023753126655164049 0 -0.0014521897906542419 0.00023941353286474718 0 -0.0014636026950823782 0.00024384507456304077 0 -0.0014988650216267536 0.00023813382401483623 0 -0.0015270801578644603 0.00026737140493408591 0 -0.001498126551300577 0.00026160542361343148 0 -0.0014988650216267536 0.00023813382401483623 0 -0.0015270801578644603 0.00026737140493408591 0 -0.0015571594549802256 0.0002536011653170992 0 -0.0015270801578644603 0.00026737140493408591 0 -0.0015196876641741194 0.00028530365904857178 0 -0.0015781854541355286 0.00030801046872888562 0 -0.0015270801578644603 0.00026737140493408591 0 -0.0015196876641741194 0.00028530365904857178 0 -0.001498126551300577 0.00026160542361343148 0 -0.0015196876641741194 0.00028530365904857178 0 -0.0015781854541355286 0.00030801046872888562 0 -0.001524582985652361 0.00032080806236718245 0 -0.0014445790353864196 0.0002768808951378231 0 -0.0014549309597533808 0.00026065130673317915 0 -0.0014837470800888946 0.00028433831213688299 0 -0.0014549309597533808 0.00026065130673317915 0 -0.0014756923213417998 0.00026058288791942313 0 -0.0014837470800888946 0.00028433831213688299 0 -0.0014756923213417998 0.00026058288791942313 0 -0.001498126551300577 0.00026160542361343148 0 -0.0014837470800888946 0.00028433831213688299 0 -0.0015196876641741194 0.00028530365904857178 0 -0.001498126551300577 0.00026160542361343148 0 -0.0014837470800888946 0.00028433831213688299 0 -0.0015196876641741194 0.00028530365904857178 0 -0.0014837470800888946 0.00028433831213688299 0 -0.001524582985652361 0.00032080806236718245 0 -0.0014837470800888946 0.00028433831213688299 0 -0.0014747857747213263 0.00031337560750009538 0 -0.001524582985652361 0.00032080806236718245 0 -0.0014445790353864196 0.0002768808951378231 0 -0.0014837470800888946 0.00028433831213688299 0 -0.0014747857747213263 0.00031337560750009538 0 -0.0014747857747213263 0.00031337560750009538 0 -0.0015102958412570781 0.00037859458554021191 0 -0.001524582985652361 0.00032080806236718245 0 -0.0015102958412570781 0.00037859458554021191 0 -0.001524582985652361 0.00032080806236718245 0 -0.0015483579990529283 0.0003801965587681225 0 -0.001524582985652361 0.00032080806236718245 0 -0.0016224859974368654 0.00036649508784675357 0 -0.0015483579990529283 0.0003801965587681225 0 -0.0015781854541355286 0.00030801046872888562 0 -0.001524582985652361 0.00032080806236718245 0 -0.0016224859974368654 0.00036649508784675357 0 -0.0015636742850849551 0.00045316009149520614 0 -0.0016908380225388792 0.00043644701606274566 0 -0.0016771197885272905 0.00053690704668666342 0 -0.0016224859974368654 0.00036649508784675357 0 -0.0015636742850849551 0.00045316009149520614 0 -0.0016908380225388792 0.00043644701606274566 0 -0.0016224859974368654 0.00036649508784675357 0 -0.0015483579990529283 0.0003801965587681225 0 -0.0015636742850849551 0.00045316009149520614 0 -0.001411576409136369 0.0003261577531212664 0 -0.003566505071375597 0.00034148897315876688 0 -0.0014957115042734017 0.00053949964254362934 0 -0.0015102958412570781 0.00037859458554021191 0 -0.0016998488904868478 0.00044790024635048053 0 -0.0015102958412570781 0.00037859458554021191 0 -0.0015483579990529283 0.0003801965587681225 0 -0.0015636742850849551 0.00045316009149520614 0 -0.0016029597190385361 0.00043515300504010481 0 -0.001411576409136369 0.0003261577531212664 0 -0.0035141617353610919 0.00029781872626009399 0 -0.0030758324603707026 0.00034079595110855614 0 -0.0018147257607563571 0.00048808239205855688 0 -0.0016908380225388792 0.00043644701606274566 0 -0.0016771197885272905 0.00053690704668666342 0 -0.0035141617353610919 0.00029781872626009399 0 -0.003566505071375597 0.00034148897315876688 0 -0.0018147257607563571 0.00048808239205855688 0 -0.0016908380225388792 0.00043644701606274566 0 -0.001744386253298764 0.00030080063434803649 0 -0.0015781854541355286 0.00030801046872888562 0 -0.0016224859974368654 0.00036649508784675357 0 -0.001744386253298764 0.00030080063434803649 0 -0.0016224859974368654 0.00036649508784675357 0 -0.0016908380225388792 0.00043644701606274566 0 -0.001744386253298764 0.00030080063434803649 0 -0.0016099786996537889 0.00038599896183547073 0 -0.0016977762500814688 0.00034044197603330797 0 -0.0017806981514059894 0.0005123576678961189 0 -0.0014352305912803149 0.00031317512951255889 0 -0.0030758324603707026 0.00034079595110855614 0 -0.0018147257607563571 0.00048808239205855688 0 -0.001744386253298764 0.00030080063434803649 0 -0.0019740522252739401 0.00042282925986329478 0 -0.0016099786996537889 0.00038599896183547073 0 -0.0016977762500814688 0.00034044197603330797 0 -0.0016302887240323581 0.00027057602952738137 0 -0.001637426569250562 0.00030203298826887877 0 -0.0014352305912803149 0.00031317512951255889 0 -0.0016099786996537889 0.00038599896183547073 0 -0.0015571594549802256 0.0002536011653170992 0 -0.0016302887240323581 0.00027057602952738137 0 -0.0015270801578644603 0.00026737140493408591 0 -0.0015781854541355286 0.00030801046872888562 0 -0.001744386253298764 0.00030080063434803649 0 -0.0015270801578644603 0.00026737140493408591 0 -0.0016099786996537889 0.00038599896183547073 0 -0.0015571594549802256 0.0002536011653170992 0 -0.0015571594549802256 0.0002536011653170992 0 -0.0016302887240323581 0.00027057602952738137 0 -0.0015785177459210773 0.00020999376014124219 0 -0.0016977762500814688 0.00034044197603330797 0 -0.0016302887240323581 0.00027057602952738137 0 -0.0017602911242538329 0.00026875594975610576 0 -0.0016302887240323581 0.00027057602952738137 0 -0.0017602911242538329 0.00026875594975610576 0 -0.0016496174052330471 0.0002062163906331092 0 -0.0016302887240323581 0.00027057602952738137 0 -0.0015785177459210773 0.00020999376014124219 0 -0.0016496174052330471 0.0002062163906331092 0 -0.0017602911242538329 0.00026875594975610576 0 -0.0018932207343269444 0.00027040231079265538 0 -0.0018291973658317729 0.00021650109611606272 0 -0.0017602911242538329 0.00026875594975610576 0 -0.0018932207343269444 0.00027040231079265538 0 -0.0018769807132085455 0.00031479835167412643 0 -0.0018932207343269444 0.00027040231079265538 0 -0.0019200530680460973 0.00025596752841823642 0 -0.0018291973658317729 0.00021650109611606272 0 -0.0018769807132085455 0.00031479835167412643 0 -0.001803086362316687 0.0003689105056736642 0 -0.0019349863350700605 0.00045185133850958887 0 -0.0018769807132085455 0.00031479835167412643 0 -0.0020051830433526585 0.00027260476167122736 0 -0.0019349863350700605 0.00045185133850958887 0 -0.0018932207343269444 0.00027040231079265538 0 -0.0018769807132085455 0.00031479835167412643 0 -0.0020051830433526585 0.00027260476167122736 0 -0.0016977762500814688 0.00034044197603330797 0 -0.0017602911242538329 0.00026875594975610576 0 -0.001803086362316687 0.0003689105056736642 0 -0.0017602911242538329 0.00026875594975610576 0 -0.0018769807132085455 0.00031479835167412643 0 -0.001803086362316687 0.0003689105056736642 0 -0.00011582571567183758 -1.1937929158626732e-09 0 8.8102468762112773e-06 3.084022677081422e-05 0 -0.0014743379014187268 3.82710009167216e-05 0 -0.0019961191441734008 0.00038088841596083155 0 -0.0019705176354388111 0.00030138407854943494 0 -0.0019494805735275897 0.00025549941190583395 0 -0.0019961191441734008 0.00038088841596083155 0 -0.0019922287858427081 0.00030891090887647416 0 -0.0019705176354388111 0.00030138407854943494 0 -0.0019961191441734008 0.00038088841596083155 0 -0.0019922287858427081 0.00030891090887647416 0 -0.0019286794704040432 0.00024600159974765462 0 -0.0019922287858427081 0.00030891090887647416 0 -0.0019792579891706459 0.00028176728616409821 0 -0.0020450087981526512 0.00024858586187101022 0 -0.0019922287858427081 0.00030891090887647416 0 -0.0019705176354388111 0.00030138407854943494 0 -0.0019792579891706459 0.00028176728616409821 0 -0.0018932207343269444 0.00027040231079265538 0 -0.0019200530680460973 0.00025596752841823642 0 -0.0019792579891706459 0.00028176728616409821 0 -0.0019705176354388111 0.00030138407854943494 0 -0.0019200530680460973 0.00025596752841823642 0 -0.0019792579891706459 0.00028176728616409821 0 -0.0018932207343269444 0.00027040231079265538 0 -0.0019792579891706459 0.00028176728616409821 0 -0.0020051830433526585 0.00027260476167122736 0 -0.0020051830433526585 0.00027260476167122736 0 -0.0020450087981526512 0.00024858586187101022 0 -0.0022360502268326666 0.00025028057721378444 0 -0.0019792579891706459 0.00028176728616409821 0 -0.0020051830433526585 0.00027260476167122736 0 -0.0020450087981526512 0.00024858586187101022 0 -0.00011582571567183758 -1.1937929158626732e-09 0 -0.0014743379014187268 3.82710009167216e-05 0 -0.0015690539774070164 8.1467175691320564e-07 0 -0.0019961191441734008 0.00038088841596083155 0 -0.0019286794704040432 0.00024600159974765462 0 -0.0014743379014187268 3.82710009167216e-05 0 -0.00095383921945529741 0.0001129490396529307 0 -0.0013563732974180773 -1.8422403297530887e-05 0 -0.0019922287858427081 0.00030891090887647416 0 -0.0020450087981526512 0.00024858586187101022 0 -0.0019286794704040432 0.00024600159974765462 0 -0.0020450087981526512 0.00024858586187101022 0 -0.0019286794704040432 0.00024600159974765462 0 -0.0018874175335469104 0.00016636321188101614 0 -0.0020450087981526512 0.00024858586187101022 0 -0.0022360502268326666 0.00025028057721378444 0 -0.0018874175335469104 0.00016636321188101614 0 -0.0018874175335469104 0.00016636321188101614 0 -0.0014743379014187268 3.82710009167216e-05 0 -0.0015690539774070164 8.1467175691320564e-07 0 -0.0022360502268326666 0.00025028057721378444 0 -0.0018874175335469104 0.00016636321188101614 0 -0.0015690539774070164 8.1467175691320564e-07 0 -0.0019286794704040432 0.00024600159974765462 0 -0.0018874175335469104 0.00016636321188101614 0 -0.0014743379014187268 3.82710009167216e-05 0 -0.0015690539774070164 8.1467175691320564e-07 0 -0.0028967670889433173 1.8506599122092678e-05 0 -0.0030199026524334784 -7.772354417060068e-07 0 -0.0022360502268326666 0.00025028057721378444 0 -0.0015690539774070164 8.1467175691320564e-07 0 -0.0028967670889433173 1.8506599122092678e-05 0 -0.0023492017898962552 0.00028964207730369719 0 -0.0026602899829286839 0.00036314749438005574 0 -0.0022360502268326666 0.00025028057721378444 0 -0.0028967670889433173 1.8506599122092678e-05 0 -0.0035077634904705319 0.00032182674628851627 0 -0.0020051830433526585 0.00027260476167122736 0 -0.0022360502268326666 0.00025028057721378444 0 -0.0019349863350700605 0.00045185133850958887 0 -0.0028967670889433173 1.8506599122092678e-05 0 -0.0035077634904705319 0.00032182674628851627 0 -0.0037941025643400206 4.9086373816263606e-05 0 -0.0028967670889433173 1.8506599122092678e-05 0 -0.0037941025643400206 4.9086373816263606e-05 0 -0.0033109905301786286 -0.00019563926296269407 0 -0.0028967670889433173 1.8506599122092678e-05 0 -0.0030199026524334784 -7.772354417060068e-07 0 -0.0033109905301786286 -0.00019563926296269407 0 -0.0016977762500814688 0.00034044197603330797 0 -0.001803086362316687 0.0003689105056736642 0 -0.0017806981514059894 0.0005123576678961189 0 -0.001803086362316687 0.0003689105056736642 0 -0.0019349863350700605 0.00045185133850958887 0 -0.0017806981514059894 0.0005123576678961189 0 -0.0026602899829286839 0.00036314749438005574 0 -0.0030758324603707026 0.00034079595110855614 0 -0.0035077634904705319 0.00032182674628851627 0 -0.0037941025643400206 4.9086373816263606e-05 0 -0.0039090178593443273 0.00020764811489164812 0 -0.0042542447566456462 0.00020223587220202972 0 -0.0030758324603707026 0.00034079595110855614 0 -0.0051837703700446172 6.5015763177362411e-05 0 -0.0049878683399429751 0.00049844671575178818 0 -0.0051540367800873114 -0.00014832836627747933 0 -0.0037941025643400206 4.9086373816263606e-05 0 -0.0049878683399429751 0.00049844671575178818 0 -0.0051540367800873114 -0.00014832836627747933 0 -0.0051540367800873114 -0.00014832836627747933 0 -0.0053902346647307737 0.0005655385032400773 0 -0.005055137132693969 8.8576387832463749e-05 0 -0.0051464418677060935 -8.5623431156783158e-05 0 -0.0049211974427305714 0.00011271611953590596 0 -0.0051540367800873114 -0.00014832836627747933 0 -0.0059022847001793822 0.00037287373150585721 0 -0.0064791126703573438 0.0006173750549025277 0 -0.0037941025643400206 4.9086373816263606e-05 0 -0.0051540367800873114 -0.00014832836627747933 0 -0.0033591848327486251 -0.00032364102182721999 0 -0.0063057344709007285 0.00061158152854895356 0 -0.0064791126703573438 0.0006173750549025277 0 -0.0064563776211416877 0.00033826222574506775 0 -0.0059022847001793822 0.00037287373150585721 0 -0.0063057344709007285 0.00061158152854895356 0 -0.0064791126703573438 0.0006173750549025277 0 -0.0063057344709007285 0.00061158152854895356 0 -0.0068762927076660169 0.00038487407360851067 0 -0.006627380398128253 0.00029728703888952038 0 -0.0063057344709007285 0.00061158152854895356 0 -0.006627380398128253 0.00029728703888952038 0 -0.0064563776211416877 0.00033826222574506775 0 -0.0051540367800873114 -0.00014832836627747933 0 -0.0059022847001793822 0.00037287373150585721 0 -0.0053902346647307737 0.0005655385032400773 0 -0.0063657792934229832 0.00062287444635591234 0 -0.006404188281819558 0.00056154796451605179 0 -0.0063057344709007285 0.00061158152854895356 0 -0.0068762927076660169 0.00038487407360851067 0 -0.0075269796057351778 0.00082477870721185101 0 -0.00689736231481408 0.00063730013460309629 0 -0.006404188281819558 0.00056154796451605179 0 -0.0059022847001793822 0.00037287373150585721 0 -0.0063057344709007285 0.00061158152854895356 0 -0.0053902346647307737 0.0005655385032400773 0 -0.0030199026524334784 -7.772354417060068e-07 0 -0.0033109905301786286 -0.00019563926296269407 0 -0.0044688083855386022 3.5738409491198594e-07 0 -0.0037941025643400206 4.9086373816263606e-05 0 -0.0033109905301786286 -0.00019563926296269407 0 -0.0033591848327486251 -0.00032364102182721999 0 -0.0064791126703573438 0.0006173750549025277 0 -0.0058766432032745751 2.5044981706798816e-05 0 -0.0064563776211416877 0.00033826222574506775 0 -0.0033109905301786286 -0.00019563926296269407 0 -0.0033591848327486251 -0.00032364102182721999 0 -0.0044688083855386022 3.5738409491198594e-07 0 -0.0049211974427305714 0.00011271611953590596 0 -0.0044710478798711054 2.6645999816615437e-08 0 -0.0064791126703573438 0.0006173750549025277 0 -0.0044740434862332746 1.944432266327728e-06 0 -0.0058766432032745751 2.5044981706798816e-05 0 -0.0058766432032745751 2.5044981706798816e-05 0 -0.0063551076447722872 -1.9793063892690043e-05 0 -0.0057429088296754825 -7.4843613775053198e-07 0 -0.0044740434862332746 1.944432266327728e-06 0 -0.0058766432032745751 2.5044981706798816e-05 0 -0.0057429088296754825 -7.4843613775053198e-07 0 -0.0058766432032745751 2.5044981706798816e-05 0 -0.0064255135825156953 5.1846940559389736e-05 0 -0.0063551076447722872 -1.9793063892690043e-05 0 -0.0058766432032745751 2.5044981706798816e-05 0 -0.0064255135825156953 5.1846940559389736e-05 0 -0.0064563776211416877 0.00033826222574506775 0 -0.0072069026718915375 -0.00014874224112453713 0 -0.0069813112549838435 -0.00013361760354448229 0 -0.0067662033915695911 -5.8260894727678761e-05 0 -0.0069813112549838435 -0.00013361760354448229 0 -0.0067662033915695911 -5.8260894727678761e-05 0 -0.0063551076447722872 -1.9793063892690043e-05 0 -0.0064255135825156953 5.1846940559389736e-05 0 -0.0067662033915695911 -5.8260894727678761e-05 0 -0.0063551076447722872 -1.9793063892690043e-05 0 -0.0069813112549838435 -0.00013361760354448229 0 -0.0063551076447722872 -1.9793063892690043e-05 0 -0.0057429088296754825 -7.4843613775053198e-07 0 -0.0069712028489294113 0.00014863874165562782 0 -0.0073121862456244392 0.00014009472791800284 0 -0.0071510101778673027 -5.4985427161657638e-05 0 -0.0068762927076660169 0.00038487407360851067 0 -0.0071417565872342889 0.00045965481063092863 0 -0.0073121862456244392 0.00014009472791800284 0 -0.0068762927076660169 0.00038487407360851067 0 -0.0069712028489294113 0.00014863874165562782 0 -0.0073121862456244392 0.00014009472791800284 0 -0.0069712028489294113 0.00014863874165562782 0 -0.006627380398128253 0.00029728703888952038 0 -0.0067196043196301068 0.00011420382000713116 0 -0.0068762927076660169 0.00038487407360851067 0 -0.0069712028489294113 0.00014863874165562782 0 -0.006627380398128253 0.00029728703888952038 0 -0.0064255135825156953 5.1846940559389736e-05 0 -0.0064563776211416877 0.00033826222574506775 0 -0.0067196043196301068 0.00011420382000713116 0 -0.006627380398128253 0.00029728703888952038 0 -0.0064563776211416877 0.00033826222574506775 0 -0.0067196043196301068 0.00011420382000713116 0 -0.0064255135825156953 5.1846940559389736e-05 0 -0.0067662033915695911 -5.8260894727678761e-05 0 -0.0067196043196301068 0.00011420382000713116 0 -0.0069712028489294113 0.00014863874165562782 0 -0.0067196043196301068 0.00011420382000713116 0 -0.0071510101778673027 -5.4985427161657638e-05 0 -0.0072069026718915375 -0.00014874224112453713 0 -0.0067662033915695911 -5.8260894727678761e-05 0 -0.0071510101778673027 -5.4985427161657638e-05 0 -0.0067662033915695911 -5.8260894727678761e-05 0 -0.0067196043196301068 0.00011420382000713116 0 -0.0071510101778673027 -5.4985427161657638e-05 0 -0.0074609452294454011 -0.00018848759322590087 0 -0.0072069026718915375 -0.00014874224112453713 0 -0.0071510101778673027 -5.4985427161657638e-05 0 -0.0074609452294454011 -0.00018848759322590087 0 -0.0071510101778673027 -5.4985427161657638e-05 0 -0.0075021432758986331 -0.00011540197902338619 0 -0.0073121862456244392 0.00014009472791800284 0 -0.0071510101778673027 -5.4985427161657638e-05 0 -0.0075021432758986331 -0.00011540197902338619 0 -0.0073121862456244392 0.00014009472791800284 0 -0.0075021432758986331 -0.00011540197902338619 0 -0.0076128681217673281 6.8571343333994459e-05 0 -0.0076510394194179822 -9.1640652204023288e-05 0 -0.0075021432758986331 -0.00011540197902338619 0 -0.0076128681217673281 6.8571343333994459e-05 0 -0.0073121862456244392 0.00014009472791800284 0 -0.0076128681217673281 6.8571343333994459e-05 0 -0.0075980737967439238 0.00029907532222610598 0 -0.0076128681217673281 6.8571343333994459e-05 0 -0.0077133151338592909 0.00011114505996967463 0 -0.0075980737967439238 0.00029907532222610598 0 -0.0076128681217673281 6.8571343333994459e-05 0 -0.0077187233627574294 1.0103154502926937e-05 0 -0.0077133151338592909 0.00011114505996967463 0 -0.0076510394194179822 -9.1640652204023288e-05 0 -0.0076128681217673281 6.8571343333994459e-05 0 -0.0077187233627574294 1.0103154502926937e-05 0 -0.0077187233627574294 1.0103154502926937e-05 0 -0.007725445202179583 7.0710628672158025e-05 0 -0.0077133151338592909 0.00011114505996967463 0 -0.0077167200889977196 6.9207624151925744e-05 0 -0.0077168652715403647 8.2367815314759383e-05 0 -0.007725445202179583 7.0710628672158025e-05 0 -0.0077167200889977196 6.9207624151925744e-05 0 -0.0077187233627574294 1.0103154502926937e-05 0 -0.007725445202179583 7.0710628672158025e-05 0 -0.007725445202179583 7.0710628672158025e-05 0 -0.0077193306373504163 0.00011188168308732955 0 -0.0077133151338592909 0.00011114505996967463 0 -0.0077151226053163184 9.0802022845985522e-05 0 -0.007725445202179583 7.0710628672158025e-05 0 -0.0077193306373504163 0.00011188168308732955 0 -0.0077193306373504163 0.00011188168308732955 0 -0.0077133151338592909 0.00011114505996967463 0 -0.0077143015461971203 0.00016316443156101515 0 -0.0049693215140904912 0.00067253411024203937 0 -0.0048525478743006358 0.00044085657427476738 0 -0.0052808439356091599 0.00050499560432122604 0 -0.0077133151338592909 0.00011114505996967463 0 -0.0077143015461971203 0.00016316443156101515 0 -0.0075980737967439238 0.00029907532222610598 0 -0.0077046296099960113 9.2531690098286471e-05 0 -0.0077193306373504163 0.00011188168308732955 0 -0.0077143015461971203 0.00016316443156101515 0 -0.0044205631768072049 0.00063425055209456922 0 -0.0049693215140904912 0.00067253411024203937 0 -0.0048525478743006358 0.00044085657427476738 0 -0.0049230308260756134 0.00050605332633652184 0 -0.0065707103701105034 0.0004114942751162626 0 -0.0049230308260756134 0.00050605332633652184 0 -0.0029123872523276447 0.00065080182610691498 0 -0.0014957115042734017 0.00053949964254362934 0 -0.0014852740135623747 0.00073787194777338719 0 -0.0016655498108992947 0.00063688587709420414 0 -0.0014957115042734017 0.00053949964254362934 0 -0.0016998488904868478 0.00044790024635048053 0 -0.0016655498108992947 0.00063688587709420414 0 -0.0029123872523276447 0.00065080182610691498 0 -0.003566505071375597 0.00034148897315876688 0 -0.0016998488904868478 0.00044790024635048053 0 -0.0016655498108992947 0.00063688587709420414 0 -0.0018845921852465668 0.00054648272377556557 0 -0.0048525478743006358 0.00044085657427476738 0 -0.0052808439356091599 0.00050499560432122604 0 -0.0053100520578679925 0.00022398064790195304 0 -0.0051837703700446172 6.5015763177362411e-05 0 -0.0050712243797916504 7.6301199065312154e-05 0 -0.005055137132693969 8.8576387832463749e-05 0 -0.003566505071375597 0.00034148897315876688 0 -0.0055507040707017249 0.00035904740976016073 0 -0.0052808439356091599 0.00050499560432122604 0 -0.0053100520578679925 0.00022398064790195304 0 -0.005736485647518148 0.00047687874867134906 0 -0.0051837703700446172 6.5015763177362411e-05 0 -0.0051540367800873114 -0.00014832836627747933 0 -0.005055137132693969 8.8576387832463749e-05 0 -0.0071417565872342889 0.00045965481063092863 0 -0.0073121862456244392 0.00014009472791800284 0 -0.0075980737967439238 0.00029907532222610598 0 -0.006404188281819558 0.00056154796451605179 0 -0.0055507040707017249 0.00035904740976016073 0 -0.006404188281819558 0.00056154796451605179 0 -0.0065662088262171169 0.00051073913107901295 0 -0.0061676256133092796 0.00074260997087208951 0 -0.005736485647518148 0.00047687874867134906 0 -0.0055565264827841408 0.00071094866679802487 0 -0.0052808439356091599 0.00050499560432122604 0 -0.005736485647518148 0.00047687874867134906 0 -0.0055565264827841408 0.00071094866679802487 0 -0.0065707103701105034 0.0004114942751162626 0 -0.0065662088262171169 0.00051073913107901295 0 -0.0049693215140904912 0.00067253411024203937 0 -0.0052808439356091599 0.00050499560432122604 0 -0.0055565264827841408 0.00071094866679802487 0 -0.00015904346562158338 0.0027759535311926231 0 -0.00012802970795751213 0.0025837319215793126 0 -0.00030515076404864989 0.0028317825257563266 0 -0.00015904346562158338 0.0027759535311926231 0 0.00012612765917642096 0.0025699806721033698 0 -0.00012802970795751213 0.0025837319215793126 0 0.00012612765917642096 0.0025699806721033698 0 -0.00023519185697860149 0.003019261779191268 0 0.00094452142579605806 0.0027497253791533977 0 -0.00015904346562158338 0.0027759535311926231 0 0.00012612765917642096 0.0025699806721033698 0 -0.00023519185697860149 0.003019261779191268 0 0.00012612765917642096 0.0025699806721033698 0 0.0005421149452169479 0.0022927686074089098 0 0.0002685507761112819 0.0022092196501787707 0 0.0005421149452169479 0.0022927686074089098 0 0.0002685507761112819 0.0022092196501787707 0 0.0005917377883619539 0.0019819523809992603 0 0.0002685507761112819 0.0022092196501787707 0 8.25749606440518e-05 0.002254959619423973 0 6.344911487823119e-05 0.002413922532736105 0 0.00012612765917642096 0.0025699806721033698 0 0.0002685507761112819 0.0022092196501787707 0 6.344911487823119e-05 0.002413922532736105 0 0.00012612765917642096 0.0025699806721033698 0 6.344911487823119e-05 0.002413922532736105 0 -0.00012802970795751213 0.0025837319215793126 0 -0.00012802970795751213 0.0025837319215793126 0 -9.3197460022250824e-05 0.002382286296895002 0 -0.00046856039505775395 0.0024707185872446429 0 6.344911487823119e-05 0.002413922532736105 0 -0.00012802970795751213 0.0025837319215793126 0 -9.3197460022250824e-05 0.002382286296895002 0 8.25749606440518e-05 0.002254959619423973 0 -9.3197460022250824e-05 0.002382286296895002 0 8.8554626019838025e-05 0.0020048028434568209 0 8.25749606440518e-05 0.002254959619423973 0 6.344911487823119e-05 0.002413922532736105 0 -9.3197460022250824e-05 0.002382286296895002 0 -0.00046856039505775395 0.0024707185872446429 0 -0.00074697501723749115 0.0021946752074645422 0 -0.0007458764763676835 0.0027352638184407721 0 -0.00012802970795751213 0.0025837319215793126 0 -0.00046856039505775395 0.0024707185872446429 0 -0.0007458764763676835 0.0027352638184407721 0 -9.3197460022250824e-05 0.002382286296895002 0 -0.00036366319313119617 0.0021908756698969588 0 -0.00046856039505775395 0.0024707185872446429 0 -0.00036366319313119617 0.0021908756698969588 0 -0.00046856039505775395 0.0024707185872446429 0 -0.00074697501723749115 0.0021946752074645422 0 -0.00074697501723749115 0.0021946752074645422 0 -0.0007458764763676835 0.0027352638184407721 0 -0.0012015761826490792 0.0024274437375399359 0 -0.00074697501723749115 0.0021946752074645422 0 -0.0011084614699854397 0.0020715405172433993 0 -0.0012015761826490792 0.0024274437375399359 0 -0.0007458764763676835 0.0027352638184407721 0 -0.0014395955339063127 0.0029095008195205089 0 -0.0012015761826490792 0.0024274437375399359 0 -0.00045445213635231577 0.0027890538784190824 0 -0.0014389453681862459 0.0020102751274124948 0 -0.00036404865467045669 0.0027225408655069993 0 -0.00034339002843843575 0.0027721830127002542 0 -0.0003585372433713023 0.0027570645002150118 0 -0.00018346810645532557 0.0025892648997496641 0 -0.00045445213635231577 0.0027890538784190824 0 -0.00012802970795751213 0.0025837319215793126 0 -0.00036404865467045669 0.0027225408655069993 0 -0.00030515076404864989 0.0028317825257563266 0 -0.00036404865467045669 0.0027225408655069993 0 -0.00030515076404864989 0.0028317825257563266 0 -0.00034339002843843575 0.0027721830127002542 0 -0.00030515076404864989 0.0028317825257563266 0 -0.00034339002843843575 0.0027721830127002542 0 -0.00041124926558567593 0.0027034192331704477 0 -0.00034339002843843575 0.0027721830127002542 0 -0.00029714284662040049 0.0027220498056982783 0 -0.0003585372433713023 0.0027570645002150118 0 -0.00029714284662040049 0.0027220498056982783 0 -0.00041124926558567593 0.0027034192331704477 0 -0.00051870897354758607 0.0023728178494622576 0 -0.00034339002843843575 0.0027721830127002542 0 -0.00029714284662040049 0.0027220498056982783 0 -0.00041124926558567593 0.0027034192331704477 0 -0.00030515076404864989 0.0028317825257563266 0 -0.00041124926558567593 0.0027034192331704477 0 -0.00050008044248434059 0.0026943117752445491 0 -0.00030515076404864989 0.0028317825257563266 0 -0.00050008044248434059 0.0026943117752445491 0 -0.00023519185697860149 0.003019261779191268 0 -0.00015904346562158338 0.0027759535311926231 0 -0.00030515076404864989 0.0028317825257563266 0 -0.00023519185697860149 0.003019261779191268 0 -0.00050008044248434059 0.0026943117752445491 0 -0.00023519185697860149 0.003019261779191268 0 -0.00071090709356613584 0.0027038272983697076 0 -0.00023519185697860149 0.003019261779191268 0 -0.00071090709356613584 0.0027038272983697076 0 -0.0010401818860873409 0.0028760111545396224 0 -0.00071090709356613584 0.0027038272983697076 0 -0.0010401818860873409 0.0028760111545396224 0 -0.0012602967001158793 0.0026360696376199685 0 -0.0013825052835460306 0.0028513530717461785 0 -0.0016387713825080118 0.0027956090763367244 0 -0.0012602967001158793 0.0026360696376199685 0 -0.0010401818860873409 0.0028760111545396224 0 -0.0013825052835460306 0.0028513530717461785 0 -0.0012602967001158793 0.0026360696376199685 0 -0.0013825052835460306 0.0028513530717461785 0 -0.0014154228301269021 0.0030885563230162007 0 -0.0015987855450110783 0.0029637940211305956 0 -0.0010401818860873409 0.0028760111545396224 0 -0.0013825052835460306 0.0028513530717461785 0 -0.0014154228301269021 0.0030885563230162007 0 -0.0010401818860873409 0.0028760111545396224 0 -0.0014154228301269021 0.0030885563230162007 0 -0.0011809570221417833 0.0034416004302105212 0 -0.0014154228301269021 0.0030885563230162007 0 -0.0015991377070204871 0.0032880663521363028 0 -0.0011809570221417833 0.0034416004302105212 0 -0.00023519185697860149 0.003019261779191268 0 -0.0010401818860873409 0.0028760111545396224 0 -0.0011809570221417833 0.0034416004302105212 0 -0.0020216560755454286 0.0029590227158592919 0 -0.0019006841278706038 0.0027852118509136452 0 -0.0021267691976824352 0.002836127590787036 0 -0.0020216560755454286 0.0029590227158592919 0 -0.0018146154065437385 0.0029663382115906424 0 -0.0019006841278706038 0.0027852118509136452 0 -0.0020216560755454286 0.0029590227158592919 0 -0.0018146154065437385 0.0029663382115906424 0 -0.0019655481834460441 0.0031239110413660404 0 -0.0018146154065437385 0.0029663382115906424 0 -0.0016387713825080118 0.0027956090763367244 0 -0.0019006841278706038 0.0027852118509136452 0 -0.0013825052835460306 0.0028513530717461785 0 -0.0016387713825080118 0.0027956090763367244 0 -0.0015987855450110783 0.0029637940211305956 0 -0.0018146154065437385 0.0029663382115906424 0 -0.0016387713825080118 0.0027956090763367244 0 -0.0015987855450110783 0.0029637940211305956 0 -0.0014154228301269021 0.0030885563230162007 0 -0.0015987855450110783 0.0029637940211305956 0 -0.0017235967809437472 0.0031347104456828142 0 -0.0014154228301269021 0.0030885563230162007 0 -0.0017235967809437472 0.0031347104456828142 0 -0.0015991377070204871 0.0032880663521363028 0 -0.0017235967809437472 0.0031347104456828142 0 -0.001851634071108828 0.0032843871696461488 0 -0.0015991377070204871 0.0032880663521363028 0 -0.0018146154065437385 0.0029663382115906424 0 -0.0017235967809437472 0.0031347104456828142 0 -0.0019655481834460441 0.0031239110413660404 0 -0.0018146154065437385 0.0029663382115906424 0 -0.0015987855450110783 0.0029637940211305956 0 -0.0017235967809437472 0.0031347104456828142 0 -0.0017235967809437472 0.0031347104456828142 0 -0.0019655481834460441 0.0031239110413660404 0 -0.001851634071108828 0.0032843871696461488 0 -0.0019655481834460441 0.0031239110413660404 0 -0.0020331302806331736 0.0032535019007306491 0 -0.002145850531792138 0.0031543702886156571 0 -0.0019655481834460441 0.0031239110413660404 0 -0.002145850531792138 0.0031543702886156571 0 -0.0020969246077752151 0.003073108910932158 0 -0.0020216560755454286 0.0029590227158592919 0 -0.0019655481834460441 0.0031239110413660404 0 -0.0020969246077752151 0.003073108910932158 0 -0.0020734723056187072 0.003331087427603031 0 -0.0020331302806331736 0.0032535019007306491 0 -0.0019467233812242011 0.0033748015435371669 0 -0.0020331302806331736 0.0032535019007306491 0 -0.001851634071108828 0.0032843871696461488 0 -0.0019467233812242011 0.0033748015435371669 0 -0.0019655481834460441 0.0031239110413660404 0 -0.0020331302806331736 0.0032535019007306491 0 -0.001851634071108828 0.0032843871696461488 0 -0.001851634071108828 0.0032843871696461488 0 -0.0019467233812242011 0.0033748015435371669 0 -0.0017922481195232849 0.0034782943372760325 0 -0.001851634071108828 0.0032843871696461488 0 -0.0015991377070204871 0.0032880663521363028 0 -0.0017922481195232849 0.0034782943372760325 0 0.0013149946239961229 0.002303894746639226 0 0.0014536637652749389 0.0023847426600898214 0 0.001168372216850786 0.0024104833941926466 0 0.0013149946239961229 0.002303894746639226 0 0.0014312946884216572 0.0023754584598571428 0 0.0013526887232431731 0.0021203680185904344 0 0.0013149946239961229 0.002303894746639226 0 0.0014312946884216572 0.0023754584598571428 0 0.0014536637652749389 0.0023847426600898214 0 -0.0019467233812242011 0.0033748015435371669 0 -0.0017922481195232849 0.0034782943372760325 0 -0.0021993909945127819 0.0033820335613339381 0 -0.0020734723056187072 0.003331087427603031 0 -0.0019467233812242011 0.0033748015435371669 0 -0.0021993909945127819 0.0033820335613339381 0 0.0014536637652749389 0.0023847426600898214 0 0.0012503570057474413 0.0024864720332705348 0 0.0010771662266393874 0.002388254470976508 0 0.0014531007223528571 0.0023638703637894024 0 0.0014543296134097705 0.0023679266399585768 0 0.0014312946884216572 0.0023754584598571428 0 0.0014536637652749389 0.0023847426600898214 0 0.0012503570057474413 0.0024864720332705348 0 -0.00015906383506839015 0.0029260339724209287 0 -0.00061413580916213283 0.0029317196907095349 0 0.00012612765917642096 0.0025699806721033698 0 0.0005421149452169479 0.0022927686074089098 0 0.00094452142579605806 0.0027497253791533977 0 -0.00021335097268180376 0.0030367791811007103 0 -0.00012797374805650758 0.0030724676565050697 0 0.0014536637652749389 0.0023847426600898214 0 0.00094452142579605806 0.0027497253791533977 0 0.001168372216850786 0.0024104833941926466 0 -0.0015991377070204871 0.0032880663521363028 0 -0.0017922481195232849 0.0034782943372760325 0 -0.0011809570221417833 0.0034416004302105212 0 -0.00015906383506839015 0.0029260339724209287 0 -0.00012797374805650758 0.0030724676565050697 0 0.001168372216850786 0.0024104833941926466 0 0.00086512904745686327 0.0021635686538353681 0 0.0011233246738151256 0.0020985043125600822 0 0.00094452142579605806 0.0027497253791533977 0 0.001168372216850786 0.0024104833941926466 0 0.00086512904745686327 0.0021635686538353681 0 0.0013149946239961229 0.002303894746639226 0 0.001168372216850786 0.0024104833941926466 0 0.0011233246738151256 0.0020985043125600822 0 0.0005421149452169479 0.0022927686074089098 0 0.00094452142579605806 0.0027497253791533977 0 0.00086512904745686327 0.0021635686538353681 0 0.00088435788567919644 0.0019620346052446557 0 0.00086512904745686327 0.0021635686538353681 0 0.0005917377883619539 0.0019819523809992603 0 0.0005421149452169479 0.0022927686074089098 0 0.00086512904745686327 0.0021635686538353681 0 0.0005917377883619539 0.0019819523809992603 0 0.00088435788567919644 0.0019620346052446557 0 0.00086738918335485028 0.0018036675835249672 0 0.0005917377883619539 0.0019819523809992603 0 0.00088435788567919644 0.0019620346052446557 0 0.0011233246738151256 0.0020985043125600822 0 0.0010728068933056557 0.0018714804805381137 0 0.00088435788567919644 0.0019620346052446557 0 0.00086512904745686327 0.0021635686538353681 0 0.0011233246738151256 0.0020985043125600822 0 0.0013149946239961229 0.002303894746639226 0 0.0011233246738151256 0.0020985043125600822 0 0.0013526887232431731 0.0021203680185904344 0 0.0011233246738151256 0.0020985043125600822 0 0.0012589132600790932 0.0019709059658335418 0 0.0013526887232431731 0.0021203680185904344 0 0.0011233246738151256 0.0020985043125600822 0 0.0012589132600790932 0.0019709059658335418 0 0.0010728068933056557 0.0018714804805381137 0 0.0012710459150043949 0.0017904425333876426 0 0.0010416199229924296 0.0017210334157938768 0 0.0010728068933056557 0.0018714804805381137 0 0.0012589132600790932 0.0019709059658335418 0 0.0012710459150043949 0.0017904425333876426 0 0.0010728068933056557 0.0018714804805381137 0 0.0010416199229924296 0.0017210334157938768 0 0.00086738918335485028 0.0018036675835249672 0 0.00088576801582799754 0.0016411826444619204 0 0.0010416199229924296 0.0017210334157938768 0 0.00086738918335485028 0.0018036675835249672 0 0.0010728068933056557 0.0018714804805381137 0 0.00088435788567919644 0.0019620346052446557 0 0.00086738918335485028 0.0018036675835249672 0 0.0010728068933056557 0.0018714804805381137 0 0.0014312946884216572 0.0023754584598571428 0 0.0017471707617856774 0.0021935172008125444 0 0.001536291710671725 0.0021554348825762655 0 0.0017530052101667074 0.0019860395453703493 0 0.0017471707617856774 0.0021935172008125444 0 0.001536291710671725 0.0021554348825762655 0 0.0017530052101667074 0.0019860395453703493 0 0.001536291710671725 0.0021554348825762655 0 0.001499233524240452 0.0019315741579919029 0 0.001536291710671725 0.0021554348825762655 0 0.0013526887232431731 0.0021203680185904344 0 0.001499233524240452 0.0019315741579919029 0 0.0014312946884216572 0.0023754584598571428 0 0.001536291710671725 0.0021554348825762655 0 0.0013526887232431731 0.0021203680185904344 0 0.0012589132600790932 0.0019709059658335418 0 0.0013526887232431731 0.0021203680185904344 0 0.001499233524240452 0.0019315741579919029 0 0.0012589132600790932 0.0019709059658335418 0 0.0012710459150043949 0.0017904425333876426 0 0.001499233524240452 0.0019315741579919029 0 0.0012710459150043949 0.0017904425333876426 0 0.001499233524240452 0.0019315741579919029 0 0.0015051580640878253 0.001753663775002366 0 0.001499233524240452 0.0019315741579919029 0 0.0016327935559522092 0.0018468657256588098 0 0.0015051580640878253 0.001753663775002366 0 0.0016966742240858525 0.0019530326488225104 0 0.001499233524240452 0.0019315741579919029 0 0.0016327935559522092 0.0018468657256588098 0 0.0017455389729456401 0.0019827406734095701 0 0.0015205143745197793 0.0019332627400435666 0 0.0016327935559522092 0.0018468657256588098 0 0.0016840656003436654 0.0017363524133765023 0 0.0017711023095133328 0.0018375792504692508 0 0.0016966742240858525 0.0019530326488225104 0 0.0016327935559522092 0.0018468657256588098 0 0.0017711023095133328 0.0018375792504692508 0 0.0016840656003436654 0.0017363524133765023 0 0.0015051580640878253 0.001753663775002366 0 0.001622663446065312 0.001618788431277274 0 0.0016840656003436654 0.0017363524133765023 0 0.001622663446065312 0.001618788431277274 0 0.0017818709235014375 0.0016206093052815245 0 0.0016327935559522092 0.0018468657256588098 0 0.0016840656003436654 0.0017363524133765023 0 0.0015051580640878253 0.001753663775002366 0 0.0012710459150043949 0.0017904425333876426 0 0.0015051580640878253 0.001753663775002366 0 0.0014072099222093134 0.0016235229859282369 0 0.0015051580640878253 0.001753663775002366 0 0.0014072099222093134 0.0016235229859282369 0 0.001622663446065312 0.001618788431277274 0 0.0014072099222093134 0.0016235229859282369 0 0.0015741561539870943 0.0015101609621424002 0 0.0014041440475314148 0.0014950698652820334 0 0.0014072099222093134 0.0016235229859282369 0 0.001622663446065312 0.001618788431277274 0 0.0015741561539870943 0.0015101609621424002 0 0.001622663446065312 0.001618788431277274 0 0.0017797602845570526 0.0015236704523623372 0 0.0015741561539870943 0.0015101609621424002 0 0.001622663446065312 0.001618788431277274 0 0.0017818709235014375 0.0016206093052815245 0 0.0017797602845570526 0.0015236704523623372 0 0.0010416199229924296 0.0017210334157938768 0 0.0010776441836546039 0.0015664435241644172 0 0.0012094453976150322 0.0016418085783528298 0 0.0010416199229924296 0.0017210334157938768 0 0.0010776441836546039 0.0015664435241644172 0 0.00088576801582799754 0.0016411826444619204 0 0.0012710459150043949 0.0017904425333876426 0 0.0014072099222093134 0.0016235229859282369 0 0.0012094453976150322 0.0016418085783528298 0 0.0012710459150043949 0.0017904425333876426 0 0.0010416199229924296 0.0017210334157938768 0 0.0012094453976150322 0.0016418085783528298 0 0.0014072099222093134 0.0016235229859282369 0 0.0012615499817754897 0.0015471295370988027 0 0.0014041440475314148 0.0014950698652820334 0 0.0012615499817754897 0.0015471295370988027 0 0.0014041440475314148 0.0014950698652820334 0 0.0012098681586187093 0.0014430833046353781 0 0.0014072099222093134 0.0016235229859282369 0 0.0012094453976150322 0.0016418085783528298 0 0.0012615499817754897 0.0015471295370988027 0 0.0010776441836546039 0.0015664435241644172 0 0.0012615499817754897 0.0015471295370988027 0 0.0012098681586187093 0.0014430833046353781 0 0.0010776441836546039 0.0015664435241644172 0 0.0010459387867892125 0.001490510730301401 0 0.0012098681586187093 0.0014430833046353781 0 0.0010776441836546039 0.0015664435241644172 0 0.0012094453976150322 0.0016418085783528298 0 0.0012615499817754897 0.0015471295370988027 0 0.0010459387867892125 0.001490510730301401 0 0.00099090734334714961 0.0014585672546020001 0 0.0010904852306312777 0.0013994365952365001 0 0.0010459387867892125 0.001490510730301401 0 0.00098192557444416674 0.0015595387649436525 0 0.00092954531491448408 0.0015419769970003352 0 0.0010459387867892125 0.001490510730301401 0 0.00099090734334714961 0.0014585672546020001 0 0.00092954531491448408 0.0015419769970003352 0 0.0010776441836546039 0.0015664435241644172 0 0.0010459387867892125 0.001490510730301401 0 0.00098192557444416674 0.0015595387649436525 0 0.00095113894844894864 0.0014559832895653072 0 0.00099090734334714961 0.0014585672546020001 0 0.0010573960643432295 0.0013562413150837501 0 0.00099090734334714961 0.0014585672546020001 0 0.00089205828964057838 0.0015256588215565609 0 0.00092954531491448408 0.0015419769970003352 0 0.00095113894844894864 0.0014559832895653072 0 0.00099090734334714961 0.0014585672546020001 0 0.00089205828964057838 0.0015256588215565609 0 0.00095113894844894864 0.0014559832895653072 0 0.00089205828964057838 0.0015256588215565609 0 0.00088146830580007629 0.0015118741632427122 0 0.00089205828964057838 0.0015256588215565609 0 0.00083138528944597351 0.0015902653061540097 0 0.0008061938297209383 0.0015917393641684252 0 0.00089205828964057838 0.0015256588215565609 0 0.0008061938297209383 0.0015917393641684252 0 0.00088146830580007629 0.0015118741632427122 0 0.00089205828964057838 0.0015256588215565609 0 0.00083138528944597351 0.0015902653061540097 0 0.00092954531491448408 0.0015419769970003352 0 0.00083138528944597351 0.0015902653061540097 0 0.0008061938297209383 0.0015917393641684252 0 0.00073875580621364674 0.0016605369113205921 0 0.0008061938297209383 0.0015917393641684252 0 0.00073875580621364674 0.0016605369113205921 0 0.00071512804148914392 0.0016593900374654237 0 0.0010776441836546039 0.0015664435241644172 0 0.00098192557444416674 0.0015595387649436525 0 0.00088576801582799754 0.0016411826444619204 0 0.00098192557444416674 0.0015595387649436525 0 0.00092954531491448408 0.0015419769970003352 0 0.00088576801582799754 0.0016411826444619204 0 0.00083138528944597351 0.0015902653061540097 0 0.00092954531491448408 0.0015419769970003352 0 0.00088576801582799754 0.0016411826444619204 0 0.00083138528944597351 0.0015902653061540097 0 0.00088576801582799754 0.0016411826444619204 0 0.00073875580621364674 0.0016605369113205921 0 0.00086738918335485028 0.0018036675835249672 0 0.00088576801582799754 0.0016411826444619204 0 0.00072345960865153333 0.0017627049167828141 0 0.00086738918335485028 0.0018036675835249672 0 0.00072345960865153333 0.0017627049167828141 0 0.0005917377883619539 0.0019819523809992603 0 0.00072345960865153333 0.0017627049167828141 0 0.00057561570456511125 0.0017578965791997631 0 0.0005917377883619539 0.0019819523809992603 0 0.00088576801582799754 0.0016411826444619204 0 0.00072345960865153333 0.0017627049167828141 0 0.00073875580621364674 0.0016605369113205921 0 0.00072345960865153333 0.0017627049167828141 0 0.00073875580621364674 0.0016605369113205921 0 0.00057561570456511125 0.0017578965791997631 0 0.00073875580621364674 0.0016605369113205921 0 0.00064215962428967942 0.0016975407371438564 0 0.00057561570456511125 0.0017578965791997631 0 0.00073875580621364674 0.0016605369113205921 0 0.00071512804148914392 0.0016593900374654237 0 0.00064215962428967942 0.0016975407371438564 0 0.00071512804148914392 0.0016593900374654237 0 0.00064215962428967942 0.0016975407371438564 0 0.00066691474146248571 0.0016887901947738354 0 0.0005430137502374007 0.0017299854402924994 0 0.00033233071045900352 0.001870460447402456 0 0.00056286354928085857 0.001710360886164961 0 0.00066691474146248571 0.0016887901947738354 0 0.0005430137502374007 0.0017299854402924994 0 0.00067786379899835078 0.0016551725150589505 0 0.00064215962428967942 0.0016975407371438564 0 0.00066691474146248571 0.0016887901947738354 0 0.0005430137502374007 0.0017299854402924994 0 0.000521318220479643 0.0016106552972656007 0 0.00031749600935226154 0.0015734107277995601 0 0.00064215962428967942 0.0016975407371438564 0 0.0005430137502374007 0.0017299854402924994 0 0.00057561570456511125 0.0017578965791997631 0 0.0005430137502374007 0.0017299854402924994 0 0.00057561570456511125 0.0017578965791997631 0 0.00033233071045900352 0.001870460447402456 0 0.00057561570456511125 0.0017578965791997631 0 0.00033233071045900352 0.001870460447402456 0 0.0005917377883619539 0.0019819523809992603 0 -9.3197460022250824e-05 0.002382286296895002 0 8.8554626019838025e-05 0.0020048028434568209 0 -0.00016459020500332364 0.0016264003777902612 0 0.00038054116956648989 0.0018183061456101969 0 0.00031749600935226154 0.0015734107277995601 0 0.00033233071045900352 0.001870460447402456 0 8.8554626019838025e-05 0.0020048028434568209 0 -4.3879291593703106e-05 0.001613593857126987 0 0.0002685507761112819 0.0022092196501787707 0 8.25749606440518e-05 0.002254959619423973 0 8.8554626019838025e-05 0.0020048028434568209 0 0.0002685507761112819 0.0022092196501787707 0 0.00033233071045900352 0.001870460447402456 0 8.8554626019838025e-05 0.0020048028434568209 0 0.0002685507761112819 0.0022092196501787707 0 0.00033233071045900352 0.001870460447402456 0 0.0005917377883619539 0.0019819523809992603 0 -0.00074697501723749115 0.0021946752074645422 0 -0.00059485763799851043 0.0018962815720764141 0 -0.0010437983086857604 0.0016368222345637797 0 -0.00074697501723749115 0.0021946752074645422 0 -0.0011084614699854397 0.0020715405172433993 0 -0.0010437983086857604 0.0016368222345637797 0 -0.00036366319313119617 0.0021908756698969588 0 -0.00059485763799851043 0.0018962815720764141 0 -0.00039908281914736949 0.0015752134229431989 0 -0.00059485763799851043 0.0018962815720764141 0 -0.00039908281914736949 0.0015752134229431989 0 -0.0010437983086857604 0.0016368222345637797 0 -0.00012155107198627281 0.002409982288140686 0 -0.00011061399013753748 0.001431859038126462 0 -9.3197460022250824e-05 0.002382286296895002 0 -0.00036366319313119617 0.0021908756698969588 0 -0.00039908281914736949 0.0015752134229431989 0 -0.00036366319313119617 0.0021908756698969588 0 -0.00074697501723749115 0.0021946752074645422 0 -0.00059485763799851043 0.0018962815720764141 0 8.8554626019838025e-05 0.0020048028434568209 0 -4.3879291593703106e-05 0.001613593857126987 0 -0.00016459020500332364 0.0016264003777902612 0 -0.00024183114583971888 0.00081634639149277236 0 -0.00023935176065948769 0.00082138208960195178 0 -0.00021871376296819418 0.00081129541543371235 0 0.00066691474146248571 0.0016887901947738354 0 0.00067786379899835078 0.0016551725150589505 0 0.00073168880322427234 0.0016624368014061311 0 0.00031749600935226154 0.0015734107277995601 0 -0.00011061399013753748 0.001431859038126462 0 0.00031749600935226154 0.0015734107277995601 0 9.9218798739428749e-05 0.0012886019262859714 0 -0.00011061399013753748 0.001431859038126462 0 9.9218798739428749e-05 0.0012886019262859714 0 0.00014192567769728985 0.0014239252759255905 0 8.6377134435920177e-05 0.0014289158393797142 0 5.8394428106136055e-05 0.0013581039931482651 0 0.00071512804148914392 0.0016593900374654237 0 0.00066691474146248571 0.0016887901947738354 0 0.00073168880322427234 0.0016624368014061311 0 0.00071512804148914392 0.0016593900374654237 0 0.00073168880322427234 0.0016624368014061311 0 0.00076491083878288673 0.001624711249051526 0 -0.00023935176065948769 0.00082138208960195178 0 -0.00021871376296819418 0.00081129541543371235 0 -0.00020839761312592222 0.00081417959029125527 0 -0.00011061399013753748 0.001431859038126462 0 -0.00068036153032873436 0.0012305146321107277 0 9.9218798739428749e-05 0.0012886019262859714 0 -0.00015689898496506615 0.00089174736865957002 0 -0.00023935176065948769 0.00082138208960195178 0 -0.00022233228098635931 0.00084303506545978159 0 -0.00020839761312592222 0.00081417959029125527 0 0.00014454770903089714 0.0011793053992930006 0 -1.0061985426352891e-05 0.001053450610215645 0 7.4718092565439958e-05 0.0010072459111315206 0 9.9218798739428749e-05 0.0012886019262859714 0 0.00085793223595863777 0.0012579270092130115 0 0.00073168880322427234 0.0016624368014061311 0 0.00081542749176928542 0.0015684077744577106 0 0.00086628458682175508 0.0014761146525849843 0 0.00073168880322427234 0.0016624368014061311 0 0.00076491083878288673 0.001624711249051526 0 0.00081542749176928542 0.0015684077744577106 0 0.0008061938297209383 0.0015917393641684252 0 0.00076491083878288673 0.001624711249051526 0 0.00081542749176928542 0.0015684077744577106 0 0.0008061938297209383 0.0015917393641684252 0 0.00071512804148914392 0.0016593900374654237 0 0.00076491083878288673 0.001624711249051526 0 0.00081542749176928542 0.0015684077744577106 0 0.0008671273165432419 0.0014948271368108526 0 0.00086628458682175508 0.0014761146525849843 0 0.00081542749176928542 0.0015684077744577106 0 0.0008671273165432419 0.0014948271368108526 0 0.00088146830580007629 0.0015118741632427122 0 0.0008061938297209383 0.0015917393641684252 0 0.00081542749176928542 0.0015684077744577106 0 0.00088146830580007629 0.0015118741632427122 0 0.0009516115253527022 0.0014304621044963651 0 0.00090154291245308626 0.0014557526226127555 0 0.001054254264232612 0.0013431296650069033 0 0.00095113894844894864 0.0014559832895653072 0 0.00088146830580007629 0.0015118741632427122 0 0.0009516115253527022 0.0014304621044963651 0 0.0008671273165432419 0.0014948271368108526 0 0.00088146830580007629 0.0015118741632427122 0 0.0009516115253527022 0.0014304621044963651 0 0.0008671273165432419 0.0014948271368108526 0 0.0009516115253527022 0.0014304621044963651 0 0.00090154291245308626 0.0014557526226127555 0 0.00095113894844894864 0.0014559832895653072 0 0.0009516115253527022 0.0014304621044963651 0 0.0010573960643432295 0.0013562413150837501 0 -1.0061985426352891e-05 0.001053450610215645 0 7.4718092565439958e-05 0.0010072459111315206 0 -4.7266768749345693e-05 0.00094792591600640274 0 0.0014630347643136913 0.0011962949844356381 0 0.0015157286446185409 0.0012234486992599041 0 0.0015088362999017379 0.0012576414249891464 0 0.00085793223595863777 0.0012579270092130115 0 0.00071269373710040613 0.0010692781436031315 0 0.00091074842773965724 0.0013405229072372326 0 0.00085793223595863777 0.0012579270092130115 0 -0.00022233228098635931 0.00084303506545978159 0 -0.00012641060596973243 0.00088681135631468115 0 -0.00011069767224787999 0.00094715753171957908 0 -0.00015689898496506615 0.00089174736865957002 0 -8.996822672665472e-05 0.00097082507042556125 0 -1.0061985426352891e-05 0.001053450610215645 0 -4.7266768749345693e-05 0.00094792591600640274 0 -0.00011069767224787999 0.00094715753171957908 0 -0.00022233228098635931 0.00084303506545978159 0 -0.0001889406035005042 0.00082941729007533793 0 -0.00015648668167575553 0.00084789394246366078 0 -0.00022233228098635931 0.00084303506545978159 0 -0.00015648668167575553 0.00084789394246366078 0 -0.00012641060596973243 0.00088681135631468115 0 -0.0001889406035005042 0.00082941729007533793 0 -0.00020839761312592222 0.00081417959029125527 0 -0.0001644416774434529 0.00081156852296218791 0 -0.0001889406035005042 0.00082941729007533793 0 -0.00015648668167575553 0.00084789394246366078 0 -0.0001644416774434529 0.00081156852296218791 0 -0.00022233228098635931 0.00084303506545978159 0 -0.0001889406035005042 0.00082941729007533793 0 -0.00020839761312592222 0.00081417959029125527 0 -0.00012878062114818288 0.00082005628511887306 0 -9.182920236204462e-05 0.00081952578406823556 0 -0.0001125059414564983 0.00080085506611332733 0 -0.00012878062114818288 0.00082005628511887306 0 -0.00013389174714409594 0.00079683747654170909 0 -0.0001125059414564983 0.00080085506611332733 0 -0.00012878062114818288 0.00082005628511887306 0 -0.00015648668167575553 0.00084789394246366078 0 -0.0001644416774434529 0.00081156852296218791 0 -0.00012878062114818288 0.00082005628511887306 0 -0.0001644416774434529 0.00081156852296218791 0 -0.00013389174714409594 0.00079683747654170909 0 -0.00015648668167575553 0.00084789394246366078 0 -0.00011722556820144994 0.00085136106972909839 0 -0.00012641060596973243 0.00088681135631468115 0 -0.00012878062114818288 0.00082005628511887306 0 -0.00015648668167575553 0.00084789394246366078 0 -0.00011722556820144994 0.00085136106972909839 0 -0.00011722556820144994 0.00085136106972909839 0 -9.0168372209050929e-05 0.00088020226329664432 0 -0.00012641060596973243 0.00088681135631468115 0 -0.00012878062114818288 0.00082005628511887306 0 -0.00011722556820144994 0.00085136106972909839 0 -9.182920236204462e-05 0.00081952578406823556 0 -0.00011722556820144994 0.00085136106972909839 0 -9.182920236204462e-05 0.00081952578406823556 0 -9.0168372209050929e-05 0.00088020226329664432 0 -0.00012641060596973243 0.00088681135631468115 0 -0.00011069767224787999 0.00094715753171957908 0 -8.2245442835358738e-05 0.00091869527096844524 0 -9.0168372209050929e-05 0.00088020226329664432 0 -0.00012641060596973243 0.00088681135631468115 0 -8.2245442835358738e-05 0.00091869527096844524 0 -0.00011069767224787999 0.00094715753171957908 0 -8.2245442835358738e-05 0.00091869527096844524 0 -4.8370937173194422e-05 0.00093474119804168548 0 -4.1295161923562195e-05 0.00089619363219531464 0 9.0924924246567693e-06 0.00094367401129760167 0 -9.0168372209050929e-05 0.00088020226329664432 0 -4.8370937173194422e-05 0.00093474119804168548 0 2.8802904864526386e-05 0.00089519153301725126 0 -9.0168372209050929e-05 0.00088020226329664432 0 0.00015652378527381699 0.0010038977161347749 0 2.462469220223804e-05 0.00085088616798384203 0 -4.8370937173194422e-05 0.00093474119804168548 0 2.8802904864526386e-05 0.00089519153301725126 0 -6.0046564053224235e-06 0.00097878862989095035 0 0.00015652378527381699 0.0010038977161347749 0 0.00013481647145649058 0.00083579435708562718 0 2.462469220223804e-05 0.00085088616798384203 0 -9.0168372209050929e-05 0.00088020226329664432 0 -8.2245442835358738e-05 0.00091869527096844524 0 -4.8370937173194422e-05 0.00093474119804168548 0 0.00015652378527381699 0.0010038977161347749 0 0.00047951777150907814 0.0011493835840117978 0 0.00039383053454086997 0.00091316360519715003 0 9.0924924246567693e-06 0.00094367401129760167 0 0.00084413573795134975 0.00078308888932235885 0 2.8802904864526386e-05 0.00089519153301725126 0 0.00015609192726723963 0.00093055377607156864 0 7.477896433327161e-05 0.00099486137226753612 0 0.00015652378527381699 0.0010038977161347749 0 0.00024428500111771547 0.00082699128908782498 0 0.00039383053454086997 0.00091316360519715003 0 0.00024428500111771547 0.00082699128908782498 0 0.00039383053454086997 0.00091316360519715003 0 0.00039248265396381229 0.00074274175647437196 0 0.00015652378527381699 0.0010038977161347749 0 0.00024428500111771547 0.00082699128908782498 0 0.00013481647145649058 0.00083579435708562718 0 0.00024428500111771547 0.00082699128908782498 0 0.00013481647145649058 0.00083579435708562718 0 0.00017648723824860438 0.00073402356820735822 0 0.00024428500111771547 0.00082699128908782498 0 0.00017648723824860438 0.00073402356820735822 0 0.00027873192530467625 0.00068289347019560376 0 0.00017648723824860438 0.00073402356820735822 0 0.00010724219028106635 0.00063693710802184892 0 0.00020125054490628417 0.00062840669904289429 0 0.00017648723824860438 0.00073402356820735822 0 0.00027873192530467625 0.00068289347019560376 0 0.00020125054490628417 0.00062840669904289429 0 0.00027873192530467625 0.00068289347019560376 0 0.00036247696712746592 0.00061465259774147983 0 0.00039248265396381229 0.00074274175647437196 0 0.00024428500111771547 0.00082699128908782498 0 0.00027873192530467625 0.00068289347019560376 0 0.00039248265396381229 0.00074274175647437196 0 -9.182920236204462e-05 0.00081952578406823556 0 5.8968873551960553e-06 0.00078568592352244618 0 2.462469220223804e-05 0.00085088616798384203 0 -9.182920236204462e-05 0.00081952578406823556 0 -9.0168372209050929e-05 0.00088020226329664432 0 2.462469220223804e-05 0.00085088616798384203 0 0.00013481647145649058 0.00083579435708562718 0 2.462469220223804e-05 0.00085088616798384203 0 7.7167016433127769e-05 0.00076247395215915269 0 0.00013481647145649058 0.00083579435708562718 0 0.00017648723824860438 0.00073402356820735822 0 7.7167016433127769e-05 0.00076247395215915269 0 5.8968873551960553e-06 0.00078568592352244618 0 2.462469220223804e-05 0.00085088616798384203 0 7.7167016433127769e-05 0.00076247395215915269 0 5.8968873551960553e-06 0.00078568592352244618 0 7.7167016433127769e-05 0.00076247395215915269 0 1.3816978565432116e-05 0.00070825513860649106 0 0.00017648723824860438 0.00073402356820735822 0 7.7167016433127769e-05 0.00076247395215915269 0 0.00010724219028106635 0.00063693710802184892 0 7.7167016433127769e-05 0.00076247395215915269 0 1.3816978565432116e-05 0.00070825513860649106 0 0.00010724219028106635 0.00063693710802184892 0 -0.00010428574986874901 0.00081732453337453998 0 -4.8044900527720105e-05 0.0006049870865056828 0 -9.182920236204462e-05 0.00081952578406823556 0 1.3816978565432116e-05 0.00070825513860649106 0 -3.9933243466170825e-06 0.00056781216949374391 0 -9.182920236204462e-05 0.00081952578406823556 0 -0.00011010848378372647 0.0007870060079444895 0 -0.0001125059414564983 0.00080085506611332733 0 -9.182920236204462e-05 0.00081952578406823556 0 5.8968873551960553e-06 0.00078568592352244618 0 1.3816978565432116e-05 0.00070825513860649106 0 -0.00011010848378372647 0.0007870060079444895 0 -0.0001125059414564983 0.00080085506611332733 0 -0.0001184027747667755 0.00078691023859520678 0 -0.00011010848378372647 0.0007870060079444895 0 -0.00011713836938003975 0.00077708612484507164 0 -0.0001184027747667755 0.00078691023859520678 0 -3.9933243466170825e-06 0.00056781216949374391 0 0.00010724219028106635 0.00063693710802184892 0 0.00011484135008237957 0.00049890065701466873 0 1.3816978565432116e-05 0.00070825513860649106 0 -3.9933243466170825e-06 0.00056781216949374391 0 0.00010724219028106635 0.00063693710802184892 0 -3.9933243466170825e-06 0.00056781216949374391 0 0.00011484135008237957 0.00049890065701466873 0 0.00011420621097050945 0.00035203104607129407 0 -0.00011010848378372647 0.0007870060079444895 0 -0.00011713836938003975 0.00077708612484507164 0 -0.00011371355115996821 0.0007650184691020967 0 -4.8044900527720105e-05 0.0006049870865056828 0 -0.001193275032965051 0.00049480906674780002 0 -0.00011713836938003975 0.00077708612484507164 0 -0.0001184027747667755 0.00078691023859520678 0 -0.00012932063366442317 0.00077478596282483587 0 -0.00011713836938003975 0.00077708612484507164 0 -0.00012453626826377642 0.00075855489493892661 0 -0.00012932063366442317 0.00077478596282483587 0 -0.00059370961702207221 0.0010119159146041996 0 -0.0013043987866961399 0.00069460295959910526 0 0.00036247696712746592 0.00061465259774147983 0 0.00026368351300109924 0.00057621304832734008 0 0.0003173584607097857 0.00051417233340307947 0 0.00027873192530467625 0.00068289347019560376 0 0.00036247696712746592 0.00061465259774147983 0 0.00026368351300109924 0.00057621304832734008 0 0.00010724219028106635 0.00063693710802184892 0 0.00011484135008237957 0.00049890065701466873 0 0.00018076843793938895 0.00053774305698364516 0 0.00026368351300109924 0.00057621304832734008 0 0.00018076843793938895 0.00053774305698364516 0 0.00023656786474849368 0.00047826566040770255 0 0.00026368351300109924 0.00057621304832734008 0 0.00020125054490628417 0.00062840669904289429 0 0.00018076843793938895 0.00053774305698364516 0 0.00027873192530467625 0.00068289347019560376 0 0.00026368351300109924 0.00057621304832734008 0 0.00020125054490628417 0.00062840669904289429 0 0.00010724219028106635 0.00063693710802184892 0 0.00020125054490628417 0.00062840669904289429 0 0.00018076843793938895 0.00053774305698364516 0 0.00011484135008237957 0.00049890065701466873 0 0.00017812963273883094 0.00042965602633828539 0 0.00011420621097050945 0.00035203104607129407 0 0.00011484135008237957 0.00049890065701466873 0 0.00018076843793938895 0.00053774305698364516 0 0.00017812963273883094 0.00042965602633828539 0 0.00017812963273883094 0.00042965602633828539 0 0.00023656786474849368 0.00047826566040770255 0 0.00025002323513285019 0.00037561767503861915 0 0.00018076843793938895 0.00053774305698364516 0 0.00017812963273883094 0.00042965602633828539 0 0.00023656786474849368 0.00047826566040770255 0 0.00023656786474849368 0.00047826566040770255 0 0.0003173584607097857 0.00051417233340307947 0 0.00025002323513285019 0.00037561767503861915 0 0.0003173584607097857 0.00051417233340307947 0 0.00025002323513285019 0.00037561767503861915 0 0.00043417466687269591 0.00054257852359687012 0 0.00026368351300109924 0.00057621304832734008 0 0.00023656786474849368 0.00047826566040770255 0 0.0003173584607097857 0.00051417233340307947 0 -0.0020129867257948895 0.00025724137240101206 0 -0.0020785042820435687 0.00041820553873900333 0 -0.001936365116885232 0.00049567980207246016 0 -0.0020129867257948895 0.00025724137240101206 0 -0.0018015816958183151 0.00023831168822916913 0 -0.001936365116885232 0.00049567980207246016 0 -0.001193275032965051 0.00049480906674780002 0 -0.0025607753641506679 0.00065019142644685292 0 0.00027702679637519717 0.00035302544903504605 0 0.00025002323513285019 0.00037561767503861915 0 0.00011420621097050945 0.00035203104607129407 0 -0.00078577165022138075 0.00030736608027640987 0 -0.001193275032965051 0.00049480906674780002 0 0.00017812963273883094 0.00042965602633828539 0 0.00025002323513285019 0.00037561767503861915 0 0.00011420621097050945 0.00035203104607129407 0 -0.0028629902061306687 0.00032378832338026005 0 -0.0027556210933715264 0.00055337775833888862 0 -0.0030759281558108446 0.00073153973190997991 0 -0.0025766971359283404 0.00029939129185479785 0 -0.0028629902061306687 0.00032378832338026005 0 -0.0027556210933715264 0.00055337775833888862 0 -0.00011713836938003975 0.00077708612484507164 0 -0.00012833571080450248 0.00076711590377850935 0 -0.00011371355115996821 0.0007650184691020967 0 -0.0013043987866961399 0.00069460295959910526 0 -0.001193275032965051 0.00049480906674780002 0 -0.0025766971359283404 0.00029939129185479785 0 -0.0027556210933715264 0.00055337775833888862 0 -0.0024651194650376616 0.00050573007900643521 0 -0.0013043987866961399 0.00069460295959910526 0 -0.0027483595748273026 0.00094657190099167222 0 -0.00012453626826377642 0.00075855489493892661 0 -0.00015948688518556151 0.00075476698276934651 0 -0.00012932063366442317 0.00077478596282483587 0 -0.0018344348603177361 0.00078115856844753384 0 -0.0017011469090825674 0.0010230781038121411 0 -0.0014784328232782132 0.00074840160717154784 0 -0.0013043987866961399 0.00069460295959910526 0 -0.00090970687371358491 0.00095855928058920128 0 -0.0027483595748273026 0.00094657190099167222 0 -0.00090970687371358491 0.00095855928058920128 0 -0.0019456367056059679 0.0020125341085664447 0 -0.0016785491435031088 0.0016867164851265084 0 -0.0014975719958174886 0.0020680584051084201 0 -0.0010437983086857604 0.0016368222345637797 0 -0.0016785491435031088 0.0016867164851265084 0 -0.0014975719958174886 0.0020680584051084201 0 -0.00068036153032873436 0.0012305146321107277 0 -0.00090970687371358491 0.00095855928058920128 0 -0.0011084614699854397 0.0020715405172433993 0 -0.0010437983086857604 0.0016368222345637797 0 -0.0014975719958174886 0.0020680584051084201 0 -0.00021871376296819418 0.00081129541543371235 0 -0.00022004773563556686 0.00081565843167450205 0 -0.00020839761312592222 0.00081417959029125527 0 -0.00015948688518556151 0.00075476698276934651 0 -0.00020839761312592222 0.00081417959029125527 0 -0.0001644416774434529 0.00081156852296218791 0 -0.00090970687371358491 0.00095855928058920128 0 -4.081107344430031e-05 0.00066794026599138593 0 -0.00015948688518556151 0.00075476698276934651 0 -0.0001644416774434529 0.00081156852296218791 0 -0.00013389174714409594 0.00079683747654170909 0 -0.00013389174714409594 0.00079683747654170909 0 -0.0001184027747667755 0.00078691023859520678 0 -0.00012932063366442317 0.00077478596282483587 0 -0.00013389174714409594 0.00079683747654170909 0 -0.0001125059414564983 0.00080085506611332733 0 -0.0001184027747667755 0.00078691023859520678 0 -0.00015948688518556151 0.00075476698276934651 0 -0.00013389174714409594 0.00079683747654170909 0 -0.00012932063366442317 0.00077478596282483587 0 0.00093862879611309456 0.00028083351914162154 0 0.00071333244130769872 0.00036595119670033418 0 0.00065096899909286977 0.00054202885302511588 0 0.00079167047674145237 0.0002350556577556173 0 0.00071333244130769872 0.00036595119670033418 0 0.00048833142056954528 0.00028142028508714172 0 1.9971805772187084e-05 0.00022739337370437682 0 0.00037204845421930072 0.00014021541691494483 0 0.00071333244130769872 0.00036595119670033418 0 0.00048833142056954528 0.00028142028508714172 0 0.00065096899909286977 0.00054202885302511588 0 0.0037886010749072431 -0.00011711305589154145 0 0.0037290057066255654 0.00014254448565929325 0 0.0038824133360461366 0.00016068270882223983 0 0.0037886010749072431 -0.00011711305589154145 0 0.0036130772080478378 4.8116173537428579e-05 0 0.0037290057066255654 0.00014254448565929325 0 0.0019989606742450957 0.00022789787529426352 0 0.0024849204212121154 0.00034799061426031563 0 0.0013712325322334036 0.00062789556538073068 0 0.0012739443094419622 0.00070098501641172213 0 0.00121198225709446 0.00064872993965239833 0 0.0012739443094419622 0.00070098501641172213 0 0.0011852665606081681 0.0007010721076789034 0 0.0011965950461110938 0.00076369807199981989 0 0.0012739443094419622 0.00070098501641172213 0 0.00121198225709446 0.00064872993965239833 0 0.0011852665606081681 0.0007010721076789034 0 0.0013712325322334036 0.00062789556538073068 0 0.001200991996588164 0.00055041977481202901 0 0.0012133084420755068 0.00057425920762896755 0 0.0019989606742450957 0.00022789787529426352 0 0.00049467001182815868 0.00040671611110842796 0 0.0013712325322334036 0.00062789556538073068 0 0.00121198225709446 0.00064872993965239833 0 0.0012133084420755068 0.00057425920762896755 0 0.00048833142056954528 0.00028142028508714172 0 0.00065096899909286977 0.00054202885302511588 0 0.00018576790440460859 0.00031802615605847919 0 0.001200991996588164 0.00055041977481202901 0 0.0012133084420755068 0.00057425920762896755 0 0.00095303333552878482 0.0006948569676785228 0 0.00081104621234050667 0.00055426741466928415 0 0.00060807363297920051 0.00078445013985364701 0 0.0005985136835946446 0.00024696202018344767 0 0.001200991996588164 0.00055041977481202901 0 0.00081104621234050667 0.00055426741466928415 0 0.00095303333552878482 0.0006948569676785228 0 0.00081104621234050667 0.00055426741466928415 0 0.00095303333552878482 0.0006948569676785228 0 0.00060807363297920051 0.00078445013985364701 0 0.00095303333552878482 0.0006948569676785228 0 0.0007987598076763182 0.0009344679392129029 0 0.00060807363297920051 0.00078445013985364701 0 0.0011995097193718606 0.00059048559199894853 0 0.00096026827151121056 0.00080419976058316287 0 0.00121198225709446 0.00064872993965239833 0 0.0012133084420755068 0.00057425920762896755 0 0.0011504125464691021 0.00065443733452913118 0 0.0012133084420755068 0.00057425920762896755 0 0.00095303333552878482 0.0006948569676785228 0 0.0007987598076763182 0.0009344679392129029 0 0.00121198225709446 0.00064872993965239833 0 0.0011852665606081681 0.0007010721076789034 0 0.0011504125464691021 0.00065443733452913118 0 0.0011852665606081681 0.0007010721076789034 0 0.0011504125464691021 0.00065443733452913118 0 0.0010746773035987967 0.00072143125500396957 0 0.0011852665606081681 0.0007010721076789034 0 0.0010746773035987967 0.00072143125500396957 0 0.0011965950461110938 0.00076369807199981989 0 0.00096026827151121056 0.00080419976058316287 0 0.00084413573795134975 0.00078308888932235885 0 0.0007987598076763182 0.0009344679392129029 0 0.0005498201868284516 0.00095667610851854772 0 0.00047951777150907814 0.0011493835840117978 0 0.0005498201868284516 0.00095667610851854772 0 0.00047951777150907814 0.0011493835840117978 0 0.00039383053454086997 0.00091316360519715003 0 0.00061796134961912346 0.00077051237921514832 0 0.00028979181722301432 0.00030649597402124289 0 0.00039383053454086997 0.00091316360519715003 0 0.00060807363297920051 0.00078445013985364701 0 0.00039248265396381229 0.00074274175647437196 0 0.00060807363297920051 0.00078445013985364701 0 0.00047795786414447678 0.00064399040782918426 0 0.0005837520790047243 0.00050487479803419753 0 0.0007987598076763182 0.0009344679392129029 0 0.0005498201868284516 0.00095667610851854772 0 0.00060807363297920051 0.00078445013985364701 0 0.0005498201868284516 0.00095667610851854772 0 0.00039383053454086997 0.00091316360519715003 0 0.00060807363297920051 0.00078445013985364701 0 0.00060807363297920051 0.00078445013985364701 0 0.00047795786414447678 0.00064399040782918426 0 0.00039248265396381229 0.00074274175647437196 0 0.00036247696712746592 0.00061465259774147983 0 0.00047795786414447678 0.00064399040782918426 0 0.00039248265396381229 0.00074274175647437196 0 0.00025002323513285019 0.00037561767503861915 0 0.00043417466687269591 0.00054257852359687012 0 0.0005837520790047243 0.00050487479803419753 0 0.00033777993657575138 0.00042132521141426853 0 0.00028979181722301432 0.00030649597402124289 0 0.00036247696712746592 0.00061465259774147983 0 0.0003173584607097857 0.00051417233340307947 0 0.00043417466687269591 0.00054257852359687012 0 0.00036247696712746592 0.00061465259774147983 0 0.00047795786414447678 0.00064399040782918426 0 0.00043417466687269591 0.00054257852359687012 0 0.00047795786414447678 0.00064399040782918426 0 0.00043417466687269591 0.00054257852359687012 0 0.0005837520790047243 0.00050487479803419753 0 0.00028979181722301432 0.00030649597402124289 0 -0.00064002567634997669 9.1663497025947085e-05 0 -0.00078577165022138075 0.00030736608027640987 0 -0.0011544849247789278 0.00045547227256616355 0 0.00027702679637519717 0.00035302544903504605 0 0.00025002323513285019 0.00037561767503861915 0 0.0003224437889751175 0.00039514061329415519 0 -0.0020129867257948895 0.00025724137240101206 0 -0.0022185188511428381 0.0002774744005574488 0 -0.0020785042820435687 0.00041820553873900333 0 0.00027702679637519717 0.00035302544903504605 0 0.0003224437889751175 0.00039514061329415519 0 0.00031785805361078369 0.00036580645160510736 0 -0.0011544849247789278 0.00045547227256616355 0 -0.00064002567634997669 9.1663497025947085e-05 0 0.00027702679637519717 0.00035302544903504605 0 0.00031511231658418062 0.00035327948668808655 0 0.00031785805361078369 0.00036580645160510736 0 -0.0015360153632493411 0.00026564418268855259 0 -0.0015146354446843539 0.00024859335517796481 0 -0.0014550732826804857 0.0002923596254807758 0 -0.0015422559055102748 0.00025198817734835559 0 -0.0015146354446843539 0.00024859335517796481 0 -0.0015495688276482421 0.00017915594232359826 0 -0.0015146354446843539 0.00024859335517796481 0 -0.0014598571445493239 0.00023303247246017351 0 -0.0014986274162977276 0.00020893985182470379 0 -0.0015356930779061937 0.00025176645696196328 0 -0.0015360153632493411 0.00026564418268855259 0 -0.0015146354446843539 0.00024859335517796481 0 -0.0011544849247789278 0.00045547227256616355 0 -0.0014846889091983699 0.00038257563077418437 0 -0.00064002567634997669 9.1663497025947085e-05 0 -0.00071227780563349003 0.00016698606036792687 0 0.00049467001182815868 0.00040671611110842796 0 0.00028979181722301432 0.00030649597402124289 0 0.001200991996588164 0.00055041977481202901 0 0.00081104621234050667 0.00055426741466928415 0 0.0005985136835946446 0.00024696202018344767 0 -0.00026739449082040635 9.8280735689606851e-05 0 -0.00026849205753362305 -0.00010272705721638623 0 0.00025569049554186518 6.4663252818528456e-05 0 0.00018576790440460859 0.00031802615605847919 0 -0.00026739449082040635 9.8280735689606851e-05 0 0.00025569049554186518 6.4663252818528456e-05 0 0.00048833142056954528 0.00028142028508714172 0 0.00018576790440460859 0.00031802615605847919 0 0.00025569049554186518 6.4663252818528456e-05 0 -0.0014550732826804857 0.0002923596254807758 0 -0.0014598571445493239 0.00023303247246017351 0 -0.0013970775075247432 0.00025843259813584783 0 -0.0015146354446843539 0.00024859335517796481 0 -0.0014550732826804857 0.0002923596254807758 0 -0.0014598571445493239 0.00023303247246017351 0 -0.0014598571445493239 0.00023303247246017351 0 -0.0013970775075247432 0.00025843259813584783 0 -0.0013957440625179999 0.00016823005512901532 0 -0.0013641713837078404 0.00031885955116015604 0 -0.0014550732826804857 0.0002923596254807758 0 -0.0013970775075247432 0.00025843259813584783 0 0.00079167047674145237 0.0002350556577556173 0 0.00048833142056954528 0.00028142028508714172 0 0.00025569049554186518 6.4663252818528456e-05 0 1.9971805772187084e-05 0.00022739337370437682 0 -0.00071227780563349003 0.00016698606036792687 0 -0.0034949525420427448 0.00028930564768942722 0 -0.0045542113758991112 0.0004188492301490173 0 -0.0054920847075985513 0.00061812544309307793 0 -0.0055694794823880752 0.0004981735884109573 0 -0.0052530878411598397 0.00053585922087468125 0 -0.0034949525420427448 0.00028930564768942722 0 -0.0021735786290749031 0.00023466198702336259 0 -0.0014598571445493239 0.00023303247246017351 0 -0.0013957440625179999 0.00016823005512901532 0 -0.0014712045041929513 0.00017457390717750878 0 -0.0014598571445493239 0.00023303247246017351 0 -0.0014712045041929513 0.00017457390717750878 0 -0.0014986274162977276 0.00020893985182470379 0 -0.003517651785381562 0.0003245796336048753 0 -0.0033365547788289361 0.00030888956667641967 0 -0.0033388842229715018 0.00035355506209655037 0 -0.00622979073585379 0.00050363520327700211 0 -0.0066685794528149418 0.00037957224335516035 0 -0.0064567550555428435 0.00031558453994459494 0 -0.0054920847075985513 0.00061812544309307793 0 -0.0052530878411598397 0.00053585922087468125 0 -0.0052080225459703606 0.00066557354870384596 0 -0.0058382990836215965 0.00055506082685093864 0 -0.0060002747685513492 0.0005081086916840069 0 -0.0033388842229715018 0.00035355506209655037 0 -0.0031539884590792546 0.0002981695801366897 0 -0.0031584279199714516 0.00038852293367416617 0 -0.0052530878411598397 0.00053585922087468125 0 -0.0052080225459703606 0.00066557354870384596 0 -0.0048961583703612966 0.00060025784418038595 0 -0.0060002747685513492 0.0005081086916840069 0 -0.0054401891365891825 0.00059924827720706821 0 -0.0052080225459703606 0.00066557354870384596 0 -0.0048961583703612966 0.00060025784418038595 0 -0.0048986350455530554 0.00071222198782651045 0 -0.0045542113758991112 0.0004188492301490173 0 -0.0037781600866494832 0.00062102611450680204 0 -0.0014712045041929513 0.00017457390717750878 0 -0.0014986274162977276 0.00020893985182470379 0 -0.0015495688276482421 0.00017915594232359826 0 -0.0015146354446843539 0.00024859335517796481 0 -0.0014986274162977276 0.00020893985182470379 0 -0.0015495688276482421 0.00017915594232359826 0 -0.0033365547788289361 0.00030888956667641967 0 -0.0033388842229715018 0.00035355506209655037 0 -0.0031539884590792546 0.0002981695801366897 0 -0.0021735786290749031 0.00023466198702336259 0 -0.0024498685488319829 0.00020475190710413045 0 -0.0022185188511428381 0.0002774744005574488 0 -0.0022326020517500406 0.00055956464116739015 0 -0.002165963205930686 0.00049133861536189785 0 -0.0022185188511428381 0.0002774744005574488 0 -0.002165963205930686 0.00049133861536189785 0 -0.0020785042820435687 0.00041820553873900333 0 -0.0011544849247789278 0.00045547227256616355 0 -0.0024498685488319829 0.00020475190710413045 0 -0.0022326020517500406 0.00055956464116739015 0 -0.0021611229089268632 0.00055807733766148734 0 -0.0021684668748064725 0.00061943490749282641 0 -0.0022326020517500406 0.00055956464116739015 0 -0.0021611229089268632 0.00055807733766148734 0 -0.002165963205930686 0.00049133861536189785 0 -0.002165963205930686 0.00049133861536189785 0 -0.0020785042820435687 0.00041820553873900333 0 -0.0020857609216652275 0.00056229788231202814 0 -0.0021611229089268632 0.00055807733766148734 0 -0.002165963205930686 0.00049133861536189785 0 -0.0020857609216652275 0.00056229788231202814 0 -0.0021611229089268632 0.00055807733766148734 0 -0.0020857609216652275 0.00056229788231202814 0 -0.0021684668748064725 0.00061943490749282641 0 -0.0020857609216652275 0.00056229788231202814 0 -0.0021684668748064725 0.00061943490749282641 0 -0.0020710076979066792 0.00074930881046481783 0 -0.0021684668748064725 0.00061943490749282641 0 -0.0022413062980321048 0.00071452167059358714 0 -0.0020710076979066792 0.00074930881046481783 0 -0.0024498685488319829 0.00020475190710413045 0 -0.0037781600866494832 0.00062102611450680204 0 -0.0022326020517500406 0.00055956464116739015 0 -0.0021684668748064725 0.00061943490749282641 0 -0.0022413062980321048 0.00071452167059358714 0 -0.0044451238031628692 0.00057371240564373734 0 -0.0042074814192619176 0.00079338099582965419 0 -0.0044483878023619779 0.00075622580701990958 0 -0.0037781600866494832 0.00062102611450680204 0 -0.0054401891365891825 0.00059924827720706821 0 -0.0037781600866494832 0.00062102611450680204 0 -0.0032131198735892551 0.00069874676901003825 0 -0.0044451238031628692 0.00057371240564373734 0 -0.0041295925005866083 0.0006358926363058061 0 -0.0042074814192619176 0.00079338099582965419 0 -0.0033008329814832493 0.0011404036291639663 0 -0.0033738354866381529 0.0012868966440024025 0 -0.003172312982399836 0.0011677920484031914 0 -0.0032131198735892551 0.00069874676901003825 0 -0.0048061382976552066 0.00104734831676101 0 -0.0057491833113890913 0.0012712297678006109 0 -0.0059125549380828948 0.0015976486914039412 0 -0.0054533735748785008 0.0013839765872798086 0 -0.0048061382976552066 0.00104734831676101 0 -0.007027674544741699 0.0007234687855384726 0 -0.0057912009376229947 0.00073910287609983152 0 -0.0059024042525311869 0.00081335167188510498 0 -0.0058853805288446772 0.00092495465034498204 0 -0.005977785685292899 0.00071002404809227589 0 -0.0059024042525311869 0.00081335167188510498 0 -0.0059833735466349649 0.00095045585878238711 0 -0.0048061382976552066 0.00104734831676101 0 -0.0054401891365891825 0.00059924827720706821 0 -0.0057912009376229947 0.00073910287609983152 0 -0.005977785685292899 0.00071002404809227589 0 -0.0059024042525311869 0.00081335167188510498 0 -0.0067404324282973483 0.00027247976270863432 0 -0.0066899034886087035 0.00026033932194337615 0 -0.0067178509671640199 0.00026396148985055324 0 -0.0054401891365891825 0.00059924827720706821 0 -0.0067116851309141677 0.00053150856851972054 0 -0.0059024042525311869 0.00081335167188510498 0 -0.0059833735466349649 0.00095045585878238711 0 -0.0058853805288446772 0.00092495465034498204 0 -0.0067116851309141677 0.00053150856851972054 0 -0.007027674544741699 0.0007234687855384726 0 -0.0092680128029830021 -0.00047440153531073882 0 -0.0092934455032989798 -0.00044615646108117613 0 -0.0092426927157666077 -0.00046316835934806467 0 -0.009972303444563126 -0.00023369452654471514 0 -0.009623431230847029 -0.00037087089278669693 0 -0.0098566245951397496 -0.0001552589225329917 0 -0.0092818893781645567 -0.00049736351715451595 0 -0.0092680128029830021 -0.00047440153531073882 0 -0.0092295860313365129 -0.00049717739521384008 0 -0.0092251735051797693 -0.00012644651240039509 0 -0.0094868628505867993 -0.0004021813037564526 0 -0.0084188332194473862 0.00015591171045061344 0 -0.0084161196256851128 -9.764823916774645e-05 0 -0.0085570070960657059 0.00019378074552969893 0 -0.0092680128029830021 -0.00047440153531073882 0 -0.0092934455032989798 -0.00044615646108117613 0 -0.0092923222178045699 -0.00046640235815400481 0 -0.0092251735051797693 -0.00012644651240039509 0 -0.0080084873091460507 2.4758782552448334e-05 0 -0.0092818893781645567 -0.00049736351715451595 0 -0.0092680128029830021 -0.00047440153531073882 0 -0.0092923222178045699 -0.00046640235815400481 0 -0.007027674544741699 0.0007234687855384726 0 -0.0080084873091460507 2.4758782552448334e-05 0 -0.0067559193513709913 0.00030468162308075827 0 -0.0067597287203101037 0.00031155280659630747 0 -0.0067637056709830478 0.00031170892132264806 0 -0.0073382267609142481 0.00036857443470627996 0 -0.0073756263847009713 0.00037923762367313136 0 -0.0073411259294866825 0.00029715706759041134 0 -0.0067116851309141677 0.00053150856851972054 0 -0.0080084873091460507 2.4758782552448334e-05 0 -0.0067559193513709913 0.00030468162308075827 0 -0.0067767589739211893 0.00031061686412021001 0 -0.0067964807172047467 0.00028709119671323598 0 -0.0067116851309141677 0.00053150856851972054 0 -0.0067896797744780996 0.00021631584719027918 0 -0.0067625745865237605 0.00032303348910768211 0 -0.0067767589739211893 0.00031061686412021001 0 -0.0067932007227804814 0.00035819349748428448 0 -0.0067559193513709913 0.00030468162308075827 0 -0.0067637056709830478 0.00031170892132264806 0 -0.0067767589739211893 0.00031061686412021001 0 -0.0067637056709830478 0.00031170892132264806 0 -0.0067625745865237605 0.00032303348910768211 0 -0.0067767589739211893 0.00031061686412021001 0 -0.0067597287203101037 0.00031155280659630747 0 -0.0067637056709830478 0.00031170892132264806 0 -0.0067625745865237605 0.00032303348910768211 0 -0.0080084873091460507 2.4758782552448334e-05 0 -0.0086151721495463691 -2.7882276025769815e-05 0 -0.0092251735051797693 -0.00012644651240039509 0 -0.0086151721495463691 -2.7882276025769815e-05 0 -0.0066899034886087035 0.00026033932194337615 0 -0.0067154120035897626 0.000248263008623686 0 -0.0067964807172047467 0.00028709119671323598 0 -0.0066685794528149418 0.00037957224335516035 0 -0.0067404324282973483 0.00027247976270863432 0 -0.0067143808441326776 0.00027683630471373691 0 -0.0067154120035897626 0.000248263008623686 0 -0.0067143808441326776 0.00027683630471373691 0 -0.0067215919756849259 0.00022960051603911825 0 -0.0066899034886087035 0.00026033932194337615 0 -0.0067154120035897626 0.000248263008623686 0 -0.0067178509671640199 0.00026396148985055324 0 -0.0067154120035897626 0.000248263008623686 0 -0.0067178509671640199 0.00026396148985055324 0 -0.0067143808441326776 0.00027683630471373691 0 -0.0067404324282973483 0.00027247976270863432 0 -0.0067178509671640199 0.00026396148985055324 0 -0.0067143808441326776 0.00027683630471373691 0 -0.0066685794528149418 0.00037957224335516035 0 -0.0067143808441326776 0.00027683630471373691 0 -0.0067215919756849259 0.00022960051603911825 0 -0.0064567550555428435 0.00031558453994459494 0 -0.0067215919756849259 0.00022960051603911825 0 -0.0061681300820366136 0.00015577165677785627 0 -0.0067154120035897626 0.000248263008623686 0 -0.0067215919756849259 0.00022960051603911825 0 -0.0067964807172047467 0.00028709119671323598 0 -0.0067059755579721714 0.00021366239381647473 0 -0.0065396171548685929 0.000178655012676465 0 -0.0067215919756849259 0.00022960051603911825 0 -0.0068544663292051996 0.00025063406905616694 0 -0.0069099636508974721 0.00017852352520874047 0 -0.0066685794528149418 0.00037957224335516035 0 -0.0064567550555428435 0.00031558453994459494 0 -0.0067215919756849259 0.00022960051603911825 0 -0.0067215919756849259 0.00022960051603911825 0 -0.0067964807172047467 0.00028709119671323598 0 -0.0068544663292051996 0.00025063406905616694 0 -0.0067767589739211893 0.00031061686412021001 0 -0.0067964807172047467 0.00028709119671323598 0 -0.0067932007227804814 0.00035819349748428448 0 -0.0067964807172047467 0.00028709119671323598 0 -0.0068537318185903761 0.00035554233068831173 0 -0.0067932007227804814 0.00035819349748428448 0 -0.0067964807172047467 0.00028709119671323598 0 -0.0068544663292051996 0.00025063406905616694 0 -0.0069074008604951475 0.00031721151009356534 0 -0.0067964807172047467 0.00028709119671323598 0 -0.0069074008604951475 0.00031721151009356534 0 -0.0068537318185903761 0.00035554233068831173 0 -0.0069074008604951475 0.00031721151009356534 0 -0.0068537318185903761 0.00035554233068831173 0 -0.0069000470490776684 0.00036886604117653221 0 -0.0068544663292051996 0.00025063406905616694 0 -0.0069074008604951475 0.00031721151009356534 0 -0.0069517707750926692 0.00025508911635174238 0 -0.0070214191598925047 0.00030289068224431816 0 -0.0069074008604951475 0.00031721151009356534 0 -0.0069517707750926692 0.00025508911635174238 0 -0.0070253064114325151 0.00023092589234376628 0 -0.0069517707750926692 0.00025508911635174238 0 -0.0069099636508974721 0.00017852352520874047 0 -0.0068544663292051996 0.00025063406905616694 0 -0.0069517707750926692 0.00025508911635174238 0 -0.0069099636508974721 0.00017852352520874047 0 -0.00622979073585379 0.00050363520327700211 0 -0.0064567550555428435 0.00031558453994459494 0 -0.0061681300820366136 0.00015577165677785627 0 -0.0059448882295638997 0.00036132815900250567 0 -0.00622979073585379 0.00050363520327700211 0 -0.0061681300820366136 0.00015577165677785627 0 -0.0040875895348958715 0.0011411755691845837 0 -0.0045668580538076441 0.0010082941084368295 0 -0.0049973281293363087 0.0013692481361634746 0 -0.0043010065157466533 0.00081211174588335076 0 -0.0040659792993292584 0.0010061014728040862 0 -0.004101528590425489 0.00058684151937802827 0 -0.0043010065157466533 0.00081211174588335076 0 -0.0040875895348958715 0.0011411755691845837 0 -0.0045668580538076441 0.0010082941084368295 0 -0.0043010065157466533 0.00081211174588335076 0 -0.0040659792993292584 0.0010061014728040862 0 -0.0040875895348958715 0.0011411755691845837 0 -0.0049693428648789539 0.00068159343639115821 0 -0.0051090184971296559 0.00044178084015463251 0 -0.0051090184971296559 0.00044178084015463251 0 -0.0014389453681862459 0.0020102751274124948 0 -0.0014395955339063127 0.0029095008195205089 0 -0.0012015761826490792 0.0024274437375399359 0 -0.0016945214661478786 0.0024615484396374571 0 -0.0040659792993292584 0.0010061014728040862 0 -0.0040847183243916769 0.0011414832567094519 0 -0.0038197890417839618 0.0010747507589577193 0 -0.0040659792993292584 0.0010061014728040862 0 -0.0038197890417839618 0.0010747507589577193 0 -0.004101528590425489 0.00058684151937802827 0 -0.0014389453681862459 0.0020102751274124948 0 -0.0029458587858137639 0.0014193057923056504 0 -0.0014975719958174886 0.0020680584051084201 0 -0.0012015761826490792 0.0024274437375399359 0 -0.0016945214661478786 0.0024615484396374571 0 -0.0011084614699854397 0.0020715405172433993 0 -0.0014975719958174886 0.0020680584051084201 0 -0.0012015761826490792 0.0024274437375399359 0 -0.0043665920693625069 0.00010468290832457759 0 -0.0043010065157466533 0.00081211174588335076 0 -0.004101528590425489 0.00058684151937802827 0 -0.0043665920693625069 0.00010468290832457759 0 -0.0043010065157466533 0.00081211174588335076 0 -0.0048802528705447473 0.00071294218891229373 0 -0.0027483595748273026 0.00094657190099167222 0 -0.0029458587858137639 0.0014193057923056504 0 -0.0019456367056059679 0.0020125341085664447 0 -0.0014975719958174886 0.0020680584051084201 0 -0.0016945214661478786 0.0024615484396374571 0 -0.0027556210933715264 0.00055337775833888862 0 -0.0030759281558108446 0.00073153973190997991 0 -0.0027998899188455156 0.00090829921736315178 0 -0.0027483595748273026 0.00094657190099167222 0 -0.0039068834010144706 0.00076284172292434061 0 -0.0027556210933715264 0.00055337775833888862 0 -0.0024651194650376616 0.00050573007900643521 0 -0.0027998899188455156 0.00090829921736315178 0 -0.0020785042820435687 0.00041820553873900333 0 -0.0020857609216652275 0.00056229788231202814 0 -0.001936365116885232 0.00049567980207246016 0 -0.0030759281558108446 0.00073153973190997991 0 -0.0030791929674514333 0.0010282711322035266 0 -0.0027998899188455156 0.00090829921736315178 0 -0.0032131198735892551 0.00069874676901003825 0 -0.0025607753641506679 0.00065019142644685292 0 -0.0020857609216652275 0.00056229788231202814 0 -0.0020710076979066792 0.00074930881046481783 0 -0.001936365116885232 0.00049567980207246016 0 -0.0048802528705447473 0.00071294218891229373 0 -0.0049973281293363087 0.0013692481361634746 0 -0.0054063138141521609 0.0013290258051474148 0 -0.0039068834010144706 0.00076284172292434061 0 -0.0042722562682660867 0.0011974402741244563 0 -0.0030791929674514333 0.0010282711322035266 0 -0.0027998899188455156 0.00090829921736315178 0 -0.0031411400317380655 0.0013194279301844754 0 -0.0032896843802468529 0.0011433473979894555 0 -0.0030759281558108446 0.00073153973190997991 0 -0.0030791929674514333 0.0010282711322035266 0 -0.0032896843802468529 0.0011433473979894555 0 -0.0030791929674514333 0.0010282711322035266 0 -0.003172312982399836 0.0011677920484031914 0 -0.0030791929674514333 0.0010282711322035266 0 -0.003172312982399836 0.0011677920484031914 0 -0.0031411400317380655 0.0013194279301844754 0 -0.0032131198735892551 0.00069874676901003825 0 -0.0031764982890147789 0.0008242087580205439 0 -0.0043010065157466533 0.00081211174588335076 0 -0.0048802528705447473 0.00071294218891229373 0 -0.0045668580538076441 0.0010082941084368295 0 -0.0048802528705447473 0.00071294218891229373 0 -0.0045668580538076441 0.0010082941084368295 0 -0.0049973281293363087 0.0013692481361634746 0 -0.0091820729307763582 -0.00058636078735665922 0 -0.0092295860313365129 -0.00049717739521384008 0 -0.0091771404765778816 -0.00045186605850375022 0 -0.0091820729307763582 -0.00058636078735665922 0 -0.0091771404765778816 -0.00045186605850375022 0 -0.0090139613288497504 -0.00052882686785689023 0 -0.0059125549380828948 0.0015976486914039412 0 -0.0049973281293363087 0.0013692481361634746 0 -0.0054533735748785008 0.0013839765872798086 0 -0.007027674544741699 0.0007234687855384726 0 -0.0074724215172577938 0.00037704224926609416 0 -0.0092818893781645567 -0.00049736351715451595 0 -0.0091820729307763582 -0.00058636078735665922 0 -0.0092295860313365129 -0.00049717739521384008 0 -0.0057491833113890913 0.0012712297678006109 0 -0.0054068892441889709 0.0013267694038019806 0 -0.0054533735748785008 0.0013839765872798086 0 -0.0033738354866381529 0.0012868966440024025 0 -0.003172312982399836 0.0011677920484031914 0 -0.0031411400317380655 0.0013194279301844754 0 -0.0048061382976552066 0.00104734831676101 0 -0.0042722562682660867 0.0011974402741244563 0 -0.0042722562682660867 0.0011974402741244563 0 -0.0043883206723179915 0.0012853290574080664 0 -0.0049973281293363087 0.0013692481361634746 0 -0.0054063138141521609 0.0013290258051474148 0 -0.0054533735748785008 0.0013839765872798086 0 -0.009623431230847029 -0.00037087089278669693 0 -0.0091771404765778816 -0.00045186605850375022 0 -0.0095356300793977364 -0.00015968694092972663 0 -0.0094868628505867993 -0.0004021813037564526 0 -0.009185267143297992 -0.00046012620759520138 0 -0.0092295860313365129 -0.00049717739521384008 0 -0.0092426927157666077 -0.00046316835934806467 0 -0.0091771404765778816 -0.00045186605850375022 0 -0.0092680128029830021 -0.00047440153531073882 0 -0.0092295860313365129 -0.00049717739521384008 0 -0.0092426927157666077 -0.00046316835934806467 0 -0.0091771404765778816 -0.00045186605850375022 0 -0.0088623192068085083 -0.00032340661313760318 0 -0.0090818934253846864 -0.00016060390121802864 0 -0.0091771404765778816 -0.00045186605850375022 0 -0.0088623192068085083 -0.00032340661313760318 0 -0.0090139613288497504 -0.00052882686785689023 0 -0.00097510805488622081 0.0017155683571853635 0 -0.00097663826851251208 0.0020638490502521692 0 -0.00085518167821623176 0.0018928084186989147 0 -0.0051090184971296559 0.00044178084015463251 0 -0.0048810436109631532 0.00088019394322281597 0 -0.0051090184971296559 0.00044178084015463251 0 -0.0074724215172577938 0.00037704224926609416 0 -0.0087982547486436507 -0.00072677007002564648 0 -0.0088623192068085083 -0.00032340661313760318 0 -0.0090139613288497504 -0.00052882686785689023 0 -0.0087982547486436507 -0.00072677007002564648 0 -0.0091820729307763582 -0.00058636078735665922 0 -0.0090139613288497504 -0.00052882686785689023 0 -0.00068357484231823594 0.0019985744961798207 0 -0.00086973236316505111 0.001692098503906736 0 -0.00085518167821623176 0.0018928084186989147 0 -0.00097510805488622081 0.0017155683571853635 0 -0.00086973236316505111 0.001692098503906736 0 -0.00085518167821623176 0.0018928084186989147 0 -0.00035452733435559002 0.0024391777682475496 0 -0.0014389453681862459 0.0020102751274124948 0 -0.00068357484231823594 0.0019985744961798207 0 -0.00097663826851251208 0.0020638490502521692 0 -0.00078089622947825432 0.002223118885597532 0 -0.00068357484231823594 0.0019985744961798207 0 -0.00097663826851251208 0.0020638490502521692 0 -0.00085518167821623176 0.0018928084186989147 0 -0.00092512514315657649 0.0022803592473651336 0 -0.00084194293792750935 0.0023136571508577237 0 -0.00072315353576940468 0.0023177387462487804 0 -0.00078089622947825432 0.002223118885597532 0 -0.00092512514315657649 0.0022803592473651336 0 -0.00072315353576940468 0.0023177387462487804 0 -0.0048810436109631532 0.00088019394322281597 0 -0.004996097057066772 0.0012104801576639443 0 -0.00097663826851251208 0.0020638490502521692 0 -0.00078089622947825432 0.002223118885597532 0 -0.00092512514315657649 0.0022803592473651336 0 -0.0088623192068085083 -0.00032340661313760318 0 -0.0089573623555462382 0.00020110796172096462 0 -0.0090818934253846864 -0.00016060390121802864 0 -0.0091771404765778816 -0.00045186605850375022 0 -0.0093226574913103221 -5.5647057998396827e-05 0 -0.0095356300793977364 -0.00015968694092972663 0 -0.0091771404765778816 -0.00045186605850375022 0 -0.0090818934253846864 -0.00016060390121802864 0 -0.0093226574913103221 -5.5647057998396827e-05 0 -0.0089573623555462382 0.00020110796172096462 0 -0.0090818934253846864 -0.00016060390121802864 0 -0.0093226574913103221 -5.5647057998396827e-05 0 -0.0095356300793977364 -0.00015968694092972663 0 -0.0097260808970967127 -1.7646458928368086e-05 0 -0.0097376522257336361 -0.00014185204426890306 0 -0.009623431230847029 -0.00037087089278669693 0 -0.0095356300793977364 -0.00015968694092972663 0 -0.0097376522257336361 -0.00014185204426890306 0 -0.0093226574913103221 -5.5647057998396827e-05 0 -0.0095356300793977364 -0.00015968694092972663 0 -0.0095658137324458447 3.8638073345023372e-05 0 -0.0095658137324458447 3.8638073345023372e-05 0 -0.0097260808970967127 -1.7646458928368086e-05 0 -0.009729255867025206 0.00013429499106026269 0 -0.0095356300793977364 -0.00015968694092972663 0 -0.0095658137324458447 3.8638073345023372e-05 0 -0.0097260808970967127 -1.7646458928368086e-05 0 -0.0093226574913103221 -5.5647057998396827e-05 0 -0.0095658137324458447 3.8638073345023372e-05 0 -0.0094571581918064581 0.0002633502091202441 0 -0.0095658137324458447 3.8638073345023372e-05 0 -0.009729255867025206 0.00013429499106026269 0 -0.0094571581918064581 0.0002633502091202441 0 -0.009729255867025206 0.00013429499106026269 0 -0.0094571581918064581 0.0002633502091202441 0 -0.0097804817690610255 0.00031914264135117905 0 -0.0089573623555462382 0.00020110796172096462 0 -0.0093226574913103221 -5.5647057998396827e-05 0 -0.0094571581918064581 0.0002633502091202441 0 -0.0089573623555462382 0.00020110796172096462 0 -0.0094571581918064581 0.0002633502091202441 0 -0.0090657744392180599 0.00074813725452077366 0 -0.0094571581918064581 0.0002633502091202441 0 -0.0096691043694817763 0.00051651650540051816 0 -0.0090657744392180599 0.00074813725452077366 0 -0.0096691043694817763 0.00051651650540051816 0 -0.0097804817690610255 0.00031914264135117905 0 -0.0099401615694274231 0.00055590234493160351 0 -0.0094571581918064581 0.0002633502091202441 0 -0.0096691043694817763 0.00051651650540051816 0 -0.0097804817690610255 0.00031914264135117905 0 -0.0096691043694817763 0.00051651650540051816 0 -0.0096759540204531015 0.00079211094249436917 0 -0.0099401615694274231 0.00055590234493160351 0 -0.0096691043694817763 0.00051651650540051816 0 -0.0096759540204531015 0.00079211094249436917 0 -0.0090657744392180599 0.00074813725452077366 0 -0.0096759540204531015 0.00079211094249436917 0 -0.0090657744392180599 0.00074813725452077366 0 -0.0096007477432940424 0.0012498219800575452 0 -0.00089812843750841458 0.0023053266284647879 0 -0.00086041665123659289 0.0023082654988357105 0 -0.00084194293792750935 0.0023136571508577237 0 -0.00089812843750841458 0.0023053266284647879 0 -0.00086041665123659289 0.0023082654988357105 0 -0.00089600947232747012 0.0022810295184696595 0 -0.00086041665123659289 0.0023082654988357105 0 -0.00088760620643678226 0.0022754483514137859 0 -0.00089600947232747012 0.0022810295184696595 0 -0.00086041665123659289 0.0023082654988357105 0 -0.00088760620643678226 0.0022754483514137859 0 -0.00083388100834425071 0.0023149500436263526 0 -0.00086041665123659289 0.0023082654988357105 0 -0.00083388100834425071 0.0023149500436263526 0 -0.00078115965680507888 0.0023071392468024675 0 -0.00084194293792750935 0.0023136571508577237 0 -0.00078115965680507888 0.0023071392468024675 0 -0.00072315353576940468 0.0023177387462487804 0 -0.00086041665123659289 0.0023082654988357105 0 -0.00084194293792750935 0.0023136571508577237 0 -0.00078115965680507888 0.0023071392468024675 0 -0.004996097057066772 0.0012104801576639443 0 -0.0046188380025322219 0.0016429026962162451 0 -0.00092512514315657649 0.0022803592473651336 0 -0.00089812843750841458 0.0023053266284647879 0 -0.00084194293792750935 0.0023136571508577237 0 -0.009895943350932742 0.00010332728384229286 0 -0.009882697179646939 7.8791037183020468e-05 0 -0.0098792443727272975 9.0317271053953543e-05 0 -0.009895943350932742 0.00010332728384229286 0 -0.0098792443727272975 9.0317271053953543e-05 0 -0.0098828278790501715 0.00011451159044103596 0 -0.0099292499008831088 0.0001066831424881181 0 -0.009895943350932742 0.00010332728384229286 0 -0.009882697179646939 7.8791037183020468e-05 0 -0.0069821465328025979 0.0003829878286187648 0 -0.0069116696891367421 0.00043110254853545056 0 -0.0069252913696866841 0.00040211386178688497 0 -0.0069821465328025979 0.0003829878286187648 0 -0.0069252913696866841 0.00040211386178688497 0 -0.0069000470490776684 0.00036886604117653221 0 -0.0069821465328025979 0.0003829878286187648 0 -0.0069074008604951475 0.00031721151009356534 0 -0.0069000470490776684 0.00036886604117653221 0 -0.0069116696891367421 0.00043110254853545056 0 -0.0069252913696866841 0.00040211386178688497 0 -0.0069000470490776684 0.00036886604117653221 0 -0.0069116696891367421 0.00043110254853545056 0 -0.0068537318185903761 0.00035554233068831173 0 -0.0069000470490776684 0.00036886604117653221 0 -0.009882697179646939 7.8791037183020468e-05 0 -0.0098708215803095713 8.2685335003327987e-05 0 -0.0098792443727272975 9.0317271053953543e-05 0 -0.0069116696891367421 0.00043110254853545056 0 -0.0068537318185903761 0.00035554233068831173 0 -0.0067932007227804814 0.00035819349748428448 0 -0.008501289445913553 0.00027808863074843635 0 -0.008275123533585874 0.00021796525792144874 0 -0.0098708215803095713 8.2685335003327987e-05 0 -0.0098792443727272975 9.0317271053953543e-05 0 -0.0098780334708421218 8.4674539076360925e-05 0 -0.0098792443727272975 9.0317271053953543e-05 0 -0.0098845680053314972 9.0753361382961225e-05 0 -0.0098828278790501715 0.00011451159044103596 0 -0.0098792443727272975 9.0317271053953543e-05 0 -0.0098845680053314972 9.0753361382961225e-05 0 -0.0098780334708421218 8.4674539076360925e-05 0 -0.0098845680053314972 9.0753361382961225e-05 0 -0.0098839087118802581 7.4412785016735446e-05 0 -0.0098920144657004532 7.9081429928601384e-05 0 -0.010077483834342571 0.00021676371557525795 0 -0.0098975147244933018 8.927767259107556e-05 0 -0.0098845680053314972 9.0753361382961225e-05 0 -0.0098780334708421218 8.4674539076360925e-05 0 -0.0098920144657004532 7.9081429928601384e-05 0 -0.0098708215803095713 8.2685335003327987e-05 0 -0.0098780334708421218 8.4674539076360925e-05 0 -0.0098738387536009675 8.3375582888036809e-05 0 -0.0098721539523076666 8.3409502071135115e-05 0 -0.0098708215803095713 8.2685335003327987e-05 0 -0.0098738387536009675 8.3375582888036809e-05 0 -0.0086151721495463691 -2.7882276025769815e-05 0 -0.008275123533585874 0.00021796525792144874 0 -0.0098712681036893339 8.4240634434537044e-05 0 -0.0098738387536009675 8.3375582888036809e-05 0 -0.0098796993608504854 8.2697481451001853e-05 0 -0.0098712681036893339 8.4240634434537044e-05 0 -0.0098720858459728621 8.3399711036065833e-05 0 -0.0098738387536009675 8.3375582888036809e-05 0 -0.0086151721495463691 -2.7882276025769815e-05 0 -0.0088435303876446408 0.00014244301908940358 0 -0.0098780334708421218 8.4674539076360925e-05 0 -0.0098738387536009675 8.3375582888036809e-05 0 -0.0098796993608504854 8.2697481451001853e-05 0 -0.0098780334708421218 8.4674539076360925e-05 0 -0.0098796993608504854 8.2697481451001853e-05 0 -0.0098920144657004532 7.9081429928601384e-05 0 -0.0098821967307971617 -5.1610089778718038e-05 0 -0.0098839087118802581 7.4412785016735446e-05 0 -0.0098920144657004532 7.9081429928601384e-05 0 -0.0098712681036893339 8.4240634434537044e-05 0 -0.0098796993608504854 8.2697481451001853e-05 0 -0.0098920144657004532 7.9081429928601384e-05 0 -0.009972303444563126 -0.00023369452654471514 0 -0.0098821967307971617 -5.1610089778718038e-05 0 -0.0098920144657004532 7.9081429928601384e-05 0 -0.0092251735051797693 -0.00012644651240039509 0 -0.0099642167200050622 7.7253964369945784e-05 0 -0.009972303444563126 -0.00023369452654471514 0 -0.0098821967307971617 -5.1610089778718038e-05 0 -0.0098566245951397496 -0.0001552589225329917 0 -0.009623431230847029 -0.00037087089278669693 0 -0.0098566245951397496 -0.0001552589225329917 0 -0.0097376522257336361 -0.00014185204426890306 0 -0.0098566245951397496 -0.0001552589225329917 0 -0.0097376522257336361 -0.00014185204426890306 0 -0.0098289534621636941 -4.4054004246583413e-05 0 -0.0098821967307971617 -5.1610089778718038e-05 0 -0.0098566245951397496 -0.0001552589225329917 0 -0.0098289534621636941 -4.4054004246583413e-05 0 -0.0097260808970967127 -1.7646458928368086e-05 0 -0.0097376522257336361 -0.00014185204426890306 0 -0.0098289534621636941 -4.4054004246583413e-05 0 -0.0098821967307971617 -5.1610089778718038e-05 0 -0.0098289534621636941 -4.4054004246583413e-05 0 -0.0098839087118802581 7.4412785016735446e-05 0 -0.0097260808970967127 -1.7646458928368086e-05 0 -0.0098289534621636941 -4.4054004246583413e-05 0 -0.0098839087118802581 7.4412785016735446e-05 0 -0.010293767531499914 0.00035258438974177875 0 -0.0098839087118802581 7.4412785016735446e-05 0 -0.010021969782009837 0.00037954333996591364 0 -0.0097260808970967127 -1.7646458928368086e-05 0 -0.009729255867025206 0.00013429499106026269 0 -0.0098839087118802581 7.4412785016735446e-05 0 -0.009729255867025206 0.00013429499106026269 0 -0.0098839087118802581 7.4412785016735446e-05 0 -0.0097804817690610255 0.00031914264135117905 0 -0.0098839087118802581 7.4412785016735446e-05 0 -0.0097804817690610255 0.00031914264135117905 0 -0.010021969782009837 0.00037954333996591364 0 -0.0097804817690610255 0.00031914264135117905 0 -0.010021969782009837 0.00037954333996591364 0 -0.0099401615694274231 0.00055590234493160351 0 -0.010021969782009837 0.00037954333996591364 0 -0.0099401615694274231 0.00055590234493160351 0 -0.010208746351261651 0.00057759824463452913 0 -0.0099401615694274231 0.00055590234493160351 0 -0.010142196767406195 0.00077989393911110012 0 -0.010208746351261651 0.00057759824463452913 0 -0.0096759540204531015 0.00079211094249436917 0 -0.010142196767406195 0.00077989393911110012 0 -0.010142211087272944 0.0010092155854565864 0 -0.0096759540204531015 0.00079211094249436917 0 -0.0099401615694274231 0.00055590234493160351 0 -0.010142196767406195 0.00077989393911110012 0 -0.010142196767406195 0.00077989393911110012 0 -0.010333815026403218 0.00075604493426806882 0 -0.010258617001634105 0.00091194516482158167 0 -0.010142196767406195 0.00077989393911110012 0 -0.010333815026403218 0.00075604493426806882 0 -0.010208746351261651 0.00057759824463452913 0 -0.010293767531499914 0.00035258438974177875 0 -0.010021969782009837 0.00037954333996591364 0 -0.010208746351261651 0.00057759824463452913 0 -0.010293767531499914 0.00035258438974177875 0 -0.010208746351261651 0.00057759824463452913 0 -0.010515489390883981 0.00055360149029696701 0 -0.010077483834342571 0.00021676371557525795 0 -0.010210688471048368 0.00033780240115277018 0 -0.010333815026403218 0.00075604493426806882 0 -0.010208746351261651 0.00057759824463452913 0 -0.010515489390883981 0.00055360149029696701 0 -0.010333815026403218 0.00075604493426806882 0 -0.010504345988145217 0.00078889571488256641 0 -0.010515489390883981 0.00055360149029696701 0 -0.010333815026403218 0.00075604493426806882 0 -0.010504345988145217 0.00078889571488256641 0 -0.010361261718794834 0.00086855708225099383 0 -0.010687253816925568 0.00067677117145809246 0 -0.010504345988145217 0.00078889571488256641 0 -0.010616678650724914 0.00088654878843938921 0 -0.010687253816925568 0.00067677117145809246 0 -0.010504345988145217 0.00078889571488256641 0 -0.010515489390883981 0.00055360149029696701 0 -0.010252360618578189 0.00038063712983236884 0 -0.010210688471048368 0.00033780240115277018 0 -0.0099181845042237652 0.0001537934599330104 0 -0.009895943350932742 0.00010332728384229286 0 -0.0098828278790501715 0.00011451159044103596 0 -0.010461590875693741 0.00095037029864668645 0 -0.010390931018977747 0.0011315593340929749 0 -0.010601566774319124 0.0011158303071450637 0 -0.010616678650724914 0.00088654878843938921 0 -0.010461590875693741 0.00095037029864668645 0 -0.010601566774319124 0.0011158303071450637 0 -0.010504345988145217 0.00078889571488256641 0 -0.010616678650724914 0.00088654878843938921 0 -0.010461590875693741 0.00095037029864668645 0 -0.010504345988145217 0.00078889571488256641 0 -0.010361261718794834 0.00086855708225099383 0 -0.010461590875693741 0.00095037029864668645 0 -0.010361261718794834 0.00086855708225099383 0 -0.010312458650462002 0.00095818430703996111 0 -0.010461590875693741 0.00095037029864668645 0 -0.010312458650462002 0.00095818430703996111 0 -0.010461590875693741 0.00095037029864668645 0 -0.010390931018977747 0.0011315593340929749 0 -0.01031216681030234 0.00096640675433740369 0 -0.010321475794042788 0.00097746676684118319 0 -0.010312458650462002 0.00095818430703996111 0 -0.010306412087775834 0.00088809371267795003 0 -0.010245232100216701 0.0008697705954713419 0 -0.010312458650462002 0.00095818430703996111 0 -0.010271617785666345 0.00094692831498634786 0 -0.010306412087775834 0.00088809371267795003 0 -0.010271617785666345 0.00094692831498634786 0 -0.010369950571439393 0.00087207566465808686 0 -0.010306412087775834 0.00088809371267795003 0 -0.010312458650462002 0.00095818430703996111 0 -0.010258617001634105 0.00091194516482158167 0 -0.010271617785666345 0.00094692831498634786 0 -0.010361261718794834 0.00086855708225099383 0 -0.010312458650462002 0.00095818430703996111 0 -0.010258617001634105 0.00091194516482158167 0 -0.010333815026403218 0.00075604493426806882 0 -0.010361261718794834 0.00086855708225099383 0 -0.010258617001634105 0.00091194516482158167 0 -0.010142211087272944 0.0010092155854565864 0 -0.010271617785666345 0.00094692831498634786 0 -0.010358866242257415 0.00090966185427393174 0 -0.010142196767406195 0.00077989393911110012 0 -0.010258617001634105 0.00091194516482158167 0 -0.010142211087272944 0.0010092155854565864 0 -0.010258617001634105 0.00091194516482158167 0 -0.010142211087272944 0.0010092155854565864 0 -0.010271617785666345 0.00094692831498634786 0 -0.010271617785666345 0.00094692831498634786 0 -0.010369950571439393 0.00087207566465808686 0 -0.010358866242257415 0.00090966185427393174 0 -0.010369950571439393 0.00087207566465808686 0 -0.010356085503855231 0.00079826181932443055 0 -0.010555229479022736 0.00077623997739780816 0 -0.010457374133599208 0.00068472800803020205 0 -0.010356085503855231 0.00079826181932443055 0 -0.010555229479022736 0.00077623997739780816 0 -0.010457374133599208 0.00068472800803020205 0 -0.010303130109048595 0.00072914156996004215 0 -0.010356085503855231 0.00079826181932443055 0 -0.011141700701137585 0.00058638550557107202 0 -0.011622691249802895 0.00048711612810642098 0 -0.010303130109048595 0.00072914156996004215 0 -0.010356085503855231 0.00079826181932443055 0 -0.010274218669020171 0.00080544608357192361 0 -0.010356085503855231 0.00079826181932443055 0 -0.010306412087775834 0.00088809371267795003 0 -0.010274218669020171 0.00080544608357192361 0 -0.010369950571439393 0.00087207566465808686 0 -0.010356085503855231 0.00079826181932443055 0 -0.010306412087775834 0.00088809371267795003 0 -0.010306412087775834 0.00088809371267795003 0 -0.010245232100216701 0.0008697705954713419 0 -0.010274218669020171 0.00080544608357192361 0 -0.010245232100216701 0.0008697705954713419 0 -0.010274218669020171 0.00080544608357192361 0 -0.010219459793538522 0.00077944688283354655 0 -0.010321475794042788 0.00097746676684118319 0 -0.010862061936057082 0.00094227619278189172 0 -0.011622691249802895 0.00048711612810642098 0 -0.012157259664104606 0.0010170153560530078 0 -0.01292637884077647 0.00029163701937234956 0 -0.014060326076208499 0.00021669547032637063 0 -0.013539431299982635 0.0009033618721757576 0 -0.010303130109048595 0.00072914156996004215 0 -0.010274218669020171 0.00080544608357192361 0 -0.010229052763182372 0.00076852049716257865 0 -0.010303130109048595 0.00072914156996004215 0 -0.010229052763182372 0.00076852049716257865 0 -0.010215136254599876 0.00075314751013563557 0 -0.010229052763182372 0.00076852049716257865 0 -0.010223860215373304 0.00077617757845462542 0 -0.010215136254599876 0.00075314751013563557 0 -0.010862061936057082 0.00094227619278189172 0 -0.012157259664104606 0.0010170153560530078 0 -0.010274218669020171 0.00080544608357192361 0 -0.010229052763182372 0.00076852049716257865 0 -0.010219459793538522 0.00077944688283354655 0 -0.010790975666065031 0.00096642813842027456 0 -0.010862061936057082 0.00094227619278189172 0 -0.011526473966372906 0.0010979057138918126 0 -0.011569559550914306 0.0010960379255794913 0 -0.011547586556370854 0.0011120172207535967 0 -0.01242039150100282 0.0011262554240687051 0 -0.012833306529484764 0.001104742744335566 0 -0.012630866067920264 0.00098851164960331935 0 -0.011572169791299646 0.0011068857524110574 0 -0.011569559550914306 0.0010960379255794913 0 -0.011547586556370854 0.0011120172207535967 0 -0.011982139537632965 0.0011198938521947762 0 -0.012157259664104606 0.0010170153560530078 0 -0.010862061936057082 0.00094227619278189172 0 -0.011071244543935743 0.0011557729539786216 0 -0.011572169791299646 0.0011068857524110574 0 -0.011547586556370854 0.0011120172207535967 0 -0.011544436147358108 0.001137721925993877 0 -0.010390931018977747 0.0011315593340929749 0 -0.010456877017953331 0.0012862064094661405 0 -0.010601566774319124 0.0011158303071450637 0 -0.0044926917855030299 0.00068290510681049538 0 -0.0077105192666218824 0.0011834542619441465 0 -0.0090076420111151537 -0.0010244720400415948 0 -0.010137479765192298 -0.0013945118416146185 0 -0.0094737808282937281 -0.00027219062774791659 0 -0.00093002900050758017 0.0022235901412598512 0 -0.00091126061487637724 0.0022521758253907171 0 -0.0009346443270474103 0.0022474482309529299 0 -0.00093002900050758017 0.0022235901412598512 0 -0.00097121815304396632 0.0021832057148070557 0 -0.00093332044908473594 0.0022317589085596324 0 -0.0044926917855030299 0.00068290510681049538 0 -0.0049650498652499498 0.00034840563749965851 0 -0.00093002900050758017 0.0022235901412598512 0 -0.00091126061487637724 0.0022521758253907171 0 -0.00093332044908473594 0.0022317589085596324 0 -0.00091126061487637724 0.0022521758253907171 0 -0.00088760620643678226 0.0022754483514137859 0 -0.00093332044908473594 0.0022317589085596324 0 -0.00091126061487637724 0.0022521758253907171 0 -0.00088760620643678226 0.0022754483514137859 0 -0.00089600947232747012 0.0022810295184696595 0 -0.00089812843750841458 0.0023053266284647879 0 -0.00089600947232747012 0.0022810295184696595 0 -0.0009346443270474103 0.0022474482309529299 0 -0.0046188380025322219 0.0016429026962162451 0 -0.0077105192666218824 0.0011834542619441465 0 -0.00091126061487637724 0.0022521758253907171 0 -0.00089600947232747012 0.0022810295184696595 0 -0.0009346443270474103 0.0022474482309529299 0 -0.0090657744392180599 0.00074813725452077366 0 -0.0096007477432940424 0.0012498219800575452 0 -0.0091541554924690731 0.0014088401757819311 0 -0.010424550014192058 0.001001167238481562 0 -0.0077105192666218824 0.0011834542619441465 0 -0.010005548929171958 0.0010799041751189298 0 -0.010424550014192058 0.001001167238481562 0 -0.010142211087272944 0.0010092155854565864 0 -0.010482467617357979 0.00099927888217260529 0 -0.010358866242257415 0.00090966185427393174 0 -0.0096759540204531015 0.00079211094249436917 0 -0.010142211087272944 0.0010092155854565864 0 -0.0096007477432940424 0.0012498219800575452 0 -0.010369950571439393 0.00087207566465808686 0 -0.010358866242257415 0.00090966185427393174 0 -0.010503901320547094 0.00081984396529428375 0 -0.010482467617357979 0.00099927888217260529 0 -0.010358866242257415 0.00090966185427393174 0 -0.010503901320547094 0.00081984396529428375 0 -0.010482467617357979 0.00099927888217260529 0 -0.010503901320547094 0.00081984396529428375 0 -0.010644087848833392 0.00093516669168744167 0 -0.010503901320547094 0.00081984396529428375 0 -0.010644087848833392 0.00093516669168744167 0 -0.010613464098699494 0.0006587538753556418 0 -0.0077105192666218824 0.0011834542619441465 0 -0.010842774368291638 0.00014198567549753173 0 -0.010503901320547094 0.00081984396529428375 0 -0.010613464098699494 0.0006587538753556418 0 -0.010555229479022736 0.00077623997739780816 0 -0.010369950571439393 0.00087207566465808686 0 -0.010503901320547094 0.00081984396529428375 0 -0.010555229479022736 0.00077623997739780816 0 -0.011141700701137585 0.00058638550557107202 0 -0.010800114858957165 0.00069831868402924304 0 -0.010457374133599208 0.00068472800803020205 0 -0.010555229479022736 0.00077623997739780816 0 -0.010757500849591706 0.00074639783296758628 0 -0.010613464098699494 0.0006587538753556418 0 -0.010555229479022736 0.00077623997739780816 0 -0.010757500849591706 0.00074639783296758628 0 -0.010384424951821283 0.00018298331572903261 0 -0.010042951042175197 0.00085520077864305517 0 -0.010550794314839098 0.0012890260057130027 0 -0.010613464098699494 0.0006587538753556418 0 -0.010757500849591706 0.00074639783296758628 0 -0.010550794314839098 0.0012890260057130027 0 -0.010842774368291638 0.00014198567549753173 0 -0.010471969400409438 0.0013715216400472983 0 -0.010042951042175197 0.00085520077864305517 0 -0.0090785329920970159 0.0004904085156083786 0 -0.0087574075270195773 0.001076669975279022 0 -0.0097154172865489274 0.00032660396403794628 0 -0.0094737808282937281 -0.00027219062774791659 0 -0.0090785329920970159 0.0004904085156083786 0 -0.010042951042175197 0.00085520077864305517 0 -0.0097154172865489274 0.00032660396403794628 0 -0.0090785329920970159 0.0004904085156083786 0 -0.010384424951821283 0.00018298331572903261 0 -0.010042951042175197 0.00085520077864305517 0 -0.0097154172865489274 0.00032660396403794628 0 -0.010137479765192298 -0.0013945118416146185 0 -0.010384424951821283 0.00018298331572903261 0 -0.0094737808282937281 -0.00027219062774791659 0 -0.010384424951821283 0.00018298331572903261 0 -0.0097154172865489274 0.00032660396403794628 0 -0.0094737808282937281 -0.00027219062774791659 0 -0.0090076420111151537 -0.0010244720400415948 0 -0.0084851682198299333 -0.00024026229092593968 0 -0.0078419520562725553 -0.00064359109505615446 0 -0.0094737808282937281 -0.00027219062774791659 0 -0.0084851682198299333 -0.00024026229092593968 0 -0.0090785329920970159 0.0004904085156083786 0 -0.0090076420111151537 -0.0010244720400415948 0 -0.0094737808282937281 -0.00027219062774791659 0 -0.0084851682198299333 -0.00024026229092593968 0 -0.0084851682198299333 -0.00024026229092593968 0 -0.0084315542747203757 0.000386677803687124 0 -0.0090785329920970159 0.0004904085156083786 0 -0.0084315542747203757 0.000386677803687124 0 -0.0090785329920970159 0.0004904085156083786 0 -0.0087574075270195773 0.001076669975279022 0 -0.0084315542747203757 0.000386677803687124 0 -0.0081073314404573327 0.0008583842123277473 0 -0.0087574075270195773 0.001076669975279022 0 -0.0081073314404573327 0.0008583842123277473 0 -0.0077426647607159171 0.00015645551474769036 0 -0.0075434773882840393 0.0010744810310262011 0 -0.0084315542747203757 0.000386677803687124 0 -0.0081073314404573327 0.0008583842123277473 0 -0.0077426647607159171 0.00015645551474769036 0 -0.0066588473472955628 0.00047616857857937377 0 -0.0077426647607159171 0.00015645551474769036 0 -0.0075434773882840393 0.0010744810310262011 0 -0.0066588473472955628 0.00047616857857937377 0 -0.0075434773882840393 0.0010744810310262011 0 -0.0067293198040669416 0.0013237668097021021 0 -0.0066588473472955628 0.00047616857857937377 0 -0.0068910958145969618 -0.00034550807036248267 0 -0.0059434233886547141 -1.1858404835140517e-05 0 -0.0066588473472955628 0.00047616857857937377 0 -0.0068910958145969618 -0.00034550807036248267 0 -0.0077426647607159171 0.00015645551474769036 0 -0.0039319058544506642 0.00092886046421952913 0 -0.0037082545406825059 0.0010065795010196319 0 -0.0038957634204636418 0.00068832683365754063 0 -0.0057543162849485593 0.00017062760869558752 0 -0.0049650498652499498 0.00034840563749965851 0 -0.0068910958145969618 -0.00034550807036248267 0 -0.0078329339071474009 -0.00067295445500417325 0 -0.0077426647607159171 0.00015645551474769036 0 -0.0084505173467019756 0.00032393508793363625 0 -0.0049650498652499498 0.00034840563749965851 0 -0.0084851682198299333 -0.00024026229092593968 0 -0.0078329339071474009 -0.00067295445500417325 0 -0.0077426647607159171 0.00015645551474769036 0 -0.0084851682198299333 -0.00024026229092593968 0 -0.0084315542747203757 0.000386677803687124 0 -0.0077426647607159171 0.00015645551474769036 0 -0.0049606979495393222 0.00083143531714568336 0 -0.0052182171435214298 0.00015990372450591466 0 -0.0042370972204110718 0.00084000132776999956 0 -0.0050839169403702218 0.00074469718196389827 0 -0.0053282217692080186 0.00096744673138882272 0 -0.0049606979495393222 0.00083143531714568336 0 -0.0056809595495857677 0.0004948662251855738 0 -0.0052487374422564457 0.0012207038046999458 0 -0.0031492222756138795 0.0010553861318777988 0 -0.0050839169403702218 0.00074469718196389827 0 -0.0049606979495393222 0.00083143531714568336 0 -0.0052182171435214298 0.00015990372450591466 0 -0.0056809595495857677 0.0004948662251855738 0 -0.0050839169403702218 0.00074469718196389827 0 -0.0068370049238865747 0.0013314219469122313 0 -0.0066588473472955628 0.00047616857857937377 0 -0.0055990587928853386 0.00055384035957638732 0 -0.0067293198040669416 0.0013237668097021021 0 -0.0066588473472955628 0.00047616857857937377 0 -0.0055990587928853386 0.00055384035957638732 0 -0.0059434233886547141 -1.1858404835140517e-05 0 -0.0050839169403702218 0.00074469718196389827 0 -0.0037786290041488409 0.0009333418060688103 0 -0.0039857128177038289 0.00091758580095181665 0 -0.0040476564681065884 0.00095916802854032412 0 -0.0040947957679938413 0.00088080982365902453 0 -0.0014674165838397203 0.0015567654265912275 0 -0.0015684263199815095 0.0016216168024095385 0 -0.0014981490339006642 0.001730087666206012 0 -0.0037786290041488409 0.0009333418060688103 0 -0.0017468451224830909 0.0016772336730997558 0 -0.0057543162849485593 0.00017062760869558752 0 -0.0037786290041488409 0.0009333418060688103 0 -0.0031492222756138795 0.0010553861318777988 0 -0.0018310437088428927 0.0016084242942266706 0 -0.0015684263199815095 0.0016216168024095385 0 -0.0015955020314579603 0.0017134811155548925 0 -0.0017377854969128415 0.0016276345023209374 0 -0.0015878764893593092 0.0015154161324942041 0 -0.0015684263199815095 0.0016216168024095385 0 -0.0017377854969128415 0.0016276345023209374 0 -0.0015878764893593092 0.0015154161324942041 0 -0.0014674165838397203 0.0015567654265912275 0 -0.0015684263199815095 0.0016216168024095385 0 -0.0031492222756138795 0.0010553861318777988 0 -0.0037786290041488409 0.0009333418060688103 0 -0.0015761226402886477 0.0018133307508395964 0 -0.0014981490339006642 0.001730087666206012 0 -0.0014941036218660167 0.0019140458417798232 0 -0.0015955020314579603 0.0017134811155548925 0 -0.0015761226402886477 0.0018133307508395964 0 -0.0017081504350800086 0.0017804739384397223 0 -0.0015684263199815095 0.0016216168024095385 0 -0.0015955020314579603 0.0017134811155548925 0 -0.0014981490339006642 0.001730087666206012 0 -0.0015955020314579603 0.0017134811155548925 0 -0.0015761226402886477 0.0018133307508395964 0 -0.0014981490339006642 0.001730087666206012 0 -0.0014674165838397203 0.0015567654265912275 0 -0.0014981490339006642 0.001730087666206012 0 -0.0013253840237063695 0.0017788325925787961 0 -0.0014981490339006642 0.001730087666206012 0 -0.0014941036218660167 0.0019140458417798232 0 -0.0013253840237063695 0.0017788325925787961 0 -0.0013803773872980696 0.0019704381702983303 0 -0.0017468451224830909 0.0016772336730997558 0 -0.0014260279984527353 0.0020422475699469088 0 -0.0011479739007803939 0.0018651778938066708 0 -0.0012079166530212444 0.0020774155237473575 0 -0.0014260279984527353 0.0020422475699469088 0 -0.0012079166530212444 0.0020774155237473575 0 -0.0011674592271648404 0.0022599006891422615 0 -0.0014941036218660167 0.0019140458417798232 0 -0.0016727634249593759 0.0020981606927869484 0 -0.0016555285845091625 0.001911583058827337 0 -0.0015761226402886477 0.0018133307508395964 0 -0.0014941036218660167 0.0019140458417798232 0 -0.0016555285845091625 0.001911583058827337 0 -0.0015761226402886477 0.0018133307508395964 0 -0.0016555285845091625 0.001911583058827337 0 -0.0017081504350800086 0.0017804739384397223 0 -0.00097121815304396632 0.0021832057148070557 0 -0.00093332044908473594 0.0022317589085596324 0 -0.0010086829229660184 0.0022116530045769964 0 -0.0039319058544506642 0.00092886046421952913 0 -0.0041612957051730083 0.00084903721356725597 0 -0.0038957634204636418 0.00068832683365754063 0 -0.0049650498652499498 0.00034840563749965851 0 -0.0017468451224830909 0.0016772336730997558 0 -0.0011479739007803939 0.0018651778938066708 0 -0.0012079166530212444 0.0020774155237473575 0 -0.00094105898669311256 0.0022653680331233238 0 -0.0017468451224830909 0.0016772336730997558 0 -0.00071854280294612199 0.0024416508874712498 0 -0.0010086829229660184 0.0022116530045769964 0 -0.00091613047831363536 0.0022545639022058051 0 -0.00094105898669311256 0.0022653680331233238 0 -0.00093332044908473594 0.0022317589085596324 0 -0.0010086829229660184 0.0022116530045769964 0 -0.00091613047831363536 0.0022545639022058051 0 -0.00088760620643678226 0.0022754483514137859 0 -0.00093332044908473594 0.0022317589085596324 0 -0.00091613047831363536 0.0022545639022058051 0 -0.00088760620643678226 0.0022754483514137859 0 -0.00091613047831363536 0.0022545639022058051 0 -0.00083388100834425071 0.0023149500436263526 0 -0.00083388100834425071 0.0023149500436263526 0 -0.00094105898669311256 0.0022653680331233238 0 -0.0011674592271648404 0.0022599006891422615 0 -0.00083388100834425071 0.0023149500436263526 0 -0.00071642630715086327 0.0022868273228921292 0 -0.00064686928964071148 0.0022658765534803557 0 -0.00091613047831363536 0.0022545639022058051 0 -0.00083388100834425071 0.0023149500436263526 0 -0.00094105898669311256 0.0022653680331233238 0 -0.00083348122721067851 0.0023044318640688087 0 -0.00091316049026419913 0.0022558049770712869 0 -0.00083388100834425071 0.0023149500436263526 0 -0.00071642630715086327 0.0022868273228921292 0 -0.00078115965680507888 0.0023071392468024675 0 -0.00078115965680507888 0.0023071392468024675 0 -0.00068709442446687979 0.0023029705559918113 0 -0.00072315353576940468 0.0023177387462487804 0 -0.00068709442446687979 0.0023029705559918113 0 -0.00072315353576940468 0.0023177387462487804 0 -0.00059663017276265706 0.0023292898834769036 0 -0.00071642630715086327 0.0022868273228921292 0 -0.00078115965680507888 0.0023071392468024675 0 -0.00068709442446687979 0.0023029705559918113 0 -0.00064875218582262492 0.0022739935348158741 0 -0.00066992347773307597 0.002305436961702267 0 -0.00059663017276265706 0.0023292898834769036 0 -0.00068709442446687979 0.0023029705559918113 0 -0.00064875218582262492 0.0022739935348158741 0 -0.00059663017276265706 0.0023292898834769036 0 -0.00071642630715086327 0.0022868273228921292 0 -0.00068709442446687979 0.0023029705559918113 0 -0.00064875218582262492 0.0022739935348158741 0 -0.00064875218582262492 0.0022739935348158741 0 -0.00064686928964071148 0.0022658765534803557 0 -0.00069043159044152719 0.002229760509323676 0 -0.0012079166530212444 0.0020774155237473575 0 -0.00094105898669311256 0.0022653680331233238 0 -0.0011674592271648404 0.0022599006891422615 0 -0.00071642630715086327 0.0022868273228921292 0 -0.00064875218582262492 0.0022739935348158741 0 -0.00064686928964071148 0.0022658765534803557 0 -0.0014260279984527353 0.0020422475699469088 0 -0.0011674592271648404 0.0022599006891422615 0 -0.0014857760784792321 0.0021933897502573042 0 -0.00091316049026419913 0.0022558049770712869 0 -0.0011431822693732875 0.0021411218911186374 0 -0.00064686928964071148 0.0022658765534803557 0 -0.00078664794948794109 0.0020873411920943378 0 -0.00069043159044152719 0.002229760509323676 0 -0.0014260279984527353 0.0020422475699469088 0 -0.0014857760784792321 0.0021933897502573042 0 -0.0016727634249593759 0.0020981606927869484 0 -0.0013803773872980696 0.0019704381702983303 0 -0.0016956971305063424 0.0021088122856090311 0 -0.00078664794948794109 0.0020873411920943378 0 -0.00078920671208400676 0.002239694398366872 0 -0.00097949963502691234 0.0021609487671841168 0 -0.00078920671208400676 0.002239694398366872 0 -0.0009572935190967387 0.0022787367420071258 0 -0.00097949963502691234 0.0021609487671841168 0 -0.00078664794948794109 0.0020873411920943378 0 -0.00078920671208400676 0.002239694398366872 0 -0.00069043159044152719 0.002229760509323676 0 -0.00078920671208400676 0.002239694398366872 0 -0.0009572935190967387 0.0022787367420071258 0 -0.00076438312944353292 0.002368566166095059 0 -0.00064875218582262492 0.0022739935348158741 0 -0.00069043159044152719 0.002229760509323676 0 -0.00066992347773307597 0.002305436961702267 0 -0.00078920671208400676 0.002239694398366872 0 -0.00069043159044152719 0.002229760509323676 0 -0.00066992347773307597 0.002305436961702267 0 -0.00078920671208400676 0.002239694398366872 0 -0.00066992347773307597 0.002305436961702267 0 -0.00076438312944353292 0.002368566166095059 0 -0.00066992347773307597 0.002305436961702267 0 -0.00062648614531674441 0.0024590942178822086 0 -0.00076438312944353292 0.002368566166095059 0 -0.00066992347773307597 0.002305436961702267 0 -0.00062648614531674441 0.0024590942178822086 0 -0.00059663017276265706 0.0023292898834769036 0 -0.0009572935190967387 0.0022787367420071258 0 -0.00076438312944353292 0.002368566166095059 0 -0.0011022433331416641 0.0024160034366064293 0 -0.00076438312944353292 0.002368566166095059 0 -0.00086578164923808152 0.0025135832672921704 0 -0.0011022433331416641 0.0024160034366064293 0 -0.00062648614531674441 0.0024590942178822086 0 -0.00076438312944353292 0.002368566166095059 0 -0.00086578164923808152 0.0025135832672921704 0 -0.00071090709356613584 0.0027038272983697076 0 -0.00062648614531674441 0.0024590942178822086 0 -0.00086578164923808152 0.0025135832672921704 0 -0.00050008044248434059 0.0026943117752445491 0 -0.00071090709356613584 0.0027038272983697076 0 -0.00062648614531674441 0.0024590942178822086 0 -0.00050008044248434059 0.0026943117752445491 0 -0.00062648614531674441 0.0024590942178822086 0 -0.00051870897354758607 0.0023728178494622576 0 -0.00041124926558567593 0.0027034192331704477 0 -0.00050008044248434059 0.0026943117752445491 0 -0.00051870897354758607 0.0023728178494622576 0 -0.00035452733435559002 0.0024391777682475496 0 -0.0005627499752641576 0.0023288599865211737 0 -0.00068357484231823594 0.0019985744961798207 0 -0.00078089622947825432 0.002223118885597532 0 -0.00051870897354758607 0.0023728178494622576 0 -0.00078089622947825432 0.002223118885597532 0 -0.00051870897354758607 0.0023728178494622576 0 -0.00072315353576940468 0.0023177387462487804 0 -0.00051870897354758607 0.0023728178494622576 0 -0.00072315353576940468 0.0023177387462487804 0 -0.00059663017276265706 0.0023292898834769036 0 -0.00062648614531674441 0.0024590942178822086 0 -0.00051870897354758607 0.0023728178494622576 0 -0.00059663017276265706 0.0023292898834769036 0 -0.0017266694737644844 0.0025888732597505251 0 -0.0015284492488123495 0.0024018659510992358 0 -0.0019429664365213405 0.0023514906126471872 0 -0.0017266694737644844 0.0025888732597505251 0 -0.002027783579444341 0.0026099361109346423 0 -0.0019429664365213405 0.0023514906126471872 0 -0.002027783579444341 0.0026099361109346423 0 -0.0019429664365213405 0.0023514906126471872 0 -0.0021560727191274501 0.0024194448827057776 0 -0.0017266694737644844 0.0025888732597505251 0 -0.002027783579444341 0.0026099361109346423 0 -0.0019006841278706038 0.0027852118509136452 0 -0.002027783579444341 0.0026099361109346423 0 -0.0019006841278706038 0.0027852118509136452 0 -0.0021267691976824352 0.002836127590787036 0 -0.0016387713825080118 0.0027956090763367244 0 -0.0017266694737644844 0.0025888732597505251 0 -0.0019006841278706038 0.0027852118509136452 0 -0.0016387713825080118 0.0027956090763367244 0 -0.0017266694737644844 0.0025888732597505251 0 -0.0012602967001158793 0.0026360696376199685 0 -0.00086578164923808152 0.0025135832672921704 0 -0.0012602967001158793 0.0026360696376199685 0 -0.0011022433331416641 0.0024160034366064293 0 -0.00071090709356613584 0.0027038272983697076 0 -0.00086578164923808152 0.0025135832672921704 0 -0.0012602967001158793 0.0026360696376199685 0 -0.0017266694737644844 0.0025888732597505251 0 -0.0012602967001158793 0.0026360696376199685 0 -0.0015284492488123495 0.0024018659510992358 0 -0.0011022433331416641 0.0024160034366064293 0 -0.0015284492488123495 0.0024018659510992358 0 -0.001236945036842375 0.0022521718234293662 0 -0.0012602967001158793 0.0026360696376199685 0 -0.0011022433331416641 0.0024160034366064293 0 -0.0015284492488123495 0.0024018659510992358 0 -0.0015284492488123495 0.0024018659510992358 0 -0.001236945036842375 0.0022521718234293662 0 -0.0018786300435043072 0.0020968421925664747 0 -0.001236945036842375 0.0022521718234293662 0 -0.0012171360513319423 0.0019731461029002429 0 -0.0018786300435043072 0.0020968421925664747 0 -0.0009572935190967387 0.0022787367420071258 0 -0.0011022433331416641 0.0024160034366064293 0 -0.001236945036842375 0.0022521718234293662 0 -0.0009572935190967387 0.0022787367420071258 0 -0.001236945036842375 0.0022521718234293662 0 -0.00097949963502691234 0.0021609487671841168 0 -0.001236945036842375 0.0022521718234293662 0 -0.00097949963502691234 0.0021609487671841168 0 -0.0012171360513319423 0.0019731461029002429 0 -0.0011431822693732875 0.0021411218911186374 0 -0.001498531931810878 0.0020561181927867636 0 -0.0014857760784792321 0.0021933897502573042 0 -0.0017741349777987527 0.0021040235382048327 0 -0.0016727634249593759 0.0020981606927869484 0 -0.00078664794948794109 0.0020873411920943378 0 -0.00097949963502691234 0.0021609487671841168 0 -0.0012171360513319423 0.0019731461029002429 0 -0.0017741349777987527 0.0021040235382048327 0 -0.0017610204250276523 0.0020121279625935121 0 -0.0016727634249593759 0.0020981606927869484 0 -0.001498531931810878 0.0020561181927867636 0 -0.0018473040156445698 0.0020849480762499773 0 -0.0017741349777987527 0.0021040235382048327 0 -0.0018522553648252214 0.0020384111501610502 0 -0.0018786300435043072 0.0020968421925664747 0 -0.0017741349777987527 0.0021040235382048327 0 -0.0017610204250276523 0.0020121279625935121 0 -0.0018522553648252214 0.0020384111501610502 0 -0.0018522553648252214 0.0020384111501610502 0 -0.0018786300435043072 0.0020968421925664747 0 -0.0021969659435768603 0.0018605179843544277 0 -0.0018786300435043072 0.0020968421925664747 0 -0.0022263719281252585 0.0021096603888285602 0 -0.0021969659435768603 0.0018605179843544277 0 -0.0015284492488123495 0.0024018659510992358 0 -0.0018786300435043072 0.0020968421925664747 0 -0.0019429664365213405 0.0023514906126471872 0 -0.0018786300435043072 0.0020968421925664747 0 -0.0019429664365213405 0.0023514906126471872 0 -0.0022263719281252585 0.0021096603888285602 0 -0.0019429664365213405 0.0023514906126471872 0 -0.0021560727191274501 0.0024194448827057776 0 -0.0022263719281252585 0.0021096603888285602 0 -0.0022263719281252585 0.0021096603888285602 0 -0.0021969659435768603 0.0018605179843544277 0 -0.0024134637558494987 0.0018122372417510037 0 -0.0018522553648252214 0.0020384111501610502 0 -0.0021969659435768603 0.0018605179843544277 0 -0.0019331833352625755 0.001879704878216654 0 -0.0021969659435768603 0.0018605179843544277 0 -0.0019331833352625755 0.001879704878216654 0 -0.0019098926256791683 0.0017258783883415221 0 -0.0022007984943298474 0.0018438467194614747 0 -0.0021647468679053274 0.0017645782320050384 0 -0.0021969659435768603 0.0018605179843544277 0 -0.0023543822667336854 0.0017499141558144991 0 -0.0024357695800939286 0.0016953238354365937 0 -0.0021969659435768603 0.0018605179843544277 0 -0.0024134637558494987 0.0018122372417510037 0 -0.0024357695800939286 0.0016953238354365937 0 -0.0024134637558494987 0.0018122372417510037 0 -0.0024357695800939286 0.0016953238354365937 0 -0.0025900356772696666 0.0016257654098320549 0 -0.0017610204250276523 0.0020121279625935121 0 -0.0016727634249593759 0.0020981606927869484 0 -0.0016555285845091625 0.001911583058827337 0 -0.0017610204250276523 0.0020121279625935121 0 -0.0016555285845091625 0.001911583058827337 0 -0.0018077170448533035 0.0018937182573520097 0 -0.0016555285845091625 0.001911583058827337 0 -0.0018077170448533035 0.0018937182573520097 0 -0.0017081504350800086 0.0017804739384397223 0 -0.0017610204250276523 0.0020121279625935121 0 -0.0018522553648252214 0.0020384111501610502 0 -0.0018077170448533035 0.0018937182573520097 0 -0.0018522553648252214 0.0020384111501610502 0 -0.0018077170448533035 0.0018937182573520097 0 -0.0019331833352625755 0.001879704878216654 0 -0.0018077170448533035 0.0018937182573520097 0 -0.0019331833352625755 0.001879704878216654 0 -0.0019098926256791683 0.0017258783883415221 0 -0.0018077170448533035 0.0018937182573520097 0 -0.0019098926256791683 0.0017258783883415221 0 -0.0017081504350800086 0.0017804739384397223 0 -0.0021647468679053274 0.0017645782320050384 0 -0.0018310437088428927 0.0016084242942266706 0 -0.0015955020314579603 0.0017134811155548925 0 -0.0017081504350800086 0.0017804739384397223 0 -0.0017377854969128415 0.0016276345023209374 0 -0.0019098926256791683 0.0017258783883415221 0 -0.0017081504350800086 0.0017804739384397223 0 -0.0017377854969128415 0.0016276345023209374 0 -0.0021280663543706427 0.0015441236869085781 0 -0.0022686598553219722 0.0016496818120342945 0 -0.0022625572467566634 0.001562044203963806 0 -0.0022686598553219722 0.0016496818120342945 0 -0.0022625572467566634 0.001562044203963806 0 -0.0023498564782592399 0.0015902191382853564 0 -0.0023543822667336854 0.0017499141558144991 0 -0.0023498564782592399 0.0015902191382853564 0 -0.0024953706570469791 0.0015915497440939261 0 -0.0023543822667336854 0.0017499141558144991 0 -0.0022686598553219722 0.0016496818120342945 0 -0.0023498564782592399 0.0015902191382853564 0 -0.0031428831289496239 0.0010564748989372774 0 -0.0027099227512198459 0.0013217546667257561 0 -0.0023498564782592399 0.0015902191382853564 0 -0.0023096205834846743 0.0014618048956556058 0 -0.0024953706570469791 0.0015915497440939261 0 -0.0023096205834846743 0.0014618048956556058 0 -0.0024953706570469791 0.0015915497440939261 0 -0.0027404193230828443 0.0013492780234347439 0 -0.0052182171435214298 0.00015990372450591466 0 -0.0036993552547598873 0.00071006946265888941 0 -0.0042370972204110718 0.00084000132776999956 0 -0.0031492222756138795 0.0010553861318777988 0 -0.0031428831289496239 0.0010564748989372774 0 -0.0021280663543706427 0.0015441236869085781 0 -0.0022625572467566634 0.001562044203963806 0 -0.0023096205834846743 0.0014618048956556058 0 -0.0022625572467566634 0.001562044203963806 0 -0.0023498564782592399 0.0015902191382853564 0 -0.0023096205834846743 0.0014618048956556058 0 -0.0036993552547598873 0.00071006946265888941 0 -0.0042370972204110718 0.00084000132776999956 0 -0.0033589389228606439 0.0012816631207538875 0 -0.0024357695800939286 0.0016953238354365937 0 -0.0026504275728432627 0.0015078094571531675 0 -0.0025900356772696666 0.0016257654098320549 0 -0.0024357695800939286 0.0016953238354365937 0 -0.0024953706570469791 0.0015915497440939261 0 -0.0026504275728432627 0.0015078094571531675 0 -0.0023543822667336854 0.0017499141558144991 0 -0.0024357695800939286 0.0016953238354365937 0 -0.0024953706570469791 0.0015915497440939261 0 -0.0024953706570469791 0.0015915497440939261 0 -0.0026504275728432627 0.0015078094571531675 0 -0.0027404193230828443 0.0013492780234347439 0 -0.0026504275728432627 0.0015078094571531675 0 -0.0027204239692067687 0.0015130823371221403 0 -0.0025900356772696666 0.0016257654098320549 0 -0.0026504275728432627 0.0015078094571531675 0 -0.0028031725533324107 0.0014845154635458793 0 -0.0027204239692067687 0.0015130823371221403 0 -0.0026504275728432627 0.0015078094571531675 0 -0.0028031725533324107 0.0014845154635458793 0 -0.0027404193230828443 0.0013492780234347439 0 -0.0028031725533324107 0.0014845154635458793 0 -0.0027404193230828443 0.0013492780234347439 0 -0.0030790864741576294 0.0015784782219503766 0 -0.0028031725533324107 0.0014845154635458793 0 -0.0030363963197548626 0.0016436979903677628 0 -0.0030790864741576294 0.0015784782219503766 0 -0.0028031725533324107 0.0014845154635458793 0 -0.0028844598542106009 0.0015722942995427807 0 -0.0030363963197548626 0.0016436979903677628 0 -0.0028031725533324107 0.0014845154635458793 0 -0.0028844598542106009 0.0015722942995427807 0 -0.0027929066842750545 0.0015110089182479838 0 -0.0028844598542106009 0.0015722942995427807 0 -0.0030551799230050438 0.0016762303801915032 0 -0.0030363963197548626 0.0016436979903677628 0 -0.0028844598542106009 0.0015722942995427807 0 -0.0030551799230050438 0.0016762303801915032 0 -0.0029714468999741781 0.0016709455747787847 0 -0.0030363963197548626 0.0016436979903677628 0 -0.0031390459390054563 0.0017165150151860903 0 -0.0032456320474135315 0.0017604656490332255 0 -0.0030551799230050438 0.0016762303801915032 0 -0.0030363963197548626 0.0016436979903677628 0 -0.0031390459390054563 0.0017165150151860903 0 -0.003183117717370391 0.0017251445369620144 0 -0.0031371959599121209 0.0018297046237697968 0 -0.0035306602902024026 0.0018490074844105964 0 -0.0030551799230050438 0.0016762303801915032 0 -0.0031390459390054563 0.0017165150151860903 0 -0.003183117717370391 0.0017251445369620144 0 -0.0031390459390054563 0.0017165150151860903 0 -0.003183117717370391 0.0017251445369620144 0 -0.0031979950765290296 0.0017461228081352212 0 -0.0014869279452070167 0.00062203975204747205 0 -0.011123403410880087 0.0011055586055443429 0 -0.003183117717370391 0.0017251445369620144 0 -0.0031979950765290296 0.0017461228081352212 0 -0.0032218020070947698 0.001753558695793426 0 -0.003183117717370391 0.0017251445369620144 0 -0.0030619364409187528 0.0017360065490046599 0 -0.0031371959599121209 0.0018297046237697968 0 -0.0030619364409187528 0.0017360065490046599 0 -0.0029714468999741781 0.0016709455747787847 0 -0.0030064169230550838 0.0017827076412853325 0 -0.0030551799230050438 0.0016762303801915032 0 -0.0030619364409187528 0.0017360065490046599 0 -0.0029714468999741781 0.0016709455747787847 0 -0.0030551799230050438 0.0016762303801915032 0 -0.003183117717370391 0.0017251445369620144 0 -0.0030619364409187528 0.0017360065490046599 0 -0.0080207385332221465 0.0028759786115047045 0 -0.011123403410880087 0.0011055586055443429 0 -0.0049189289231981277 0.003975875274886004 0 -0.0040178457535028512 0.0031528743692045415 0 -0.0038115240205127384 0.0041227147503738668 0 -0.0031979950765290296 0.0017461228081352212 0 -0.0032456320474135315 0.0017604656490332255 0 -0.0032218020070947698 0.001753558695793426 0 -0.0027851197699347058 0.0030844117442191494 0 -0.011123403410880087 0.0011055586055443429 0 -0.0031390459390054563 0.0017165150151860903 0 -0.0031979950765290296 0.0017461228081352212 0 -0.0032456320474135315 0.0017604656490332255 0 -0.0049189289231981277 0.003975875274886004 0 -0.0040178457535028512 0.0031528743692045415 0 -0.0049502023016223182 0.0031730135119654732 0 -0.0040178457535028512 0.0031528743692045415 0 -0.0047909966635600676 0.0024569348765281409 0 -0.0049502023016223182 0.0031730135119654732 0 -0.0047909966635600676 0.0024569348765281409 0 -0.0041881239084732126 0.0020784370250789886 0 -0.0047685359728672294 0.0015906446600841575 0 -0.0040178457535028512 0.0031528743692045415 0 -0.0047909966635600676 0.0024569348765281409 0 -0.0041881239084732126 0.0020784370250789886 0 -0.0030363963197548626 0.0016436979903677628 0 -0.0032456320474135315 0.0017604656490332255 0 -0.0030790864741576294 0.0015784782219503766 0 -0.0027851197699347058 0.0030844117442191494 0 -0.0039806421832633996 0.0016259544644914629 0 -0.0032456320474135315 0.0017604656490332255 0 -0.0035092638503814782 0.0016174985380546908 0 -0.0030790864741576294 0.0015784782219503766 0 -0.0036993552547598873 0.00071006946265888941 0 -0.0027404193230828443 0.0013492780234347439 0 -0.0033589389228606439 0.0012816631207538875 0 -0.0035092638503814782 0.0016174985380546908 0 -0.0030790864741576294 0.0015784782219503766 0 -0.0033589389228606439 0.0012816631207538875 0 -0.0027404193230828443 0.0013492780234347439 0 -0.0030790864741576294 0.0015784782219503766 0 -0.0033589389228606439 0.0012816631207538875 0 -0.0041791292815874731 0.00093941140561211488 0 -0.0039806421832633996 0.0016259544644914629 0 -0.0042370972204110718 0.00084000132776999956 0 -0.0041881239084732126 0.0020784370250789886 0 -0.0047685359728672294 0.0015906446600841575 0 -0.0042370972204110718 0.00084000132776999956 0 -0.0035092638503814782 0.0016174985380546908 0 -0.0033589389228606439 0.0012816631207538875 0 -0.0049606979495393222 0.00083143531714568336 0 -0.0042370972204110718 0.00084000132776999956 0 -0.0047685359728672294 0.0015906446600841575 0 -0.0049606979495393222 0.00083143531714568336 0 -0.0047685359728672294 0.0015906446600841575 0 -0.0052487374422564457 0.0012207038046999458 0 -0.0056612393235594806 0.00055411915819648212 0 -0.0052487374422564457 0.0012207038046999458 0 -0.0059512119588241447 0.001836787350625625 0 -0.0047685359728672294 0.0015906446600841575 0 -0.0052487374422564457 0.0012207038046999458 0 -0.0052521768330083003 0.001961869620334213 0 -0.0052487374422564457 0.0012207038046999458 0 -0.0059512119588241447 0.001836787350625625 0 -0.0052521768330083003 0.001961869620334213 0 -0.0056612393235594806 0.00055411915819648212 0 -0.0059512119588241447 0.001836787350625625 0 -0.0067466283018233503 0.0013036750322386586 0 -0.0059512119588241447 0.001836787350625625 0 -0.0069032252643409795 0.0022084938744443552 0 -0.0063307133596552274 0.0028654365621539556 0 -0.0059512119588241447 0.001836787350625625 0 -0.0055182982072456777 0.0026433223823125896 0 -0.0063307133596552274 0.0028654365621539556 0 -0.0047909966635600676 0.0024569348765281409 0 -0.0047685359728672294 0.0015906446600841575 0 -0.0052521768330083003 0.001961869620334213 0 -0.0047909966635600676 0.0024569348765281409 0 -0.0055182982072456777 0.0026433223823125896 0 -0.0052521768330083003 0.001961869620334213 0 -0.0059512119588241447 0.001836787350625625 0 -0.0055182982072456777 0.0026433223823125896 0 -0.0052521768330083003 0.001961869620334213 0 -0.0081764360257459666 0.001451807933790845 0 -0.0075434773882840393 0.0010744810310262011 0 -0.0078298219231739668 0.0020673751701430106 0 -0.0081764360257459666 0.001451807933790845 0 -0.0078298219231739668 0.0020673751701430106 0 -0.0086576015912443027 0.0020032572990187113 0 -0.0081073314404573327 0.0008583842123277473 0 -0.0081764360257459666 0.001451807933790845 0 -0.0075434773882840393 0.0010744810310262011 0 -0.0067466283018233503 0.0013036750322386586 0 -0.0069032252643409795 0.0022084938744443552 0 -0.0078298219231739668 0.0020673751701430106 0 -0.0075434773882840393 0.0010744810310262011 0 -0.0067293198040669416 0.0013237668097021021 0 -0.0078298219231739668 0.0020673751701430106 0 -0.0068370049238865747 0.0013314219469122313 0 -0.0077229645694943888 0.0020048138227820806 0 -0.0059512119588241447 0.001836787350625625 0 -0.0067466283018233503 0.0013036750322386586 0 -0.0069032252643409795 0.0022084938744443552 0 -0.0069032252643409795 0.0022084938744443552 0 -0.0073854266955060985 0.0029607691091510908 0 -0.0063307133596552274 0.0028654365621539556 0 -0.0069032252643409795 0.0022084938744443552 0 -0.0078298219231739668 0.0020673751701430106 0 -0.0073854266955060985 0.0029607691091510908 0 -0.0078298219231739668 0.0020673751701430106 0 -0.0073854266955060985 0.0029607691091510908 0 -0.0086576015912443027 0.0020032572990187113 0 -0.0096495252764207621 0.0019747510575753107 0 -0.0097441565188813358 0.0015838241465120015 0 -0.0097776251491694284 0.0019184692417920197 0 -0.007604238826941093 0.002830482123415272 0 -0.0094213299449606817 0.0016476783291056968 0 -0.0096495252764207621 0.0019747510575753107 0 -0.0096911875741502763 0.0020221570485277761 0 -0.0097776251491694284 0.0019184692417920197 0 -0.0096495252764207621 0.0019747510575753107 0 -0.0096911875741502763 0.0020221570485277761 0 -0.0097514688999244085 0.001994919831419173 0 -0.0073854266955060985 0.0029607691091510908 0 -0.0063307133596552274 0.0028654365621539556 0 -0.0062333610232458573 0.0038513044231168452 0 -0.007604238826941093 0.002830482123415272 0 -0.012629779253225592 0.002004752539325486 0 -0.020770090774665278 0.0005425348569295963 0 -0.021678583964872624 0.0009305424344938424 0 -0.021369052230863685 0.00014097996509734135 0 -0.015704718259981411 0.0014652593910156411 0 -0.012629779253225592 0.002004752539325486 0 -0.020770090774665278 0.0005425348569295963 0 -0.020327208164106315 0.0011380137413049044 0 -0.021678583964872624 0.0009305424344938424 0 -0.020770090774665278 0.0005425348569295963 0 -0.020327208164106315 0.0011380137413049044 0 -0.019875564942157635 0.00056138811401043587 0 -0.0047909966635600676 0.0024569348765281409 0 -0.0055182982072456777 0.0026433223823125896 0 -0.0049502023016223182 0.0031730135119654732 0 -0.0055182982072456777 0.0026433223823125896 0 -0.0055813448335478109 0.0033222211514124288 0 -0.0049502023016223182 0.0031730135119654732 0 -0.0055182982072456777 0.0026433223823125896 0 -0.0055813448335478109 0.0033222211514124288 0 -0.0063307133596552274 0.0028654365621539556 0 -0.0055813448335478109 0.0033222211514124288 0 -0.0063307133596552274 0.0028654365621539556 0 -0.0062333610232458573 0.0038513044231168452 0 -0.021678583964872624 0.0009305424344938424 0 -0.022373847119933909 0.0003290755764568417 0 -0.021369052230863685 0.00014097996509734135 0 -0.012629779253225592 0.002004752539325486 0 -0.018346433314045306 0.00049990825502205032 0 -0.0049189289231981277 0.003975875274886004 0 -0.0055813448335478109 0.0033222211514124288 0 -0.0062333610232458573 0.0038513044231168452 0 -0.013396042764860883 0.0011097067075966595 0 -0.013909965872441638 0.0010621275021684207 0 -0.013671518408228223 0.0012543342699430737 0 -0.0049189289231981277 0.003975875274886004 0 -0.0055813448335478109 0.0033222211514124288 0 -0.0049502023016223182 0.0031730135119654732 0 -0.0080207385332221465 0.0028759786115047045 0 -0.012629779253225592 0.002004752539325486 0 -0.018346433314045306 0.00049990825502205032 0 -0.020039187738506176 -0.00014909290188908243 0 -0.022373847119933909 0.0003290755764568417 0 -0.022333261306571126 -0.00059816817410746352 0 -0.022998192146163506 -0.000231169549818646 0 -0.013396042764860883 0.0011097067075966595 0 -0.013671518408228223 0.0012543342699430737 0 -0.01342874387283936 0.0014872791089529333 0 -0.022373847119933909 0.0003290755764568417 0 -0.021791030539699271 -0.00040074752086458607 0 -0.021369052230863685 0.00014097996509734135 0 -0.022373847119933909 0.0003290755764568417 0 -0.021791030539699271 -0.00040074752086458607 0 -0.022333261306571126 -0.00059816817410746352 0 -0.021791030539699271 -0.00040074752086458607 0 -0.021702498287213681 -0.0010456352348926002 0 -0.022333261306571126 -0.00059816817410746352 0 -0.021673510486550432 -0.0011113950162818581 0 -0.022507647873095588 -0.00072885625462073482 0 -0.021702498287213681 -0.0010456352348926002 0 -0.022255852566269635 -0.0011889752951136868 0 -0.022247929598142677 -0.0013011438369439395 0 -0.022316981743120367 -0.0013471693694284395 0 -0.022255852566269635 -0.0011889752951136868 0 -0.022247929598142677 -0.0013011438369439395 0 -0.022316981743120367 -0.0013471693694284395 0 -0.022350525321815688 -0.0013824961912641306 0 -0.022247929598142677 -0.0013011438369439395 0 -0.022507647873095588 -0.00072885625462073482 0 -0.020039187738506176 -0.00014909290188908243 0 -0.022316981743120367 -0.0013471693694284395 0 -0.022255852566269635 -0.0011889752951136868 0 -0.022307544501516379 -0.001447007444797681 0 -0.020770090774665278 0.0005425348569295963 0 -0.019875564942157635 0.00056138811401043587 0 -0.020413077595490964 -4.0718049353597522e-05 0 -0.020413077595490964 -4.0718049353597522e-05 0 -0.02005856409329124 -0.00051661122282282165 0 -0.019615953612350225 -2.7856577791417734e-05 0 -0.019875564942157635 0.00056138811401043587 0 -0.020413077595490964 -4.0718049353597522e-05 0 -0.019615953612350225 -2.7856577791417734e-05 0 -0.020413077595490964 -4.0718049353597522e-05 0 -0.021369052230863685 0.00014097996509734135 0 -0.020943168484111159 -0.00062407361813583218 0 -0.020770090774665278 0.0005425348569295963 0 -0.020413077595490964 -4.0718049353597522e-05 0 -0.021369052230863685 0.00014097996509734135 0 -0.021791030539699271 -0.00040074752086458607 0 -0.021369052230863685 0.00014097996509734135 0 -0.020943168484111159 -0.00062407361813583218 0 -0.021075192172569274 -0.0011488164540480669 0 -0.020943168484111159 -0.00062407361813583218 0 -0.020140381969060941 -0.0013050797436507803 0 -0.021791030539699271 -0.00040074752086458607 0 -0.021702498287213681 -0.0010456352348926002 0 -0.020943168484111159 -0.00062407361813583218 0 -0.021702498287213681 -0.0010456352348926002 0 -0.021075192172569274 -0.0011488164540480669 0 -0.020943168484111159 -0.00062407361813583218 0 -0.020943168484111159 -0.00062407361813583218 0 -0.02005856409329124 -0.00051661122282282165 0 -0.020140381969060941 -0.0013050797436507803 0 -0.020413077595490964 -4.0718049353597522e-05 0 -0.020943168484111159 -0.00062407361813583218 0 -0.02005856409329124 -0.00051661122282282165 0 -0.023946304443146688 -0.0018680222825203019 0 -0.023757979882369638 -0.0013631652797474767 0 -0.024088064605709347 -0.0015720202697741552 0 -0.023946304443146688 -0.0018680222825203019 0 -0.023377487064170137 -0.0017889371449957218 0 -0.023757979882369638 -0.0013631652797474767 0 -0.021075192172569274 -0.0011488164540480669 0 -0.020140381969060941 -0.0013050797436507803 0 -0.021479301606736667 -0.0016295547004276378 0 -0.02229916423233827 -0.0016944478058911123 0 -0.022352321309514245 -0.0016598113423811818 0 -0.021702498287213681 -0.0010456352348926002 0 -0.021075192172569274 -0.0011488164540480669 0 -0.021479301606736667 -0.0016295547004276378 0 -0.023377487064170137 -0.0017889371449957218 0 -0.023757979882369638 -0.0013631652797474767 0 -0.02318751386254882 -0.0012525896220339963 0 -0.023757979882369638 -0.0013631652797474767 0 -0.024088064605709347 -0.0015720202697741552 0 -0.024225897784516517 -0.0013213758219256676 0 -0.023757979882369638 -0.0013631652797474767 0 -0.024225897784516517 -0.0013213758219256676 0 -0.024089523275724733 -0.0010909967263470846 0 -0.022350525321815688 -0.0013824961912641306 0 -0.022516662580869842 -0.0015477171815519869 0 -0.022338769793469736 -0.0013714019418318943 0 -0.022350525321815688 -0.0013824961912641306 0 -0.022247929598142677 -0.0013011438369439395 0 -0.022516662580869842 -0.0015477171815519869 0 -0.022352321309514245 -0.0016598113423811818 0 -0.022512139844396952 -0.0015894553385765633 0 -0.021479301606736667 -0.0016295547004276378 0 -0.022247929598142677 -0.0013011438369439395 0 -0.022516662580869842 -0.0015477171815519869 0 -0.021702498287213681 -0.0010456352348926002 0 -0.021479301606736667 -0.0016295547004276378 0 -0.022247929598142677 -0.0013011438369439395 0 -0.023377487064170137 -0.0017889371449957218 0 -0.02318751386254882 -0.0012525896220339963 0 -0.022516662580869842 -0.0015477171815519869 0 -0.02318751386254882 -0.0012525896220339963 0 -0.022516662580869842 -0.0015477171815519869 0 -0.02258486240101628 -0.0012051734722055274 0 -0.022516662580869842 -0.0015477171815519869 0 -0.022338769793469736 -0.0013714019418318943 0 -0.02258486240101628 -0.0012051734722055274 0 -0.022260537696434893 -0.0011766693331725011 0 -0.022338769793469736 -0.0013714019418318943 0 -0.02258486240101628 -0.0012051734722055274 0 -0.022260537696434893 -0.0011766693331725011 0 -0.022166378055597891 -0.0012965863489379896 0 -0.022338769793469736 -0.0013714019418318943 0 -0.022350525321815688 -0.0013824961912641306 0 -0.022338769793469736 -0.0013714019418318943 0 -0.022179083578395688 -0.0013429540155765088 0 -0.022166378055597891 -0.0012965863489379896 0 -0.022338769793469736 -0.0013714019418318943 0 -0.022179083578395688 -0.0013429540155765088 0 -0.022350525321815688 -0.0013824961912641306 0 -0.022179083578395688 -0.0013429540155765088 0 -0.022227895082671312 -0.0013814346887158055 0 -0.021995971806439796 -0.001308495937787281 0 -0.022023317305838567 -0.0012513943846727438 0 -0.021960547023452629 -0.0013653521720295464 0 -0.021902030652807634 -0.0011230062146796026 0 -0.021053225063744001 -0.00087794810136130198 0 -0.021995971806439796 -0.001308495937787281 0 -0.021716674934256875 -0.0013105936848321104 0 -0.021815410737476931 -0.0013417839414467333 0 -0.022179083578395688 -0.0013429540155765088 0 -0.021995971806439796 -0.001308495937787281 0 -0.022016709317264797 -0.0013701240535085506 0 -0.022166378055597891 -0.0012965863489379896 0 -0.021995971806439796 -0.001308495937787281 0 -0.022023317305838567 -0.0012513943846727438 0 -0.022166378055597891 -0.0012965863489379896 0 -0.022179083578395688 -0.0013429540155765088 0 -0.021995971806439796 -0.001308495937787281 0 -0.022260537696434893 -0.0011766693331725011 0 -0.022023317305838567 -0.0012513943846727438 0 -0.021967643902332464 -0.00097948435062610701 0 -0.022260537696434893 -0.0011766693331725011 0 -0.022166378055597891 -0.0012965863489379896 0 -0.022023317305838567 -0.0012513943846727438 0 -0.022023317305838567 -0.0012513943846727438 0 -0.021842200469583743 -0.0011945800259296148 0 -0.021967643902332464 -0.00097948435062610701 0 -0.023685946013147836 -0.0012226203513948332 0 -0.023751686329902388 -0.0013388639187994046 0 -0.023806956089377128 -0.0012273124627181719 0 -0.023685946013147836 -0.0012226203513948332 0 -0.02379530261330064 -0.0011266881211927679 0 -0.023806956089377128 -0.0012273124627181719 0 -0.022053436806542231 -0.00071053635100567115 0 -0.021283689024314264 -0.00057921493415358054 0 -0.019733628168886384 0.0010188621812120514 0 -0.018870559503497697 -1.9995945846043761e-05 0 -0.019621864161352202 -0.00053367506247897561 0 -0.018870559503497697 -1.9995945846043761e-05 0 -0.019621864161352202 -0.00053367506247897561 0 -0.017980148045987829 -0.0010729519577272987 0 -0.019733628168886384 0.0010188621812120514 0 -0.019621864161352202 -0.00053367506247897561 0 -0.020690140962150223 -0.0007371661829546403 0 -0.022023317305838567 -0.0012513943846727438 0 -0.021842200469583743 -0.0011945800259296148 0 -0.021960547023452629 -0.0013653521720295464 0 -0.022053436806542231 -0.00071053635100567115 0 -0.021053225063744001 -0.00087794810136130198 0 -0.021053225063744001 -0.00087794810136130198 0 -0.01995793401305327 -0.0012401132783186018 0 -0.019621864161352202 -0.00053367506247897561 0 -0.020690140962150223 -0.0007371661829546403 0 -0.0195676446440852 -0.0015476448198243028 0 -0.020978588472745117 -0.00012625629654448701 0 -0.020601616225638168 -0.0013869758322271127 0 -0.019004691903308338 -0.0013782848265218577 0 -0.020601616225638168 -0.0013869758322271127 0 -0.019004691903308338 -0.0013782848265218577 0 -0.020118803793345647 -0.002001986519473684 0 -0.020601616225638168 -0.0013869758322271127 0 -0.021236533856945492 -0.0019404147089347778 0 -0.021580945895011305 -0.0013540298054947725 0 -0.020978588472745117 -0.00012625629654448701 0 -0.020601616225638168 -0.0013869758322271127 0 -0.021580945895011305 -0.0013540298054947725 0 -0.0195676446440852 -0.0015476448198243028 0 -0.018408329509873624 -0.0023708823620942239 0 -0.017980148045987829 -0.0010729519577272987 0 -0.019621864161352202 -0.00053367506247897561 0 -0.0195676446440852 -0.0015476448198243028 0 -0.017980148045987829 -0.0010729519577272987 0 -0.0030619364409187528 0.0017360065490046599 0 -0.0031371959599121209 0.0018297046237697968 0 -0.0030064169230550838 0.0017827076412853325 0 -0.011188125130713836 -0.00070125046635812545 0 -0.012055855715000242 -0.00094229592879408537 0 -0.01995793401305327 -0.0012401132783186018 0 -0.012055855715000242 -0.00094229592879408537 0 -0.019004691903308338 -0.0013782848265218577 0 -0.01928193854836513 -0.0031448179155159654 0 -0.016932582135621137 -0.0027833700041398845 0 -0.011188125130713836 -0.00070125046635812545 0 -0.011123403410880087 0.0011055586055443429 0 -0.01928193854836513 -0.0031448179155159654 0 -0.02051665850114286 -0.0026083814284313732 0 -0.02160505337462857 -0.0033887835224558358 0 -0.020601616225638168 -0.0013869758322271127 0 -0.020118803793345647 -0.002001986519473684 0 -0.021236533856945492 -0.0019404147089347778 0 -0.020118803793345647 -0.002001986519473684 0 -0.02051665850114286 -0.0026083814284313732 0 -0.021236533856945492 -0.0019404147089347778 0 -0.019004691903308338 -0.0013782848265218577 0 -0.020118803793345647 -0.002001986519473684 0 -0.01928193854836513 -0.0031448179155159654 0 -0.020118803793345647 -0.002001986519473684 0 -0.01928193854836513 -0.0031448179155159654 0 -0.02051665850114286 -0.0026083814284313732 0 -0.011123403410880087 0.0011055586055443429 0 -0.019949738147159241 -0.0041146697291118885 0 -0.02051665850114286 -0.0026083814284313732 0 -0.02160505337462857 -0.0033887835224558358 0 -0.021236533856945492 -0.0019404147089347778 0 -0.021639739458860552 -0.001802528593887096 0 -0.021236533856945492 -0.0019404147089347778 0 -0.021580945895011305 -0.0013540298054947725 0 -0.021470378180134277 -0.0023618863273983841 0 -0.021639739458860552 -0.001802528593887096 0 -0.021236533856945492 -0.0019404147089347778 0 -0.021470378180134277 -0.0023618863273983841 0 -0.021639739458860552 -0.001802528593887096 0 -0.02196388276676569 -0.0017255815826692875 0 -0.021470378180134277 -0.0023618863273983841 0 -0.022465584352936156 -0.001644994315841354 0 -0.02196388276676569 -0.0017255815826692875 0 -0.013396042764860883 0.0011097067075966595 0 -0.012805434206672987 0.0012025499134770733 0 -0.01342874387283936 0.0014872791089529333 0 -0.011123403410880087 0.0011055586055443429 0 -0.020039187738506176 -0.00014909290188908243 0 -0.022465584352936156 -0.001644994315841354 0 -0.02196388276676569 -0.0017255815826692875 0 -0.02229227743963693 -0.0015009013389899574 0 -0.020039187738506176 -0.00014909290188908243 0 -0.021456225757473933 -0.001215047797835548 0 -0.022072584153162222 -0.0014866610812759127 0 -0.02229227743963693 -0.0015009013389899574 0 -0.022227895082671312 -0.0013814346887158055 0 -0.02196388276676569 -0.0017255815826692875 0 -0.022072584153162222 -0.0014866610812759127 0 -0.02229227743963693 -0.0015009013389899574 0 -0.02196388276676569 -0.0017255815826692875 0 -0.022072584153162222 -0.0014866610812759127 0 -0.021864326086720787 -0.0014773409744758947 0 -0.022316981743120367 -0.0013471693694284395 0 -0.02229227743963693 -0.0015009013389899574 0 -0.022227895082671312 -0.0013814346887158055 0 -0.022316981743120367 -0.0013471693694284395 0 -0.022307544501516379 -0.001447007444797681 0 -0.02229227743963693 -0.0015009013389899574 0 -0.022316981743120367 -0.0013471693694284395 0 -0.022350525321815688 -0.0013824961912641306 0 -0.022227895082671312 -0.0013814346887158055 0 -0.022179083578395688 -0.0013429540155765088 0 -0.022227895082671312 -0.0013814346887158055 0 -0.022016709317264797 -0.0013701240535085506 0 -0.022072584153162222 -0.0014866610812759127 0 -0.022227895082671312 -0.0013814346887158055 0 -0.022016709317264797 -0.0013701240535085506 0 -0.021995971806439796 -0.001308495937787281 0 -0.022016709317264797 -0.0013701240535085506 0 -0.021815410737476931 -0.0013417839414467333 0 -0.022016709317264797 -0.0013701240535085506 0 -0.021815410737476931 -0.0013417839414467333 0 -0.021864326086720787 -0.0014773409744758947 0 -0.021053225063744001 -0.00087794810136130198 0 -0.021461792840692166 -0.0012504523354398671 0 -0.021716674934256875 -0.0013105936848321104 0 -0.021815410737476931 -0.0013417839414467333 0 -0.021580945895011305 -0.0013540298054947725 0 -0.021639739458860552 -0.001802528593887096 0 -0.021580945895011305 -0.0013540298054947725 0 -0.021864326086720787 -0.0014773409744758947 0 -0.021815410737476931 -0.0013417839414467333 0 -0.021580945895011305 -0.0013540298054947725 0 -0.021864326086720787 -0.0014773409744758947 0 -0.021639739458860552 -0.001802528593887096 0 -0.02196388276676569 -0.0017255815826692875 0 -0.021864326086720787 -0.0014773409744758947 0 -0.022072584153162222 -0.0014866610812759127 0 -0.022016709317264797 -0.0013701240535085506 0 -0.021864326086720787 -0.0014773409744758947 0 -0.01542437671595305 0.0005170713546474243 0 -0.015492284246664786 0.00089480680920202597 0 -0.015741920516818365 0.0002712574077235123 0 -0.015286829157171415 0.0011505727296433539 0 -0.015589892445444136 0.0003153712840902336 0 -0.015201020551867868 0.00034525112286018777 0 -0.01542437671595305 0.0005170713546474243 0 -0.015741920516818365 0.0002712574077235123 0 -0.015252964994589535 0.00074886681031588259 0 -0.01542437671595305 0.0005170713546474243 0 -0.015492284246664786 0.00089480680920202597 0 -0.015252964994589535 0.00074886681031588259 0 -0.01542437671595305 0.0005170713546474243 0 -0.015227177737391321 0.0005458863784504307 0 -0.015201020551867868 0.00034525112286018777 0 -0.01542437671595305 0.0005170713546474243 0 -0.015227177737391321 0.0005458863784504307 0 -0.015907411965851322 0.00086661213778893684 0 -0.014926405039018211 0.0012698540040957547 0 -0.015428859647392757 0.00036607131386542186 0 -0.015907411965851322 0.00086661213778893684 0 -0.016313293386918198 0.00028947948138805451 0 -0.015428859647392757 0.00036607131386542186 0 -0.015907411965851322 0.00086661213778893684 0 -0.014926405039018211 0.0012698540040957547 0 -0.015926688925339945 0.0017364228412633856 0 -0.014926405039018211 0.0012698540040957547 0 -0.014689076376943404 0.0018709163275821127 0 -0.015926688925339945 0.0017364228412633856 0 -0.015286829157171415 0.0011505727296433539 0 -0.013831934661683235 0.0011599533908983393 0 -0.015092349616785574 0.001045131334469601 0 -0.015492284246664786 0.00089480680920202597 0 -0.015260129436754616 0.0014980810189804839 0 -0.014926405039018211 0.0012698540040957547 0 -0.014689076376943404 0.0018709163275821127 0 -0.014602415864233118 0.0019614581031512862 0 -0.015092349616785574 0.001045131334469601 0 -0.015252964994589535 0.00074886681031588259 0 -0.015492284246664786 0.00089480680920202597 0 -0.014689076376943404 0.0018709163275821127 0 -0.014602415864233118 0.0019614581031512862 0 -0.014177637033253782 0.0015907434230427132 0 -0.014602415864233118 0.0019614581031512862 0 -0.014177637033253782 0.0015907434230427132 0 -0.014416249323272894 0.0010575407246982717 0 -0.013831934661683235 0.0011599533908983393 0 -0.013549849305759438 0.00098649042003497969 0 -0.012532998921385517 0.00087758359105453499 0 -0.012644312739945375 0.00060735847380519062 0 -0.012733529285446903 0.00084864585090226258 0 -0.014177637033253782 0.0015907434230427132 0 -0.014416249323272894 0.0010575407246982717 0 -0.013539431299982635 0.0009033618721757576 0 -0.012157259664104606 0.0010170153560530078 0 -0.013549849305759438 0.00098649042003497969 0 -0.012833306529484764 0.001104742744335566 0 -0.012733529285446903 0.00084864585090226258 0 -0.012630866067920264 0.00098851164960331935 0 -0.012532998921385517 0.00087758359105453499 0 -0.012733529285446903 0.00084864585090226258 0 -0.012630866067920264 0.00098851164960331935 0 -0.014060326076208499 0.00021669547032637063 0 -0.014416249323272894 0.0010575407246982717 0 -0.013539431299982635 0.0009033618721757576 0 -0.014177637033253782 0.0015907434230427132 0 -0.013539431299982635 0.0009033618721757576 0 -0.013332007501603727 0.0015321956574007034 0 -0.014689076376943404 0.0018709163275821127 0 -0.014177637033253782 0.0015907434230427132 0 -0.013110677431619134 0.002303587263151584 0 -0.014177637033253782 0.0015907434230427132 0 -0.013332007501603727 0.0015321956574007034 0 -0.013110677431619134 0.002303587263151584 0 -0.014675566027662719 0.0019000446498395173 0 -0.014517360895853045 0.0019971324974508938 0 -0.012514672393035343 0.0013386308296395486 0 -0.011681887723679438 0.0023816534838057035 0 -0.013110677431619134 0.002303587263151584 0 -0.013332007501603727 0.0015321956574007034 0 -0.012514672393035343 0.0013386308296395486 0 -0.013110677431619134 0.002303587263151584 0 -0.013539431299982635 0.0009033618721757576 0 -0.013332007501603727 0.0015321956574007034 0 -0.012514672393035343 0.0013386308296395486 0 -0.011807280783527776 0.00044746809521111077 0 -0.01292637884077647 0.00029163701937234956 0 -0.012514672393035343 0.0013386308296395486 0 -0.01292637884077647 0.00029163701937234956 0 -0.013539431299982635 0.0009033618721757576 0 -0.012514672393035343 0.0013386308296395486 0 -0.011807280783527776 0.00044746809521111077 0 -0.012514672393035343 0.0013386308296395486 0 -0.011335115718067109 0.0013397101038578093 0 -0.012514672393035343 0.0013386308296395486 0 -0.011681887723679438 0.0023816534838057035 0 -0.011335115718067109 0.0013397101038578093 0 -0.016938501032919006 0.0015189360254581788 0 -0.015926688925339945 0.0017364228412633856 0 -0.016719679692431891 0.00075270212613465616 0 -0.014315752375982272 0.0019491650803998254 0 -0.014517360895853045 0.0019971324974508938 0 -0.015907411965851322 0.00086661213778893684 0 -0.015926688925339945 0.0017364228412633856 0 -0.016719679692431891 0.00075270212613465616 0 -0.015907411965851322 0.00086661213778893684 0 -0.016719679692431891 0.00075270212613465616 0 -0.016313293386918198 0.00028947948138805451 0 -0.016938501032919006 0.0015189360254581788 0 -0.016719679692431891 0.00075270212613465616 0 -0.017595760293745155 0.00052868141965699766 0 -0.017595760293745155 0.00052868141965699766 0 -0.017908594255800134 0.0013798000541299165 0 -0.018471366229915871 0.00064555634588924654 0 -0.014315752375982272 0.0019491650803998254 0 -0.014322299381699675 0.001820868579574169 0 -0.016938501032919006 0.0015189360254581788 0 -0.017595760293745155 0.00052868141965699766 0 -0.017908594255800134 0.0013798000541299165 0 -0.011681887723679438 0.0023816534838057035 0 -0.010625860986304334 0.0022719676716836962 0 -0.010902106867420767 0.0018210665322005444 0 -0.010902106867420767 0.0018210665322005444 0 -0.011335115718067109 0.0013397101038578093 0 -0.010550794314839098 0.0012890260057130027 0 -0.011681887723679438 0.0023816534838057035 0 -0.010902106867420767 0.0018210665322005444 0 -0.011335115718067109 0.0013397101038578093 0 -0.011807280783527776 0.00044746809521111077 0 -0.010757500849591706 0.00074639783296758628 0 -0.011335115718067109 0.0013397101038578093 0 -0.010757500849591706 0.00074639783296758628 0 -0.011335115718067109 0.0013397101038578093 0 -0.010550794314839098 0.0012890260057130027 0 -0.010902106867420767 0.0018210665322005444 0 -0.010550794314839098 0.0012890260057130027 0 -0.0101308351774483 0.0017812998892054218 0 -0.010625860986304334 0.0022719676716836962 0 -0.010902106867420767 0.0018210665322005444 0 -0.0101308351774483 0.0017812998892054218 0 -0.0101308351774483 0.0017812998892054218 0 -0.010088109880114006 0.001380535477953983 0 -0.0097441565188813358 0.0015838241465120015 0 -0.010550794314839098 0.0012890260057130027 0 -0.0101308351774483 0.0017812998892054218 0 -0.010088109880114006 0.001380535477953983 0 -0.0099442324915074657 0.00096156616305939516 0 -0.0094213299449606817 0.0016476783291056968 0 -0.010042951042175197 0.00085520077864305517 0 -0.010088109880114006 0.001380535477953983 0 -0.0097441565188813358 0.0015838241465120015 0 -0.010042951042175197 0.00085520077864305517 0 -0.010550794314839098 0.0012890260057130027 0 -0.010088109880114006 0.001380535477953983 0 -0.0081764360257459666 0.001451807933790845 0 -0.0087574075270195773 0.001076669975279022 0 -0.0086576015912443027 0.0020032572990187113 0 -0.010042951042175197 0.00085520077864305517 0 -0.0087574075270195773 0.001076669975279022 0 -0.0086576015912443027 0.0020032572990187113 0 -0.0081073314404573327 0.0008583842123277473 0 -0.0081764360257459666 0.001451807933790845 0 -0.0087574075270195773 0.001076669975279022 0 -0.0101308351774483 0.0017812998892054218 0 -0.0097441565188813358 0.0015838241465120015 0 -0.0097776251491694284 0.0019184692417920197 0 -0.0101308351774483 0.0017812998892054218 0 -0.0099629139464489265 0.0021344385422580182 0 -0.0097776251491694284 0.0019184692417920197 0 -0.0096911875741502763 0.0020221570485277761 0 -0.0099629139464489265 0.0021344385422580182 0 -0.0097776251491694284 0.0019184692417920197 0 -0.010625860986304334 0.0022719676716836962 0 -0.0101308351774483 0.0017812998892054218 0 -0.0099629139464489265 0.0021344385422580182 0 -0.014322299381699675 0.001820868579574169 0 -0.014364033537121061 0.0017307279671105902 0 -0.019030998502503529 0.0012770642815916194 0 -0.018471366229915871 0.00064555634588924654 0 -0.019195995236360286 0.00049628395459037509 0 -0.017908594255800134 0.0013798000541299165 0 -0.019030998502503529 0.0012770642815916194 0 -0.018471366229915871 0.00064555634588924654 0 -0.019875564942157635 0.00056138811401043587 0 -0.019030998502503529 0.0012770642815916194 0 -0.019195995236360286 0.00049628395459037509 0 -0.020327208164106315 0.0011380137413049044 0 -0.019875564942157635 0.00056138811401043587 0 -0.019030998502503529 0.0012770642815916194 0 -0.015704718259981411 0.0014652593910156411 0 -0.014364033537121061 0.0017307279671105902 0 -0.019615953612350225 -2.7856577791417734e-05 0 -0.019039015799390172 6.5636581394781715e-06 0 -0.019234846716228209 -0.00051973291175296909 0 -0.019875564942157635 0.00056138811401043587 0 -0.019195995236360286 0.00049628395459037509 0 -0.019615953612350225 -2.7856577791417734e-05 0 -0.019195995236360286 0.00049628395459037509 0 -0.019615953612350225 -2.7856577791417734e-05 0 -0.019039015799390172 6.5636581394781715e-06 0 -0.018471366229915871 0.00064555634588924654 0 -0.018521409467123297 -6.7415569057374292e-05 0 -0.019039015799390172 6.5636581394781715e-06 0 -0.018471366229915871 0.00064555634588924654 0 -0.019195995236360286 0.00049628395459037509 0 -0.019039015799390172 6.5636581394781715e-06 0 -0.018521409467123297 -6.7415569057374292e-05 0 -0.019039015799390172 6.5636581394781715e-06 0 -0.019234846716228209 -0.00051973291175296909 0 -0.018521409467123297 -6.7415569057374292e-05 0 -0.018936007120964261 -0.00078952888385087449 0 -0.019234846716228209 -0.00051973291175296909 0 -0.01876862114296898 -0.00037554423372351657 0 -0.018184163401728844 -0.00095478259232701507 0 -0.017765557278965942 -0.0001256795288030494 0 -0.020510479853986446 -0.00074028829712719695 0 -0.017457335469143024 -0.0001887005968454572 0 -0.018521409467123297 -6.7415569057374292e-05 0 -0.018936007120964261 -0.00078952888385087449 0 -0.017879379593082514 -0.00038327593998795437 0 -0.02229916423233827 -0.0016944478058911123 0 -0.020510479853986446 -0.00074028829712719695 0 -0.02005856409329124 -0.00051661122282282165 0 -0.019615953612350225 -2.7856577791417734e-05 0 -0.019234846716228209 -0.00051973291175296909 0 -0.02005856409329124 -0.00051661122282282165 0 -0.020140381969060941 -0.0013050797436507803 0 -0.019234846716228209 -0.00051973291175296909 0 -0.020140381969060941 -0.0013050797436507803 0 -0.018881198727140801 -0.00089206064052899808 0 -0.019234846716228209 -0.00051973291175296909 0 -0.020510479853986446 -0.00074028829712719695 0 -0.019427038491012998 -0.00098712043185542877 0 -0.023946304443146688 -0.0018680222825203019 0 -0.024368952780566527 -0.0016256035314159837 0 -0.024088064605709347 -0.0015720202697741552 0 -0.023946304443146688 -0.0018680222825203019 0 -0.02440559871579339 -0.0019589582828109962 0 -0.024368952780566527 -0.0016256035314159837 0 -0.024368952780566527 -0.0016256035314159837 0 -0.024225897784516517 -0.0013213758219256676 0 -0.024552879879353891 -0.0013350272727388067 0 -0.024368952780566527 -0.0016256035314159837 0 -0.024088064605709347 -0.0015720202697741552 0 -0.024225897784516517 -0.0013213758219256676 0 -0.024368952780566527 -0.0016256035314159837 0 -0.024552879879353891 -0.0013350272727388067 0 -0.024700993330549252 -0.001648182780224592 0 -0.024552879879353891 -0.0013350272727388067 0 -0.024700993330549252 -0.001648182780224592 0 -0.024764009900892833 -0.0012093579220740318 0 -0.024225897784516517 -0.0013213758219256676 0 -0.024552879879353891 -0.0013350272727388067 0 -0.024437237688278261 -0.0011058842071782014 0 -0.02440559871579339 -0.0019589582828109962 0 -0.024368952780566527 -0.0016256035314159837 0 -0.024700993330549252 -0.001648182780224592 0 -0.020510479853986446 -0.00074028829712719695 0 -0.021666392819820177 -0.0012386739466889432 0 -0.017661396561056027 -0.0007933797677423766 0 -0.018184163401728844 -0.00095478259232701507 0 -0.017625245958065111 -0.0015368734403058523 0 -0.017661396561056027 -0.0007933797677423766 0 -0.018184163401728844 -0.00095478259232701507 0 -0.017765557278965942 -0.0001256795288030494 0 -0.024700993330549252 -0.001648182780224592 0 -0.024964809102918182 -0.0013453604092221801 0 -0.024764009900892833 -0.0012093579220740318 0 -0.021666392819820177 -0.0012386739466889432 0 -0.020164012525565794 -0.001204345745367706 0 -0.016969023369205298 -0.00088909863552238521 0 -0.017161362203791813 -0.00091487622267336403 0 -0.016938350343727211 -0.0010793012729131296 0 -0.016969023369205298 -0.00088909863552238521 0 -0.017161362203791813 -0.00091487622267336403 0 -0.017065500461387724 -0.00057840720853871784 0 -0.017661396561056027 -0.0007933797677423766 0 -0.017625245958065111 -0.0015368734403058523 0 -0.017065500461387724 -0.00057840720853871784 0 -0.020164012525565794 -0.001204345745367706 0 -0.016256420316193263 -0.00040314661947542956 0 -0.017661396561056027 -0.0007933797677423766 0 -0.017065500461387724 -0.00057840720853871784 0 -0.017765557278965942 -0.0001256795288030494 0 -0.017065500461387724 -0.00057840720853871784 0 -0.017765557278965942 -0.0001256795288030494 0 -0.016949841306059119 -7.9730789839594144e-06 0 -0.017457335469143024 -0.0001887005968454572 0 -0.017163302085956001 -6.0330678988087543e-05 0 -0.017595760293745155 0.00052868141965699766 0 -0.018521409467123297 -6.7415569057374292e-05 0 -0.017879379593082514 -0.00038327593998795437 0 -0.017595760293745155 0.00052868141965699766 0 -0.018471366229915871 0.00064555634588924654 0 -0.018521409467123297 -6.7415569057374292e-05 0 -0.017595760293745155 0.00052868141965699766 0 -0.017879379593082514 -0.00038327593998795437 0 -0.016949841306059119 -7.9730789839594144e-06 0 -0.016719679692431891 0.00075270212613465616 0 -0.016949841306059119 -7.9730789839594144e-06 0 -0.016313293386918198 0.00028947948138805451 0 -0.016719679692431891 0.00075270212613465616 0 -0.017595760293745155 0.00052868141965699766 0 -0.016949841306059119 -7.9730789839594144e-06 0 -0.016949841306059119 -7.9730789839594144e-06 0 -0.016313293386918198 0.00028947948138805451 0 -0.016485420519727855 -0.00014242590089378371 0 -0.016313293386918198 0.00028947948138805451 0 -0.016485420519727855 -0.00014242590089378371 0 -0.016145267157285783 -0.00010705923464577775 0 -0.016485420519727855 -0.00014242590089378371 0 -0.016145267157285783 -0.00010705923464577775 0 -0.016353322271513752 -0.0004041006636773222 0 -0.016145267157285783 -0.00010705923464577775 0 -0.016353322271513752 -0.0004041006636773222 0 -0.016175161064739089 -0.00034219391912532936 0 -0.016353322271513752 -0.0004041006636773222 0 -0.016311472798813127 -0.00062382993585574707 0 -0.016186469686563312 -0.00048800294759139117 0 -0.016353322271513752 -0.0004041006636773222 0 -0.016186469686563312 -0.00048800294759139117 0 -0.016175161064739089 -0.00034219391912532936 0 -0.016485420519727855 -0.00014242590089378371 0 -0.016353322271513752 -0.0004041006636773222 0 -0.016660286867281826 -0.00042861532295288202 0 -0.016353322271513752 -0.0004041006636773222 0 -0.016660286867281826 -0.00042861532295288202 0 -0.016487193674611895 -0.00059890145681654097 0 -0.017065500461387724 -0.00057840720853871784 0 -0.016949841306059119 -7.9730789839594144e-06 0 -0.016660286867281826 -0.00042861532295288202 0 -0.016949841306059119 -7.9730789839594144e-06 0 -0.016485420519727855 -0.00014242590089378371 0 -0.016660286867281826 -0.00042861532295288202 0 -0.017065500461387724 -0.00057840720853871784 0 -0.016671791004293481 -0.00068790801077733702 0 -0.016807112779136463 -0.00083476461578720215 0 -0.017065500461387724 -0.00057840720853871784 0 -0.016660286867281826 -0.00042861532295288202 0 -0.016671791004293481 -0.00068790801077733702 0 -0.016969023369205298 -0.00088909863552238521 0 -0.017065500461387724 -0.00057840720853871784 0 -0.016807112779136463 -0.00083476461578720215 0 -0.016671791004293481 -0.00068790801077733702 0 -0.016807112779136463 -0.00083476461578720215 0 -0.016596570226648451 -0.00083721607877373981 0 -0.016807112779136463 -0.00083476461578720215 0 -0.016683468264410972 -0.00093928169927622528 0 -0.016596570226648451 -0.00083721607877373981 0 -0.016807112779136463 -0.00083476461578720215 0 -0.016833253326679506 -0.00095973411931082994 0 -0.016683468264410972 -0.00093928169927622528 0 -0.016969023369205298 -0.00088909863552238521 0 -0.016807112779136463 -0.00083476461578720215 0 -0.016833253326679506 -0.00095973411931082994 0 -0.016532886031850262 -0.00092449701240903282 0 -0.016683468264410972 -0.00093928169927622528 0 -0.016596570226648451 -0.00083721607877373981 0 -0.016532886031850262 -0.00092449701240903282 0 -0.016596570226648451 -0.00083721607877373981 0 -0.016425742072190389 -0.00083731895537586119 0 -0.016596570226648451 -0.00083721607877373981 0 -0.016448740313906102 -0.00074593245618778681 0 -0.016425742072190389 -0.00083731895537586119 0 -0.016448740313906102 -0.00074593245618778681 0 -0.016311472798813127 -0.00062382993585574707 0 -0.016304782813754807 -0.00072381312051233786 0 -0.016671791004293481 -0.00068790801077733702 0 -0.016596570226648451 -0.00083721607877373981 0 -0.016448740313906102 -0.00074593245618778681 0 -0.016671791004293481 -0.00068790801077733702 0 -0.016448740313906102 -0.00074593245618778681 0 -0.016487193674611895 -0.00059890145681654097 0 -0.016660286867281826 -0.00042861532295288202 0 -0.016671791004293481 -0.00068790801077733702 0 -0.016487193674611895 -0.00059890145681654097 0 -0.016353322271513752 -0.0004041006636773222 0 -0.016487193674611895 -0.00059890145681654097 0 -0.016311472798813127 -0.00062382993585574707 0 -0.016448740313906102 -0.00074593245618778681 0 -0.016487193674611895 -0.00059890145681654097 0 -0.016311472798813127 -0.00062382993585574707 0 -0.016311472798813127 -0.00062382993585574707 0 -0.016158741214346763 -0.00065285200349348869 0 -0.016186469686563312 -0.00048800294759139117 0 -0.016311472798813127 -0.00062382993585574707 0 -0.016158741214346763 -0.00065285200349348869 0 -0.016304782813754807 -0.00072381312051233786 0 -0.016158741214346763 -0.00065285200349348869 0 -0.016257741552001118 -0.00072746559417971417 0 -0.016304782813754807 -0.00072381312051233786 0 -0.016158741214346763 -0.00065285200349348869 0 -0.016257741552001118 -0.00072746559417971417 0 -0.01625248625153243 -0.00072080603951795927 0 -0.016257741552001118 -0.00072746559417971417 0 -0.016304782813754807 -0.00072381312051233786 0 -0.01632844833415752 -0.00081223066691658657 0 -0.016257741552001118 -0.00072746559417971417 0 -0.01632844833415752 -0.00081223066691658657 0 -0.016276052552227589 -0.00077551177519263328 0 -0.016448740313906102 -0.00074593245618778681 0 -0.016304782813754807 -0.00072381312051233786 0 -0.016425742072190389 -0.00083731895537586119 0 -0.016425742072190389 -0.00083731895537586119 0 -0.01632844833415752 -0.00081223066691658657 0 -0.016421629672257729 -0.00091215369823140853 0 -0.016304782813754807 -0.00072381312051233786 0 -0.016425742072190389 -0.00083731895537586119 0 -0.01632844833415752 -0.00081223066691658657 0 -0.01632844833415752 -0.00081223066691658657 0 -0.01635696236887681 -0.0009077821408486126 0 -0.016421629672257729 -0.00091215369823140853 0 -0.01632844833415752 -0.00081223066691658657 0 -0.01635696236887681 -0.0009077821408486126 0 -0.016306520500747667 -0.00084098495957589078 0 -0.016532886031850262 -0.00092449701240903282 0 -0.016425742072190389 -0.00083731895537586119 0 -0.016421629672257729 -0.00091215369823140853 0 -0.016275277862084762 -0.00090194764715672887 0 -0.016311078640506627 -0.0008994446730872641 0 -0.016275346381975381 -0.00083039096933683809 0 -0.016311078640506627 -0.0008994446730872641 0 -0.016306520500747667 -0.00084098495957589078 0 -0.016275346381975381 -0.00083039096933683809 0 -0.01635696236887681 -0.0009077821408486126 0 -0.016311078640506627 -0.0008994446730872641 0 -0.016306520500747667 -0.00084098495957589078 0 -0.01632844833415752 -0.00081223066691658657 0 -0.016306520500747667 -0.00084098495957589078 0 -0.016276052552227589 -0.00077551177519263328 0 -0.016306520500747667 -0.00084098495957589078 0 -0.016275346381975381 -0.00083039096933683809 0 -0.016276052552227589 -0.00077551177519263328 0 -0.016275346381975381 -0.00083039096933683809 0 -0.016261548546191891 -0.00077104020989715485 0 -0.016276052552227589 -0.00077551177519263328 0 -0.016257741552001118 -0.00072746559417971417 0 -0.016276052552227589 -0.00077551177519263328 0 -0.01625248625153243 -0.00072080603951795927 0 -0.016261548546191891 -0.00077104020989715485 0 -0.016276052552227589 -0.00077551177519263328 0 -0.01625248625153243 -0.00072080603951795927 0 -0.016261548546191891 -0.00077104020989715485 0 -0.01625248625153243 -0.00072080603951795927 0 -0.016258655553452128 -0.00074819488544735128 0 -0.015474350378589066 -0.00047904001040798401 0 -0.015829238139414434 -0.00053319411921248089 0 -0.015554698769095557 -0.00027155215340429777 0 -0.015916495681580559 -0.0006149090237906401 0 -0.015854857262457087 -0.00046929626087656922 0 -0.01625062959347225 -0.00074016318716232585 0 -0.016258655553452128 -0.00074819488544735128 0 -0.016247116063035506 -0.00075762781913689067 0 -0.01625248625153243 -0.00072080603951795927 0 -0.016258655553452128 -0.00074819488544735128 0 -0.016247116063035506 -0.00075762781913689067 0 -0.016158741214346763 -0.00065285200349348869 0 -0.015545659850853467 -0.00028903677113239438 0 -0.015930930976784087 -0.00032794770549394184 0 -0.016115786925743253 -0.00065554026826372431 0 -0.015854857262457087 -0.00046929626087656922 0 -0.016158741214346763 -0.00065285200349348869 0 -0.01625248625153243 -0.00072080603951795927 0 -0.016247116063035506 -0.00075762781913689067 0 -0.015998615137921675 -0.00036515857314187969 0 -0.015930930976784087 -0.00032794770549394184 0 -0.015741920516818365 0.0002712574077235123 0 -0.016158741214346763 -0.00065285200349348869 0 -0.015998615137921675 -0.00036515857314187969 0 -0.015930930976784087 -0.00032794770549394184 0 -0.016158741214346763 -0.00065285200349348869 0 -0.016186469686563312 -0.00048800294759139117 0 -0.015998615137921675 -0.00036515857314187969 0 -0.016186469686563312 -0.00048800294759139117 0 -0.015998615137921675 -0.00036515857314187969 0 -0.016175161064739089 -0.00034219391912532936 0 -0.016145267157285783 -0.00010705923464577775 0 -0.015998615137921675 -0.00036515857314187969 0 -0.016175161064739089 -0.00034219391912532936 0 -0.015854857262457087 -0.00046929626087656922 0 -0.015804366439051028 -0.00038054107627751542 0 -0.016313293386918198 0.00028947948138805451 0 -0.016145267157285783 -0.00010705923464577775 0 -0.015428859647392757 0.00036607131386542186 0 -0.015935085066248432 -0.00030374009072785556 0 -0.015589892445444136 0.0003153712840902336 0 -0.016145267157285783 -0.00010705923464577775 0 -0.015998615137921675 -0.00036515857314187969 0 -0.015428859647392757 0.00036607131386542186 0 -0.015625752529567057 -0.00029198966679679712 0 -0.015930930976784087 -0.00032794770549394184 0 -0.015741920516818365 0.0002712574077235123 0 -0.015625752529567057 -0.00029198966679679712 0 -0.015741920516818365 0.0002712574077235123 0 -0.015228988559263577 6.4187286825509931e-05 0 -0.015201020551867868 0.00034525112286018777 0 -0.015741920516818365 0.0002712574077235123 0 -0.015228988559263577 6.4187286825509931e-05 0 -0.015854857262457087 -0.00046929626087656922 0 -0.015402840748684926 -0.00011747885315622927 0 -0.024799096499290497 -0.00026319586601226416 0 -0.0242674999436794 -0.00045609478887529884 0 -0.024841024723707909 -0.00025888072392065293 0 -0.024890996326509287 -0.00020147209823109043 0 -0.024921076762929172 -0.0002406626238599871 0 -0.024919490993190217 -0.00013958234111537016 0 -0.024841024723707909 -0.00025888072392065293 0 -0.024890996326509287 -0.00020147209823109043 0 -0.024890996326509287 -0.00020147209823109043 0 -0.024921076762929172 -0.0002406626238599871 0 -0.024922801457521418 -0.00019765355867210559 0 -0.024918770119868532 -0.00022295593210405865 0 -0.024921076762929172 -0.0002406626238599871 0 -0.024922801457521418 -0.00019765355867210559 0 -0.024918770119868532 -0.00022295593210405865 0 -0.024921076762929172 -0.0002406626238599871 0 -0.024905823428137765 -0.00027299684962148055 0 -0.02362541496174984 -0.00064537904721558524 0 -0.024397859409408806 -0.0012097697372695586 0 -0.023263458596314061 -0.0014796477790092928 0 -0.024841024723707909 -0.00025888072392065293 0 -0.02362541496174984 -0.00064537904721558524 0 -0.024397859409408806 -0.0012097697372695586 0 -0.016301626385306172 -0.0010313478408022247 0 -0.016393252576382984 -0.0011201939365103155 0 -0.016355809611224081 -0.0010380374192880532 0 -0.016393252576382984 -0.0011201939365103155 0 -0.016355809611224081 -0.0010380374192880532 0 -0.016423297440282134 -0.0010694669235731355 0 -0.016355809611224081 -0.0010380374192880532 0 -0.016361026565296123 -0.00097803354119544339 0 -0.016311244852964871 -0.00096149689879919875 0 -0.016355809611224081 -0.0010380374192880532 0 -0.016361026565296123 -0.00097803354119544339 0 -0.016423297440282134 -0.0010694669235731355 0 -0.01635696236887681 -0.0009077821408486126 0 -0.016311078640506627 -0.0008994446730872641 0 -0.016361026565296123 -0.00097803354119544339 0 -0.016275277862084762 -0.00090194764715672887 0 -0.016311078640506627 -0.0008994446730872641 0 -0.016311244852964871 -0.00096149689879919875 0 -0.016311078640506627 -0.0008994446730872641 0 -0.016361026565296123 -0.00097803354119544339 0 -0.016311244852964871 -0.00096149689879919875 0 -0.016421629672257729 -0.00091215369823140853 0 -0.0164305576727709 -0.0010043191814453345 0 -0.016512355444091395 -0.0010089672245958286 0 -0.016532886031850262 -0.00092449701240903282 0 -0.016421629672257729 -0.00091215369823140853 0 -0.016512355444091395 -0.0010089672245958286 0 -0.01635696236887681 -0.0009077821408486126 0 -0.016361026565296123 -0.00097803354119544339 0 -0.0164305576727709 -0.0010043191814453345 0 -0.01635696236887681 -0.0009077821408486126 0 -0.016421629672257729 -0.00091215369823140853 0 -0.0164305576727709 -0.0010043191814453345 0 -0.016361026565296123 -0.00097803354119544339 0 -0.0164305576727709 -0.0010043191814453345 0 -0.016423297440282134 -0.0010694669235731355 0 -0.0164305576727709 -0.0010043191814453345 0 -0.016493395940722758 -0.0010779316015895116 0 -0.016512355444091395 -0.0010089672245958286 0 -0.016493395940722758 -0.0010779316015895116 0 -0.016423297440282134 -0.0010694669235731355 0 -0.016518382418756413 -0.0011625310407976141 0 -0.016393252576382984 -0.0011201939365103155 0 -0.016423297440282134 -0.0010694669235731355 0 -0.016518382418756413 -0.0011625310407976141 0 -0.02007829162935916 -0.0012774247606669028 0 -0.019790578773327423 -0.0013083458458839521 0 -0.016493395940722758 -0.0010779316015895116 0 -0.016518382418756413 -0.0011625310407976141 0 -0.016593229628034969 -0.0011014871909874298 0 -0.0164305576727709 -0.0010043191814453345 0 -0.016493395940722758 -0.0010779316015895116 0 -0.016423297440282134 -0.0010694669235731355 0 -0.019790578773327423 -0.0013083458458839521 0 -0.020382877960647954 -0.001682161977510235 0 -0.016518382418756413 -0.0011625310407976141 0 -0.016593229628034969 -0.0011014871909874298 0 -0.016740506871447156 -0.0011957082392894691 0 -0.023263458596314061 -0.0014796477790092928 0 -0.022462962392973945 -0.0013823245090484717 0 -0.022142630126271681 -0.0016999750123642371 0 -0.022462962392973945 -0.0013823245090484717 0 -0.022257771802452229 -0.0015767832007812406 0 -0.022405891354282313 -0.0011674746239181218 0 -0.02188753538761741 -0.0010246626408210793 0 -0.020382877960647954 -0.001682161977510235 0 -0.016593229628034969 -0.0011014871909874298 0 -0.016704763978775277 -0.001100801587399802 0 -0.016740506871447156 -0.0011957082392894691 0 -0.016593229628034969 -0.0011014871909874298 0 -0.016512355444091395 -0.0010089672245958286 0 -0.016618226553434035 -0.0010197585421248046 0 -0.016493395940722758 -0.0010779316015895116 0 -0.016593229628034969 -0.0011014871909874298 0 -0.016512355444091395 -0.0010089672245958286 0 -0.016618226553434035 -0.0010197585421248046 0 -0.016743055471853934 -0.0010275884138700843 0 -0.016704763978775277 -0.001100801587399802 0 -0.016593229628034969 -0.0011014871909874298 0 -0.016618226553434035 -0.0010197585421248046 0 -0.016704763978775277 -0.001100801587399802 0 -0.016532886031850262 -0.00092449701240903282 0 -0.016683468264410972 -0.00093928169927622528 0 -0.016618226553434035 -0.0010197585421248046 0 -0.016683468264410972 -0.00093928169927622528 0 -0.016618226553434035 -0.0010197585421248046 0 -0.016743055471853934 -0.0010275884138700843 0 -0.016532886031850262 -0.00092449701240903282 0 -0.016512355444091395 -0.0010089672245958286 0 -0.016618226553434035 -0.0010197585421248046 0 -0.016969023369205298 -0.00088909863552238521 0 -0.016833253326679506 -0.00095973411931082994 0 -0.016938350343727211 -0.0010793012729131296 0 -0.016743055471853934 -0.0010275884138700843 0 -0.016704763978775277 -0.001100801587399802 0 -0.016938350343727211 -0.0010793012729131296 0 -0.016833253326679506 -0.00095973411931082994 0 -0.016743055471853934 -0.0010275884138700843 0 -0.016938350343727211 -0.0010793012729131296 0 -0.016833253326679506 -0.00095973411931082994 0 -0.016683468264410972 -0.00093928169927622528 0 -0.016743055471853934 -0.0010275884138700843 0 -0.021201217628192891 -0.0017315558927344615 0 -0.021485604031324091 -0.0016721150142798335 0 -0.021455390469476268 -0.00150314663994922 0 -0.022257771802452229 -0.0015767832007812406 0 -0.022036199934945187 -0.001491424991870287 0 -0.021762158242032273 -0.0016152153392166228 0 -0.020382877960647954 -0.001682161977510235 0 -0.021860239898199615 -0.001587023576674109 0 -0.016704763978775277 -0.001100801587399802 0 -0.016740506871447156 -0.0011957082392894691 0 -0.016938350343727211 -0.0010793012729131296 0 -0.023688576574024258 -0.00074743292471657493 0 -0.023090542302834409 -0.0010050678614646892 0 -0.022036199934945187 -0.001491424991870287 0 -0.022405891354282313 -0.0011674746239181218 0 -0.021734820572598922 -0.0015477820371147622 0 -0.020382877960647954 -0.001682161977510235 0 -0.018963361872808952 -0.0014055001687156927 0 -0.022257771802452229 -0.0015767832007812406 0 -0.022036199934945187 -0.001491424991870287 0 -0.022405891354282313 -0.0011674746239181218 0 -0.024838455416294508 -0.00038011720126409 0 -0.024810432856958158 -0.00040828035645606683 0 -0.024787011443547918 -0.00046145524893243716 0 -0.024838455416294508 -0.00038011720126409 0 -0.024819473852996182 -0.00037139715738039342 0 -0.024810432856958158 -0.00040828035645606683 0 -0.024838455416294508 -0.00038011720126409 0 -0.024891340534303179 -0.00034114421737914109 0 -0.024787011443547918 -0.00046145524893243716 0 -0.024838455416294508 -0.00038011720126409 0 -0.024849543538338133 -0.00034803206402890541 0 -0.024819473852996182 -0.00037139715738039342 0 -0.024819473852996182 -0.00037139715738039342 0 -0.024847557839341644 -0.00031236425298470624 0 -0.024815430683967007 -0.00032065088648126726 0 -0.024849543538338133 -0.00034803206402890541 0 -0.024819473852996182 -0.00037139715738039342 0 -0.024847557839341644 -0.00031236425298470624 0 -0.024847557839341644 -0.00031236425298470624 0 -0.02487203011614024 -0.00032164142624680603 0 -0.024877462640125331 -0.00027680138361541165 0 -0.02487203011614024 -0.00032164142624680603 0 -0.024886956517095132 -0.00030261640602046922 0 -0.024877462640125331 -0.00027680138361541165 0 -0.024849543538338133 -0.00034803206402890541 0 -0.024847557839341644 -0.00031236425298470624 0 -0.02487203011614024 -0.00032164142624680603 0 -0.02487203011614024 -0.00032164142624680603 0 -0.024863868272705588 -0.00034777056464226861 0 -0.024891340534303179 -0.00034114421737914109 0 -0.024838455416294508 -0.00038011720126409 0 -0.024863868272705588 -0.00034777056464226861 0 -0.024891340534303179 -0.00034114421737914109 0 -0.024838455416294508 -0.00038011720126409 0 -0.024849543538338133 -0.00034803206402890541 0 -0.024863868272705588 -0.00034777056464226861 0 -0.024849543538338133 -0.00034803206402890541 0 -0.02487203011614024 -0.00032164142624680603 0 -0.024863868272705588 -0.00034777056464226861 0 -0.02362541496174984 -0.00064537904721558524 0 -0.023263458596314061 -0.0014796477790092928 0 -0.022405891354282313 -0.0011674746239181218 0 -0.024921076762929172 -0.0002406626238599871 0 -0.024891340534303179 -0.00034114421737914109 0 -0.024905823428137765 -0.00027299684962148055 0 -0.023263458596314061 -0.0014796477790092928 0 -0.022462962392973945 -0.0013823245090484717 0 -0.022405891354282313 -0.0011674746239181218 0 -0.0242674999436794 -0.00045609478887529884 0 -0.023688576574024258 -0.00074743292471657493 0 -0.024891340534303179 -0.00034114421737914109 0 -0.024905823428137765 -0.00027299684962148055 0 -0.024886956517095132 -0.00030261640602046922 0 -0.024905823428137765 -0.00027299684962148055 0 -0.024886956517095132 -0.00030261640602046922 0 -0.024877462640125331 -0.00027680138361541165 0 -0.02487203011614024 -0.00032164142624680603 0 -0.024891340534303179 -0.00034114421737914109 0 -0.024886956517095132 -0.00030261640602046922 0 -0.024905823428137765 -0.00027299684962148055 0 -0.024899578662891778 -0.00022508875595760445 0 -0.024877462640125331 -0.00027680138361541165 0 -0.024918770119868532 -0.00022295593210405865 0 -0.024905823428137765 -0.00027299684962148055 0 -0.024899578662891778 -0.00022508875595760445 0 -0.024842646070898311 -0.00027869423193415099 0 -0.024877462640125331 -0.00027680138361541165 0 -0.024855833037577407 -0.00022366170476627672 0 -0.024899578662891778 -0.00022508875595760445 0 -0.024877462640125331 -0.00027680138361541165 0 -0.024855833037577407 -0.00022366170476627672 0 -0.024842646070898311 -0.00027869423193415099 0 -0.024810135359511494 -0.00026513288787950842 0 -0.024855833037577407 -0.00022366170476627672 0 -0.024847557839341644 -0.00031236425298470624 0 -0.024842646070898311 -0.00027869423193415099 0 -0.024815430683967007 -0.00032065088648126726 0 -0.024847557839341644 -0.00031236425298470624 0 -0.024842646070898311 -0.00027869423193415099 0 -0.024877462640125331 -0.00027680138361541165 0 -0.024760197146240476 -0.00028494560043213336 0 -0.024810135359511494 -0.00026513288787950842 0 -0.02477159904593601 -0.00033930760188066673 0 -0.024842646070898311 -0.00027869423193415099 0 -0.024810135359511494 -0.00026513288787950842 0 -0.024815430683967007 -0.00032065088648126726 0 -0.024810135359511494 -0.00026513288787950842 0 -0.02477159904593601 -0.00033930760188066673 0 -0.024815430683967007 -0.00032065088648126726 0 -0.024810135359511494 -0.00026513288787950842 0 -0.024791897343973687 -0.00021170194528833604 0 -0.024855833037577407 -0.00022366170476627672 0 -0.024760197146240476 -0.00028494560043213336 0 -0.024810135359511494 -0.00026513288787950842 0 -0.024791897343973687 -0.00021170194528833604 0 -0.024760197146240476 -0.00028494560043213336 0 -0.024696405658228185 -0.000247065870547057 0 -0.024791897343973687 -0.00021170194528833604 0 -0.024760197146240476 -0.00028494560043213336 0 -0.024696405658228185 -0.000247065870547057 0 -0.024717264378971322 -0.00038839279029224955 0 -0.024717264378971322 -0.00038839279029224955 0 -0.024706388391467014 -0.00046442330344975815 0 -0.024576969680867769 -0.00045228653266552468 0 -0.024696405658228185 -0.000247065870547057 0 -0.024717264378971322 -0.00038839279029224955 0 -0.024576969680867769 -0.00045228653266552468 0 -0.024717264378971322 -0.00038839279029224955 0 -0.024754743454731366 -0.00042680577119619381 0 -0.024706388391467014 -0.00046442330344975815 0 -0.024717264378971322 -0.00038839279029224955 0 -0.024754743454731366 -0.00042680577119619381 0 -0.024758093202380364 -0.0003833412930808372 0 -0.024754743454731366 -0.00042680577119619381 0 -0.024758093202380364 -0.0003833412930808372 0 -0.02478793636694537 -0.00037851772302590828 0 -0.024717264378971322 -0.00038839279029224955 0 -0.024758093202380364 -0.0003833412930808372 0 -0.02477159904593601 -0.00033930760188066673 0 -0.024760197146240476 -0.00028494560043213336 0 -0.024717264378971322 -0.00038839279029224955 0 -0.02477159904593601 -0.00033930760188066673 0 -0.024758093202380364 -0.0003833412930808372 0 -0.02477159904593601 -0.00033930760188066673 0 -0.02478793636694537 -0.00037851772302590828 0 -0.02477159904593601 -0.00033930760188066673 0 -0.024815430683967007 -0.00032065088648126726 0 -0.02478793636694537 -0.00037851772302590828 0 -0.024819473852996182 -0.00037139715738039342 0 -0.024815430683967007 -0.00032065088648126726 0 -0.02478793636694537 -0.00037851772302590828 0 -0.024819473852996182 -0.00037139715738039342 0 -0.02478793636694537 -0.00037851772302590828 0 -0.024792380817780114 -0.00040874926424511659 0 -0.024754743454731366 -0.00042680577119619381 0 -0.02478793636694537 -0.00037851772302590828 0 -0.024792380817780114 -0.00040874926424511659 0 -0.024819473852996182 -0.00037139715738039342 0 -0.024792380817780114 -0.00040874926424511659 0 -0.024810432856958158 -0.00040828035645606683 0 -0.021485604031324091 -0.0016721150142798335 0 -0.021585281264805255 -0.0015431579670080805 0 -0.021716617139267112 -0.0015836170686296092 0 -0.022036199934945187 -0.001491424991870287 0 -0.021734820572598922 -0.0015477820371147622 0 -0.021762158242032273 -0.0016152153392166228 0 -0.024792380817780114 -0.00040874926424511659 0 -0.024810432856958158 -0.00040828035645606683 0 -0.024787011443547918 -0.00046145524893243716 0 -0.021860239898199615 -0.001587023576674109 0 -0.021631569463698784 -0.0016161968363284855 0 -0.021734820572598922 -0.0015477820371147622 0 -0.021762158242032273 -0.0016152153392166228 0 -0.021716617139267112 -0.0015836170686296092 0 -0.024754743454731366 -0.00042680577119619381 0 -0.024792380817780114 -0.00040874926424511659 0 -0.024787011443547918 -0.00046145524893243716 0 -0.024754743454731366 -0.00042680577119619381 0 -0.024787011443547918 -0.00046145524893243716 0 -0.024706388391467014 -0.00046442330344975815 0 -0.021649281338757449 -0.0013630676692223951 0 -0.021585281264805255 -0.0015431579670080805 0 -0.021716617139267112 -0.0015836170686296092 0 -0.021649281338757449 -0.0013630676692223951 0 -0.021455390469476268 -0.00150314663994922 0 -0.021585281264805255 -0.0015431579670080805 0 -0.021485604031324091 -0.0016721150142798335 0 -0.021455390469476268 -0.00150314663994922 0 -0.021585281264805255 -0.0015431579670080805 0 -0.020164012525565794 -0.001204345745367706 0 -0.018963361872808952 -0.0014055001687156927 0 -0.024964809102918182 -0.0013453604092221801 0 -0.024764009900892833 -0.0012093579220740318 0 -0.024772187813347096 -0.00094183365240917236 0 -0.021649281338757449 -0.0013630676692223951 0 -0.021716617139267112 -0.0015836170686296092 0 -0.021730468065063305 -0.0015913816819901002 0 -0.020164012525565794 -0.001204345745367706 0 -0.024149299959059036 -0.001316708966184211 0 -0.024764009900892833 -0.0012093579220740318 0 -0.024772187813347096 -0.00094183365240917236 0 -0.024667829151144655 -0.00098506109552947405 0 -0.024149299959059036 -0.001316708966184211 0 -0.024644093445051113 -0.0010653988207320777 0 -0.024787011443547918 -0.00046145524893243716 0 -0.024657918846455507 -0.00054161056374716927 0 -0.024706388391467014 -0.00046442330344975815 0 -0.021734820572598922 -0.0015477820371147622 0 -0.021716617139267112 -0.0015836170686296092 0 -0.021730468065063305 -0.0015913816819901002 0 -0.023090542302834409 -0.0010050678614646892 0 -0.024149299959059036 -0.001316708966184211 0 -0.024657918846455507 -0.00054161056374716927 0 -0.024706388391467014 -0.00046442330344975815 0 -0.024576969680867769 -0.00045228653266552468 0 -0.02480455036693531 -0.00092619636337753272 0 -0.024517480543613294 -0.00077290432202470588 0 -0.024576969680867769 -0.00045228653266552468 0 -0.024517480543613294 -0.00077290432202470588 0 -0.024295072869240545 -0.00060631881171280039 0 -0.024576969680867769 -0.00045228653266552468 0 -0.024149299959059036 -0.001316708966184211 0 -0.024686812577773987 -0.00030008574152177238 0 -0.02480455036693531 -0.00092619636337753272 0 -0.024517480543613294 -0.00077290432202470588 0 -0.024667829151144655 -0.00098506109552947405 0 -0.024517480543613294 -0.00077290432202470588 0 -0.024667829151144655 -0.00098506109552947405 0 -0.024437237688278261 -0.0011058842071782014 0 -0.024667829151144655 -0.00098506109552947405 0 -0.024437237688278261 -0.0011058842071782014 0 -0.024606690243598441 -0.0011588108212771217 0 -0.024552879879353891 -0.0013350272727388067 0 -0.024437237688278261 -0.0011058842071782014 0 -0.024606690243598441 -0.0011588108212771217 0 -0.024764009900892833 -0.0012093579220740318 0 -0.024667829151144655 -0.00098506109552947405 0 -0.024606690243598441 -0.0011588108212771217 0 -0.024552879879353891 -0.0013350272727388067 0 -0.024764009900892833 -0.0012093579220740318 0 -0.024606690243598441 -0.0011588108212771217 0 -0.024225897784516517 -0.0013213758219256676 0 -0.024437237688278261 -0.0011058842071782014 0 -0.024089523275724733 -0.0010909967263470846 0 -0.024437237688278261 -0.0011058842071782014 0 -0.024293460477214875 -0.00088650274752658312 0 -0.024089523275724733 -0.0010909967263470846 0 -0.024293460477214875 -0.00088650274752658312 0 -0.024295072869240545 -0.00060631881171280039 0 -0.023922153632320108 -0.0008632144353541998 0 -0.024517480543613294 -0.00077290432202470588 0 -0.024437237688278261 -0.0011058842071782014 0 -0.024293460477214875 -0.00088650274752658312 0 -0.024517480543613294 -0.00077290432202470588 0 -0.024293460477214875 -0.00088650274752658312 0 -0.024295072869240545 -0.00060631881171280039 0 -0.024295072869240545 -0.00060631881171280039 0 -0.024328411250721205 -0.00033984029057956806 0 -0.024073708361642011 -0.00049815206791146494 0 -0.024295072869240545 -0.00060631881171280039 0 -0.024576969680867769 -0.00045228653266552468 0 -0.024328411250721205 -0.00033984029057956806 0 -0.024696405658228185 -0.000247065870547057 0 -0.024576969680867769 -0.00045228653266552468 0 -0.024546418397832965 -0.00020909890762156274 0 -0.024576969680867769 -0.00045228653266552468 0 -0.024328411250721205 -0.00033984029057956806 0 -0.024546418397832965 -0.00020909890762156274 0 -0.024328411250721205 -0.00033984029057956806 0 -0.024546418397832965 -0.00020909890762156274 0 -0.024356911716177584 -0.00015610752275318289 0 -0.024546418397832965 -0.00020909890762156274 0 -0.024563507818411118 -0.00010045583124253575 0 -0.024356911716177584 -0.00015610752275318289 0 -0.024546418397832965 -0.00020909890762156274 0 -0.02466785043265049 -0.00011675894153137735 0 -0.024563507818411118 -0.00010045583124253575 0 -0.024696405658228185 -0.000247065870547057 0 -0.024546418397832965 -0.00020909890762156274 0 -0.02466785043265049 -0.00011675894153137735 0 -0.02466785043265049 -0.00011675894153137735 0 -0.024563507818411118 -0.00010045583124253575 0 -0.024715200773264116 -2.4704634625439611e-05 0 -0.02466785043265049 -0.00011675894153137735 0 -0.024715200773264116 -2.4704634625439611e-05 0 -0.024725921778263337 -7.617381732650005e-05 0 -0.024563507818411118 -0.00010045583124253575 0 -0.024715200773264116 -2.4704634625439611e-05 0 -0.024446843545932111 -3.919842736818543e-05 0 -0.024715200773264116 -2.4704634625439611e-05 0 -0.024999987752041725 3.3394582008981052e-08 0 -0.024730979390640638 3.3643166548304197e-05 0 -0.024999987752041725 3.3394582008981052e-08 0 -0.024730979390640638 3.3643166548304197e-05 0 -0.024999066801815704 2.4274007043078873e-07 0 -0.024715200773264116 -2.4704634625439611e-05 0 -0.024999987752041725 3.3394582008981052e-08 0 -0.024968192075629381 -2.6605049273289076e-05 0 -0.024735912355407026 -3.2548873126726296e-05 0 -0.024841894682612286 -2.5789794243813147e-05 0 -0.024715200773264116 -2.4704634625439611e-05 0 -0.024724337466101851 -3.9598305407830627e-05 0 -0.024725921778263337 -7.617381732650005e-05 0 -0.024724337466101851 -3.9598305407830627e-05 0 -0.024802158358134152 -6.1047103095569191e-05 0 -0.024725921778263337 -7.617381732650005e-05 0 -0.024724337466101851 -3.9598305407830627e-05 0 -0.024823486798505906 -2.7999551750922499e-06 0 -0.024802158358134152 -6.1047103095569191e-05 0 -0.024802158358134152 -6.1047103095569191e-05 0 -0.024800008055670536 -9.9364175470735143e-05 0 -0.024725921778263337 -7.617381732650005e-05 0 -0.024841894682612286 -2.5789794243813147e-05 0 -0.024911569177193671 -1.0150291543714261e-05 0 -0.024999987752041725 3.3394582008981052e-08 0 -0.024968192075629381 -2.6605049273289076e-05 0 -0.024999987544319778 -1.6268612275355704e-08 0 -0.024968192075629381 -2.6605049273289076e-05 0 -0.024999987544319778 -1.6268612275355704e-08 0 -0.025001779620969208 -7.6497541153995875e-06 0 -0.024911569177193671 -1.0150291543714261e-05 0 -0.024999962040061458 -3.0367272206260594e-10 0 -0.024999987544319778 -1.6268612275355704e-08 0 -0.025001779620969208 -7.6497541153995875e-06 0 -0.025000013099089276 4.7998930889788943e-09 0 -0.024823486798505906 -2.7999551750922499e-06 0 -0.024802158358134152 -6.1047103095569191e-05 0 -0.024891007604031148 -5.9154709669844059e-05 0 -0.024802158358134152 -6.1047103095569191e-05 0 -0.024855625901468236 -0.00010133487356748525 0 -0.024800008055670536 -9.9364175470735143e-05 0 -0.024802158358134152 -6.1047103095569191e-05 0 -0.024855625901468236 -0.00010133487356748525 0 -0.024891007604031148 -5.9154709669844059e-05 0 -0.024800008055670536 -9.9364175470735143e-05 0 -0.024756263222248422 -0.00014058077246825127 0 -0.024848553208457854 -0.00014643924586030024 0 -0.024855625901468236 -0.00010133487356748525 0 -0.024800008055670536 -9.9364175470735143e-05 0 -0.024848553208457854 -0.00014643924586030024 0 -0.02466785043265049 -0.00011675894153137735 0 -0.024725921778263337 -7.617381732650005e-05 0 -0.024756263222248422 -0.00014058077246825127 0 -0.024800008055670536 -9.9364175470735143e-05 0 -0.024725921778263337 -7.617381732650005e-05 0 -0.024756263222248422 -0.00014058077246825127 0 -0.024696405658228185 -0.000247065870547057 0 -0.02466785043265049 -0.00011675894153137735 0 -0.024756263222248422 -0.00014058077246825127 0 -0.024696405658228185 -0.000247065870547057 0 -0.024756263222248422 -0.00014058077246825127 0 -0.024791897343973687 -0.00021170194528833604 0 -0.024756263222248422 -0.00014058077246825127 0 -0.024791897343973687 -0.00021170194528833604 0 -0.024848553208457854 -0.00014643924586030024 0 -0.024791897343973687 -0.00021170194528833604 0 -0.024855833037577407 -0.00022366170476627672 0 -0.024848553208457854 -0.00014643924586030024 0 -0.024889342941186915 -0.00017382882249367262 0 -0.024855833037577407 -0.00022366170476627672 0 -0.024848553208457854 -0.00014643924586030024 0 -0.024899578662891778 -0.00022508875595760445 0 -0.024889342941186915 -0.00017382882249367262 0 -0.024855833037577407 -0.00022366170476627672 0 -0.024918770119868532 -0.00022295593210405865 0 -0.024899578662891778 -0.00022508875595760445 0 -0.024927260080126881 -0.00016673829052751349 0 -0.024899578662891778 -0.00022508875595760445 0 -0.024889342941186915 -0.00017382882249367262 0 -0.024927260080126881 -0.00016673829052751349 0 -0.024889342941186915 -0.00017382882249367262 0 -0.024927260080126881 -0.00016673829052751349 0 -0.024903488760820453 -0.00010806623001492264 0 -0.024927260080126881 -0.00016673829052751349 0 -0.024903488760820453 -0.00010806623001492264 0 -0.024949807545162177 -0.00010715096215559611 0 -0.024889342941186915 -0.00017382882249367262 0 -0.024903488760820453 -0.00010806623001492264 0 -0.024848553208457854 -0.00014643924586030024 0 -0.024855625901468236 -0.00010133487356748525 0 -0.024903488760820453 -0.00010806623001492264 0 -0.024848553208457854 -0.00014643924586030024 0 -0.024903488760820453 -0.00010806623001492264 0 -0.024891007604031148 -5.9154709669844059e-05 0 -0.02496518546419307 -4.5553826065708989e-05 0 -0.024855625901468236 -0.00010133487356748525 0 -0.024903488760820453 -0.00010806623001492264 0 -0.024891007604031148 -5.9154709669844059e-05 0 -0.024891007604031148 -5.9154709669844059e-05 0 -0.024999619432019775 7.2581306302921327e-08 0 -0.02496518546419307 -4.5553826065708989e-05 0 -0.024823486798505906 -2.7999551750922499e-06 0 -0.024891007604031148 -5.9154709669844059e-05 0 -0.024999619432019775 7.2581306302921327e-08 0 -0.024999619432019775 7.2581306302921327e-08 0 -0.02496518546419307 -4.5553826065708989e-05 0 -0.025000150316529513 -9.9303965502704001e-08 0 -0.024903488760820453 -0.00010806623001492264 0 -0.02496518546419307 -4.5553826065708989e-05 0 -0.024949807545162177 -0.00010715096215559611 0 -0.024949807545162177 -0.00010715096215559611 0 -0.024990209965975611 -8.498686113084815e-05 0 -0.024954180335940709 -0.00013719807248083754 0 -0.02496518546419307 -4.5553826065708989e-05 0 -0.024949807545162177 -0.00010715096215559611 0 -0.024990209965975611 -8.498686113084815e-05 0 -0.024960499090867103 1.5229677167953817e-05 0 -0.024996437024289903 -6.9369161331839247e-07 0 -0.024999982529406745 -2.4786461138313078e-08 0 -0.02496518546419307 -4.5553826065708989e-05 0 -0.024990209965975611 -8.498686113084815e-05 0 -0.025000150316529513 -9.9303965502704001e-08 0 -0.024980093109743126 -4.2477085079217814e-05 0 -0.024999981059080773 3.4669693128558482e-09 0 -0.024960499090867103 1.5229677167953817e-05 0 -0.024996437024289903 -6.9369161331839247e-07 0 -0.024912050485084596 1.0820342245450548e-05 0 -0.025000000091134053 8.5474104917287403e-09 0 -0.024996437024289903 -6.9369161331839247e-07 0 -0.024999915650882498 2.621202446499062e-07 0 -0.024996437024289903 -6.9369161331839247e-07 0 -0.024999915650882498 2.621202446499062e-07 0 -0.025003896322322344 4.4543173529374589e-06 0 -0.024989331302948677 -1.9826022842278568e-07 0 -0.024956140069271059 1.2403167873591276e-05 0 -0.025000000091134053 8.5474104917287403e-09 0 -0.024996437024289903 -6.9369161331839247e-07 0 -0.024999982529406745 -2.4786461138313078e-08 0 -0.024995882361610235 -4.6566979108754879e-07 0 -0.024999915650882498 2.621202446499062e-07 0 -0.025003896322322344 4.4543173529374589e-06 0 -0.024960499090867103 1.5229677167953817e-05 0 -0.024912050485084596 1.0820342245450548e-05 0 -0.024901581582301931 0.00011215185935407005 0 -0.024949319435614258 -0.00016285229025010239 0 -0.024954180335940709 -0.00013719807248083754 0 -0.024922801457521418 -0.00019765355867210559 0 -0.024980093109743126 -4.2477085079217814e-05 0 -0.024882928906630013 2.56060780365243e-05 0 -0.024795585907594311 9.9299243536408798e-05 0 -0.024912050485084596 1.0820342245450548e-05 0 -0.024901581582301931 0.00011215185935407005 0 -0.024990209965975611 -8.498686113084815e-05 0 -0.024949319435614258 -0.00016285229025010239 0 -0.024954180335940709 -0.00013719807248083754 0 -0.024927260080126881 -0.00016673829052751349 0 -0.024949807545162177 -0.00010715096215559611 0 -0.024954180335940709 -0.00013719807248083754 0 -0.024927260080126881 -0.00016673829052751349 0 -0.024954180335940709 -0.00013719807248083754 0 -0.024922801457521418 -0.00019765355867210559 0 -0.024918770119868532 -0.00022295593210405865 0 -0.024927260080126881 -0.00016673829052751349 0 -0.024922801457521418 -0.00019765355867210559 0 -0.025186511431534234 -0.00011383665736673398 0 -0.024882928906630013 2.56060780365243e-05 0 -0.024919490993190217 -0.00013958234111537016 0 -0.024890996326509287 -0.00020147209823109043 0 -0.024949319435614258 -0.00016285229025010239 0 -0.024890996326509287 -0.00020147209823109043 0 -0.024949319435614258 -0.00016285229025010239 0 -0.024922801457521418 -0.00019765355867210559 0 -0.023962382685205234 -0.0013697491924526801 0 -0.023908899982738881 -0.0014041637821828185 0 -0.023958472862371492 -0.0014397411191306379 0 -0.024021779339853552 -0.0013806755780708404 0 -0.023962382685205234 -0.0013697491924526801 0 -0.023958472862371492 -0.0014397411191306379 0 -0.023238586457468267 -0.00083860345879894777 0 -0.02310393444142991 -0.0010194829331187166 0 -0.022591632460050311 -0.00020070083255803011 0 -0.022233961982486804 -0.000635839838365356 0 -0.02268032188939622 -0.00059928915883715505 0 -0.024021779339853552 -0.0013806755780708404 0 -0.023962382685205234 -0.0013697491924526801 0 -0.023998408551803546 -0.0013198235177045974 0 -0.024021779339853552 -0.0013806755780708404 0 -0.024078780937126017 -0.0013095067120203882 0 -0.023998408551803546 -0.0013198235177045974 0 -0.023962382685205234 -0.0013697491924526801 0 -0.023921520064444125 -0.0013576884623723346 0 -0.023959843075253721 -0.0013068885486599933 0 -0.023921520064444125 -0.0013576884623723346 0 -0.023864993444663234 -0.0013982900025960334 0 -0.023908899982738881 -0.0014041637821828185 0 -0.023921520064444125 -0.0013576884623723346 0 -0.023864993444663234 -0.0013982900025960334 0 -0.023925361057594314 -0.0013058473118672631 0 -0.023962382685205234 -0.0013697491924526801 0 -0.023921520064444125 -0.0013576884623723346 0 -0.023908899982738881 -0.0014041637821828185 0 -0.023864993444663234 -0.0013982900025960334 0 -0.023863857931734924 -0.001433487858730506 0 -0.023908899982738881 -0.0014041637821828185 0 -0.023863857931734924 -0.001433487858730506 0 -0.023908899982738881 -0.0014041637821828185 0 -0.023886421054082056 -0.0014467419602508073 0 -0.023908899982738881 -0.0014041637821828185 0 -0.023886421054082056 -0.0014467419602508073 0 -0.023958472862371492 -0.0014397411191306379 0 -0.023886421054082056 -0.0014467419602508073 0 -0.023859247868695688 -0.0014776462474112811 0 -0.023905584142271927 -0.0014773416733987708 0 -0.023886421054082056 -0.0014467419602508073 0 -0.023905584142271927 -0.0014773416733987708 0 -0.023958472862371492 -0.0014397411191306379 0 -0.023886421054082056 -0.0014467419602508073 0 -0.023859247868695688 -0.0014776462474112811 0 -0.023847605407308344 -0.0014429068431728047 0 -0.023863857931734924 -0.001433487858730506 0 -0.023886421054082056 -0.0014467419602508073 0 -0.023847605407308344 -0.0014429068431728047 0 -0.023941365636666108 -0.0016242658662072092 0 -0.023795871541513029 -0.0013627325490539689 0 -0.022053436806542231 -0.00071053635100567115 0 -0.023941365636666108 -0.0016242658662072092 0 -0.023864643449140563 -0.00150172720823253 0 -0.023859247868695688 -0.0014776462474112811 0 -0.023905584142271927 -0.0014773416733987708 0 -0.022053436806542231 -0.00071053635100567115 0 -0.023009395642920181 -0.0012831899247866059 0 -0.022260537696434893 -0.0011766693331725011 0 -0.021967643902332464 -0.00097948435062610701 0 -0.022483478265568929 -0.00090187085896974595 0 -0.023009395642920181 -0.0012831899247866059 0 -0.02310393444142991 -0.0010194829331187166 0 -0.021967643902332464 -0.00097948435062610701 0 -0.022233961982486804 -0.000635839838365356 0 -0.022483478265568929 -0.00090187085896974595 0 -0.022233961982486804 -0.000635839838365356 0 -0.022483478265568929 -0.00090187085896974595 0 -0.02268032188939622 -0.00059928915883715505 0 -0.022260537696434893 -0.0011766693331725011 0 -0.022483478265568929 -0.00090187085896974595 0 -0.02258486240101628 -0.0012051734722055274 0 -0.022483478265568929 -0.00090187085896974595 0 -0.02258486240101628 -0.0012051734722055274 0 -0.023016270895760926 -0.00083760453466141056 0 -0.02318751386254882 -0.0012525896220339963 0 -0.02258486240101628 -0.0012051734722055274 0 -0.023016270895760926 -0.00083760453466141056 0 -0.02318751386254882 -0.0012525896220339963 0 -0.023016270895760926 -0.00083760453466141056 0 -0.02349066844559921 -0.00095366765196972436 0 -0.023016270895760926 -0.00083760453466141056 0 -0.02349066844559921 -0.00095366765196972436 0 -0.023662362845390555 -0.0005519096922250858 0 -0.022483478265568929 -0.00090187085896974595 0 -0.023016270895760926 -0.00083760453466141056 0 -0.02268032188939622 -0.00059928915883715505 0 -0.023016270895760926 -0.00083760453466141056 0 -0.023137820799719142 -0.00038373959795281592 0 -0.02268032188939622 -0.00059928915883715505 0 -0.024293460477214875 -0.00088650274752658312 0 -0.024089523275724733 -0.0010909967263470846 0 -0.023922153632320108 -0.0008632144353541998 0 -0.023757979882369638 -0.0013631652797474767 0 -0.024089523275724733 -0.0010909967263470846 0 -0.023922153632320108 -0.0008632144353541998 0 -0.023757979882369638 -0.0013631652797474767 0 -0.02318751386254882 -0.0012525896220339963 0 -0.02349066844559921 -0.00095366765196972436 0 -0.023757979882369638 -0.0013631652797474767 0 -0.02349066844559921 -0.00095366765196972436 0 -0.023922153632320108 -0.0008632144353541998 0 -0.02349066844559921 -0.00095366765196972436 0 -0.023922153632320108 -0.0008632144353541998 0 -0.023662362845390555 -0.0005519096922250858 0 -0.023922153632320108 -0.0008632144353541998 0 -0.024073708361642011 -0.00049815206791146494 0 -0.023662362845390555 -0.0005519096922250858 0 -0.024295072869240545 -0.00060631881171280039 0 -0.023922153632320108 -0.0008632144353541998 0 -0.024073708361642011 -0.00049815206791146494 0 -0.024073708361642011 -0.00049815206791146494 0 -0.023662362845390555 -0.0005519096922250858 0 -0.024076349493117395 -0.00024179030208816717 0 -0.024076349493117395 -0.00024179030208816717 0 -0.023754048991777826 -0.0001582688417048544 0 -0.02409874294684285 -0.00011719007163121198 0 -0.023662362845390555 -0.0005519096922250858 0 -0.024076349493117395 -0.00024179030208816717 0 -0.023754048991777826 -0.0001582688417048544 0 -0.024328411250721205 -0.00033984029057956806 0 -0.024076349493117395 -0.00024179030208816717 0 -0.024356911716177584 -0.00015610752275318289 0 -0.024328411250721205 -0.00033984029057956806 0 -0.024073708361642011 -0.00049815206791146494 0 -0.024076349493117395 -0.00024179030208816717 0 -0.022591632460050311 -0.00020070083255803011 0 -0.023137820799719142 -0.00038373959795281592 0 -0.02268032188939622 -0.00059928915883715505 0 -0.023662362845390555 -0.0005519096922250858 0 -0.023137820799719142 -0.00038373959795281592 0 -0.023754048991777826 -0.0001582688417048544 0 -0.023016270895760926 -0.00083760453466141056 0 -0.023662362845390555 -0.0005519096922250858 0 -0.023137820799719142 -0.00038373959795281592 0 -0.023137820799719142 -0.00038373959795281592 0 -0.023754048991777826 -0.0001582688417048544 0 -0.023044285740385476 0.00032141754901272163 0 -0.023505053160767519 3.2405180573335736e-05 0 -0.024019049055963589 -0.00036739201409368127 0 -0.023238586457468267 -0.00083860345879894777 0 -0.024019049055963589 -0.00036739201409368127 0 -0.022591632460050311 -0.00020070083255803011 0 -0.023137820799719142 -0.00038373959795281592 0 -0.023044285740385476 0.00032141754901272163 0 -0.024986015212981261 -2.5486968758743462e-05 0 -0.024991173324550111 -1.2752817250306194e-05 0 -0.02498455000433342 -2.0766052166381821e-05 0 -0.024019049055963589 -0.00036739201409368127 0 -0.024598163735249107 -0.00070590535336995737 0 -0.02387008834627052 -0.00013108869999067392 0 -0.023916372435937458 -0.00011988339442011251 0 -0.024001673335995514 -2.6242686132189175e-05 0 -0.023754048991777826 -0.0001582688417048544 0 -0.02387008834627052 -0.00013108869999067392 0 -0.023916372435937458 -0.00011988339442011251 0 -0.024019049055963589 -0.00036739201409368127 0 -0.02458150026022551 4.5619341488229931e-05 0 -0.024996294041368529 -1.2073961404158335e-05 0 -0.024991173324550111 -1.2752817250306194e-05 0 -0.024996362474908794 -4.0909703609631912e-06 0 -0.024986015212981261 -2.5486968758743462e-05 0 -0.024996294041368529 -1.2073961404158335e-05 0 -0.024991173324550111 -1.2752817250306194e-05 0 -0.024356911716177584 -0.00015610752275318289 0 -0.02409874294684285 -0.00011719007163121198 0 -0.024446843545932111 -3.919842736818543e-05 0 -0.024076349493117395 -0.00024179030208816717 0 -0.024356911716177584 -0.00015610752275318289 0 -0.02409874294684285 -0.00011719007163121198 0 -0.023916372435937458 -0.00011988339442011251 0 -0.024001673335995514 -2.6242686132189175e-05 0 -0.02409874294684285 -0.00011719007163121198 0 -0.023754048991777826 -0.0001582688417048544 0 -0.023916372435937458 -0.00011988339442011251 0 -0.02409874294684285 -0.00011719007163121198 0 -0.024001673335995514 -2.6242686132189175e-05 0 -0.024446843545932111 -3.919842736818543e-05 0 -0.024425224295418456 9.2910928133242289e-05 0 -0.024001673335995514 -2.6242686132189175e-05 0 -0.02409874294684285 -0.00011719007163121198 0 -0.024446843545932111 -3.919842736818543e-05 0 -0.024563507818411118 -0.00010045583124253575 0 -0.024356911716177584 -0.00015610752275318289 0 -0.024446843545932111 -3.919842736818543e-05 0 -0.024446843545932111 -3.919842736818543e-05 0 -0.024730979390640638 3.3643166548304197e-05 0 -0.024425224295418456 9.2910928133242289e-05 0 -0.024715200773264116 -2.4704634625439611e-05 0 -0.024446843545932111 -3.919842736818543e-05 0 -0.024730979390640638 3.3643166548304197e-05 0 -0.02458150026022551 4.5619341488229931e-05 0 -0.024689177844578407 -1.4257622612784093e-07 0 -0.024999931098028873 -3.822308818952626e-06 0 -0.025000002630319627 -9.7007110570604291e-10 0 -0.024999997722985154 -2.3794625302956061e-09 0 -0.024730979390640638 3.3643166548304197e-05 0 -0.024425224295418456 9.2910928133242289e-05 0 -0.024999066801815704 2.4274007043078873e-07 0 -0.024689177844578407 -1.4257622612784093e-07 0 -0.024999864437350357 -1.2588957104931661e-11 0 -0.024991173324550111 -1.2752817250306194e-05 0 -0.024996362474908794 -4.0909703609631912e-06 0 -0.024989399996860676 -7.2509560742100695e-06 0 -0.024996362474908794 -4.0909703609631912e-06 0 -0.024995874897720725 -3.6557437494454536e-06 0 -0.024989399996860676 -7.2509560742100695e-06 0 -0.024996294041368529 -1.2073961404158335e-05 0 -0.024999931098028873 -3.822308818952626e-06 0 -0.024996362474908794 -4.0909703609631912e-06 0 -0.024999931098028873 -3.822308818952626e-06 0 -0.024996362474908794 -4.0909703609631912e-06 0 -0.024999997722985154 -2.3794625302956061e-09 0 -0.024996362474908794 -4.0909703609631912e-06 0 -0.024999997722985154 -2.3794625302956061e-09 0 -0.024999990692339272 -2.0101262284310025e-09 0 -0.024996362474908794 -4.0909703609631912e-06 0 -0.024999990692339272 -2.0101262284310025e-09 0 -0.024995874897720725 -3.6557437494454536e-06 0 -0.024999990692339272 -2.0101262284310025e-09 0 -0.024995874897720725 -3.6557437494454536e-06 0 -0.024999997777446853 -7.9310823636544033e-09 0 -0.024995874897720725 -3.6557437494454536e-06 0 -0.024999997777446853 -7.9310823636544033e-09 0 -0.024995796191412036 -5.2842004193477681e-06 0 -0.024995796191412036 -5.2842004193477681e-06 0 -0.024993157652498564 -3.8856419228545528e-06 0 -0.024998670418549512 -5.8214671072234476e-06 0 -0.024999997777446853 -7.9310823636544033e-09 0 -0.024995796191412036 -5.2842004193477681e-06 0 -0.024998670418549512 -5.8214671072234476e-06 0 -0.024995874897720725 -3.6557437494454536e-06 0 -0.024995796191412036 -5.2842004193477681e-06 0 -0.024989399996860676 -7.2509560742100695e-06 0 -0.024991173324550111 -1.2752817250306194e-05 0 -0.024989399996860676 -7.2509560742100695e-06 0 -0.02498455000433342 -2.0766052166381821e-05 0 -0.024995796191412036 -5.2842004193477681e-06 0 -0.024989399996860676 -7.2509560742100695e-06 0 -0.024993157652498564 -3.8856419228545528e-06 0 -0.024989399996860676 -7.2509560742100695e-06 0 -0.0249751524729643 -1.5707687539135353e-05 0 -0.02498455000433342 -2.0766052166381821e-05 0 -0.024645490399351648 -0.00028132327372997889 0 -0.024598163735249107 -0.00070590535336995737 0 -0.02508701070134477 6.0739995897092104e-05 0 -0.024645490399351648 -0.00028132327372997889 0 -0.025006609362211649 -2.9972529930092047e-05 0 -0.025005630588913599 -3.1878305273894063e-05 0 -0.025005476049145305 -3.2978053672137483e-05 0 -0.024645490399351648 -0.00028132327372997889 0 -0.024662289559667927 -0.00078827020314364935 0 -0.024645490399351648 -0.00028132327372997889 0 -0.025046420886225152 -8.5581533834696099e-06 0 -0.025006609362211649 -2.9972529930092047e-05 0 -0.025005630588913599 -3.1878305273894063e-05 0 -0.025008563739093281 -2.4685728408923454e-05 0 -0.023985885203647347 -0.0012512447142814672 0 -0.023959843075253721 -0.0013068885486599933 0 -0.023928999188889775 -0.0012972948528081538 0 -0.023985885203647347 -0.0012512447142814672 0 -0.023959843075253721 -0.0013068885486599933 0 -0.023998408551803546 -0.0013198235177045974 0 -0.023962382685205234 -0.0013697491924526801 0 -0.023959843075253721 -0.0013068885486599933 0 -0.023998408551803546 -0.0013198235177045974 0 -0.02393556566871631 -0.0010521179792893536 0 -0.024662289559667927 -0.00078827020314364935 0 -0.024078780937126017 -0.0013095067120203882 0 -0.023998408551803546 -0.0013198235177045974 0 -0.024031251461413071 -0.0012823161365762613 0 -0.023985885203647347 -0.0012512447142814672 0 -0.023998408551803546 -0.0013198235177045974 0 -0.024031251461413071 -0.0012823161365762613 0 -0.025445341823574052 -0.00049874555331433921 0 -0.025428071816256729 -0.00034073185446940863 0 -0.025575465859706152 -0.00038583308391549454 0 -0.025340701339145837 -0.00012592751717553676 0 -0.024662289559667927 -0.00078827020314364935 0 -0.024673593502694876 -0.00095564920172970503 0 -0.024662289559667927 -0.00078827020314364935 0 -0.023921520064444125 -0.0013576884623723346 0 -0.023959843075253721 -0.0013068885486599933 0 -0.023925361057594314 -0.0013058473118672631 0 -0.025006609362211649 -2.9972529930092047e-05 0 -0.025005476049145305 -3.2978053672137483e-05 0 -0.025006268764371245 -2.8275914439576848e-05 0 -0.025006609362211649 -2.9972529930092047e-05 0 -0.025006268764371245 -2.8275914439576848e-05 0 -0.025008563739093281 -2.4685728408923454e-05 0 -0.025006066460205967 -2.8846638814432763e-05 0 -0.025006268764371245 -2.8275914439576848e-05 0 -0.025003983006214679 -2.2342422547054421e-05 0 -0.025006066460205967 -2.8846638814432763e-05 0 -0.025005476049145305 -3.2978053672137483e-05 0 -0.025006268764371245 -2.8275914439576848e-05 0 -0.025006268764371245 -2.8275914439576848e-05 0 -0.025003643444717481 -1.0797674375927854e-05 0 -0.025003983006214679 -2.2342422547054421e-05 0 -0.025006268764371245 -2.8275914439576848e-05 0 -0.025003643444717481 -1.0797674375927854e-05 0 -0.025008563739093281 -2.4685728408923454e-05 0 -0.024989754771428428 -7.7396913442094888e-06 0 -0.025046420886225152 -8.5581533834696099e-06 0 -0.024999997777446853 -7.9310823636544033e-09 0 -0.025003643444717481 -1.0797674375927854e-05 0 -0.024998670418549512 -5.8214671072234476e-06 0 -0.024999997777446853 -7.9310823636544033e-09 0 -0.025003643444717481 -1.0797674375927854e-05 0 -0.025000009190824943 -1.0469931412943097e-08 0 -0.025003643444717481 -1.0797674375927854e-05 0 -0.025000009190824943 -1.0469931412943097e-08 0 -0.025002834979278105 -1.1464337565484612e-05 0 -0.025000009190824943 -1.0469931412943097e-08 0 -0.025002834979278105 -1.1464337565484612e-05 0 -0.025000007023371157 -1.4410974481282409e-08 0 -0.025000007023371157 -1.4410974481282409e-08 0 -0.025003438655718808 -2.1186094642575833e-05 0 -0.025005916539178819 -3.052820659277553e-05 0 -0.025002834979278105 -1.1464337565484612e-05 0 -0.025000007023371157 -1.4410974481282409e-08 0 -0.025003438655718808 -2.1186094642575833e-05 0 -0.025003438655718808 -2.1186094642575833e-05 0 -0.025005916539178819 -3.052820659277553e-05 0 -0.025005704376480007 -3.2609669880043145e-05 0 -0.025002834979278105 -1.1464337565484612e-05 0 -0.025003438655718808 -2.1186094642575833e-05 0 -0.025003983006214679 -2.2342422547054421e-05 0 -0.025003643444717481 -1.0797674375927854e-05 0 -0.025002834979278105 -1.1464337565484612e-05 0 -0.025003983006214679 -2.2342422547054421e-05 0 -0.025003438655718808 -2.1186094642575833e-05 0 -0.025003983006214679 -2.2342422547054421e-05 0 -0.025005704376480007 -3.2609669880043145e-05 0 -0.025000021410540519 -3.8703593585715481e-08 0 -0.025005916539178819 -3.052820659277553e-05 0 -0.024999028346063153 -4.8208152059565423e-05 0 -0.025000007023371157 -1.4410974481282409e-08 0 -0.025000021410540519 -3.8703593585715481e-08 0 -0.025005916539178819 -3.052820659277553e-05 0 -0.025005916539178819 -3.052820659277553e-05 0 -0.024999028346063153 -4.8208152059565423e-05 0 -0.025006040161514025 -5.8728042785228205e-05 0 -0.024999028346063153 -4.8208152059565423e-05 0 -0.025006040161514025 -5.8728042785228205e-05 0 -0.024957944188646424 -0.00013193377370529434 0 -0.025045743099437679 -0.00021836260864544922 0 -0.024966010715001086 -0.00032659827259324739 0 -0.024957944188646424 -0.00013193377370529434 0 -0.025005916539178819 -3.052820659277553e-05 0 -0.025006040161514025 -5.8728042785228205e-05 0 -0.025005704376480007 -3.2609669880043145e-05 0 -0.025027299818786895 -0.00013794989451132133 0 -0.025095232557217555 -0.00016012621776599487 0 -0.025045743099437679 -0.00021836260864544922 0 -0.025117501847117758 -0.00034421369674441569 0 -0.02523986783450901 -0.00027636864234638597 0 -0.025117501847117758 -0.00034421369674441569 0 -0.025253708635068466 -0.00045886650780093292 0 -0.025046533309220003 -0.00048307094047858335 0 -0.025045743099437679 -0.00021836260864544922 0 -0.025117501847117758 -0.00034421369674441569 0 -0.024966010715001086 -0.00032659827259324739 0 -0.025117501847117758 -0.00034421369674441569 0 -0.024966010715001086 -0.00032659827259324739 0 -0.025046533309220003 -0.00048307094047858335 0 -0.025340701339145837 -0.00012592751717553676 0 -0.025095232557217555 -0.00016012621776599487 0 -0.025006066460205967 -2.8846638814432763e-05 0 -0.025003983006214679 -2.2342422547054421e-05 0 -0.025005704376480007 -3.2609669880043145e-05 0 -0.025117501847117758 -0.00034421369674441569 0 -0.02523986783450901 -0.00027636864234638597 0 -0.025253708635068466 -0.00045886650780093292 0 -0.025428071816256729 -0.00034073185446940863 0 -0.02523986783450901 -0.00027636864234638597 0 -0.025253708635068466 -0.00045886650780093292 0 -0.025445341823574052 -0.00049874555331433921 0 -0.025428071816256729 -0.00034073185446940863 0 -0.025253708635068466 -0.00045886650780093292 0 -0.025445341823574052 -0.00049874555331433921 0 -0.025293825271677697 -0.00066258676720805279 0 -0.025253708635068466 -0.00045886650780093292 0 -0.023863857931734924 -0.001433487858730506 0 -0.023907537334759917 -0.0014873425736524743 0 -0.023847605407308344 -0.0014429068431728047 0 -0.023864993444663234 -0.0013982900025960334 0 -0.023863857931734924 -0.001433487858730506 0 -0.023907537334759917 -0.0014873425736524743 0 -0.024673593502694876 -0.00095564920172970503 0 -0.024602417793957533 -0.0010753354068796981 0 -0.025293825271677697 -0.00066258676720805279 0 -0.025253708635068466 -0.00045886650780093292 0 -0.025120560167409878 -0.00064788697490687894 0 -0.025253708635068466 -0.00045886650780093292 0 -0.025046533309220003 -0.00048307094047858335 0 -0.025120560167409878 -0.00064788697490687894 0 -0.024966010715001086 -0.00032659827259324739 0 -0.025046533309220003 -0.00048307094047858335 0 -0.024881399229563887 -0.00045379425690088195 0 -0.025046533309220003 -0.00048307094047858335 0 -0.024883039333438578 -0.00067716901137883096 0 -0.024881399229563887 -0.00045379425690088195 0 -0.025046533309220003 -0.00048307094047858335 0 -0.024883039333438578 -0.00067716901137883096 0 -0.025120560167409878 -0.00064788697490687894 0 -0.024883039333438578 -0.00067716901137883096 0 -0.025120560167409878 -0.00064788697490687894 0 -0.025068920784049313 -0.00092251859286391887 0 -0.025293825271677697 -0.00066258676720805279 0 -0.025120560167409878 -0.00064788697490687894 0 -0.025068920784049313 -0.00092251859286391887 0 -0.024602417793957533 -0.0010753354068796981 0 -0.024597976428266301 -0.001200417295215141 0 -0.025068920784049313 -0.00092251859286391887 0 -0.024558193586309531 -0.0012617208739688387 0 -0.024557539467574663 -0.00095529464372546809 0 -0.024883039333438578 -0.00067716901137883096 0 -0.025068920784049313 -0.00092251859286391887 0 -0.024557539467574663 -0.00095529464372546809 0 -0.024597976428266301 -0.001200417295215141 0 -0.024563110190525185 -0.00125670992047287 0 -0.024129889457074172 -0.0014923408323658659 0 -0.024239439015570515 -0.0013082089048343098 0 -0.024558193586309531 -0.0012617208739688387 0 -0.024239439015570515 -0.0013082089048343098 0 -0.024558193586309531 -0.0012617208739688387 0 -0.024400583793170325 -0.0012615813901857714 0 -0.024129889457074172 -0.0014923408323658659 0 -0.02404680297271564 -0.0013101461798753582 0 -0.02393351446215327 -0.0014129231948534194 0 -0.024129889457074172 -0.0014923408323658659 0 -0.024239439015570515 -0.0013082089048343098 0 -0.02404680297271564 -0.0013101461798753582 0 -0.023850724341510299 -0.0013381794377171283 0 -0.02393351446215327 -0.0014129231948534194 0 -0.023900516751702076 -0.0012562628852275733 0 -0.02404680297271564 -0.0013101461798753582 0 -0.02393351446215327 -0.0014129231948534194 0 -0.023900516751702076 -0.0012562628852275733 0 -0.023751686329902388 -0.0013388639187994046 0 -0.023850724341510299 -0.0013381794377171283 0 -0.023847605407308344 -0.0014429068431728047 0 -0.023850724341510299 -0.0013381794377171283 0 -0.023900516751702076 -0.0012562628852275733 0 -0.023806956089377128 -0.0012273124627181719 0 -0.023751686329902388 -0.0013388639187994046 0 -0.023850724341510299 -0.0013381794377171283 0 -0.023806956089377128 -0.0012273124627181719 0 -0.023850724341510299 -0.0013381794377171283 0 -0.023847605407308344 -0.0014429068431728047 0 -0.02393351446215327 -0.0014129231948534194 0 -0.023907537334759917 -0.0014873425736524743 0 -0.023847605407308344 -0.0014429068431728047 0 -0.02393351446215327 -0.0014129231948534194 0 -0.023907537334759917 -0.0014873425736524743 0 -0.024129889457074172 -0.0014923408323658659 0 -0.02393351446215327 -0.0014129231948534194 0 -0.024651797320111864 -0.00095228507862209699 0 -0.024804930000239776 -0.00082009570611721013 0 -0.024755249999691618 -0.0007285675215313144 0 -0.024550494649650645 -0.0010334107271578951 0 -0.024755249999691618 -0.0007285675215313144 0 -0.024665845283988054 -0.00073311248832408837 0 -0.024348711694708671 -0.00092849480756686535 0 -0.024651797320111864 -0.00095228507862209699 0 -0.024755249999691618 -0.0007285675215313144 0 -0.024447035386612775 -0.00098094210265533177 0 -0.024734684538659159 -0.00075012169797834068 0 -0.024550494649650645 -0.0010334107271578951 0 -0.024665845283988054 -0.00073311248832408837 0 -0.024452807639240355 -0.00083023668050264743 0 -0.024348711694708671 -0.00092849480756686535 0 -0.024520004317373913 -0.001079231955217548 0 -0.024365714588770345 -0.001238605792696553 0 -0.024348711694708671 -0.00092849480756686535 0 -0.024520004317373913 -0.001079231955217548 0 -0.024651797320111864 -0.00095228507862209699 0 -0.024520004317373913 -0.001079231955217548 0 -0.024651797320111864 -0.00095228507862209699 0 -0.02464173848061051 -0.0011002032035946042 0 -0.02478033489122836 -0.0010579427242693661 0 -0.024752737914923596 -0.0010044259794834615 0 -0.024911556527765132 -0.00086449755220621076 0 -0.02464173848061051 -0.0011002032035946042 0 -0.024752737914923596 -0.0010044259794834615 0 -0.024709380862685194 -0.0011578740414971075 0 -0.02478033489122836 -0.0010579427242693661 0 -0.024752737914923596 -0.0010044259794834615 0 -0.024709380862685194 -0.0011578740414971075 0 -0.024651797320111864 -0.00095228507862209699 0 -0.02464173848061051 -0.0011002032035946042 0 -0.024752737914923596 -0.0010044259794834615 0 -0.024734169282766852 -0.00091519206391579584 0 -0.024634233828196659 -0.00121891141173025 0 -0.02478033489122836 -0.0010579427242693661 0 -0.024911556527765132 -0.00086449755220621076 0 -0.024770009202182482 -0.0011735945619593105 0 -0.024558193586309531 -0.0012617208739688387 0 -0.024557539467574663 -0.00095529464372546809 0 -0.024504486249832511 -0.0013185865699063323 0 -0.024911556527765132 -0.00086449755220621076 0 -0.024804930000239776 -0.00082009570611721013 0 -0.024935740602665096 -0.00055948723927607064 0 -0.024651797320111864 -0.00095228507862209699 0 -0.024752737914923596 -0.0010044259794834615 0 -0.024804930000239776 -0.00082009570611721013 0 -0.024752737914923596 -0.0010044259794834615 0 -0.024911556527765132 -0.00086449755220621076 0 -0.024804930000239776 -0.00082009570611721013 0 -0.024935740602665096 -0.00055948723927607064 0 -0.024767852218996057 -0.00060408537332675132 0 -0.024755249999691618 -0.0007285675215313144 0 -0.024804930000239776 -0.00082009570611721013 0 -0.024935740602665096 -0.00055948723927607064 0 -0.024755249999691618 -0.0007285675215313144 0 -0.024734169282766852 -0.00091519206391579584 0 -0.024818467051604946 -0.00056727450311489858 0 -0.024883039333438578 -0.00067716901137883096 0 -0.024557539467574663 -0.00095529464372546809 0 -0.024698775318572678 -0.00055707110111244146 0 -0.024881399229563887 -0.00045379425690088195 0 -0.024698775318572678 -0.00055707110111244146 0 -0.024888157980927979 -0.00030834373105761661 0 -0.024883039333438578 -0.00067716901137883096 0 -0.024881399229563887 -0.00045379425690088195 0 -0.024698775318572678 -0.00055707110111244146 0 -0.024935740602665096 -0.00055948723927607064 0 -0.024801386300017686 -0.00044902525956538322 0 -0.024888157980927979 -0.00030834373105761661 0 -0.024935740602665096 -0.00055948723927607064 0 -0.024801386300017686 -0.00044902525956538322 0 -0.024767852218996057 -0.00060408537332675132 0 -0.024818467051604946 -0.00056727450311489858 0 -0.024871590041100563 -0.00033704349010186814 0 -0.024801386300017686 -0.00044902525956538322 0 -0.024767852218996057 -0.00060408537332675132 0 -0.024702429353565505 -0.00056006221106609392 0 -0.024767852218996057 -0.00060408537332675132 0 -0.024665845283988054 -0.00073311248832408837 0 -0.024702429353565505 -0.00056006221106609392 0 -0.024767852218996057 -0.00060408537332675132 0 -0.024755249999691618 -0.0007285675215313144 0 -0.024665845283988054 -0.00073311248832408837 0 -0.024665845283988054 -0.00073311248832408837 0 -0.024702429353565505 -0.00056006221106609392 0 -0.024624943646772524 -0.00058781518129787265 0 -0.024666472573796189 -0.00072582436111329153 0 -0.024475031507703492 -0.00062758672421500011 0 -0.024665845283988054 -0.00073311248832408837 0 -0.024320783238070708 -0.00064564217738078441 0 -0.024452807639240355 -0.00083023668050264743 0 -0.024721200149785086 -0.00042348766304368214 0 -0.024702429353565505 -0.00056006221106609392 0 -0.024624943646772524 -0.00058781518129787265 0 -0.024801386300017686 -0.00044902525956538322 0 -0.024721200149785086 -0.00042348766304368214 0 -0.024702429353565505 -0.00056006221106609392 0 -0.024721200149785086 -0.00042348766304368214 0 -0.024843123335488042 -0.00027032715873800435 0 -0.024786150716768408 -0.00021595961907744374 0 -0.024801386300017686 -0.00044902525956538322 0 -0.024721200149785086 -0.00042348766304368214 0 -0.024843123335488042 -0.00027032715873800435 0 -0.024801386300017686 -0.00044902525956538322 0 -0.024843123335488042 -0.00027032715873800435 0 -0.024888157980927979 -0.00030834373105761661 0 -0.024843123335488042 -0.00027032715873800435 0 -0.024902627873333548 -0.00019848023601080401 0 -0.024922940275151607 -9.0621662637968163e-05 0 -0.024843123335488042 -0.00027032715873800435 0 -0.024786150716768408 -0.00021595961907744374 0 -0.024922940275151607 -9.0621662637968163e-05 0 -0.024966010715001086 -0.00032659827259324739 0 -0.024881399229563887 -0.00045379425690088195 0 -0.024888157980927979 -0.00030834373105761661 0 -0.024843123335488042 -0.00027032715873800435 0 -0.024888157980927979 -0.00030834373105761661 0 -0.024902627873333548 -0.00019848023601080401 0 -0.024902627873333548 -0.00019848023601080401 0 -0.024957944188646424 -0.00013193377370529434 0 -0.024922940275151607 -9.0621662637968163e-05 0 -0.024888157980927979 -0.00030834373105761661 0 -0.024902627873333548 -0.00019848023601080401 0 -0.024957944188646424 -0.00013193377370529434 0 -0.025027299818786895 -0.00013794989451132133 0 -0.02495121494448824 -0.00012949317816977868 0 -0.024966010715001086 -0.00032659827259324739 0 -0.024888157980927979 -0.00030834373105761661 0 -0.024957944188646424 -0.00013193377370529434 0 -0.024999028346063153 -4.8208152059565423e-05 0 -0.024957944188646424 -0.00013193377370529434 0 -0.024999948452464987 -2.0383704678587479e-08 0 -0.024957944188646424 -0.00013193377370529434 0 -0.024999948452464987 -2.0383704678587479e-08 0 -0.024922940275151607 -9.0621662637968163e-05 0 -0.025000021410540519 -3.8703593585715481e-08 0 -0.024999028346063153 -4.8208152059565423e-05 0 -0.024999948452464987 -2.0383704678587479e-08 0 -0.024786150716768408 -0.00021595961907744374 0 -0.024922940275151607 -9.0621662637968163e-05 0 -0.024860930810180887 -1.3384876647307615e-05 0 -0.024999948452464987 -2.0383704678587479e-08 0 -0.024922940275151607 -9.0621662637968163e-05 0 -0.024999899728755534 -5.3360115041805413e-08 0 -0.024922940275151607 -9.0621662637968163e-05 0 -0.024999899728755534 -5.3360115041805413e-08 0 -0.024860930810180887 -1.3384876647307615e-05 0 -0.024999899728755534 -5.3360115041805413e-08 0 -0.024860930810180887 -1.3384876647307615e-05 0 -0.024999617257343537 1.3844848541297323e-07 0 -0.024860930810180887 -1.3384876647307615e-05 0 -0.024752613438061909 0.00012400009116212766 0 -0.024600574170990944 -0.00018141901432990542 0 -0.024860930810180887 -1.3384876647307615e-05 0 -0.024752613438061909 0.00012400009116212766 0 -0.024999617257343537 1.3844848541297323e-07 0 -0.024752613438061909 0.00012400009116212766 0 -0.024999617257343537 1.3844848541297323e-07 0 -0.024999799948532589 -4.7239841170808545e-08 0 -0.024752613438061909 0.00012400009116212766 0 -0.024999799948532589 -4.7239841170808545e-08 0 -0.025000781384281901 7.0737504017991484e-05 0 -0.024999799948532589 -4.7239841170808545e-08 0 -0.025000781384281901 7.0737504017991484e-05 0 -0.025000185549462647 9.8068557041911346e-08 0 -0.024752613438061909 0.00012400009116212766 0 -0.023840163855317939 0.0003803300130715373 0 -0.024145347116080778 -7.5155107580966618e-05 0 -0.02475485314326669 0.00014016497604334843 0 -0.02431674012546596 0.00023495914966564703 0 -0.024752613438061909 0.00012400009116212766 0 -0.024145347116080778 -7.5155107580966618e-05 0 -0.024600574170990944 -0.00018141901432990542 0 -0.023840163855317939 0.0003803300130715373 0 -0.024145347116080778 -7.5155107580966618e-05 0 -0.023417653121846068 -8.01425576510155e-05 0 -0.024145347116080778 -7.5155107580966618e-05 0 -0.02378371116556555 -0.00040571855450209594 0 -0.023417653121846068 -8.01425576510155e-05 0 -0.024145347116080778 -7.5155107580966618e-05 0 -0.024600574170990944 -0.00018141901432990542 0 -0.024392359829518439 -0.00057231265201245147 0 -0.024145347116080778 -7.5155107580966618e-05 0 -0.02378371116556555 -0.00040571855450209594 0 -0.024392359829518439 -0.00057231265201245147 0 -0.024633813377061824 -0.00040277572652597872 0 -0.024600574170990944 -0.00018141901432990542 0 -0.024392359829518439 -0.00057231265201245147 0 -0.024721200149785086 -0.00042348766304368214 0 -0.024786150716768408 -0.00021595961907744374 0 -0.024633813377061824 -0.00040277572652597872 0 -0.024786150716768408 -0.00021595961907744374 0 -0.024633813377061824 -0.00040277572652597872 0 -0.024600574170990944 -0.00018141901432990542 0 -0.024786150716768408 -0.00021595961907744374 0 -0.024860930810180887 -1.3384876647307615e-05 0 -0.024600574170990944 -0.00018141901432990542 0 -0.024979601814838763 -1.0449036342132436e-05 0 -0.024999962250355747 2.6745747262995223e-09 0 -0.024999936947164184 -3.4670854669110599e-08 0 -0.024979601814838763 -1.0449036342132436e-05 0 -0.024975332321891888 -1.8900519926027191e-05 0 -0.024945382997798513 -3.6062634243245937e-05 0 -0.024979601814838763 -1.0449036342132436e-05 0 -0.024999962250355747 2.6745747262995223e-09 0 -0.024975332321891888 -1.8900519926027191e-05 0 -0.024999962250355747 2.6745747262995223e-09 0 -0.024975332321891888 -1.8900519926027191e-05 0 -0.024996684950640738 -1.2116665809184872e-05 0 -0.025164866013893103 -1.3852361882249824e-05 0 -0.02450373343249504 2.9616831571348123e-05 0 -0.02450373343249504 2.9616831571348123e-05 0 -0.025000377224146011 2.1776307798445319e-07 0 -0.024999962250355747 2.6745747262995223e-09 0 -0.024996684950640738 -1.2116665809184872e-05 0 -0.025000022293505782 -8.4592567345536873e-09 0 -0.025000781384281901 7.0737504017991484e-05 0 -0.025028364038851357 5.6535205112229718e-05 0 -0.025000185549462647 9.8068557041911346e-08 0 -0.02431674012546596 0.00023495914966564703 0 -0.02450373343249504 2.9616831571348123e-05 0 -0.023840163855317939 0.0003803300130715373 0 -0.023146916869157437 0.00037882258198828099 0 -0.023417653121846068 -8.01425576510155e-05 0 -0.02378371116556555 -0.00040571855450209594 0 -0.023417653121846068 -8.01425576510155e-05 0 -0.023093014077764294 -0.00046978786465632413 0 -0.023417653121846068 -8.01425576510155e-05 0 -0.022849070883662444 -7.9048600140421712e-05 0 -0.023093014077764294 -0.00046978786465632413 0 -0.023146916869157437 0.00037882258198828099 0 -0.023417653121846068 -8.01425576510155e-05 0 -0.022849070883662444 -7.9048600140421712e-05 0 -0.02450373343249504 2.9616831571348123e-05 0 -0.023845371648807543 -4.8894011864697433e-05 0 -0.024975332321891888 -1.8900519926027191e-05 0 -0.024976939166912161 -5.7222319700035578e-05 0 -0.024913569544823946 -6.8554572242316488e-05 0 -0.024975332321891888 -1.8900519926027191e-05 0 -0.024993138415894029 -1.9995838937796427e-05 0 -0.024976939166912161 -5.7222319700035578e-05 0 -0.024976939166912161 -5.7222319700035578e-05 0 -0.0248466316794843 -0.00015784966344021959 0 -0.024885499094933421 -0.00019730829006631771 0 -0.023845371648807543 -4.8894011864697433e-05 0 -0.023768725184106543 -0.00039491143806212061 0 -0.022849070883662444 -7.9048600140421712e-05 0 -0.022516448956997823 -0.0004532572229788101 0 -0.023093014077764294 -0.00046978786465632413 0 -0.024976939166912161 -5.7222319700035578e-05 0 -0.024913569544823946 -6.8554572242316488e-05 0 -0.0248466316794843 -0.00015784966344021959 0 -0.024848417559384186 -0.00015536256506611885 0 -0.024732188317753517 -4.4457468646553291e-05 0 -0.024913569544823946 -6.8554572242316488e-05 0 -0.0248466316794843 -0.00015784966344021959 0 -0.024920963884966112 -5.0047771962150769e-05 0 -0.024913569544823946 -6.8554572242316488e-05 0 -0.024945382997798513 -3.6062634243245937e-05 0 -0.024920963884966112 -5.0047771962150769e-05 0 -0.024975332321891888 -1.8900519926027191e-05 0 -0.024913569544823946 -6.8554572242316488e-05 0 -0.024945382997798513 -3.6062634243245937e-05 0 -0.022516448956997823 -0.0004532572229788101 0 -0.022358891493497079 -0.00080390560653606253 0 -0.022207603589049212 -0.00078280118867574003 0 -0.023768725184106543 -0.00039491143806212061 0 -0.0228671801030364 -0.00021480150295109424 0 -0.0248466316794843 -0.00015784966344021959 0 -0.024885499094933421 -0.00019730829006631771 0 -0.024681457550149957 -0.00051648377562552202 0 -0.022516448956997823 -0.0004532572229788101 0 -0.022702176888298134 -0.00074332927398820022 0 -0.023093014077764294 -0.00046978786465632413 0 -0.022516448956997823 -0.0004532572229788101 0 -0.022702176888298134 -0.00074332927398820022 0 -0.022358891493497079 -0.00080390560653606253 0 -0.023040397400181049 -0.00084678532880870917 0 -0.023093014077764294 -0.00046978786465632413 0 -0.023405467482432201 -0.00074150337271934152 0 -0.022702176888298134 -0.00074332927398820022 0 -0.023040397400181049 -0.00084678532880870917 0 -0.023093014077764294 -0.00046978786465632413 0 -0.02378371116556555 -0.00040571855450209594 0 -0.023093014077764294 -0.00046978786465632413 0 -0.023405467482432201 -0.00074150337271934152 0 -0.023040397400181049 -0.00084678532880870917 0 -0.023405467482432201 -0.00074150337271934152 0 -0.023241095040122374 -0.0010367754042789651 0 -0.023405467482432201 -0.00074150337271934152 0 -0.023241095040122374 -0.0010367754042789651 0 -0.02350286920401683 -0.0010287974398461464 0 -0.023241095040122374 -0.0010367754042789651 0 -0.023300328065726246 -0.0012476962393090515 0 -0.02350286920401683 -0.0010287974398461464 0 -0.023300328065726246 -0.0012476962393090515 0 -0.023498189586233655 -0.0014013804895082985 0 -0.023142321783330706 -0.0015139928516497664 0 -0.023300328065726246 -0.0012476962393090515 0 -0.023013906672226751 -0.0012110799244611698 0 -0.023142321783330706 -0.0015139928516497664 0 -0.023241095040122374 -0.0010367754042789651 0 -0.023300328065726246 -0.0012476962393090515 0 -0.023013906672226751 -0.0012110799244611698 0 -0.023013906672226751 -0.0012110799244611698 0 -0.022887727912443145 -0.0014562600615356642 0 -0.023142321783330706 -0.0015139928516497664 0 -0.023013906672226751 -0.0012110799244611698 0 -0.022723391545265727 -0.0010119611168434323 0 -0.02266707611702936 -0.0013251624293929465 0 -0.023013906672226751 -0.0012110799244611698 0 -0.022887727912443145 -0.0014562600615356642 0 -0.02266707611702936 -0.0013251624293929465 0 -0.023040397400181049 -0.00084678532880870917 0 -0.023241095040122374 -0.0010367754042789651 0 -0.023013906672226751 -0.0012110799244611698 0 -0.023040397400181049 -0.00084678532880870917 0 -0.023013906672226751 -0.0012110799244611698 0 -0.022723391545265727 -0.0010119611168434323 0 -0.022702176888298134 -0.00074332927398820022 0 -0.023040397400181049 -0.00084678532880870917 0 -0.022723391545265727 -0.0010119611168434323 0 -0.022702176888298134 -0.00074332927398820022 0 -0.022479689098839531 -0.00096148853766791814 0 -0.022723391545265727 -0.0010119611168434323 0 -0.022702176888298134 -0.00074332927398820022 0 -0.022479689098839531 -0.00096148853766791814 0 -0.022358891493497079 -0.00080390560653606253 0 -0.022479689098839531 -0.00096148853766791814 0 -0.022723391545265727 -0.0010119611168434323 0 -0.022329759148672277 -0.0011682179663541215 0 -0.022723391545265727 -0.0010119611168434323 0 -0.02266707611702936 -0.0013251624293929465 0 -0.022329759148672277 -0.0011682179663541215 0 -0.022887727912443145 -0.0014562600615356642 0 -0.02266707611702936 -0.0013251624293929465 0 -0.022613467577274209 -0.0015804636380619787 0 -0.02266707611702936 -0.0013251624293929465 0 -0.022312385104244919 -0.0014807857741823236 0 -0.022613467577274209 -0.0015804636380619787 0 -0.02266707611702936 -0.0013251624293929465 0 -0.022312385104244919 -0.0014807857741823236 0 -0.022329759148672277 -0.0011682179663541215 0 -0.022312385104244919 -0.0014807857741823236 0 -0.022329759148672277 -0.0011682179663541215 0 -0.021981546859478965 -0.0012868851080120741 0 -0.022329759148672277 -0.0011682179663541215 0 -0.021981546859478965 -0.0012868851080120741 0 -0.022088837789851885 -0.00099351143089199297 0 -0.022312385104244919 -0.0014807857741823236 0 -0.021967189849563369 -0.0015629131705463418 0 -0.021981546859478965 -0.0012868851080120741 0 -0.021967189849563369 -0.0015629131705463418 0 -0.021981546859478965 -0.0012868851080120741 0 -0.021582974195749359 -0.0014969744755807264 0 -0.021981546859478965 -0.0012868851080120741 0 -0.022088837789851885 -0.00099351143089199297 0 -0.021540102785635395 -0.001122830358472915 0 -0.022088837789851885 -0.00099351143089199297 0 -0.021922969725643348 -0.00068047598156223865 0 -0.021540102785635395 -0.001122830358472915 0 -0.022479689098839531 -0.00096148853766791814 0 -0.022329759148672277 -0.0011682179663541215 0 -0.022088837789851885 -0.00099351143089199297 0 -0.022479689098839531 -0.00096148853766791814 0 -0.022088837789851885 -0.00099351143089199297 0 -0.022358891493497079 -0.00080390560653606253 0 -0.022088837789851885 -0.00099351143089199297 0 -0.022358891493497079 -0.00080390560653606253 0 -0.021922969725643348 -0.00068047598156223865 0 -0.022182671188254566 -0.00058341361133470375 0 -0.0228671801030364 -0.00021480150295109424 0 -0.024320783238070708 -0.00064564217738078441 0 -0.023972815196823538 -0.00052816175034651775 0 -0.023982738438189218 -0.00093476030388504872 0 -0.024320783238070708 -0.00064564217738078441 0 -0.02427647999247803 -0.00092823971360428534 0 -0.024452807639240355 -0.00083023668050264743 0 -0.024721200149785086 -0.00042348766304368214 0 -0.024633813377061824 -0.00040277572652597872 0 -0.024624943646772524 -0.00058781518129787265 0 -0.024475031507703492 -0.00062758672421500011 0 -0.024169906208920885 -0.00054139180446109475 0 -0.024633813377061824 -0.00040277572652597872 0 -0.024624943646772524 -0.00058781518129787265 0 -0.024392359829518439 -0.00057231265201245147 0 -0.023804110353693852 -0.00040898138539833905 0 -0.024169906208920885 -0.00054139180446109475 0 -0.02378371116556555 -0.00040571855450209594 0 -0.023972815196823538 -0.00052816175034651775 0 -0.02374238346222466 -0.00075254182389791031 0 -0.02378371116556555 -0.00040571855450209594 0 -0.023405467482432201 -0.00074150337271934152 0 -0.02374238346222466 -0.00075254182389791031 0 -0.023405467482432201 -0.00074150337271934152 0 -0.02374238346222466 -0.00075254182389791031 0 -0.02350286920401683 -0.0010287974398461464 0 -0.023972815196823538 -0.00052816175034651775 0 -0.02374238346222466 -0.00075254182389791031 0 -0.023982738438189218 -0.00093476030388504872 0 -0.02374238346222466 -0.00075254182389791031 0 -0.023720478554272409 -0.0011320201675754542 0 -0.023982738438189218 -0.00093476030388504872 0 -0.02374238346222466 -0.00075254182389791031 0 -0.02350286920401683 -0.0010287974398461464 0 -0.023720478554272409 -0.0011320201675754542 0 -0.023300328065726246 -0.0012476962393090515 0 -0.02350286920401683 -0.0010287974398461464 0 -0.023498189586233655 -0.0014013804895082985 0 -0.02350286920401683 -0.0010287974398461464 0 -0.023498189586233655 -0.0014013804895082985 0 -0.023720478554272409 -0.0011320201675754542 0 -0.023840559645866736 -0.0013591795630477669 0 -0.023720478554272409 -0.0011320201675754542 0 -0.023982738438189218 -0.00093476030388504872 0 -0.023498189586233655 -0.0014013804895082985 0 -0.023840559645866736 -0.0013591795630477669 0 -0.023720478554272409 -0.0011320201675754542 0 -0.023840559645866736 -0.0013591795630477669 0 -0.023982738438189218 -0.00093476030388504872 0 -0.024152315830871001 -0.0013652752045826783 0 -0.023982738438189218 -0.00093476030388504872 0 -0.02427647999247803 -0.00092823971360428534 0 -0.024152315830871001 -0.0013652752045826783 0 -0.024320783238070708 -0.00064564217738078441 0 -0.023982738438189218 -0.00093476030388504872 0 -0.02427647999247803 -0.00092823971360428534 0 -0.024550494649650645 -0.0010334107271578951 0 -0.02427647999247803 -0.00092823971360428534 0 -0.024452807639240355 -0.00083023668050264743 0 -0.024447035386612775 -0.00098094210265533177 0 -0.024081989442010485 -0.0012783728889349244 0 -0.024550494649650645 -0.0010334107271578951 0 -0.02427647999247803 -0.00092823971360428534 0 -0.024152315830871001 -0.0013652752045826783 0 -0.024348711694708671 -0.00092849480756686535 0 -0.024010924515945355 -0.0011827292178911914 0 -0.024365714588770345 -0.001238605792696553 0 -0.024140092601986834 -0.0013875962731206032 0 -0.024010924515945355 -0.0011827292178911914 0 -0.024365714588770345 -0.001238605792696553 0 -0.024140092601986834 -0.0013875962731206032 0 -0.024365714588770345 -0.001238605792696553 0 -0.02429293383424112 -0.0014135554646479745 0 -0.017339554184617089 -0.00087324813530069803 0 -0.017365682801443245 -0.0010377059078056977 0 -0.01835932766727822 -0.00080460219234754389 0 -0.024140092601986834 -0.0013875962731206032 0 -0.024083111528003118 -0.0015838389114301466 0 -0.02429293383424112 -0.0014135554646479745 0 -0.024140092601986834 -0.0013875962731206032 0 -0.024083111528003118 -0.0015838389114301466 0 -0.023925314823996832 -0.0015000189630716635 0 -0.017339554184617089 -0.00087324813530069803 0 -0.016860533292395036 -0.0009491409222601643 0 -0.016862282139672988 -0.00097604963132270363 0 -0.020584306908661525 -0.0012268198264282237 0 -0.020863850565508407 -0.0013324087327370876 0 -0.024083111528003118 -0.0015838389114301466 0 -0.023925314823996832 -0.0015000189630716635 0 -0.023716421917139192 -0.0017357773480911757 0 -0.017339554184617089 -0.00087324813530069803 0 -0.016862282139672988 -0.00097604963132270363 0 -0.017365682801443245 -0.0010377059078056977 0 -0.024140092601986834 -0.0013875962731206032 0 -0.023925314823996832 -0.0015000189630716635 0 -0.024010924515945355 -0.0011827292178911914 0 -0.024081989442010485 -0.0012783728889349244 0 -0.023726728278322427 -0.001578116308741326 0 -0.023925314823996832 -0.0015000189630716635 0 -0.024010924515945355 -0.0011827292178911914 0 -0.023701765783360817 -0.0016083905111702371 0 -0.023840559645866736 -0.0013591795630477669 0 -0.024152315830871001 -0.0013652752045826783 0 -0.023701765783360817 -0.0016083905111702371 0 -0.023840559645866736 -0.0013591795630477669 0 -0.023640116827350947 -0.0015126761989467743 0 -0.023701765783360817 -0.0016083905111702371 0 -0.023498189586233655 -0.0014013804895082985 0 -0.023840559645866736 -0.0013591795630477669 0 -0.023640116827350947 -0.0015126761989467743 0 -0.023498189586233655 -0.0014013804895082985 0 -0.023522526316963204 -0.0016598393956945069 0 -0.02330310811422549 -0.0016648491849371276 0 -0.023498189586233655 -0.0014013804895082985 0 -0.023640116827350947 -0.0015126761989467743 0 -0.023522526316963204 -0.0016598393956945069 0 -0.023640116827350947 -0.0015126761989467743 0 -0.023522526316963204 -0.0016598393956945069 0 -0.023701765783360817 -0.0016083905111702371 0 -0.012882120836130948 -0.0014452341480354629 0 -0.017460591232286427 -0.0016694467465115023 0 -0.010508224741966665 -0.0020426427157871105 0 -0.010679418440062963 -0.0019745375664965517 0 -0.011000916674624243 -0.0021650613733838215 0 -0.020863850565508407 -0.0013324087327370876 0 -0.017460591232286427 -0.0016694467465115023 0 -0.023522526316963204 -0.0016598393956945069 0 -0.023716421917139192 -0.0017357773480911757 0 -0.023280850216921316 -0.0019215853528583438 0 -0.016860533292395036 -0.0009491409222601643 0 -0.016862282139672988 -0.00097604963132270363 0 -0.016773775899396312 -0.0010394180206014295 0 -0.023925314823996832 -0.0015000189630716635 0 -0.023701765783360817 -0.0016083905111702371 0 -0.023716421917139192 -0.0017357773480911757 0 -0.023522526316963204 -0.0016598393956945069 0 -0.023701765783360817 -0.0016083905111702371 0 -0.023716421917139192 -0.0017357773480911757 0 -0.010508224741966665 -0.0020426427157871105 0 -0.010425220054440404 -0.0018926518909409074 0 -0.010304640003923969 -0.0018544020669676053 0 -0.010508224741966665 -0.0020426427157871105 0 -0.010425220054440404 -0.0018926518909409074 0 -0.010542817786466822 -0.0019312705665967967 0 -0.010508224741966665 -0.0020426427157871105 0 -0.010542817786466822 -0.0019312705665967967 0 -0.010679418440062963 -0.0019745375664965517 0 -0.010542817786466822 -0.0019312705665967967 0 -0.010558106107368405 -0.0018200600186617437 0 -0.010679418440062963 -0.0019745375664965517 0 -0.010425220054440404 -0.0018926518909409074 0 -0.010542817786466822 -0.0019312705665967967 0 -0.010558106107368405 -0.0018200600186617437 0 -0.010425220054440404 -0.0018926518909409074 0 -0.010558106107368405 -0.0018200600186617437 0 -0.010290748625426241 -0.0017682347676795276 0 -0.010558106107368405 -0.0018200600186617437 0 -0.010809339601714953 -0.0019068371312052793 0 -0.010862672644877855 -0.0016933935659437674 0 -0.010679418440062963 -0.0019745375664965517 0 -0.010809339601714953 -0.0019068371312052793 0 -0.011000916674624243 -0.0021650613733838215 0 -0.010558106107368405 -0.0018200600186617437 0 -0.010679418440062963 -0.0019745375664965517 0 -0.010809339601714953 -0.0019068371312052793 0 -0.0097923945293239677 -0.0016484686793390585 0 -0.0098558164758135187 -0.0015935968869721933 0 -0.0097993703238335207 -0.0016214516187221199 0 -0.0103319336186309 -0.0016782857097655905 0 -0.01016750855967437 -0.0016044424436528052 0 -0.010558106107368405 -0.0018200600186617437 0 -0.010862672644877855 -0.0016933935659437674 0 -0.010480057962464378 -0.0015984329759756342 0 -0.010558106107368405 -0.0018200600186617437 0 -0.010480057962464378 -0.0015984329759756342 0 -0.010290748625426241 -0.0017682347676795276 0 -0.01016750855967437 -0.0016044424436528052 0 -0.010070388893346448 -0.0015979926621068016 0 -0.010480057962464378 -0.0015984329759756342 0 -0.010059704240107818 -0.0016016376918575061 0 -0.010290748625426241 -0.0017682347676795276 0 -0.010059704240107818 -0.0016016376918575061 0 -0.010122690591895904 -0.0017065885529828351 0 -0.010290748625426241 -0.0017682347676795276 0 -0.010059704240107818 -0.0016016376918575061 0 -0.010053583970510194 -0.0016514020655087865 0 -0.010077997167015939 -0.0016371142309572807 0 -0.010059704240107818 -0.0016016376918575061 0 -0.010122690591895904 -0.0017065885529828351 0 -0.010077997167015939 -0.0016371142309572807 0 -0.010122690591895904 -0.0017065885529828351 0 -0.010099239566455235 -0.0016699755894042448 0 -0.010077997167015939 -0.0016371142309572807 0 -0.010122690591895904 -0.0017065885529828351 0 -0.010105724965888189 -0.0017818489903045913 0 -0.01020547262048483 -0.0017847325477837288 0 -0.010122690591895904 -0.0017065885529828351 0 -0.010105724965888189 -0.0017818489903045913 0 -0.010099239566455235 -0.0016699755894042448 0 -0.012882120836130948 -0.0014452341480354629 0 -0.013935600747062401 -0.0014335250782910806 0 -0.010105724965888189 -0.0017818489903045913 0 -0.010304640003923969 -0.0018544020669676053 0 -0.01020547262048483 -0.0017847325477837288 0 -0.010508224741966665 -0.0020426427157871105 0 -0.010105724965888189 -0.0017818489903045913 0 -0.010304640003923969 -0.0018544020669676053 0 -0.010425220054440404 -0.0018926518909409074 0 -0.010304640003923969 -0.0018544020669676053 0 -0.010290748625426241 -0.0017682347676795276 0 -0.010304640003923969 -0.0018544020669676053 0 -0.010290748625426241 -0.0017682347676795276 0 -0.01020547262048483 -0.0017847325477837288 0 -0.010122690591895904 -0.0017065885529828351 0 -0.010290748625426241 -0.0017682347676795276 0 -0.01020547262048483 -0.0017847325477837288 0 -0.011808425784901376 -0.0024797666872225172 0 -0.011852123646736785 -0.0021154583703310846 0 -0.012188553014559195 -0.002218398046077495 0 -0.011808425784901376 -0.0024797666872225172 0 -0.011594889986179179 -0.0022603394130301917 0 -0.011852123646736785 -0.0021154583703310846 0 -0.021965405664314142 -0.0022468527202075413 0 -0.021780267336599005 -0.0021316768261811681 0 -0.022031886901992263 -0.0022372346325853026 0 -0.021780267336599005 -0.0021316768261811681 0 -0.022019054976065676 -0.0018581223182552872 0 -0.021614461483771275 -0.0018418088728131758 0 -0.021965405664314142 -0.0022468527202075413 0 -0.021780267336599005 -0.0021316768261811681 0 -0.022019054976065676 -0.0018581223182552872 0 -0.021967189849563369 -0.0015629131705463418 0 -0.022019054976065676 -0.0018581223182552872 0 -0.021614461483771275 -0.0018418088728131758 0 -0.022312385104244919 -0.0014807857741823236 0 -0.021967189849563369 -0.0015629131705463418 0 -0.022019054976065676 -0.0018581223182552872 0 -0.022312385104244919 -0.0014807857741823236 0 -0.022019054976065676 -0.0018581223182552872 0 -0.02234244824694423 -0.0017587096578012141 0 -0.022181073699248554 -0.0019351245612299717 0 -0.022019054976065676 -0.0018581223182552872 0 -0.02234244824694423 -0.0017587096578012141 0 -0.021965405664314142 -0.0022468527202075413 0 -0.022181073699248554 -0.0019351245612299717 0 -0.022325903350026096 -0.0019257725002546065 0 -0.021965405664314142 -0.0022468527202075413 0 -0.022181073699248554 -0.0019351245612299717 0 -0.022019054976065676 -0.0018581223182552872 0 -0.021965405664314142 -0.0022468527202075413 0 -0.022325903350026096 -0.0019257725002546065 0 -0.022498657091001056 -0.001964233657749928 0 -0.022325903350026096 -0.0019257725002546065 0 -0.02234244824694423 -0.0017587096578012141 0 -0.022587142248297321 -0.0017950568322179371 0 -0.022181073699248554 -0.0019351245612299717 0 -0.022325903350026096 -0.0019257725002546065 0 -0.02234244824694423 -0.0017587096578012141 0 -0.022312385104244919 -0.0014807857741823236 0 -0.02234244824694423 -0.0017587096578012141 0 -0.022613467577274209 -0.0015804636380619787 0 -0.02234244824694423 -0.0017587096578012141 0 -0.022613467577274209 -0.0015804636380619787 0 -0.022587142248297321 -0.0017950568322179371 0 -0.022613467577274209 -0.0015804636380619787 0 -0.022587142248297321 -0.0017950568322179371 0 -0.022821867838729453 -0.0016931441629932443 0 -0.022325903350026096 -0.0019257725002546065 0 -0.022587142248297321 -0.0017950568322179371 0 -0.022498657091001056 -0.001964233657749928 0 -0.022587142248297321 -0.0017950568322179371 0 -0.022498657091001056 -0.001964233657749928 0 -0.022750182912597415 -0.0018907062413646681 0 -0.022498657091001056 -0.001964233657749928 0 -0.022519996979114564 -0.0020349542503439472 0 -0.022750182912597415 -0.0018907062413646681 0 -0.021965405664314142 -0.0022468527202075413 0 -0.022519996979114564 -0.0020349542503439472 0 -0.022827043222866373 -0.0020735190874642297 0 -0.022519996979114564 -0.0020349542503439472 0 -0.022827043222866373 -0.0020735190874642297 0 -0.022750182912597415 -0.0018907062413646681 0 -0.021626217671607269 -0.0021632185703735715 0 -0.022647312512194668 -0.0021503419790685025 0 -0.011808425784901376 -0.0024797666872225172 0 -0.011594889986179179 -0.0022603394130301917 0 -0.011292737607488808 -0.0022608773840950536 0 -0.011594889986179179 -0.0022603394130301917 0 -0.011292737607488808 -0.0022608773840950536 0 -0.011493694489933981 -0.002124668282202812 0 -0.016996216337846152 -0.0023641579090868774 0 -0.01563804988106458 -0.0021076785935104066 0 -0.021965405664314142 -0.0022468527202075413 0 -0.021037821618612885 -0.0019122590940335237 0 -0.020898940053763606 -0.0020557283120691324 0 -0.021965405664314142 -0.0022468527202075413 0 -0.022031886901992263 -0.0022372346325853026 0 -0.021037821618612885 -0.0019122590940335237 0 -0.021965405664314142 -0.0022468527202075413 0 -0.022498657091001056 -0.001964233657749928 0 -0.022519996979114564 -0.0020349542503439472 0 -0.01563804988106458 -0.0021076785935104066 0 -0.017460591232286427 -0.0016694467465115023 0 -0.022827043222866373 -0.0020735190874642297 0 -0.023032575707452856 -0.0018141490297508306 0 -0.023280850216921316 -0.0019215853528583438 0 -0.021037821618612885 -0.0019122590940335237 0 -0.020898940053763606 -0.0020557283120691324 0 -0.019142957422327921 -0.001646868447361665 0 -0.022647312512194668 -0.0021503419790685025 0 -0.017460591232286427 -0.0016694467465115023 0 -0.011292737607488808 -0.0022608773840950536 0 -0.011000916674624243 -0.0021650613733838215 0 -0.01114228794334917 -0.0021071027772415251 0 -0.011292737607488808 -0.0022608773840950536 0 -0.01114228794334917 -0.0021071027772415251 0 -0.011231817864404064 -0.0020923790214536736 0 -0.011292737607488808 -0.0022608773840950536 0 -0.011231817864404064 -0.0020923790214536736 0 -0.011318739869317836 -0.0020995254528550066 0 -0.022827043222866373 -0.0020735190874642297 0 -0.022750182912597415 -0.0018907062413646681 0 -0.023032575707452856 -0.0018141490297508306 0 -0.022587142248297321 -0.0017950568322179371 0 -0.022750182912597415 -0.0018907062413646681 0 -0.022821867838729453 -0.0016931441629932443 0 -0.022750182912597415 -0.0018907062413646681 0 -0.022821867838729453 -0.0016931441629932443 0 -0.023032575707452856 -0.0018141490297508306 0 -0.022887727912443145 -0.0014562600615356642 0 -0.022613467577274209 -0.0015804636380619787 0 -0.022821867838729453 -0.0016931441629932443 0 -0.022887727912443145 -0.0014562600615356642 0 -0.022821867838729453 -0.0016931441629932443 0 -0.023142321783330706 -0.0015139928516497664 0 -0.022821867838729453 -0.0016931441629932443 0 -0.023032575707452856 -0.0018141490297508306 0 -0.023142321783330706 -0.0015139928516497664 0 -0.023498189586233655 -0.0014013804895082985 0 -0.023142321783330706 -0.0015139928516497664 0 -0.02330310811422549 -0.0016648491849371276 0 -0.023032575707452856 -0.0018141490297508306 0 -0.023142321783330706 -0.0015139928516497664 0 -0.02330310811422549 -0.0016648491849371276 0 -0.023522526316963204 -0.0016598393956945069 0 -0.02330310811422549 -0.0016648491849371276 0 -0.023280850216921316 -0.0019215853528583438 0 -0.023032575707452856 -0.0018141490297508306 0 -0.02330310811422549 -0.0016648491849371276 0 -0.023280850216921316 -0.0019215853528583438 0 -0.010809339601714953 -0.0019068371312052793 0 -0.011000916674624243 -0.0021650613733838215 0 -0.011017246458878706 -0.0019061828736895018 0 -0.011000916674624243 -0.0021650613733838215 0 -0.011017246458878706 -0.0019061828736895018 0 -0.01114228794334917 -0.0021071027772415251 0 -0.011017246458878706 -0.0019061828736895018 0 -0.011152213650843309 -0.0019438057918380127 0 -0.01114228794334917 -0.0021071027772415251 0 -0.010809339601714953 -0.0019068371312052793 0 -0.010862672644877855 -0.0016933935659437674 0 -0.011017246458878706 -0.0019061828736895018 0 -0.010862672644877855 -0.0016933935659437674 0 -0.011017246458878706 -0.0019061828736895018 0 -0.0111710691666946 -0.001801668084750052 0 -0.0097923945293239677 -0.0016484686793390585 0 -0.010202045751751652 -0.0018262833984151144 0 -0.0099644290338893483 -0.001531608737031627 0 -0.0103319336186309 -0.0016782857097655905 0 -0.010708474010347475 -0.0017948100421278025 0 -0.010202045751751652 -0.0018262833984151144 0 -0.011066047636158703 -0.0013397856769166825 0 -0.010444498824094066 -0.0013396966405162538 0 -0.010202045751751652 -0.0018262833984151144 0 -0.010444498824094066 -0.0013396966405162538 0 -0.0099644290338893483 -0.001531608737031627 0 -0.0111710691666946 -0.001801668084750052 0 -0.011248788859200807 -0.0019926660936903989 0 -0.011353585068521696 -0.0019961066352552166 0 -0.011248788859200807 -0.0019926660936903989 0 -0.011152213650843309 -0.0019438057918380127 0 -0.011231817864404064 -0.0020923790214536736 0 -0.011017246458878706 -0.0019061828736895018 0 -0.0111710691666946 -0.001801668084750052 0 -0.011152213650843309 -0.0019438057918380127 0 -0.0111710691666946 -0.001801668084750052 0 -0.011248788859200807 -0.0019926660936903989 0 -0.011152213650843309 -0.0019438057918380127 0 -0.011152213650843309 -0.0019438057918380127 0 -0.01114228794334917 -0.0021071027772415251 0 -0.011231817864404064 -0.0020923790214536736 0 -0.011248788859200807 -0.0019926660936903989 0 -0.011231817864404064 -0.0020923790214536736 0 -0.011318739869317836 -0.0020995254528550066 0 -0.011493694489933981 -0.002124668282202812 0 -0.011353585068521696 -0.0019961066352552166 0 -0.011365522639854906 -0.00181228146183848 0 -0.011318739869317836 -0.0020995254528550066 0 -0.011493694489933981 -0.002124668282202812 0 -0.011353585068521696 -0.0019961066352552166 0 -0.011248788859200807 -0.0019926660936903989 0 -0.011318739869317836 -0.0020995254528550066 0 -0.011353585068521696 -0.0019961066352552166 0 -0.011292737607488808 -0.0022608773840950536 0 -0.011318739869317836 -0.0020995254528550066 0 -0.011493694489933981 -0.002124668282202812 0 -0.0111710691666946 -0.001801668084750052 0 -0.011353585068521696 -0.0019961066352552166 0 -0.011365522639854906 -0.00181228146183848 0 -0.010708474010347475 -0.0017948100421278025 0 -0.011303062140236745 -0.0018226936918926059 0 -0.010202045751751652 -0.0018262833984151144 0 -0.011365522639854906 -0.00181228146183848 0 -0.011066047636158703 -0.0013397856769166825 0 -0.011365522639854906 -0.00181228146183848 0 -0.011690165691680103 -0.0011920609422338654 0 -0.011066047636158703 -0.0013397856769166825 0 -0.011365522639854906 -0.00181228146183848 0 -0.011690165691680103 -0.0011920609422338654 0 -0.012097326719887993 -0.0017542056715232422 0 -0.011493694489933981 -0.002124668282202812 0 -0.011365522639854906 -0.00181228146183848 0 -0.011852123646736785 -0.0021154583703310846 0 -0.011365522639854906 -0.00181228146183848 0 -0.011852123646736785 -0.0021154583703310846 0 -0.012097326719887993 -0.0017542056715232422 0 -0.011594889986179179 -0.0022603394130301917 0 -0.011493694489933981 -0.002124668282202812 0 -0.011852123646736785 -0.0021154583703310846 0 -0.011771414214615509 -0.0003547011482679684 0 -0.011690165691680103 -0.0011920609422338654 0 -0.011259660015896037 -0.00076993008243669391 0 -0.011771414214615509 -0.0003547011482679684 0 -0.011259660015896037 -0.00076993008243669391 0 -0.011148342953502158 -0.00023798176456097002 0 -0.011066047636158703 -0.0013397856769166825 0 -0.010833776966687464 -0.00096231104543441348 0 -0.011259660015896037 -0.00076993008243669391 0 -0.011690165691680103 -0.0011920609422338654 0 -0.011066047636158703 -0.0013397856769166825 0 -0.011259660015896037 -0.00076993008243669391 0 -0.011066047636158703 -0.0013397856769166825 0 -0.010833776966687464 -0.00096231104543441348 0 -0.010444498824094066 -0.0013396966405162538 0 -0.010833776966687464 -0.00096231104543441348 0 -0.011259660015896037 -0.00076993008243669391 0 -0.010716320484018492 -0.00046167682983226969 0 -0.011259660015896037 -0.00076993008243669391 0 -0.010716320484018492 -0.00046167682983226969 0 -0.011148342953502158 -0.00023798176456097002 0 -0.010716320484018492 -0.00046167682983226969 0 -0.010062152638484917 -0.00042875158944174243 0 -0.010343129458168837 -4.3551956639379228e-05 0 -0.010833776966687464 -0.00096231104543441348 0 -0.010716320484018492 -0.00046167682983226969 0 -0.010192773297717733 -0.00093459593747431409 0 -0.010716320484018492 -0.00046167682983226969 0 -0.010062152638484917 -0.00042875158944174243 0 -0.010192773297717733 -0.00093459593747431409 0 -0.010833776966687464 -0.00096231104543441348 0 -0.010444498824094066 -0.0013396966405162538 0 -0.010192773297717733 -0.00093459593747431409 0 -0.010444498824094066 -0.0013396966405162538 0 -0.010192773297717733 -0.00093459593747431409 0 -0.0099644290338893483 -0.001531608737031627 0 -0.0099644290338893483 -0.001531608737031627 0 -0.0097733396162364358 -0.0016586819726852324 0 -0.0097993703238335207 -0.0016214516187221199 0 -0.0099247597981980441 -0.0015242765285133368 0 -0.009557555091726358 -0.0011293018506307688 0 -0.0097923945293239677 -0.0016484686793390585 0 -0.0099644290338893483 -0.001531608737031627 0 -0.0097993703238335207 -0.0016214516187221199 0 -0.010192773297717733 -0.00093459593747431409 0 -0.0099644290338893483 -0.001531608737031627 0 -0.0093045123841668173 -0.00058198550792535621 0 -0.010062152638484917 -0.00042875158944174243 0 -0.0093045123841668173 -0.00058198550792535621 0 -0.0097080527110609549 -8.7461490084570491e-07 0 -0.010062152638484917 -0.00042875158944174243 0 -0.010192773297717733 -0.00093459593747431409 0 -0.0093045123841668173 -0.00058198550792535621 0 -0.0097080527110609549 -8.7461490084570491e-07 0 -0.0094995245121542778 0.00061617276057850817 0 -0.0087494275547152413 0.0002628741278504961 0 -0.0097080527110609549 -8.7461490084570491e-07 0 -0.0094995245121542778 0.00061617276057850817 0 -0.010080018232817078 0.00042873561982215646 0 -0.0094995245121542778 0.00061617276057850817 0 -0.0098841598870096428 0.00084854567029763741 0 -0.0095182984426835111 0.0011024022668489686 0 -0.0094995245121542778 0.00061617276057850817 0 -0.010080018232817078 0.00042873561982215646 0 -0.0098841598870096428 0.00084854567029763741 0 -0.010080018232817078 0.00042873561982215646 0 -0.0098841598870096428 0.00084854567029763741 0 -0.01043542180106034 0.00084882055237241324 0 -0.010080018232817078 0.00042873561982215646 0 -0.01043542180106034 0.00084882055237241324 0 -0.010544870798088577 0.00031446170873427438 0 -0.010080018232817078 0.00042873561982215646 0 -0.010343129458168837 -4.3551956639379228e-05 0 -0.010544870798088577 0.00031446170873427438 0 -0.0097080527110609549 -8.7461490084570491e-07 0 -0.010080018232817078 0.00042873561982215646 0 -0.010343129458168837 -4.3551956639379228e-05 0 -0.010062152638484917 -0.00042875158944174243 0 -0.0097080527110609549 -8.7461490084570491e-07 0 -0.010343129458168837 -4.3551956639379228e-05 0 -0.010716320484018492 -0.00046167682983226969 0 -0.010343129458168837 -4.3551956639379228e-05 0 -0.010801529746721607 6.241021905887829e-05 0 -0.010716320484018492 -0.00046167682983226969 0 -0.010801529746721607 6.241021905887829e-05 0 -0.011148342953502158 -0.00023798176456097002 0 -0.010801529746721607 6.241021905887829e-05 0 -0.011148342953502158 -0.00023798176456097002 0 -0.011055870367438787 0.00039576113804827817 0 -0.010803756660614497 0.0002088276493648088 0 -0.010756546663084133 0.00031272374241879538 0 -0.010343129458168837 -4.3551956639379228e-05 0 -0.010801529746721607 6.241021905887829e-05 0 -0.010544870798088577 0.00031446170873427438 0 -0.010801529746721607 6.241021905887829e-05 0 -0.010985384306155442 0.00035249563823840026 0 -0.010544870798088577 0.00031446170873427438 0 -0.010154987225050765 0.00099357546888145711 0 -0.010756546663084133 0.00031272374241879538 0 -0.01043542180106034 0.00084882055237241324 0 -0.010985384306155442 0.00035249563823840026 0 -0.010544870798088577 0.00031446170873427438 0 -0.010196080747637179 0.00080216010175938499 0 -0.010183746142900326 0.0010801209674439478 0 -0.010477949604521173 0.0011937349375086737 0 -0.0099587442157050184 0.001072475556559094 0 -0.010196080747637179 0.00080216010175938499 0 -0.010183746142900326 0.0010801209674439478 0 -0.010756546663084133 0.00031272374241879538 0 -0.011542605467079671 0.0013622916572363422 0 -0.011227736233673399 0.00020586799045608847 0 -0.011856551690004128 0.00023794985939873143 0 -0.011677152379592324 0.00083933603354840829 0 -0.011782200570003957 -0.00038600739990564073 0 -0.011227736233673399 0.00020586799045608847 0 -0.011856551690004128 0.00023794985939873143 0 -0.011844643519497881 -0.00040224936335139149 0 -0.010756546663084133 0.00031272374241879538 0 -0.011771414214615509 -0.0003547011482679684 0 -0.011148342953502158 -0.00023798176456097002 0 -0.011055870367438787 0.00039576113804827817 0 -0.0099677538232416027 -0.0017053686426645111 0 -0.0098312024464156603 -0.0016986309717520311 0 -0.0098880234143383129 -0.001792052510605821 0 -0.0099677538232416027 -0.0017053686426645111 0 -0.0098880234143383129 -0.001792052510605821 0 -0.0099695851929452461 -0.0017898625690798303 0 -0.0099677538232416027 -0.0017053686426645111 0 -0.0099695851929452461 -0.0017898625690798303 0 -0.010048039509563787 -0.0017148831236386119 0 -0.0099677538232416027 -0.0017053686426645111 0 -0.010053583970510194 -0.0016514020655087865 0 -0.010048039509563787 -0.0017148831236386119 0 -0.010059704240107818 -0.0016016376918575061 0 -0.0099677538232416027 -0.0017053686426645111 0 -0.010053583970510194 -0.0016514020655087865 0 -0.0098558164758135187 -0.0015935968869721933 0 -0.010059704240107818 -0.0016016376918575061 0 -0.0099677538232416027 -0.0017053686426645111 0 -0.0098558164758135187 -0.0015935968869721933 0 -0.0097993703238335207 -0.0016214516187221199 0 -0.0098312024464156603 -0.0016986309717520311 0 -0.0098558164758135187 -0.0015935968869721933 0 -0.0099677538232416027 -0.0017053686426645111 0 -0.0098312024464156603 -0.0016986309717520311 0 -0.0097733396162364358 -0.0016586819726852324 0 -0.0097993703238335207 -0.0016214516187221199 0 -0.0098312024464156603 -0.0016986309717520311 0 -0.0097733396162364358 -0.0016586819726852324 0 -0.0098312024464156603 -0.0016986309717520311 0 -0.0097564030203516963 -0.0018172584389344051 0 -0.0098312024464156603 -0.0016986309717520311 0 -0.0098163535181564811 -0.0018482753432955132 0 -0.0098880234143383129 -0.001792052510605821 0 -0.0098312024464156603 -0.0016986309717520311 0 -0.0098163535181564811 -0.0018482753432955132 0 -0.0097564030203516963 -0.0018172584389344051 0 -0.0093045123841668173 -0.00058198550792535621 0 -0.0097080527110609549 -8.7461490084570491e-07 0 -0.0087494275547152413 0.0002628741278504961 0 -0.009557555091726358 -0.0011293018506307688 0 -0.0092516864866600823 -0.0007771453170011143 0 -0.0094995245121542778 0.00061617276057850817 0 -0.0087494275547152413 0.0002628741278504961 0 -0.009036181225602612 0.0011570241494045827 0 -0.0087494275547152413 0.0002628741278504961 0 -0.0082402257494487725 0.0010105300949143044 0 -0.009036181225602612 0.0011570241494045827 0 -0.0092516864866600823 -0.0007771453170011143 0 -0.0090103488322945541 -0.00048555594213389573 0 -0.0098163535181564811 -0.0018482753432955132 0 -0.0097564030203516963 -0.0018172584389344051 0 -0.00976438440195679 -0.0019692593696940095 0 -0.0098163535181564811 -0.0018482753432955132 0 -0.0098514877612250473 -0.0018957796435938954 0 -0.00976438440195679 -0.0019692593696940095 0 -0.0098163535181564811 -0.0018482753432955132 0 -0.0098880234143383129 -0.001792052510605821 0 -0.0098514877612250473 -0.0018957796435938954 0 -0.0098880234143383129 -0.001792052510605821 0 -0.0099695851929452461 -0.0017898625690798303 0 -0.0098514877612250473 -0.0018957796435938954 0 -0.0099695851929452461 -0.0017898625690798303 0 -0.0098514877612250473 -0.0018957796435938954 0 -0.0099814825105460185 -0.0018690317240914673 0 -0.0098514877612250473 -0.0018957796435938954 0 -0.0098539167055361337 -0.0019543408230879725 0 -0.0097660012106277026 -0.0020301953771897975 0 -0.0098514877612250473 -0.0018957796435938954 0 -0.0098539167055361337 -0.0019543408230879725 0 -0.0099814825105460185 -0.0018690317240914673 0 -0.0098539167055361337 -0.0019543408230879725 0 -0.01002496289384803 -0.0019386908282441179 0 -0.0099814825105460185 -0.0018690317240914673 0 -0.01002496289384803 -0.0019386908282441179 0 -0.010107203876953982 -0.0018678698337694813 0 -0.010192095557999605 -0.0019116021007042751 0 -0.01002496289384803 -0.0019386908282441179 0 -0.010107203876953982 -0.0018678698337694813 0 -0.0099814825105460185 -0.0018690317240914673 0 -0.010107203876953982 -0.0018678698337694813 0 -0.010095617173312916 -0.0017810655091681717 0 -0.010201972734400766 -0.0018114997983505992 0 -0.010107203876953982 -0.0018678698337694813 0 -0.0099814825105460185 -0.0018690317240914673 0 -0.010095617173312916 -0.0017810655091681717 0 -0.0099695851929452461 -0.0017898625690798303 0 -0.0099814825105460185 -0.0018690317240914673 0 -0.010095617173312916 -0.0017810655091681717 0 -0.0099695851929452461 -0.0017898625690798303 0 -0.010048039509563787 -0.0017148831236386119 0 -0.010095617173312916 -0.0017810655091681717 0 -0.010048039509563787 -0.0017148831236386119 0 -0.010095617173312916 -0.0017810655091681717 0 -0.010158025147809082 -0.0016846581758876414 0 -0.010095617173312916 -0.0017810655091681717 0 -0.010158025147809082 -0.0016846581758876414 0 -0.010212173741318937 -0.0017333568567859117 0 -0.010095617173312916 -0.0017810655091681717 0 -0.010212173741318937 -0.0017333568567859117 0 -0.010201972734400766 -0.0018114997983505992 0 -0.010158025147809082 -0.0016846581758876414 0 -0.010103645848639788 -0.0016499119014452988 0 -0.0102099884052817 -0.0016137121685105534 0 -0.010048039509563787 -0.0017148831236386119 0 -0.010158025147809082 -0.0016846581758876414 0 -0.010103645848639788 -0.0016499119014452988 0 -0.010053583970510194 -0.0016514020655087865 0 -0.010048039509563787 -0.0017148831236386119 0 -0.010103645848639788 -0.0016499119014452988 0 -0.010412291377358902 -0.0017198511992378485 0 -0.010305766296303087 -0.0016396686884212609 0 -0.010480654081833221 -0.0015561414871053789 0 -0.010412291377358902 -0.0017198511992378485 0 -0.010592404376807696 -0.0016924616057924628 0 -0.010480654081833221 -0.0015561414871053789 0 -0.010412291377358902 -0.0017198511992378485 0 -0.010458999236503818 -0.0017949826057837672 0 -0.010592404376807696 -0.0016924616057924628 0 -0.010158025147809082 -0.0016846581758876414 0 -0.010305766296303087 -0.0016396686884212609 0 -0.0102099884052817 -0.0016137121685105534 0 -0.010158025147809082 -0.0016846581758876414 0 -0.010305766296303087 -0.0016396686884212609 0 -0.010212173741318937 -0.0017333568567859117 0 -0.010305766296303087 -0.0016396686884212609 0 -0.010298405317329139 -0.0017269622501198093 0 -0.010212173741318937 -0.0017333568567859117 0 -0.010412291377358902 -0.0017198511992378485 0 -0.010305766296303087 -0.0016396686884212609 0 -0.010298405317329139 -0.0017269622501198093 0 -0.010298405317329139 -0.0017269622501198093 0 -0.010201972734400766 -0.0018114997983505992 0 -0.010321142486492881 -0.0018391712136324317 0 -0.010298405317329139 -0.0017269622501198093 0 -0.010212173741318937 -0.0017333568567859117 0 -0.010201972734400766 -0.0018114997983505992 0 -0.010412291377358902 -0.0017198511992378485 0 -0.010458999236503818 -0.0017949826057837672 0 -0.010321142486492881 -0.0018391712136324317 0 -0.010412291377358902 -0.0017198511992378485 0 -0.010298405317329139 -0.0017269622501198093 0 -0.010321142486492881 -0.0018391712136324317 0 -0.010458999236503818 -0.0017949826057837672 0 -0.010406994284139345 -0.0018540477057391667 0 -0.010466831700602912 -0.0018510549763321887 0 -0.010458999236503818 -0.0017949826057837672 0 -0.010406994284139345 -0.0018540477057391667 0 -0.010321142486492881 -0.0018391712136324317 0 -0.010321142486492881 -0.0018391712136324317 0 -0.010192095557999605 -0.0019116021007042751 0 -0.01031340707466572 -0.0019390178707869863 0 -0.010406994284139345 -0.0018540477057391667 0 -0.01031340707466572 -0.0019390178707869863 0 -0.010504039150811946 -0.0018766847520324287 0 -0.010406994284139345 -0.0018540477057391667 0 -0.010321142486492881 -0.0018391712136324317 0 -0.01031340707466572 -0.0019390178707869863 0 -0.0066595142959104984 -0.00013484371052649902 0 -0.0072879693068812618 -0.0010334861682395121 0 -0.010107203876953982 -0.0018678698337694813 0 -0.010201972734400766 -0.0018114997983505992 0 -0.010192095557999605 -0.0019116021007042751 0 -0.010201972734400766 -0.0018114997983505992 0 -0.010321142486492881 -0.0018391712136324317 0 -0.010192095557999605 -0.0019116021007042751 0 -0.010192095557999605 -0.0019116021007042751 0 -0.01031340707466572 -0.0019390178707869863 0 -0.010168022412875899 -0.0020059692913921468 0 -0.01002496289384803 -0.0019386908282441179 0 -0.010192095557999605 -0.0019116021007042751 0 -0.010168022412875899 -0.0020059692913921468 0 -0.0066595142959104984 -0.00013484371052649902 0 -0.0067066379598335777 -0.00023753351308152711 0 -0.0030458128085347311 0.0014561160662819733 0 -0.0028737622754193498 0.0014996595424753474 0 -0.0028929424967455344 0.0015639476782742946 0 -0.0028737622754193498 0.0014996595424753474 0 -0.0027899953273696444 0.0015179893506351619 0 -0.0028929424967455344 0.0015639476782742946 0 -0.0028737622754193498 0.0014996595424753474 0 -0.0028482677247489339 0.0014950482658399134 0 -0.0027899953273696444 0.0015179893506351619 0 -0.0028737622754193498 0.0014996595424753474 0 -0.0028482677247489339 0.0014950482658399134 0 -0.0029261855194844875 0.0014489414292295248 0 -0.0030458128085347311 0.0014561160662819733 0 -0.0028737622754193498 0.0014996595424753474 0 -0.0029261855194844875 0.0014489414292295248 0 -0.010406994284139345 -0.0018540477057391667 0 -0.010504039150811946 -0.0018766847520324287 0 -0.010466831700602912 -0.0018510549763321887 0 -0.0028031725533324107 0.0014845154635458793 0 -0.0027204239692067687 0.0015130823371221403 0 -0.0027929066842750545 0.0015110089182479838 0 -0.0027204239692067687 0.0015130823371221403 0 -0.0027899953273696444 0.0015179893506351619 0 -0.0027929066842750545 0.0015110089182479838 0 -0.0028482677247489339 0.0014950482658399134 0 -0.0027899953273696444 0.0015179893506351619 0 -0.0028311991330412325 0.001521349561701526 0 -0.0027899953273696444 0.0015179893506351619 0 -0.0028311991330412325 0.001521349561701526 0 -0.0027929066842750545 0.0015110089182479838 0 -0.0028844598542106009 0.0015722942995427807 0 -0.0028311991330412325 0.001521349561701526 0 -0.0027929066842750545 0.0015110089182479838 0 -0.0028844598542106009 0.0015722942995427807 0 -0.0029714468999741781 0.0016709455747787847 0 -0.0028894083457898087 0.0015967428840543414 0 -0.0028844598542106009 0.0015722942995427807 0 -0.0028311991330412325 0.001521349561701526 0 -0.0028894083457898087 0.0015967428840543414 0 -0.0028311991330412325 0.001521349561701526 0 -0.0028894083457898087 0.0015967428840543414 0 -0.0028724737717527316 0.0016447855485323955 0 -0.0028311991330412325 0.001521349561701526 0 -0.0028724737717527316 0.0016447855485323955 0 -0.0028462342758900604 0.0015222950511082744 0 -0.0060156084162299034 0.00038158046927094124 0 -0.0057777152188223666 -7.304585377938381e-05 0 -0.010301268692802148 -0.00076630247950278054 0 -0.008975136724270966 -0.0010963254794813782 0 -0.010201165541937229 0.0003603864224983181 0 -0.0093374642224312073 -0.0016252435387548953 0 -0.015983705929871417 -0.0013428308028439776 0 -0.0060156084162299034 0.00038158046927094124 0 -0.012055855715000242 -0.00094229592879408537 0 -0.0029714468999741781 0.0016709455747787847 0 -0.0028724737717527316 0.0016447855485323955 0 -0.0030064169230550838 0.0017827076412853325 0 -0.0029714468999741781 0.0016709455747787847 0 -0.0028894083457898087 0.0015967428840543414 0 -0.0028724737717527316 0.0016447855485323955 0 -0.0072879693068812618 -0.0010334861682395121 0 -0.0093374642224312073 -0.0016252435387548953 0 -0.010458999236503818 -0.0017949826057837672 0 -0.010504039150811946 -0.0018766847520324287 0 -0.010592404376807696 -0.0016924616057924628 0 -0.0072879693068812618 -0.0010334861682395121 0 -0.0057777152188223666 -7.304585377938381e-05 0 -0.010504039150811946 -0.0018766847520324287 0 -0.010802948748951291 -0.0017257953954290261 0 -0.010592404376807696 -0.0016924616057924628 0 -0.010458999236503818 -0.0017949826057837672 0 -0.010504039150811946 -0.0018766847520324287 0 -0.010466831700602912 -0.0018510549763321887 0 -0.0077871510305202295 -0.0025026140145196136 0 -0.0090274895156435622 -0.001645984263821744 0 -0.008975136724270966 -0.0010963254794813782 0 -0.0028482677247489339 0.0014950482658399134 0 -0.0028311991330412325 0.001521349561701526 0 -0.0028462342758900604 0.0015222950511082744 0 -0.0028482677247489339 0.0014950482658399134 0 -0.0029261855194844875 0.0014489414292295248 0 -0.0028462342758900604 0.0015222950511082744 0 -0.010301268692802148 -0.00076630247950278054 0 -0.0090274895156435622 -0.001645984263821744 0 -0.008975136724270966 -0.0010963254794813782 0 -0.010802948748951291 -0.0017257953954290261 0 -0.010592404376807696 -0.0016924616057924628 0 -0.010692170264961168 -0.0014203829066359763 0 -0.010592404376807696 -0.0016924616057924628 0 -0.010692170264961168 -0.0014203829066359763 0 -0.010480654081833221 -0.0015561414871053789 0 -0.016717063820463993 -0.0016822510001140419 0 -0.015983705929871417 -0.0013428308028439776 0 -0.010802948748951291 -0.0017257953954290261 0 -0.010692170264961168 -0.0014203829066359763 0 -0.01112672982118197 -0.0014490375407420651 0 -0.022096771188107458 -0.001827253181311442 0 -0.023744455549686825 -0.0018644533573056528 0 -0.023688184962214722 -0.0010202706905389604 0 -0.023087100737897399 -0.00089721797524202034 0 -0.023659337892967484 -0.00099420184087454871 0 -0.022096771188107458 -0.001827253181311442 0 -0.021850946158556421 -0.00079790195131792532 0 -0.023688184962214722 -0.0010202706905389604 0 -0.022096771188107458 -0.001827253181311442 0 -0.021850946158556421 -0.00079790195131792532 0 -0.020099434867093483 -0.0015507489380203493 0 -0.010301268692802148 -0.00076630247950278054 0 -0.01157084820590506 0.00013399089832166817 0 -0.010201165541937229 0.0003603864224983181 0 -0.018408329509873624 -0.0023708823620942239 0 -0.017081158977633976 -0.0021520412931075946 0 -0.017980148045987829 -0.0010729519577272987 0 -0.012055855715000242 -0.00094229592879408537 0 -0.015983705929871417 -0.0013428308028439776 0 -0.015983705929871417 -0.0013428308028439776 0 -0.021359323675561915 -0.00093399627860929989 0 -0.023744455549686825 -0.0018644533573056528 0 -0.023688184962214722 -0.0010202706905389604 0 -0.023940313841169944 -0.0011526377650002081 0 -0.021283689024314264 -0.00057921493415358054 0 -0.021359323675561915 -0.00093399627860929989 0 -0.02379530261330064 -0.0011266881211927679 0 -0.023940313841169944 -0.0011526377650002081 0 -0.023848497082526472 -0.001117626000284076 0 -0.023688184962214722 -0.0010202706905389604 0 -0.023848497082526472 -0.001117626000284076 0 -0.02392740432505204 -0.0011739307156971043 0 -0.023688184962214722 -0.0010202706905389604 0 -0.023940313841169944 -0.0011526377650002081 0 -0.023848497082526472 -0.001117626000284076 0 -0.023848497082526472 -0.001117626000284076 0 -0.02392740432505204 -0.0011739307156971043 0 -0.023900516751702076 -0.0012562628852275733 0 -0.02404680297271564 -0.0013101461798753582 0 -0.02392740432505204 -0.0011739307156971043 0 -0.023900516751702076 -0.0012562628852275733 0 -0.02379530261330064 -0.0011266881211927679 0 -0.023848497082526472 -0.001117626000284076 0 -0.023806956089377128 -0.0012273124627181719 0 -0.023848497082526472 -0.001117626000284076 0 -0.023900516751702076 -0.0012562628852275733 0 -0.023806956089377128 -0.0012273124627181719 0 -0.024274024261820491 -0.0011294614148333302 0 -0.024076648305773236 -0.0011204908075744754 0 -0.02421307180679973 -0.0012208357483066428 0 -0.024274024261820491 -0.0011294614148333302 0 -0.024389320892206953 -0.0012123093841114373 0 -0.024497933833582376 -0.0011002267754448352 0 -0.024323189039344259 -0.00095036061321977978 0 -0.024274024261820491 -0.0011294614148333302 0 -0.024497933833582376 -0.0011002267754448352 0 -0.024323189039344259 -0.00095036061321977978 0 -0.024274024261820491 -0.0011294614148333302 0 -0.024076648305773236 -0.0011204908075744754 0 -0.023688184962214722 -0.0010202706905389604 0 -0.02392740432505204 -0.0011739307156971043 0 -0.024076648305773236 -0.0011204908075744754 0 -0.024323189039344259 -0.00095036061321977978 0 -0.023688184962214722 -0.0010202706905389604 0 -0.024076648305773236 -0.0011204908075744754 0 -0.02392740432505204 -0.0011739307156971043 0 -0.024076648305773236 -0.0011204908075744754 0 -0.02421307180679973 -0.0012208357483066428 0 -0.02404680297271564 -0.0013101461798753582 0 -0.02392740432505204 -0.0011739307156971043 0 -0.02421307180679973 -0.0012208357483066428 0 -0.024239439015570515 -0.0013082089048343098 0 -0.02404680297271564 -0.0013101461798753582 0 -0.02421307180679973 -0.0012208357483066428 0 -0.024239439015570515 -0.0013082089048343098 0 -0.02421307180679973 -0.0012208357483066428 0 -0.024400583793170325 -0.0012615813901857714 0 -0.024274024261820491 -0.0011294614148333302 0 -0.02421307180679973 -0.0012208357483066428 0 -0.024389320892206953 -0.0012123093841114373 0 -0.02421307180679973 -0.0012208357483066428 0 -0.024389320892206953 -0.0012123093841114373 0 -0.024400583793170325 -0.0012615813901857714 0 -0.024770009202182482 -0.0011735945619593105 0 -0.024683204854161058 -0.0011761199750959816 0 -0.024497933833582376 -0.0011002267754448352 0 -0.024558193586309531 -0.0012617208739688387 0 -0.024400583793170325 -0.0012615813901857714 0 -0.024504486249832511 -0.0013185865699063323 0 -0.024634233828196659 -0.00121891141173025 0 -0.024518868816865456 -0.0010973027270645287 0 -0.024389320892206953 -0.0012123093841114373 0 -0.024400583793170325 -0.0012615813901857714 0 -0.024504486249832511 -0.0013185865699063323 0 -0.024389320892206953 -0.0012123093841114373 0 -0.024504486249832511 -0.0013185865699063323 0 -0.024497933833582376 -0.0011002267754448352 0 -0.024770009202182482 -0.0011735945619593105 0 -0.024683204854161058 -0.0011761199750959816 0 -0.024709380862685194 -0.0011578740414971075 0 -0.02478033489122836 -0.0010579427242693661 0 -0.024770009202182482 -0.0011735945619593105 0 -0.024709380862685194 -0.0011578740414971075 0 -0.024323189039344259 -0.00095036061321977978 0 -0.024497933833582376 -0.0011002267754448352 0 -0.024679045408723524 -0.0011751143142184057 0 -0.024683204854161058 -0.0011761199750959816 0 -0.024645233605806362 -0.001173649979546263 0 -0.024497933833582376 -0.0011002267754448352 0 -0.024645233605806362 -0.001173649979546263 0 -0.024497933833582376 -0.0011002267754448352 0 -0.024679045408723524 -0.0011751143142184057 0 -0.02466053679759591 -0.0012060522566788494 0 -0.024593157379953292 -0.0012779584999211993 0 -0.024679045408723524 -0.0011751143142184057 0 -0.024645233605806362 -0.001173649979546263 0 -0.02466053679759591 -0.0012060522566788494 0 -0.024679045408723524 -0.0011751143142184057 0 -0.024645233605806362 -0.001173649979546263 0 -0.02466053679759591 -0.0012060522566788494 0 -0.024675584403917518 -0.0011894465715855691 0 -0.02466053679759591 -0.0012060522566788494 0 -0.024675584403917518 -0.0011894465715855691 0 -0.024649784908834939 -0.0012107970297938852 0 -0.024683204854161058 -0.0011761199750959816 0 -0.024645233605806362 -0.001173649979546263 0 -0.024675584403917518 -0.0011894465715855691 0 -0.02466053679759591 -0.0012060522566788494 0 -0.024649784908834939 -0.0012107970297938852 0 -0.024593157379953292 -0.0012779584999211993 0 -0.024649784908834939 -0.0012107970297938852 0 -0.024709380862685194 -0.0011578740414971075 0 -0.024632567860491488 -0.0011876488920301027 0 -0.024683204854161058 -0.0011761199750959816 0 -0.024675584403917518 -0.0011894465715855691 0 -0.024709380862685194 -0.0011578740414971075 0 -0.024675584403917518 -0.0011894465715855691 0 -0.024649784908834939 -0.0012107970297938852 0 -0.024709380862685194 -0.0011578740414971075 0 -0.02464173848061051 -0.0011002032035946042 0 -0.024709380862685194 -0.0011578740414971075 0 -0.024632567860491488 -0.0011876488920301027 0 -0.02464173848061051 -0.0011002032035946042 0 -0.024540525669776807 -0.0011894394070182041 0 -0.024632567860491488 -0.0011876488920301027 0 -0.024520004317373913 -0.001079231955217548 0 -0.02464173848061051 -0.0011002032035946042 0 -0.024540525669776807 -0.0011894394070182041 0 -0.024540525669776807 -0.0011894394070182041 0 -0.024491665900791101 -0.0012817627053291665 0 -0.024578170440156352 -0.001249724033118967 0 -0.024649784908834939 -0.0012107970297938852 0 -0.024578170440156352 -0.001249724033118967 0 -0.024632567860491488 -0.0011876488920301027 0 -0.024540525669776807 -0.0011894394070182041 0 -0.024578170440156352 -0.001249724033118967 0 -0.024632567860491488 -0.0011876488920301027 0 -0.024520004317373913 -0.001079231955217548 0 -0.024540525669776807 -0.0011894394070182041 0 -0.024365714588770345 -0.001238605792696553 0 -0.024540525669776807 -0.0011894394070182041 0 -0.024491665900791101 -0.0012817627053291665 0 -0.024365714588770345 -0.001238605792696553 0 -0.024491665900791101 -0.0012817627053291665 0 -0.024365714588770345 -0.001238605792696553 0 -0.024421690614293456 -0.001362805710693162 0 -0.020584306908661525 -0.0012268198264282237 0 -0.021444654435559367 -0.0011159431381657912 0 -0.024083111528003118 -0.0015838389114301466 0 -0.02429293383424112 -0.0014135554646479745 0 -0.024470601790361521 -0.001435054029224716 0 -0.024365714588770345 -0.001238605792696553 0 -0.02429293383424112 -0.0014135554646479745 0 -0.024421690614293456 -0.001362805710693162 0 -0.024421690614293456 -0.001362805710693162 0 -0.024470601790361521 -0.001435054029224716 0 -0.024519207386560778 -0.0013229454044446838 0 -0.02429293383424112 -0.0014135554646479745 0 -0.024421690614293456 -0.001362805710693162 0 -0.024470601790361521 -0.001435054029224716 0 -0.024470601790361521 -0.001435054029224716 0 -0.024593157379953292 -0.0012779584999211993 0 -0.024679045408723524 -0.0011751143142184057 0 -0.021444654435559367 -0.0011159431381657912 0 -0.022286542984101963 -0.0009691592784771395 0 -0.024649784908834939 -0.0012107970297938852 0 -0.024578170440156352 -0.001249724033118967 0 -0.024593157379953292 -0.0012779584999211993 0 -0.024578170440156352 -0.001249724033118967 0 -0.024519207386560778 -0.0013229454044446838 0 -0.024593157379953292 -0.0012779584999211993 0 -0.024491665900791101 -0.0012817627053291665 0 -0.024578170440156352 -0.001249724033118967 0 -0.024519207386560778 -0.0013229454044446838 0 -0.024491665900791101 -0.0012817627053291665 0 -0.024421690614293456 -0.001362805710693162 0 -0.024519207386560778 -0.0013229454044446838 0 -0.024470601790361521 -0.001435054029224716 0 -0.024519207386560778 -0.0013229454044446838 0 -0.024593157379953292 -0.0012779584999211993 0 -0.010143935316271028 -0.0015623813540161446 0 -0.010220633569164436 -0.00156252396979906 0 -0.010371855707423775 -0.0014631833166311383 0 -0.01835932766727822 -0.00080460219234754389 0 -0.018443418212684352 -0.0012454087127495381 0 -0.01993062712842248 -0.00075887983979013235 0 -0.010105724965888189 -0.0017818489903045913 0 -0.010143935316271028 -0.0015623813540161446 0 -0.010099239566455235 -0.0016699755894042448 0 -0.010143935316271028 -0.0015623813540161446 0 -0.010099239566455235 -0.0016699755894042448 0 -0.010110179422601336 -0.0016223138585039674 0 -0.013935600747062401 -0.0014335250782910806 0 -0.014283684042934819 -0.0014074445539951884 0 -0.017365682801443245 -0.0010377059078056977 0 -0.01835932766727822 -0.00080460219234754389 0 -0.018443418212684352 -0.0012454087127495381 0 -0.010143935316271028 -0.0015623813540161446 0 -0.010110179422601336 -0.0016223138585039674 0 -0.010137654149975335 -0.0016120931500954003 0 -0.010103645848639788 -0.0016499119014452988 0 -0.010077997167015939 -0.0016371142309572807 0 -0.010137654149975335 -0.0016120931500954003 0 -0.010077997167015939 -0.0016371142309572807 0 -0.010110179422601336 -0.0016223138585039674 0 -0.010137654149975335 -0.0016120931500954003 0 -0.010099239566455235 -0.0016699755894042448 0 -0.010077997167015939 -0.0016371142309572807 0 -0.010110179422601336 -0.0016223138585039674 0 -0.010053583970510194 -0.0016514020655087865 0 -0.010103645848639788 -0.0016499119014452988 0 -0.010077997167015939 -0.0016371142309572807 0 -0.010103645848639788 -0.0016499119014452988 0 -0.010137654149975335 -0.0016120931500954003 0 -0.0102099884052817 -0.0016137121685105534 0 -0.010220633569164436 -0.00156252396979906 0 -0.010137654149975335 -0.0016120931500954003 0 -0.0102099884052817 -0.0016137121685105534 0 -0.010143935316271028 -0.0015623813540161446 0 -0.010220633569164436 -0.00156252396979906 0 -0.010137654149975335 -0.0016120931500954003 0 -0.010220633569164436 -0.00156252396979906 0 -0.01029339131419839 -0.0015670055211328244 0 -0.010371855707423775 -0.0014631833166311383 0 -0.010305766296303087 -0.0016396686884212609 0 -0.0102099884052817 -0.0016137121685105534 0 -0.01029339131419839 -0.0015670055211328244 0 -0.010220633569164436 -0.00156252396979906 0 -0.0102099884052817 -0.0016137121685105534 0 -0.01029339131419839 -0.0015670055211328244 0 -0.01029339131419839 -0.0015670055211328244 0 -0.010361861374736551 -0.0015577873323186159 0 -0.010371855707423775 -0.0014631833166311383 0 -0.010305766296303087 -0.0016396686884212609 0 -0.01029339131419839 -0.0015670055211328244 0 -0.010361861374736551 -0.0015577873323186159 0 -0.010305766296303087 -0.0016396686884212609 0 -0.010361861374736551 -0.0015577873323186159 0 -0.010480654081833221 -0.0015561414871053789 0 -0.010692170264961168 -0.0014203829066359763 0 -0.010480654081833221 -0.0015561414871053789 0 -0.010371855707423775 -0.0014631833166311383 0 -0.010361861374736551 -0.0015577873323186159 0 -0.010480654081833221 -0.0015561414871053789 0 -0.010371855707423775 -0.0014631833166311383 0 -0.016717063820463993 -0.0016822510001140419 0 -0.015179069051123198 -0.0014945969505045565 0 -0.023087100737897399 -0.00089721797524202034 0 -0.022286542984101963 -0.0009691592784771395 0 -0.021850946158556421 -0.00079790195131792532 0 -0.01993062712842248 -0.00075887983979013235 0 -0.020099434867093483 -0.0015507489380203493 0 -0.018443418212684352 -0.0012454087127495381 0 -0.01993062712842248 -0.00075887983979013235 0 -0.020099434867093483 -0.0015507489380203493 0 -0.014283684042934819 -0.0014074445539951884 0 -0.015179069051123198 -0.0014945969505045565 0 -0.018841527498254448 7.4393127844000147e-05 0 -0.018669656520847049 -0.00013184012931639438 0 -0.019073354741171965 -0.0004691062693426163 0 -0.01990605936696448 -1.013789411870206e-06 0 -0.018841527498254448 7.4393127844000147e-05 0 -0.019073354741171965 -0.0004691062693426163 0 -0.01990605936696448 -1.013789411870206e-06 0 -0.018841527498254448 7.4393127844000147e-05 0 -0.018554269898373912 6.517147780764069e-07 0 -0.019082742739922224 8.6986533702799359e-05 0 -0.01702140155350635 -0.00025457476010637365 0 -0.018841527498254448 7.4393127844000147e-05 0 -0.018669656520847049 -0.00013184012931639438 0 -0.018396092520200084 0.00014717609395339208 0 -0.018607341992848667 -0.00021746697880254063 0 -0.018669656520847049 -0.00013184012931639438 0 -0.018614143383379599 -0.00013933790883191612 0 -0.018669656520847049 -0.00013184012931639438 0 -0.018614143383379599 -0.00013933790883191612 0 -0.018649452551798697 -0.00012305876902843468 0 -0.018607341992848667 -0.00021746697880254063 0 -0.018530607936859241 -0.00017286543942891558 0 -0.018614143383379599 -0.00013933790883191612 0 -0.018607341992848667 -0.00021746697880254063 0 -0.018627886856769915 -0.00029358416115895169 0 -0.018565551626807175 -0.00032373255524890802 0 -0.018607341992848667 -0.00021746697880254063 0 -0.018627886856769915 -0.00029358416115895169 0 -0.018669656520847049 -0.00013184012931639438 0 -0.018627886856769915 -0.00029358416115895169 0 -0.018669656520847049 -0.00013184012931639438 0 -0.01875447971679271 -0.00038102024767487012 0 -0.018627886856769915 -0.00029358416115895169 0 -0.018628373123417603 -0.00036844386685087351 0 -0.018565551626807175 -0.00032373255524890802 0 -0.018627886856769915 -0.00029358416115895169 0 -0.01875447971679271 -0.00038102024767487012 0 -0.018628373123417603 -0.00036844386685087351 0 -0.024432663521632297 -0.00046756081053450334 0 -0.023612200996647872 -0.00049855791945473138 0 -0.024316853862433596 -0.00017756417732419567 0 -0.021463205517126924 -0.00041829633232767365 0 -0.021401149353086662 -0.00053713715604843267 0 -0.024432663521632297 -0.00046756081053450334 0 -0.023612200996647872 -0.00049855791945473138 0 -0.023502766150233962 -0.00062907878804690771 0 -0.01875447971679271 -0.00038102024767487012 0 -0.018628373123417603 -0.00036844386685087351 0 -0.018833483779591743 -0.00054350284278450089 0 -0.022209997102226632 -0.00013640734565336881 0 -0.021401149353086662 -0.00053713715604843267 0 -0.023429935760284147 -0.00069043170114053368 0 -0.021725584095066523 -1.9172183648828368e-06 0 -0.022970311581563353 1.6293438885251707e-05 0 -0.021401149353086662 -0.00053713715604843267 0 -0.019874925313554528 -0.00021118182259649343 0 -0.020738788452360539 -0.0001343644750547081 0 -0.021090169174934798 7.5320227628039821e-05 0 -0.021195522619872176 6.2292679991778277e-05 0 -0.023612200996647872 -0.00049855791945473138 0 -0.023429935760284147 -0.00069043170114053368 0 -0.022970311581563353 1.6293438885251707e-05 0 -0.018669656520847049 -0.00013184012931639438 0 -0.01875447971679271 -0.00038102024767487012 0 -0.019073354741171965 -0.0004691062693426163 0 -0.01875447971679271 -0.00038102024767487012 0 -0.018833483779591743 -0.00054350284278450089 0 -0.019073354741171965 -0.0004691062693426163 0 -0.019909175617868903 2.3435134419619314e-07 0 -0.019874925313554528 -0.00021118182259649343 0 -0.019909755977237077 -5.1320030594209361e-07 0 -0.021090169174934798 7.5320227628039821e-05 0 -0.020815501799626546 5.0932246697432719e-07 0 -0.021090169174934798 7.5320227628039821e-05 0 -0.020815501799626546 5.0932246697432719e-07 0 -0.021195522619872176 6.2292679991778277e-05 0 -0.020815501799626546 5.0932246697432719e-07 0 -0.021720176971240068 -5.1759868488637405e-07 0 -0.021195522619872176 6.2292679991778277e-05 0 -0.021401149353086662 -0.00053713715604843267 0 -0.021723054005975719 -1.4488412477107584e-07 0 -0.020738788452360539 -0.0001343644750547081 0 -0.021720176971240068 -5.1759868488637405e-07 0 -0.021195522619872176 6.2292679991778277e-05 0 -0.021725584095066523 -1.9172183648828368e-06 0 -0.022970311581563353 1.6293438885251707e-05 0 -0.022972248277525673 1.7593821359595138e-06 0 -0.024997017184618373 9.9041067682707437e-07 0 -0.024694201324084262 5.682290204184462e-05 0 -0.025000069748016138 -1.5684956570755475e-07 0 -0.023612200996647872 -0.00049855791945473138 0 -0.022970311581563353 1.6293438885251707e-05 0 -0.023748252189008487 -4.7078230802407452e-05 0 -0.022970311581563353 1.6293438885251707e-05 0 -0.023227928696222745 0.0003219513009597723 0 -0.023748252189008487 -4.7078230802407452e-05 0 -0.022970311581563353 1.6293438885251707e-05 0 -0.023227928696222745 0.0003219513009597723 0 -0.022972248277525673 1.7593821359595138e-06 0 -0.023810014676672951 0.00014434180137770961 0 -0.02297586104085185 7.3746144807248164e-08 0 -0.024370216530132813 1.4411151098337831e-05 0 -0.022980631754639255 -1.4748875096807254e-06 0 -0.024997017184618373 9.9041067682707437e-07 0 -0.024370216530132813 1.4411151098337831e-05 0 -0.024997017184618373 9.9041067682707437e-07 0 -0.024694201324084262 5.682290204184462e-05 0 -0.024370216530132813 1.4411151098337831e-05 0 -0.024694201324084262 5.682290204184462e-05 0 -0.024509725373387314 9.0704542669413411e-05 0 -0.024509725373387314 9.0704542669413411e-05 0 -0.024316853862433596 -0.00017756417732419567 0 -0.024628280219329356 -2.5666030858879953e-05 0 -0.024694201324084262 5.682290204184462e-05 0 -0.024509725373387314 9.0704542669413411e-05 0 -0.024628280219329356 -2.5666030858879953e-05 0 -0.023227928696222745 0.0003219513009597723 0 -0.024509725373387314 9.0704542669413411e-05 0 -0.023748252189008487 -4.7078230802407452e-05 0 -0.023810014676672951 0.00014434180137770961 0 -0.024446099208695022 0.00011157109268917393 0 -0.023612200996647872 -0.00049855791945473138 0 -0.023748252189008487 -4.7078230802407452e-05 0 -0.024316853862433596 -0.00017756417732419567 0 -0.024432663521632297 -0.00046756081053450334 0 -0.024316853862433596 -0.00017756417732419567 0 -0.024645788686165175 -0.00016920731902740713 0 -0.024509725373387314 9.0704542669413411e-05 0 -0.023748252189008487 -4.7078230802407452e-05 0 -0.024316853862433596 -0.00017756417732419567 0 -0.024316853862433596 -0.00017756417732419567 0 -0.024645788686165175 -0.00016920731902740713 0 -0.024628280219329356 -2.5666030858879953e-05 0 -0.024645788686165175 -0.00016920731902740713 0 -0.024685059324257293 -9.9447864843192678e-05 0 -0.024628280219329356 -2.5666030858879953e-05 0 -0.024645788686165175 -0.00016920731902740713 0 -0.024685059324257293 -9.9447864843192678e-05 0 -0.024644363182004841 -0.00012020527823973622 0 -0.024645788686165175 -0.00016920731902740713 0 -0.024644363182004841 -0.00012020527823973622 0 -0.024653969596584557 -0.00016486823324297624 0 -0.024743106662544923 -5.9774341186537994e-05 0 -0.024804987492745255 -2.0237956190123668e-05 0 -0.024767473696623458 6.1432806331512153e-06 0 -0.024685059324257293 -9.9447864843192678e-05 0 -0.024743106662544923 -5.9774341186537994e-05 0 -0.024644363182004841 -0.00012020527823973622 0 -0.024694201324084262 5.682290204184462e-05 0 -0.024743106662544923 -5.9774341186537994e-05 0 -0.024628280219329356 -2.5666030858879953e-05 0 -0.024685059324257293 -9.9447864843192678e-05 0 -0.024743106662544923 -5.9774341186537994e-05 0 -0.024628280219329356 -2.5666030858879953e-05 0 -0.024694201324084262 5.682290204184462e-05 0 -0.024743106662544923 -5.9774341186537994e-05 0 -0.024804987492745255 -2.0237956190123668e-05 0 -0.024694201324084262 5.682290204184462e-05 0 -0.024804987492745255 -2.0237956190123668e-05 0 -0.025000069748016138 -1.5684956570755475e-07 0 -0.024804987492745255 -2.0237956190123668e-05 0 -0.025000069748016138 -1.5684956570755475e-07 0 -0.024976346420143312 -3.4204029083975205e-05 0 -0.02481253659084498 -2.4842806902816716e-05 0 -0.024865847309189077 -3.4413747453635008e-05 0 -0.024804987492745255 -2.0237956190123668e-05 0 -0.024767758214435779 -4.0227695346525503e-05 0 -0.024767473696623458 6.1432806331512153e-06 0 -0.025000069748016138 -1.5684956570755475e-07 0 -0.024976346420143312 -3.4204029083975205e-05 0 -0.024998131503121 -1.1902648910547033e-05 0 -0.024865847309189077 -3.4413747453635008e-05 0 -0.024799513458633043 -3.8391333470313326e-05 0 -0.024767758214435779 -4.0227695346525503e-05 0 -0.024767473696623458 6.1432806331512153e-06 0 -0.024604849147771952 -6.4112654428044821e-05 0 -0.024554659934400803 -0.00021953992335245666 0 -0.024433695962531275 -0.00015925312789148016 0 -0.024303964663771122 -0.00023232697209347037 0 -0.024554659934400803 -0.00021953992335245666 0 -0.024433695962531275 -0.00015925312789148016 0 -0.024536225261201697 -0.00013651582122372951 0 -0.02465192983502261 -0.00010127020302575678 0 -0.024427572007385909 -9.4502756207779986e-05 0 -0.024729788311842013 -6.853525761599621e-05 0 -0.02465192983502261 -0.00010127020302575678 0 -0.024743106662544923 -5.9774341186537994e-05 0 -0.024554659934400803 -0.00021953992335245666 0 -0.024644363182004841 -0.00012020527823973622 0 -0.024554659934400803 -0.00021953992335245666 0 -0.024644363182004841 -0.00012020527823973622 0 -0.024536225261201697 -0.00013651582122372951 0 -0.024644363182004841 -0.00012020527823973622 0 -0.024536225261201697 -0.00013651582122372951 0 -0.024566922885079938 -9.4073062777780023e-05 0 -0.024433695962531275 -0.00015925312789148016 0 -0.024536225261201697 -0.00013651582122372951 0 -0.024443951497195041 -9.3841858531652778e-05 0 -0.024536225261201697 -0.00013651582122372951 0 -0.024443951497195041 -9.3841858531652778e-05 0 -0.024566922885079938 -9.4073062777780023e-05 0 -0.024443951497195041 -9.3841858531652778e-05 0 -0.024477173621087912 1.8902345111287576e-05 0 -0.024566922885079938 -9.4073062777780023e-05 0 -0.024443951497195041 -9.3841858531652778e-05 0 -0.024477173621087912 1.8902345111287576e-05 0 -0.024335622461322134 -4.2132128884616849e-05 0 -0.018949097772866973 -0.00020287156158483615 0 -0.018956434294542506 -0.00044535752537729192 0 -0.019217297318455666 -0.00021710077888292606 0 -0.018949097772866973 -0.00020287156158483615 0 -0.018703052817490028 -0.0002529333163284026 0 -0.018782159592973222 -0.00034855704476131547 0 -0.024644363182004841 -0.00012020527823973622 0 -0.024566922885079938 -9.4073062777780023e-05 0 -0.024653969596584557 -0.00016486823324297624 0 -0.021662753312322196 -9.4412119438352061e-05 0 -0.021691713848253379 -0.00021647459887728885 0 -0.024477173621087912 1.8902345111287576e-05 0 -0.024566922885079938 -9.4073062777780023e-05 0 -0.024653969596584557 -0.00016486823324297624 0 -0.018628373123417603 -0.00036844386685087351 0 -0.018703052817490028 -0.0002529333163284026 0 -0.018565551626807175 -0.00032373255524890802 0 -0.024432663521632297 -0.00046756081053450334 0 -0.024645788686165175 -0.00016920731902740713 0 -0.024653969596584557 -0.00016486823324297624 0 -0.021463205517126924 -0.00041829633232767365 0 -0.021691713848253379 -0.00021647459887728885 0 -0.018703052817490028 -0.0002529333163284026 0 -0.018565551626807175 -0.00032373255524890802 0 -0.018782159592973222 -0.00034855704476131547 0 -0.018565551626807175 -0.00032373255524890802 0 -0.018713836119432049 -0.00052020883637922952 0 -0.018782159592973222 -0.00034855704476131547 0 -0.018565551626807175 -0.00032373255524890802 0 -0.01837002238611268 -0.00023926054249968472 0 -0.018530607936859241 -0.00017286543942891558 0 -0.018607341992848667 -0.00021746697880254063 0 -0.018565551626807175 -0.00032373255524890802 0 -0.018530607936859241 -0.00017286543942891558 0 -0.018570607638021274 -0.00034008315370668196 0 -0.018512937048481379 -0.00037050601562719983 0 -0.018713836119432049 -0.00052020883637922952 0 -0.018956434294542506 -0.00044535752537729192 0 -0.018876396747764437 -0.00067393218315438133 0 -0.018956434294542506 -0.00044535752537729192 0 -0.019028942876821244 -0.00064347653454201767 0 -0.018876396747764437 -0.00067393218315438133 0 -0.018949097772866973 -0.00020287156158483615 0 -0.018956434294542506 -0.00044535752537729192 0 -0.018782159592973222 -0.00034855704476131547 0 -0.018713836119432049 -0.00052020883637922952 0 -0.018956434294542506 -0.00044535752537729192 0 -0.018782159592973222 -0.00034855704476131547 0 -0.019160689893396924 -0.00047145066258876873 0 -0.019332881244085384 -0.00044555653146216459 0 -0.019217297318455666 -0.00021710077888292606 0 -0.018956434294542506 -0.00044535752537729192 0 -0.019160689893396924 -0.00047145066258876873 0 -0.019217297318455666 -0.00021710077888292606 0 -0.018956434294542506 -0.00044535752537729192 0 -0.019160689893396924 -0.00047145066258876873 0 -0.019028942876821244 -0.00064347653454201767 0 -0.019160689893396924 -0.00047145066258876873 0 -0.019175200530563544 -0.0006346115769855509 0 -0.019028942876821244 -0.00064347653454201767 0 -0.017160022561023603 -0.00035042652708113019 0 -0.017175957469691566 -0.0011413851521064693 0 -0.019160689893396924 -0.00047145066258876873 0 -0.019332881244085384 -0.00044555653146216459 0 -0.019175200530563544 -0.0006346115769855509 0 -0.015932836055632518 -0.0013654658703306482 0 -0.015698660730323371 -0.00019489008551448612 0 -0.01505681903569835 -0.0016633760299053237 0 -0.015932836055632518 -0.0013654658703306482 0 -0.017260552422792019 -0.00099316745958694412 0 -0.015698660730323371 -0.00019489008551448612 0 -0.017260552422792019 -0.00099316745958694412 0 -0.017485905081308296 0.00029479411509056698 0 -0.015698660730323371 -0.00019489008551448612 0 -0.017485905081308296 0.00029479411509056698 0 -0.015698660730323371 -0.00019489008551448612 0 -0.016708008593389705 0.0012912310409965073 0 -0.017160022561023603 -0.00035042652708113019 0 -0.020912618871445538 -4.2791870904138395e-05 0 -0.020912618871445538 -4.2791870904138395e-05 0 -0.021930800760921264 -9.6147250758076412e-05 0 -0.019332881244085384 -0.00044555653146216459 0 -0.019500130327344291 -0.00023948642179757784 0 -0.019217297318455666 -0.00021710077888292606 0 -0.024075297456553131 4.9821431726533683e-05 0 -0.024131813005978889 -1.6355757726783602e-05 0 -0.024239854325334924 5.99662089821574e-05 0 -0.023794742472496168 -0.00036096835681897604 0 -0.02391518187160295 -0.00022527781379164916 0 -0.024079298802980414 -0.00039080898064106307 0 -0.020912618871445538 -4.2791870904138395e-05 0 -0.021133713588901842 0.00042092546750695204 0 -0.017485905081308296 0.00029479411509056698 0 -0.016708008593389705 0.0012912310409965073 0 -0.018544295420873859 0.001099162630304285 0 -0.020912618871445538 -4.2791870904138395e-05 0 -0.02406429713813818 0.00013419370997631117 0 -0.02406429713813818 0.00013419370997631117 0 -0.023991374534252048 -0.00015833314360339743 0 -0.024075297456553131 4.9821431726533683e-05 0 -0.024062128836590493 -2.5751040614231455e-05 0 -0.024131813005978889 -1.6355757726783602e-05 0 -0.024062128836590493 -2.5751040614231455e-05 0 -0.024131813005978889 -1.6355757726783602e-05 0 -0.024107880253870905 -8.7354743643076063e-05 0 -0.024131813005978889 -1.6355757726783602e-05 0 -0.02420720417747976 -6.3411463271750734e-05 0 -0.024107880253870905 -8.7354743643076063e-05 0 -0.024131813005978889 -1.6355757726783602e-05 0 -0.024239854325334924 5.99662089821574e-05 0 -0.02420720417747976 -6.3411463271750734e-05 0 -0.024239854325334924 5.99662089821574e-05 0 -0.024335622461322134 -4.2132128884616849e-05 0 -0.02420720417747976 -6.3411463271750734e-05 0 -0.021662753312322196 -9.4412119438352061e-05 0 -0.021930800760921264 -9.6147250758076412e-05 0 -0.024477173621087912 1.8902345111287576e-05 0 -0.024239854325334924 5.99662089821574e-05 0 -0.024335622461322134 -4.2132128884616849e-05 0 -0.024443951497195041 -9.3841858531652778e-05 0 -0.024335622461322134 -4.2132128884616849e-05 0 -0.024319772185573855 -0.00012482201839499356 0 -0.025000069748016138 -1.5684956570755475e-07 0 -0.024998131503121 -1.1902648910547033e-05 0 -0.024999979109306774 3.3156475030529296e-08 0 -0.024335622461322134 -4.2132128884616849e-05 0 -0.024319772185573855 -0.00012482201839499356 0 -0.02420720417747976 -6.3411463271750734e-05 0 -0.024433695962531275 -0.00015925312789148016 0 -0.024443951497195041 -9.3841858531652778e-05 0 -0.024319772185573855 -0.00012482201839499356 0 -0.024319772185573855 -0.00012482201839499356 0 -0.024199109231373826 -0.00012802256294830718 0 -0.02420720417747976 -6.3411463271750734e-05 0 -0.024427572007385909 -9.4502756207779986e-05 0 -0.024211884700606642 -5.2240184950337063e-05 0 -0.024199109231373826 -0.00012802256294830718 0 -0.024303964663771122 -0.00023232697209347037 0 -0.02410934038715646 -0.00014599019355516417 0 -0.024319772185573855 -0.00012482201839499356 0 -0.024199109231373826 -0.00012802256294830718 0 -0.024303964663771122 -0.00023232697209347037 0 -0.024433695962531275 -0.00015925312789148016 0 -0.024319772185573855 -0.00012482201839499356 0 -0.024303964663771122 -0.00023232697209347037 0 -0.024767473696623458 6.1432806331512153e-06 0 -0.024548454083979612 4.0215699714062462e-05 0 -0.024604849147771952 -6.4112654428044821e-05 0 -0.024998131503121 -1.1902648910547033e-05 0 -0.02499772555705395 -6.180786706837874e-06 0 -0.024999979109306774 3.3156475030529296e-08 0 -0.024548454083979612 4.0215699714062462e-05 0 -0.024604849147771952 -6.4112654428044821e-05 0 -0.024390749872289588 -7.2487729907916347e-05 0 -0.024548454083979612 4.0215699714062462e-05 0 -0.024390749872289588 -7.2487729907916347e-05 0 -0.024295373284848806 3.879866892798303e-05 0 -0.024799513458633043 -3.8391333470313326e-05 0 -0.0246992101723696 -3.7346293527095185e-05 0 -0.024999979109306774 3.3156475030529296e-08 0 -0.024996326136376482 -1.9692154213888458e-06 0 -0.024991543008382328 -4.8237413757986825e-06 0 -0.02499772555705395 -6.180786706837874e-06 0 -0.024999979109306774 3.3156475030529296e-08 0 -0.024996326136376482 -1.9692154213888458e-06 0 -0.0246992101723696 -3.7346293527095185e-05 0 -0.024591027760811877 -2.5282369098042216e-05 0 -0.024390749872289588 -7.2487729907916347e-05 0 -0.02421238825425584 -4.6207998888522976e-05 0 -0.024295373284848806 3.879866892798303e-05 0 -0.02421238825425584 -4.6207998888522976e-05 0 -0.024295373284848806 3.879866892798303e-05 0 -0.024143933687541547 -4.1426933715518749e-06 0 -0.024211884700606642 -5.2240184950337063e-05 0 -0.024153745002994362 -1.2054928300238723e-05 0 -0.024092661685285788 -8.0226300940843453e-05 0 -0.02410934038715646 -0.00014599019355516417 0 -0.024107880253870905 -8.7354743643076063e-05 0 -0.024092661685285788 -8.0226300940843453e-05 0 -0.02410934038715646 -0.00014599019355516417 0 -0.024143933687541547 -4.1426933715518749e-06 0 -0.024199109231373826 -0.00012802256294830718 0 -0.02410934038715646 -0.00014599019355516417 0 -0.024107880253870905 -8.7354743643076063e-05 0 -0.024199109231373826 -0.00012802256294830718 0 -0.02420720417747976 -6.3411463271750734e-05 0 -0.024107880253870905 -8.7354743643076063e-05 0 -0.024092661685285788 -8.0226300940843453e-05 0 -0.024107880253870905 -8.7354743643076063e-05 0 -0.024058237117452318 -9.9205688626766568e-05 0 -0.024062128836590493 -2.5751040614231455e-05 0 -0.024107880253870905 -8.7354743643076063e-05 0 -0.024058237117452318 -9.9205688626766568e-05 0 -0.024092661685285788 -8.0226300940843453e-05 0 -0.024058237117452318 -9.9205688626766568e-05 0 -0.024164983189929365 -5.1782111669125376e-05 0 -0.024058237117452318 -9.9205688626766568e-05 0 -0.024164983189929365 -5.1782111669125376e-05 0 -0.024142299557760621 -0.0001987462784787325 0 -0.024164983189929365 -5.1782111669125376e-05 0 -0.024306771090053133 -0.00011642568767421772 0 -0.024142299557760621 -0.0001987462784787325 0 -0.024164983189929365 -5.1782111669125376e-05 0 -0.024197803997870436 1.756223325821881e-05 0 -0.024295721663808164 4.851446109959958e-05 0 -0.024164983189929365 -5.1782111669125376e-05 0 -0.024295721663808164 4.851446109959958e-05 0 -0.024306771090053133 -0.00011642568767421772 0 -0.024092661685285788 -8.0226300940843453e-05 0 -0.024164983189929365 -5.1782111669125376e-05 0 -0.024143933687541547 -4.1426933715518749e-06 0 -0.024164983189929365 -5.1782111669125376e-05 0 -0.024143933687541547 -4.1426933715518749e-06 0 -0.024197803997870436 1.756223325821881e-05 0 -0.02421238825425584 -4.6207998888522976e-05 0 -0.024143933687541547 -4.1426933715518749e-06 0 -0.024166524998221684 7.8310242979384748e-06 0 -0.024591027760811877 -2.5282369098042216e-05 0 -0.024667629667229751 2.8540067285307965e-05 0 -0.024996326136376482 -1.9692154213888458e-06 0 -0.024990865389737913 -4.5408423138690298e-06 0 -0.024991543008382328 -4.8237413757986825e-06 0 -0.02421238825425584 -4.6207998888522976e-05 0 -0.024167752016873049 2.1532038782124464e-05 0 -0.024166524998221684 7.8310242979384748e-06 0 -0.024999979109306774 3.3156475030529296e-08 0 -0.024991543008382328 -4.8237413757986825e-06 0 -0.024999936947164184 -3.4670854669110599e-08 0 -0.024667629667229751 2.8540067285307965e-05 0 -0.024712663228755531 2.3646635569112757e-06 0 -0.024167752016873049 2.1532038782124464e-05 0 -0.024166524998221684 7.8310242979384748e-06 0 -0.024197803997870436 1.756223325821881e-05 0 -0.024143933687541547 -4.1426933715518749e-06 0 -0.024166524998221684 7.8310242979384748e-06 0 -0.024197803997870436 1.756223325821881e-05 0 -0.024667629667229751 2.8540067285307965e-05 0 -0.024623597492533372 1.0094213812867976e-05 0 -0.024988729819679995 -6.49392384231478e-06 0 -0.024981712260381289 -1.1067558481520301e-05 0 -0.024966944471323034 -1.8394014141406982e-05 0 -0.024167752016873049 2.1532038782124464e-05 0 -0.024197803997870436 1.756223325821881e-05 0 -0.024295721663808164 4.851446109959958e-05 0 -0.024991486066276849 -4.3481249229837995e-06 0 -0.024988729819679995 -6.49392384231478e-06 0 -0.024966944471323034 -1.8394014141406982e-05 0 -0.024990717931471208 -4.7679363024068404e-06 0 -0.024988729819679995 -6.49392384231478e-06 0 -0.024991543008382328 -4.8237413757986825e-06 0 -0.024667629667229751 2.8540067285307965e-05 0 -0.0248846819420066 3.013397148386394e-05 0 -0.024988729819679995 -6.49392384231478e-06 0 -0.024991543008382328 -4.8237413757986825e-06 0 -0.024999936947164184 -3.4670854669110599e-08 0 -0.024979601814838763 -1.0449036342132436e-05 0 -0.024999936947164184 -3.4670854669110599e-08 0 -0.024966718025263287 -1.8885410001163289e-05 0 -0.024988729819679995 -6.49392384231478e-06 0 -0.024999936947164184 -3.4670854669110599e-08 0 -0.024981712260381289 -1.1067558481520301e-05 0 -0.024999936947164184 -3.4670854669110599e-08 0 -0.024981712260381289 -1.1067558481520301e-05 0 -0.024966718025263287 -1.8885410001163289e-05 0 -0.024981712260381289 -1.1067558481520301e-05 0 -0.024966718025263287 -1.8885410001163289e-05 0 -0.024966944471323034 -1.8394014141406982e-05 0 -0.024979601814838763 -1.0449036342132436e-05 0 -0.024945382997798513 -3.6062634243245937e-05 0 -0.024966718025263287 -1.8885410001163289e-05 0 -0.024945382997798513 -3.6062634243245937e-05 0 -0.024966718025263287 -1.8885410001163289e-05 0 -0.024920963884966112 -5.0047771962150769e-05 0 -0.024966718025263287 -1.8885410001163289e-05 0 -0.024966944471323034 -1.8394014141406982e-05 0 -0.024920963884966112 -5.0047771962150769e-05 0 -0.024623597492533372 1.0094213812867976e-05 0 -0.024732188317753517 -4.4457468646553291e-05 0 -0.024295721663808164 4.851446109959958e-05 0 -0.024306771090053133 -0.00011642568767421772 0 -0.024522395926586855 -1.2535316384709431e-05 0 -0.024306771090053133 -0.00011642568767421772 0 -0.024522395926586855 -1.2535316384709431e-05 0 -0.024487505667530215 -0.00024931609810426871 0 -0.0248466316794843 -0.00015784966344021959 0 -0.024522395926586855 -1.2535316384709431e-05 0 -0.024487505667530215 -0.00024931609810426871 0 -0.0248466316794843 -0.00015784966344021959 0 -0.024681457550149957 -0.00051648377562552202 0 -0.024487505667530215 -0.00024931609810426871 0 -0.0228671801030364 -0.00021480150295109424 0 -0.022523409582666312 0.00024487679617969443 0 -0.024681457550149957 -0.00051648377562552202 0 -0.024487505667530215 -0.00024931609810426871 0 -0.024343494021880203 -0.00044794551647382762 0 -0.024487505667530215 -0.00024931609810426871 0 -0.024343494021880203 -0.00044794551647382762 0 -0.024267018100535522 -0.00027760287013168773 0 -0.024306771090053133 -0.00011642568767421772 0 -0.024487505667530215 -0.00024931609810426871 0 -0.024267018100535522 -0.00027760287013168773 0 -0.024306771090053133 -0.00011642568767421772 0 -0.024267018100535522 -0.00027760287013168773 0 -0.024142299557760621 -0.0001987462784787325 0 -0.024267018100535522 -0.00027760287013168773 0 -0.024142299557760621 -0.0001987462784787325 0 -0.024079298802980414 -0.00039080898064106307 0 -0.02391518187160295 -0.00022527781379164916 0 -0.024058237117452318 -9.9205688626766568e-05 0 -0.024142299557760621 -0.0001987462784787325 0 -0.02391518187160295 -0.00022527781379164916 0 -0.024142299557760621 -0.0001987462784787325 0 -0.024079298802980414 -0.00039080898064106307 0 -0.024343494021880203 -0.00044794551647382762 0 -0.024267018100535522 -0.00027760287013168773 0 -0.024079298802980414 -0.00039080898064106307 0 -0.022523409582666312 0.00024487679617969443 0 -0.021133713588901842 0.00042092546750695204 0 -0.020381298864479314 0.00089865629960264994 0 -0.018544295420873859 0.001099162630304285 0 -0.018917181695630995 -0.00041053516243766511 0 -0.020381298864479314 0.00089865629960264994 0 -0.018917181695630995 -0.00041053516243766511 0 -0.020373421268713259 -0.00052753290818751243 0 -0.017485905081308296 0.00029479411509056698 0 -0.018544295420873859 0.001099162630304285 0 -0.018917181695630995 -0.00041053516243766511 0 -0.017260552422792019 -0.00099316745958694412 0 -0.018917181695630995 -0.00041053516243766511 0 -0.018318572771688295 -0.0017166171372590881 0 -0.017260552422792019 -0.00099316745958694412 0 -0.017485905081308296 0.00029479411509056698 0 -0.018917181695630995 -0.00041053516243766511 0 -0.018917181695630995 -0.00041053516243766511 0 -0.020373421268713259 -0.00052753290818751243 0 -0.019770524459846346 -0.0016264612973014574 0 -0.018917181695630995 -0.00041053516243766511 0 -0.019770524459846346 -0.0016264612973014574 0 -0.018318572771688295 -0.0017166171372590881 0 -0.020373421268713259 -0.00052753290818751243 0 -0.020996226808531322 -0.0015902253746361804 0 -0.019770524459846346 -0.0016264612973014574 0 -0.020373421268713259 -0.00052753290818751243 0 -0.021604836594055668 -0.00044939847442197897 0 -0.020996226808531322 -0.0015902253746361804 0 -0.021511392002417442 -0.00083155050229142126 0 -0.02107776654341674 -0.001525825689112056 0 -0.021582974195749359 -0.0014969744755807264 0 -0.021540102785635395 -0.001122830358472915 0 -0.020996226808531322 -0.0015902253746361804 0 -0.021981546859478965 -0.0012868851080120741 0 -0.021582974195749359 -0.0014969744755807264 0 -0.021540102785635395 -0.001122830358472915 0 -0.022212245452830511 0.00068320605973955781 0 -0.020381298864479314 0.00089865629960264994 0 -0.021604836594055668 -0.00044939847442197897 0 -0.0228671801030364 -0.00021480150295109424 0 -0.021511392002417442 -0.00083155050229142126 0 -0.020381298864479314 0.00089865629960264994 0 -0.020373421268713259 -0.00052753290818751243 0 -0.021604836594055668 -0.00044939847442197897 0 -0.012623255223837821 -0.002613724736863728 0 -0.013488432079234404 -0.0026394811896653368 0 -0.012668744254767973 -0.0021097081723621563 0 -0.016690959438043503 -0.0026094133656347786 0 -0.01629570874516624 -0.002677999702448411 0 -0.021780267336599005 -0.0021316768261811681 0 -0.022031886901992263 -0.0022372346325853026 0 -0.020843621956480332 -0.0026477682199061831 0 -0.011808425784901376 -0.0024797666872225172 0 -0.012623255223837821 -0.002613724736863728 0 -0.012188553014559195 -0.002218398046077495 0 -0.016996216337846152 -0.0023641579090868774 0 -0.016690959438043503 -0.0026094133656347786 0 -0.012623255223837821 -0.002613724736863728 0 -0.012668744254767973 -0.0021097081723621563 0 -0.012188553014559195 -0.002218398046077495 0 -0.020843621956480332 -0.0026477682199061831 0 -0.021614461483771275 -0.0018418088728131758 0 -0.020996226808531322 -0.0015902253746361804 0 -0.021780267336599005 -0.0021316768261811681 0 -0.020843621956480332 -0.0026477682199061831 0 -0.021614461483771275 -0.0018418088728131758 0 -0.021967189849563369 -0.0015629131705463418 0 -0.021582974195749359 -0.0014969744755807264 0 -0.021614461483771275 -0.0018418088728131758 0 -0.021582974195749359 -0.0014969744755807264 0 -0.021614461483771275 -0.0018418088728131758 0 -0.020996226808531322 -0.0015902253746361804 0 -0.020843621956480332 -0.0026477682199061831 0 -0.020996226808531322 -0.0015902253746361804 0 -0.019770524459846346 -0.0016264612973014574 0 -0.019770524459846346 -0.0016264612973014574 0 -0.018318572771688295 -0.0017166171372590881 0 -0.019101252820952985 -0.0027285367433870066 0 -0.020843621956480332 -0.0026477682199061831 0 -0.019770524459846346 -0.0016264612973014574 0 -0.019101252820952985 -0.0027285367433870066 0 -0.018318572771688295 -0.0017166171372590881 0 -0.019101252820952985 -0.0027285367433870066 0 -0.017288523933804884 -0.0026361623789322094 0 -0.01629570874516624 -0.002677999702448411 0 -0.015819988342990025 -0.0026015887326142854 0 -0.013488432079234404 -0.0026394811896653368 0 -0.013728680979291388 -0.002067616007486753 0 -0.014367820909019311 -0.0026134627627723349 0 -0.013488432079234404 -0.0026394811896653368 0 -0.013142702130992301 -0.001843071543584316 0 -0.012668744254767973 -0.0021097081723621563 0 -0.013488432079234404 -0.0026394811896653368 0 -0.013142702130992301 -0.001843071543584316 0 -0.013728680979291388 -0.002067616007486753 0 -0.013728680979291388 -0.002067616007486753 0 -0.013731108303551532 -0.001317491253465745 0 -0.014315364535359096 -0.0018577836323821464 0 -0.013142702130992301 -0.001843071543584316 0 -0.013728680979291388 -0.002067616007486753 0 -0.013731108303551532 -0.001317491253465745 0 -0.013142702130992301 -0.001843071543584316 0 -0.013731108303551532 -0.001317491253465745 0 -0.013009350021682284 -0.0011432863466739735 0 -0.013142702130992301 -0.001843071543584316 0 -0.012665251923279559 -0.0015654516572961971 0 -0.013009350021682284 -0.0011432863466739735 0 -0.013142702130992301 -0.001843071543584316 0 -0.012665251923279559 -0.0015654516572961971 0 -0.012668744254767973 -0.0021097081723621563 0 -0.012668744254767973 -0.0021097081723621563 0 -0.012188553014559195 -0.002218398046077495 0 -0.012097326719887993 -0.0017542056715232422 0 -0.011852123646736785 -0.0021154583703310846 0 -0.012188553014559195 -0.002218398046077495 0 -0.012097326719887993 -0.0017542056715232422 0 -0.012665251923279559 -0.0015654516572961971 0 -0.012097326719887993 -0.0017542056715232422 0 -0.0123670963557543 -0.00098202011501211149 0 -0.012665251923279559 -0.0015654516572961971 0 -0.012668744254767973 -0.0021097081723621563 0 -0.012097326719887993 -0.0017542056715232422 0 -0.011771414214615509 -0.0003547011482679684 0 -0.011690165691680103 -0.0011920609422338654 0 -0.0123670963557543 -0.00098202011501211149 0 -0.011690165691680103 -0.0011920609422338654 0 -0.012097326719887993 -0.0017542056715232422 0 -0.0123670963557543 -0.00098202011501211149 0 -0.012665251923279559 -0.0015654516572961971 0 -0.0123670963557543 -0.00098202011501211149 0 -0.013009350021682284 -0.0011432863466739735 0 -0.0123670963557543 -0.00098202011501211149 0 -0.013009350021682284 -0.0011432863466739735 0 -0.012680744443388481 -0.00044800577219369659 0 -0.011844643519497881 -0.00040224936335139149 0 -0.012305387843033627 -0.0009291977582219558 0 -0.011782200570003957 -0.00038600739990564073 0 -0.0123670963557543 -0.00098202011501211149 0 -0.012680744443388481 -0.00044800577219369659 0 -0.011782200570003957 -0.00038600739990564073 0 -0.012680744443388481 -0.00044800577219369659 0 -0.012488832685217 0.00018940446011241524 0 -0.011782200570003957 -0.00038600739990564073 0 -0.011856551690004128 0.00023794985939873143 0 -0.012488832685217 0.00018940446011241524 0 -0.012680744443388481 -0.00044800577219369659 0 -0.012488832685217 0.00018940446011241524 0 -0.01313396920197763 0.00016487361376933769 0 -0.012488832685217 0.00018940446011241524 0 -0.01313396920197763 0.00016487361376933769 0 -0.012866455105875025 0.0010023402243767578 0 -0.012488832685217 0.00018940446011241524 0 -0.012224866090028331 0.00075532108846446534 0 -0.012866455105875025 0.0010023402243767578 0 -0.011856551690004128 0.00023794985939873143 0 -0.012488832685217 0.00018940446011241524 0 -0.012224866090028331 0.00075532108846446534 0 -0.011856551690004128 0.00023794985939873143 0 -0.012224866090028331 0.00075532108846446534 0 -0.011677152379592324 0.00083933603354840829 0 -0.013638683680269036 0.00052053788479936567 0 -0.01313396920197763 0.00016487361376933769 0 -0.012866455105875025 0.0010023402243767578 0 -0.012680744443388481 -0.00044800577219369659 0 -0.01313396920197763 0.00016487361376933769 0 -0.013398683905191834 -0.00058693312281083278 0 -0.01313396920197763 0.00016487361376933769 0 -0.013755128871490512 -0.00010082227740122829 0 -0.013398683905191834 -0.00058693312281083278 0 -0.013638683680269036 0.00052053788479936567 0 -0.013755128871490512 -0.00010082227740122829 0 -0.014383972902828897 2.248122974289954e-05 0 -0.013638683680269036 0.00052053788479936567 0 -0.01313396920197763 0.00016487361376933769 0 -0.013755128871490512 -0.00010082227740122829 0 -0.013755128871490512 -0.00010082227740122829 0 -0.013398683905191834 -0.00058693312281083278 0 -0.014065131723805302 -0.0006418106123695067 0 -0.013009350021682284 -0.0011432863466739735 0 -0.012680744443388481 -0.00044800577219369659 0 -0.013398683905191834 -0.00058693312281083278 0 -0.013731108303551532 -0.001317491253465745 0 -0.013009350021682284 -0.0011432863466739735 0 -0.013398683905191834 -0.00058693312281083278 0 -0.013731108303551532 -0.001317491253465745 0 -0.013398683905191834 -0.00058693312281083278 0 -0.014065131723805302 -0.0006418106123695067 0 -0.013731108303551532 -0.001317491253465745 0 -0.014526835161836796 -0.0012251190582249305 0 -0.014065131723805302 -0.0006418106123695067 0 -0.014526835161836796 -0.0012251190582249305 0 -0.014612180332517249 -0.00065954973176122415 0 -0.014065131723805302 -0.0006418106123695067 0 -0.014526835161836796 -0.0012251190582249305 0 -0.014993155899810737 -0.00094617997379098102 0 -0.015055963077174396 -0.0013821475127801612 0 -0.014526835161836796 -0.0012251190582249305 0 -0.014612180332517249 -0.00065954973176122415 0 -0.014993155899810737 -0.00094617997379098102 0 -0.014612180332517249 -0.00065954973176122415 0 -0.015064646157439359 -0.00047800640698916058 0 -0.014993155899810737 -0.00094617997379098102 0 -0.014612180332517249 -0.00065954973176122415 0 -0.014383972902828897 2.248122974289954e-05 0 -0.015064646157439359 -0.00047800640698916058 0 -0.014612180332517249 -0.00065954973176122415 0 -0.014065131723805302 -0.0006418106123695067 0 -0.014383972902828897 2.248122974289954e-05 0 -0.013755128871490512 -0.00010082227740122829 0 -0.014065131723805302 -0.0006418106123695067 0 -0.014383972902828897 2.248122974289954e-05 0 -0.0075837643670424856 -0.0017969578732521469 0 -0.0085239439692349206 -0.0014652250837157391 0 -0.0084366655465553178 -0.0022529475593569288 0 -0.011010444326942892 -0.00089056793935469883 0 -0.011580141406954582 -0.0013890149517051997 0 -0.0075837643670424856 -0.0017969578732521469 0 -0.0078153564631668147 -0.0010608439930511018 0 -0.0085239439692349206 -0.0014652250837157391 0 -0.010141806888298147 -0.00039868393519737521 0 -0.011010444326942892 -0.00089056793935469883 0 -0.0066916871492247879 -0.0013385765618028466 0 -0.0075837643670424856 -0.0017969578732521469 0 -0.0078153564631668147 -0.0010608439930511018 0 -0.0093703010812151225 -0.0012329776642667216 0 -0.0085239439692349206 -0.0014652250837157391 0 -0.0092102038417417164 -0.0017632139606543586 0 -0.0093703010812151225 -0.0012329776642667216 0 -0.0085239439692349206 -0.0014652250837157391 0 -0.0090170470254564827 -0.00080640643568193624 0 -0.0087851743949819306 -0.0019069166094541892 0 -0.0090639583451705835 -0.0021809498390533244 0 -0.0084366655465553178 -0.0022529475593569288 0 -0.0085239439692349206 -0.0014652250837157391 0 -0.0087851743949819306 -0.0019069166094541892 0 -0.0092102038417417164 -0.0017632139606543586 0 -0.0085239439692349206 -0.0014652250837157391 0 -0.0087851743949819306 -0.0019069166094541892 0 -0.0084366655465553178 -0.0022529475593569288 0 -0.0087851743949819306 -0.0019069166094541892 0 -0.0092102038417417164 -0.0017632139606543586 0 -0.0090639583451705835 -0.0021809498390533244 0 -0.0092102038417417164 -0.0017632139606543586 0 -0.0090639583451705835 -0.0021809498390533244 0 -0.0096764503671104684 -0.0021217576398687489 0 -0.0090639583451705835 -0.0021809498390533244 0 -0.0084366655465553178 -0.0022529475593569288 0 -0.0092715294418856519 -0.0027295549392055553 0 -0.0090639583451705835 -0.0021809498390533244 0 -0.0092715294418856519 -0.0027295549392055553 0 -0.0096764503671104684 -0.0021217576398687489 0 -0.011580141406954582 -0.0013890149517051997 0 -0.013394779054702405 -0.0013326855878371075 0 -0.015064646157439359 -0.00047800640698916058 0 -0.014993155899810737 -0.00094617997379098102 0 -0.01561808533819134 -0.00088243499451549922 0 -0.014993155899810737 -0.00094617997379098102 0 -0.01537619588553083 -0.0012248855509764548 0 -0.015663626210709367 -0.00095408224159028985 0 -0.015971047073839027 -0.00081998148773194967 0 -0.013394779054702405 -0.0013326855878371075 0 -0.014993155899810737 -0.00094617997379098102 0 -0.01537619588553083 -0.0012248855509764548 0 -0.015055963077174396 -0.0013821475127801612 0 -0.01537619588553083 -0.0012248855509764548 0 -0.015663626210709367 -0.00095408224159028985 0 -0.015658533816293049 -0.0012983199244061966 0 -0.015663626210709367 -0.00095408224159028985 0 -0.015658533816293049 -0.0012983199244061966 0 -0.015992238193742122 -0.0011686203713814065 0 -0.015658533816293049 -0.0012983199244061966 0 -0.015458143799285614 -0.001543228972106079 0 -0.015839103841731136 -0.0015184475481839594 0 -0.01537619588553083 -0.0012248855509764548 0 -0.015658533816293049 -0.0012983199244061966 0 -0.015458143799285614 -0.001543228972106079 0 -0.015458143799285614 -0.001543228972106079 0 -0.015577018039905551 -0.0018951667582007435 0 -0.015839103841731136 -0.0015184475481839594 0 -0.015577018039905551 -0.0018951667582007435 0 -0.015648198478814782 -0.0023694984774728575 0 -0.016018697213418608 -0.0018584081875847088 0 -0.015458143799285614 -0.001543228972106079 0 -0.015577018039905551 -0.0018951667582007435 0 -0.015299508746991652 -0.0018801669488688149 0 -0.015577018039905551 -0.0018951667582007435 0 -0.015299508746991652 -0.0018801669488688149 0 -0.015363631068372038 -0.0021863291982529404 0 -0.015299508746991652 -0.0018801669488688149 0 -0.015363631068372038 -0.0021863291982529404 0 -0.01526855138583046 -0.0021519297865566474 0 -0.015299508746991652 -0.0018801669488688149 0 -0.014952024031663408 -0.0017807031492991481 0 -0.01526855138583046 -0.0021519297865566474 0 -0.015458143799285614 -0.001543228972106079 0 -0.015299508746991652 -0.0018801669488688149 0 -0.015055963077174396 -0.0013821475127801612 0 -0.01537619588553083 -0.0012248855509764548 0 -0.015458143799285614 -0.001543228972106079 0 -0.015055963077174396 -0.0013821475127801612 0 -0.015299508746991652 -0.0018801669488688149 0 -0.015055963077174396 -0.0013821475127801612 0 -0.014952024031663408 -0.0017807031492991481 0 -0.014526835161836796 -0.0012251190582249305 0 -0.014315364535359096 -0.0018577836323821464 0 -0.014952024031663408 -0.0017807031492991481 0 -0.014526835161836796 -0.0012251190582249305 0 -0.015055963077174396 -0.0013821475127801612 0 -0.014952024031663408 -0.0017807031492991481 0 -0.013731108303551532 -0.001317491253465745 0 -0.014526835161836796 -0.0012251190582249305 0 -0.014315364535359096 -0.0018577836323821464 0 -0.013728680979291388 -0.002067616007486753 0 -0.014315364535359096 -0.0018577836323821464 0 -0.014367820909019311 -0.0026134627627723349 0 -0.014315364535359096 -0.0018577836323821464 0 -0.014952024031663408 -0.0017807031492991481 0 -0.01491190175024807 -0.0021603020819050017 0 -0.014952024031663408 -0.0017807031492991481 0 -0.01491190175024807 -0.0021603020819050017 0 -0.01526855138583046 -0.0021519297865566474 0 -0.01491190175024807 -0.0021603020819050017 0 -0.01526855138583046 -0.0021519297865566474 0 -0.015432925497157997 -0.0023771272348262597 0 -0.015819988342990025 -0.0026015887326142854 0 -0.015447497893384803 -0.002425866069316396 0 -0.01491190175024807 -0.0021603020819050017 0 -0.014367820909019311 -0.0026134627627723349 0 -0.015432925497157997 -0.0023771272348262597 0 -0.014315364535359096 -0.0018577836323821464 0 -0.01491190175024807 -0.0021603020819050017 0 -0.014367820909019311 -0.0026134627627723349 0 -0.017260552422792019 -0.00099316745958694412 0 -0.018318572771688295 -0.0017166171372590881 0 -0.017288523933804884 -0.0026361623789322094 0 -0.015932836055632518 -0.0013654658703306482 0 -0.017260552422792019 -0.00099316745958694412 0 -0.017288523933804884 -0.0026361623789322094 0 -0.015932836055632518 -0.0013654658703306482 0 -0.017288523933804884 -0.0026361623789322094 0 -0.015432925497157997 -0.0023771272348262597 0 -0.015932836055632518 -0.0013654658703306482 0 -0.01505681903569835 -0.0016633760299053237 0 -0.015432925497157997 -0.0023771272348262597 0 -0.01505681903569835 -0.0016633760299053237 0 -0.015432925497157997 -0.0023771272348262597 0 -0.015275498236335491 -0.0021978936906332028 0 -0.01505681903569835 -0.0016633760299053237 0 -0.015174508816963642 -0.0022337912277934345 0 -0.015275498236335491 -0.0021978936906332028 0 -0.019175200530563544 -0.0006346115769855509 0 -0.019028942876821244 -0.00064347653454201767 0 -0.019032134151921835 -0.000816696270416919 0 -0.017175957469691566 -0.0011413851521064693 0 -0.01716759274269172 -0.0012803258870797665 0 -0.015577018039905551 -0.0018951667582007435 0 -0.015648198478814782 -0.0023694984774728575 0 -0.015363631068372038 -0.0021863291982529404 0 -0.01716759274269172 -0.0012803258870797665 0 -0.01568332285017696 -0.0016150137593446078 0 -0.015174508816963642 -0.0022337912277934345 0 -0.015363631068372038 -0.0021863291982529404 0 -0.015275498236335491 -0.0021978936906332028 0 -0.015363631068372038 -0.0021863291982529404 0 -0.01526855138583046 -0.0021519297865566474 0 -0.015275498236335491 -0.0021978936906332028 0 -0.01526855138583046 -0.0021519297865566474 0 -0.015432925497157997 -0.0023771272348262597 0 -0.015275498236335491 -0.0021978936906332028 0 -0.018305700330335878 -5.7127184197073091e-05 0 -0.018199921735490114 -5.4651483936494457e-05 0 -0.018265181850076698 2.7232858804132568e-05 0 -0.018305700330335878 -5.7127184197073091e-05 0 -0.018199921735490114 -5.4651483936494457e-05 0 -0.018225122886753761 -0.00016339037052449286 0 -0.018087952257282248 -8.4284433542253741e-05 0 -0.018199921735490114 -5.4651483936494457e-05 0 -0.018165589437160439 3.1595466976450792e-05 0 -0.018087952257282248 -8.4284433542253741e-05 0 -0.018199921735490114 -5.4651483936494457e-05 0 -0.018225122886753761 -0.00016339037052449286 0 -0.01716759274269172 -0.0012803258870797665 0 -0.018744546814919247 -0.00037938980741713082 0 -0.019028942876821244 -0.00064347653454201767 0 -0.019032134151921835 -0.000816696270416919 0 -0.018876396747764437 -0.00067393218315438133 0 -0.018512937048481379 -0.00037050601562719983 0 -0.018744546814919247 -0.00037938980741713082 0 -0.018305700330335878 -5.7127184197073091e-05 0 -0.018225122886753761 -0.00016339037052449286 0 -0.018393863403588881 -0.00012759941649640239 0 -0.01837002238611268 -0.00023926054249968472 0 -0.018225122886753761 -0.00016339037052449286 0 -0.018393863403588881 -0.00012759941649640239 0 -0.01837002238611268 -0.00023926054249968472 0 -0.018393863403588881 -0.00012759941649640239 0 -0.018530607936859241 -0.00017286543942891558 0 -0.018393863403588881 -0.00012759941649640239 0 -0.018530607936859241 -0.00017286543942891558 0 -0.018502549692680791 -9.9444399776408082e-05 0 -0.018393863403588881 -0.00012759941649640239 0 -0.018502549692680791 -9.9444399776408082e-05 0 -0.018395011611350563 -6.0990092279579754e-05 0 -0.018502549692680791 -9.9444399776408082e-05 0 -0.018447877459023678 -2.767079596731174e-05 0 -0.018586558303224417 -5.7014435560456341e-05 0 -0.018502549692680791 -9.9444399776408082e-05 0 -0.018447877459023678 -2.767079596731174e-05 0 -0.018395011611350563 -6.0990092279579754e-05 0 -0.018305700330335878 -5.7127184197073091e-05 0 -0.018393863403588881 -0.00012759941649640239 0 -0.018395011611350563 -6.0990092279579754e-05 0 -0.018447877459023678 -2.767079596731174e-05 0 -0.018395011611350563 -6.0990092279579754e-05 0 -0.018358980449863879 7.4721212200152461e-06 0 -0.018305700330335878 -5.7127184197073091e-05 0 -0.018395011611350563 -6.0990092279579754e-05 0 -0.018358980449863879 7.4721212200152461e-06 0 -0.018305700330335878 -5.7127184197073091e-05 0 -0.018358980449863879 7.4721212200152461e-06 0 -0.018265181850076698 2.7232858804132568e-05 0 -0.016200715873012986 -0.00049309095754752994 0 -0.016189670254793426 -0.00064038695741972017 0 -0.018358980449863879 7.4721212200152461e-06 0 -0.018428132733186577 3.8393674869952602e-05 0 -0.018328457779584723 9.0376294251255567e-05 0 -0.018358980449863879 7.4721212200152461e-06 0 -0.018328457779584723 9.0376294251255567e-05 0 -0.018265181850076698 2.7232858804132568e-05 0 -0.014231331669524927 -0.00048020885147213269 0 -0.014267457012827299 -0.00042115459794693375 0 -0.014329121922674052 -0.0004576009817070465 0 -0.018447877459023678 -2.767079596731174e-05 0 -0.018431328382294321 4.0637962297024973e-05 0 -0.018586558303224417 -5.7014435560456341e-05 0 -0.017754046864470446 1.1771925142604604e-06 0 -0.016200715873012986 -0.00049309095754752994 0 -0.018447877459023678 -2.767079596731174e-05 0 -0.018358980449863879 7.4721212200152461e-06 0 -0.018428132733186577 3.8393674869952602e-05 0 -0.016200715873012986 -0.00049309095754752994 0 -0.014151874364359397 -0.00080644178547813281 0 -0.014231331669524927 -0.00048020885147213269 0 -0.014217491619016302 -0.00037925235956902425 0 -0.014267457012827299 -0.00042115459794693375 0 -0.014217491619016302 -0.00037925235956902425 0 -0.014267457012827299 -0.00042115459794693375 0 -0.014278748328806906 -0.00033665087000798674 0 -0.014084043366137659 -0.0013830239844975724 0 -0.014000905097700344 -0.0013463621419215579 0 -0.014071398508283676 -0.0013051689832267303 0 -0.014139185434998638 -0.0013320449489901142 0 -0.014084043366137659 -0.0013830239844975724 0 -0.014071398508283676 -0.0013051689832267303 0 -0.014166622398334636 -0.0014197244313488054 0 -0.014139185434998638 -0.0013320449489901142 0 -0.014084043366137659 -0.0013830239844975724 0 -0.018328457779584723 9.0376294251255567e-05 0 -0.018230277104304617 0.00013835943202255272 0 -0.018265181850076698 2.7232858804132568e-05 0 -0.016189670254793426 -0.00064038695741972017 0 -0.016381656989857815 -0.00073609037972034404 0 -0.018199921735490114 -5.4651483936494457e-05 0 -0.018265181850076698 2.7232858804132568e-05 0 -0.018165589437160439 3.1595466976450792e-05 0 -0.018230277104304617 0.00013835943202255272 0 -0.018265181850076698 2.7232858804132568e-05 0 -0.018165589437160439 3.1595466976450792e-05 0 -0.01716759274269172 -0.0012803258870797665 0 -0.017167702334563113 -0.0008517912469098133 0 -0.015577018039905551 -0.0018951667582007435 0 -0.016018697213418608 -0.0018584081875847088 0 -0.015839103841731136 -0.0015184475481839594 0 -0.016338309730103254 -0.0013808158873635525 0 -0.015839103841731136 -0.0015184475481839594 0 -0.015992238193742122 -0.0011686203713814065 0 -0.016381656989857815 -0.00073609037972034404 0 -0.017167702334563113 -0.0008517912469098133 0 -0.016338309730103254 -0.0013808158873635525 0 -0.016018697213418608 -0.0018584081875847088 0 -0.015839103841731136 -0.0015184475481839594 0 -0.015658533816293049 -0.0012983199244061966 0 -0.015839103841731136 -0.0015184475481839594 0 -0.015992238193742122 -0.0011686203713814065 0 -0.013832176236766166 -0.0012560918561690456 0 -0.013916258502960147 -0.001305883499901299 0 -0.013978507266896716 -0.0012507771133111792 0 -0.013394779054702405 -0.0013326855878371075 0 -0.011588613521000749 -0.0020749302701721026 0 -0.016381656989857815 -0.00073609037972034404 0 -0.015003977704517784 -0.0012557123884283225 0 -0.013394779054702405 -0.0013326855878371075 0 -0.015003977704517784 -0.0012557123884283225 0 -0.013978507266896716 -0.0012507771133111792 0 -0.014030036752429502 -0.0012796603885572026 0 -0.01406917218102882 -0.0012531811172172423 0 -0.014000905097700344 -0.0013463621419215579 0 -0.013978507266896716 -0.0012507771133111792 0 -0.014030036752429502 -0.0012796603885572026 0 -0.014000905097700344 -0.0013463621419215579 0 -0.013916258502960147 -0.001305883499901299 0 -0.013978507266896716 -0.0012507771133111792 0 -0.014000905097700344 -0.0013463621419215579 0 -0.014030036752429502 -0.0012796603885572026 0 -0.014071398508283676 -0.0013051689832267303 0 -0.010161619226944436 -0.0026473477632566189 0 -0.0096764503671104684 -0.0021217576398687489 0 -0.010430205049561566 -0.0019655371169552327 0 -0.0092715294418856519 -0.0027295549392055553 0 -0.010161619226944436 -0.0026473477632566189 0 -0.0096764503671104684 -0.0021217576398687489 0 -0.0092102038417417164 -0.0017632139606543586 0 -0.0096764503671104684 -0.0021217576398687489 0 -0.0099374402494030404 -0.0014212329615494136 0 -0.010430205049561566 -0.0019655371169552327 0 -0.0099374402494030404 -0.0014212329615494136 0 -0.010555696827982434 -0.0012825314723727476 0 -0.0096764503671104684 -0.0021217576398687489 0 -0.010430205049561566 -0.0019655371169552327 0 -0.0099374402494030404 -0.0014212329615494136 0 -0.0099374402494030404 -0.0014212329615494136 0 -0.010555696827982434 -0.0012825314723727476 0 -0.010312399586060261 -0.00070809610579415194 0 -0.0093703010812151225 -0.0012329776642667216 0 -0.0099374402494030404 -0.0014212329615494136 0 -0.0096691425443245181 -0.00061512796797701076 0 -0.0093703010812151225 -0.0012329776642667216 0 -0.0092102038417417164 -0.0017632139606543586 0 -0.0099374402494030404 -0.0014212329615494136 0 -0.011406469120960919 -0.00083325550030615315 0 -0.011079461806025875 -0.0012712466357721979 0 -0.011003946294616323 -0.0006776442049208942 0 -0.010947408715846558 -0.0016127595436551422 0 -0.011045217410814654 -0.0006660849955820498 0 -0.010555696827982434 -0.0012825314723727476 0 -0.011003946294616323 -0.0006776442049208942 0 -0.010312399586060261 -0.00070809610579415194 0 -0.010555696827982434 -0.0012825314723727476 0 -0.011129282835712366 -0.00165121848083593 0 -0.011003946294616323 -0.0006776442049208942 0 -0.010430205049561566 -0.0019655371169552327 0 -0.010555696827982434 -0.0012825314723727476 0 -0.011129282835712366 -0.00165121848083593 0 -0.010430205049561566 -0.0019655371169552327 0 -0.011129282835712366 -0.00165121848083593 0 -0.0110875009033934 -0.0025699454139900845 0 -0.011406469120960919 -0.00083325550030615315 0 -0.011079461806025875 -0.0012712466357721979 0 -0.011572759224099618 -0.0013932623416004115 0 -0.011079461806025875 -0.0012712466357721979 0 -0.011362183404134711 -0.0016021858539040084 0 -0.011572759224099618 -0.0013932623416004115 0 -0.011362183404134711 -0.0016021858539040084 0 -0.011152508705784292 -0.0019264149497468313 0 -0.011613697070353337 -0.0018171008676676616 0 -0.012697344607089132 -0.001470314331283965 0 -0.012965934719369101 -0.0010416343783955803 0 -0.011079461806025875 -0.0012712466357721979 0 -0.011362183404134711 -0.0016021858539040084 0 -0.011152508705784292 -0.0019264149497468313 0 -0.010947408715846558 -0.0016127595436551422 0 -0.012697344607089132 -0.001470314331283965 0 -0.011129282835712366 -0.00165121848083593 0 -0.011209665297835668 -0.0025596131307422344 0 -0.0110875009033934 -0.0025699454139900845 0 -0.012697344607089132 -0.001470314331283965 0 -0.013027054659179421 -0.0015696687387202488 0 -0.013978507266896716 -0.0012507771133111792 0 -0.014099803237963789 -0.0012491104831704708 0 -0.01406917218102882 -0.0012531811172172423 0 -0.010161619226944436 -0.0026473477632566189 0 -0.010430205049561566 -0.0019655371169552327 0 -0.0110875009033934 -0.0025699454139900845 0 -0.011588613521000749 -0.0020749302701721026 0 -0.013027054659179421 -0.0015696687387202488 0 -0.013027054659179421 -0.0015696687387202488 0 -0.013891391989228547 -0.0013550746329234976 0 -0.014139185434998638 -0.0013320449489901142 0 -0.014099871315759563 -0.0012461990057103143 0 -0.014071398508283676 -0.0013051689832267303 0 -0.014030036752429502 -0.0012796603885572026 0 -0.01406917218102882 -0.0012531811172172423 0 -0.014071398508283676 -0.0013051689832267303 0 -0.014099871315759563 -0.0012461990057103143 0 -0.01406917218102882 -0.0012531811172172423 0 -0.014071398508283676 -0.0013051689832267303 0 -0.014139185434998638 -0.0013320449489901142 0 -0.014113870326165271 -0.0012449996039475796 0 -0.014099871315759563 -0.0012461990057103143 0 -0.014217491619016302 -0.00037925235956902425 0 -0.014201015857388321 -0.00029142010814659636 0 -0.014278748328806906 -0.00033665087000798674 0 -0.014201015857388321 -0.00029142010814659636 0 -0.014278748328806906 -0.00033665087000798674 0 -0.014285762991466971 -0.0002686397794818141 0 -0.014151874364359397 -0.00080644178547813281 0 -0.012697344607089132 -0.001470314331283965 0 -0.014278748328806906 -0.00033665087000798674 0 -0.014360441272900343 -0.00034475044600926929 0 -0.01431991221838361 -0.00039342610993011259 0 -0.014278748328806906 -0.00033665087000798674 0 -0.014340976535890318 -0.00029713501601226028 0 -0.014360441272900343 -0.00034475044600926929 0 -0.014278748328806906 -0.00033665087000798674 0 -0.014340976535890318 -0.00029713501601226028 0 -0.014285762991466971 -0.0002686397794818141 0 -0.014360441272900343 -0.00034475044600926929 0 -0.014391165597127336 -0.00031092041805828321 0 -0.014424263183514578 -0.00034258098574423699 0 -0.014331524101312157 -0.00021219957738158755 0 -0.014416568326818138 -0.00033484523543575299 0 -0.014340976535890318 -0.00029713501601226028 0 -0.014360441272900343 -0.00034475044600926929 0 -0.014391165597127336 -0.00031092041805828321 0 -0.013176713107478179 -0.00072783019430595626 0 -0.013611803349508005 -0.00029468029567449792 0 -0.014363042705029513 -0.00011813793718469466 0 -0.014368107485299198 -6.3380787415767605e-05 0 -0.014439266556041391 -8.6441709469427198e-05 0 -0.014331524101312157 -0.00021219957738158755 0 -0.013176713107478179 -0.00072783019430595626 0 -0.014340976535890318 -0.00029713501601226028 0 -0.014391165597127336 -0.00031092041805828321 0 -0.014362693377583264 -0.00025351364462726544 0 -0.013176713107478179 -0.00072783019430595626 0 -0.012965934719369101 -0.0010416343783955803 0 -0.012085525962378049 -0.0017177666568385301 0 -0.011613697070353337 -0.0018171008676676616 0 -0.011572759224099618 -0.0013932623416004115 0 -0.014340976535890318 -0.00029713501601226028 0 -0.014362693377583264 -0.00025351364462726544 0 -0.014285762991466971 -0.0002686397794818141 0 -0.011362183404134711 -0.0016021858539040084 0 -0.011613697070353337 -0.0018171008676676616 0 -0.011572759224099618 -0.0013932623416004115 0 -0.012085525962378049 -0.0017177666568385301 0 -0.011572759224099618 -0.0013932623416004115 0 -0.011874036634004008 -0.0010868443804253728 0 -0.013176713107478179 -0.00072783019430595626 0 -0.011839754037317565 -0.00072017611958043388 0 -0.012242656727109865 -0.00064075723532375217 0 -0.012337029208846504 -0.0002826960506243801 0 -0.012709639906281519 -0.00057521996367057376 0 -0.012242656727109865 -0.00064075723532375217 0 -0.012337029208846504 -0.0002826960506243801 0 -0.012068471678794138 -0.00023971721697858871 0 -0.012337029208846504 -0.0002826960506243801 0 -0.012068471678794138 -0.00023971721697858871 0 -0.012006554126695971 -0.00020030732457333698 0 -0.012337029208846504 -0.0002826960506243801 0 -0.012265583783647439 -5.8829403286066944e-05 0 -0.012006554126695971 -0.00020030732457333698 0 -0.011406469120960919 -0.00083325550030615315 0 -0.011874036634004008 -0.0010868443804253728 0 -0.011652179442933902 -0.00031328675772908604 0 -0.011839754037317565 -0.00072017611958043388 0 -0.011712650846516457 -0.00027993517692954017 0 -0.012068471678794138 -0.00023971721697858871 0 -0.011652179442933902 -0.00031328675772908604 0 -0.012006554126695971 -0.00020030732457333698 0 -0.011406469120960919 -0.00083325550030615315 0 -0.011572759224099618 -0.0013932623416004115 0 -0.011874036634004008 -0.0010868443804253728 0 -0.013132920647411429 1.2169611316555547e-07 0 -0.012814535714699132 -3.5965037174239637e-05 0 -0.012406196570565083 5.9031114898816215e-05 0 -0.012814535714699132 -3.5965037174239637e-05 0 -0.012265583783647439 -5.8829403286066944e-05 0 -0.012406196570565083 5.9031114898816215e-05 0 -0.012337029208846504 -0.0002826960506243801 0 -0.012814535714699132 -3.5965037174239637e-05 0 -0.012265583783647439 -5.8829403286066944e-05 0 -0.012337029208846504 -0.0002826960506243801 0 -0.012814535714699132 -3.5965037174239637e-05 0 -0.012709639906281519 -0.00057521996367057376 0 -0.012814535714699132 -3.5965037174239637e-05 0 -0.013830418830586347 -0.00014903127815695617 0 -0.012709639906281519 -0.00057521996367057376 0 -0.013132920647411429 1.2169611316555547e-07 0 -0.012814535714699132 -3.5965037174239637e-05 0 -0.013830418830586347 -0.00014903127815695617 0 -0.013132920647411429 1.2169611316555547e-07 0 -0.013830418830586347 -0.00014903127815695617 0 -0.014488113172050713 -4.1263542479068841e-07 0 -0.013830418830586347 -0.00014903127815695617 0 -0.014444250713740293 2.5355432199868559e-05 0 -0.014488113172050713 -4.1263542479068841e-07 0 -0.014444250713740293 2.5355432199868559e-05 0 -0.014488113172050713 -4.1263542479068841e-07 0 -0.014913777216111626 -4.4093806406407327e-05 0 -0.014444250713740293 2.5355432199868559e-05 0 -0.014451880966818027 -7.4824781919892076e-05 0 -0.014439266556041391 -8.6441709469427198e-05 0 -0.013830418830586347 -0.00014903127815695617 0 -0.014444250713740293 2.5355432199868559e-05 0 -0.014451880966818027 -7.4824781919892076e-05 0 -0.014368107485299198 -6.3380787415767605e-05 0 -0.014451880966818027 -7.4824781919892076e-05 0 -0.014439266556041391 -8.6441709469427198e-05 0 -0.013782891281719748 -0.00020098192483160936 0 -0.013611803349508005 -0.00029468029567449792 0 -0.014363042705029513 -0.00011813793718469466 0 -0.014439266556041391 -8.6441709469427198e-05 0 -0.014424263183514578 -0.00034258098574423699 0 -0.014439266556041391 -8.6441709469427198e-05 0 -0.014536042249781323 -0.00020959674722390901 0 -0.014424263183514578 -0.00034258098574423699 0 -0.014444250713740293 2.5355432199868559e-05 0 -0.014439266556041391 -8.6441709469427198e-05 0 -0.014536042249781323 -0.00020959674722390901 0 -0.014488113172050713 -4.1263542479068841e-07 0 -0.014913777216111626 -4.4093806406407327e-05 0 -0.015843928064103802 -1.9979821143131892e-07 0 -0.014536042249781323 -0.00020959674722390901 0 -0.014913777216111626 -4.4093806406407327e-05 0 -0.014650862471458163 -0.00041651406627091182 0 -0.01508927701686469 -4.8566803515586479e-06 0 -0.015549596768479904 -0.00014143992924418029 0 -0.014444250713740293 2.5355432199868559e-05 0 -0.014536042249781323 -0.00020959674722390901 0 -0.014913777216111626 -4.4093806406407327e-05 0 -0.014913777216111626 -4.4093806406407327e-05 0 -0.015843928064103802 -1.9979821143131892e-07 0 -0.01644424147167383 -4.6673130593486707e-05 0 -0.015843928064103802 -1.9979821143131892e-07 0 -0.01644424147167383 -4.6673130593486707e-05 0 -0.01685682379579637 -8.2819411551507843e-06 0 -0.015549596768479904 -0.00014143992924418029 0 -0.016024596484517227 -0.00024473578604308505 0 -0.01644424147167383 -4.6673130593486707e-05 0 -0.01685682379579637 -8.2819411551507843e-06 0 -0.017564454545830433 -5.2264645600654825e-06 0 -0.01685682379579637 -8.2819411551507843e-06 0 -0.017564454545830433 -5.2264645600654825e-06 0 -0.017198741644639665 2.3180566286222238e-08 0 -0.015843928064103802 -1.9979821143131892e-07 0 -0.01685682379579637 -8.2819411551507843e-06 0 -0.017198741644639665 2.3180566286222238e-08 0 -0.014650862471458163 -0.00041651406627091182 0 -0.014572276373279073 -0.00054764181064817833 0 -0.01451415744989977 -0.0004571443609800096 0 -0.014572276373279073 -0.00054764181064817833 0 -0.01451415744989977 -0.0004571443609800096 0 -0.014483095790918095 -0.00056099349955329671 0 -0.01451415744989977 -0.0004571443609800096 0 -0.014527581336818498 -0.00035555433390081965 0 -0.014424263183514578 -0.00034258098574423699 0 -0.014650862471458163 -0.00041651406627091182 0 -0.01451415744989977 -0.0004571443609800096 0 -0.014527581336818498 -0.00035555433390081965 0 -0.014536042249781323 -0.00020959674722390901 0 -0.014650862471458163 -0.00041651406627091182 0 -0.014527581336818498 -0.00035555433390081965 0 -0.014536042249781323 -0.00020959674722390901 0 -0.014527581336818498 -0.00035555433390081965 0 -0.014424263183514578 -0.00034258098574423699 0 -0.014424263183514578 -0.00034258098574423699 0 -0.014376993548190204 -0.00040315255688516064 0 -0.014420990587540596 -0.00047578718993812152 0 -0.01451415744989977 -0.0004571443609800096 0 -0.014424263183514578 -0.00034258098574423699 0 -0.014420990587540596 -0.00047578718993812152 0 -0.014360441272900343 -0.00034475044600926929 0 -0.014424263183514578 -0.00034258098574423699 0 -0.014376993548190204 -0.00040315255688516064 0 -0.014267457012827299 -0.00042115459794693375 0 -0.014278748328806906 -0.00033665087000798674 0 -0.01431991221838361 -0.00039342610993011259 0 -0.014360441272900343 -0.00034475044600926929 0 -0.014376993548190204 -0.00040315255688516064 0 -0.01431991221838361 -0.00039342610993011259 0 -0.014376993548190204 -0.00040315255688516064 0 -0.01431991221838361 -0.00039342610993011259 0 -0.014329121922674052 -0.0004576009817070465 0 -0.014267457012827299 -0.00042115459794693375 0 -0.01431991221838361 -0.00039342610993011259 0 -0.014329121922674052 -0.0004576009817070465 0 -0.014329121922674052 -0.0004576009817070465 0 -0.014420990587540596 -0.00047578718993812152 0 -0.014370156221741714 -0.00057939355152683894 0 -0.016200715873012986 -0.00049309095754752994 0 -0.016415944246017399 -0.00028716736610515418 0 -0.014231331669524927 -0.00048020885147213269 0 -0.014329121922674052 -0.0004576009817070465 0 -0.014370156221741714 -0.00057939355152683894 0 -0.014376993548190204 -0.00040315255688516064 0 -0.014329121922674052 -0.0004576009817070465 0 -0.014420990587540596 -0.00047578718993812152 0 -0.014420990587540596 -0.00047578718993812152 0 -0.014483095790918095 -0.00056099349955329671 0 -0.014370156221741714 -0.00057939355152683894 0 -0.01451415744989977 -0.0004571443609800096 0 -0.014420990587540596 -0.00047578718993812152 0 -0.014483095790918095 -0.00056099349955329671 0 -0.016415944246017399 -0.00028716736610515418 0 -0.01702140155350635 -0.00025457476010637365 0 -0.014483095790918095 -0.00056099349955329671 0 -0.014370156221741714 -0.00057939355152683894 0 -0.014546441824063155 -0.00068371813117345105 0 -0.018530607936859241 -0.00017286543942891558 0 -0.018502549692680791 -9.9444399776408082e-05 0 -0.018614143383379599 -0.00013933790883191612 0 -0.018502549692680791 -9.9444399776408082e-05 0 -0.018586558303224417 -5.7014435560456341e-05 0 -0.018614143383379599 -0.00013933790883191612 0 -0.018586558303224417 -5.7014435560456341e-05 0 -0.018614143383379599 -0.00013933790883191612 0 -0.018649452551798697 -0.00012305876902843468 0 -0.018669656520847049 -0.00013184012931639438 0 -0.018396092520200084 0.00014717609395339208 0 -0.018382365542603887 0.0001542816429360207 0 -0.018841527498254448 7.4393127844000147e-05 0 -0.018396092520200084 0.00014717609395339208 0 -0.01840322747121341 8.2537381063275606e-05 0 -0.017138504897196673 -0.00028679092986840763 0 -0.01702140155350635 -0.00025457476010637365 0 -0.018396092520200084 0.00014717609395339208 0 -0.018134113315209678 9.0023014053896463e-05 0 -0.01840322747121341 8.2537381063275606e-05 0 -0.018396092520200084 0.00014717609395339208 0 -0.018410738874832262 0.00012212588996329623 0 -0.018134113315209678 9.0023014053896463e-05 0 -0.018841527498254448 7.4393127844000147e-05 0 -0.01840322747121341 8.2537381063275606e-05 0 -0.018554269898373912 6.517147780764069e-07 0 -0.01840322747121341 8.2537381063275606e-05 0 -0.018554269898373912 6.517147780764069e-07 0 -0.017932050847151382 6.8650308449496876e-05 0 -0.018134113315209678 9.0023014053896463e-05 0 -0.01840322747121341 8.2537381063275606e-05 0 -0.017932050847151382 6.8650308449496876e-05 0 -0.017564454545830433 -5.2264645600654825e-06 0 -0.018134113315209678 9.0023014053896463e-05 0 -0.017932050847151382 6.8650308449496876e-05 0 -0.018554269898373912 6.517147780764069e-07 0 -0.017932050847151382 6.8650308449496876e-05 0 -0.017198741644639665 2.3180566286222238e-08 0 -0.017564454545830433 -5.2264645600654825e-06 0 -0.017932050847151382 6.8650308449496876e-05 0 -0.017198741644639665 2.3180566286222238e-08 0 -0.017564454545830433 -5.2264645600654825e-06 0 -0.018410738874832262 0.00012212588996329623 0 -0.018134113315209678 9.0023014053896463e-05 0 -0.014572276373279073 -0.00054764181064817833 0 -0.014483095790918095 -0.00056099349955329671 0 -0.014546441824063155 -0.00068371813117345105 0 -0.016024596484517227 -0.00024473578604308505 0 -0.01702140155350635 -0.00025457476010637365 0 -0.0095174618514277665 -0.0011914649931992628 0 -0.0090270579859523907 -0.00079059102317418121 0 -0.0095751144048593691 -0.00047589954184219525 0 -0.0095174618514277665 -0.0011914649931992628 0 -0.009950022421569938 -0.00074753069183560079 0 -0.0095751144048593691 -0.00047589954184219525 0 -0.0082599756178368781 4.0962630227999912e-06 0 -0.0080820846074669619 -0.00036001302950553843 0 -0.006674812905248512 3.2425479145333668e-05 0 -0.0065420351260693805 8.1735997893033589e-06 0 -0.0070866193956744122 -8.555225298437135e-05 0 -0.0075233724525190955 1.6103875144158494e-06 0 -0.0082599756178368781 4.0962630227999912e-06 0 -0.0070866193956744122 -8.555225298437135e-05 0 -0.0071230916064546927 3.360069120546067e-07 0 -0.0081636261226086214 -6.7677251253618429e-07 0 -0.0070866193956744122 -8.555225298437135e-05 0 -0.0071230916064546927 3.360069120546067e-07 0 -0.0068594946193947307 1.226155225638422e-05 0 -0.006674812905248512 3.2425479145333668e-05 0 -0.0070866193956744122 -8.555225298437135e-05 0 -0.0068594946193947307 1.226155225638422e-05 0 -0.0071230916064546927 3.360069120546067e-07 0 -0.0065744743146664278 7.3510471470691243e-05 0 -0.0060848604888230646 6.4815631062777093e-08 0 -0.0065744743146664278 7.3510471470691243e-05 0 -0.0064994903010333026 7.8254655777899529e-06 0 -0.0060848604888230646 6.4815631062777093e-08 0 -0.006674812905248512 3.2425479145333668e-05 0 -0.0065744743146664278 7.3510471470691243e-05 0 -0.0064994903010333026 7.8254655777899529e-06 0 -0.006674812905248512 3.2425479145333668e-05 0 -0.0068594946193947307 1.226155225638422e-05 0 -0.0065744743146664278 7.3510471470691243e-05 0 -0.0071230916064546927 3.360069120546067e-07 0 -0.0068594946193947307 1.226155225638422e-05 0 -0.0065744743146664278 7.3510471470691243e-05 0 -0.006674812905248512 3.2425479145333668e-05 0 -0.0066195509734776814 1.8550511468277999e-05 0 -0.0064994903010333026 7.8254655777899529e-06 0 -0.0066195509734776814 1.8550511468277999e-05 0 -0.006403145242996836 -3.0825360662695486e-05 0 -0.0064994903010333026 7.8254655777899529e-06 0 -0.0092112975243586834 0.00057652935249941767 0 -0.0088036948122239417 0.00057791803818144408 0 -0.0088016552570080748 0.0010260887144986788 0 -0.0082599756178368781 4.0962630227999912e-06 0 -0.0075225974728268469 0.00057169824768215163 0 -0.0084658444457785392 0.00092089702145707684 0 -0.0088036948122239417 0.00057791803818144408 0 -0.0088016552570080748 0.0010260887144986788 0 -0.0084658444457785392 0.00092089702145707684 0 -0.00838136346318007 0.00057254393248937338 0 -0.0088036948122239417 0.00057791803818144408 0 -0.010909003820328302 0.0012406739483169344 0 -0.010778088022456458 0.00079646654462960293 0 -0.010885090288107614 0.0012478082774354067 0 -0.010778088022456458 0.00079646654462960293 0 -0.010690683131638156 0.00060111880563817627 0 -0.010885090288107614 0.0012478082774354067 0 -0.010690683131638156 0.00060111880563817627 0 -0.010522972132710539 0.0010516528495628154 0 -0.010640509780751978 0.0014589510199176643 0 -0.011080828180447862 -0.0010910497438428057 0 -0.010683873137664852 -0.00082777030886074885 0 -0.010840290633160474 -0.0004432155627396806 0 -0.010919629812607605 0.00068928806089552238 0 -0.010064110621578172 0.0011302591324777523 0 -0.011080828180447862 -0.0010910497438428057 0 -0.010683873137664852 -0.00082777030886074885 0 -0.010324684136350388 -0.0011232778373333494 0 -0.0096086479732132562 0.00056300335177724662 0 -0.010882909082964149 4.414043368883082e-05 0 -0.0096086479732132562 0.00056300335177724662 0 -0.0097891423457873057 -0.00033329156617747187 0 -0.010683873137664852 -0.00082777030886074885 0 -0.010380482253935864 -0.00060332251691588065 0 -0.010840290633160474 -0.0004432155627396806 0 -0.0082599756178368781 4.0962630227999912e-06 0 -0.0097891423457873057 -0.00033329156617747187 0 -0.0095174618514277665 -0.0011914649931992628 0 -0.010324684136350388 -0.0011232778373333494 0 -0.009950022421569938 -0.00074753069183560079 0 -0.010683873137664852 -0.00082777030886074885 0 -0.010324684136350388 -0.0011232778373333494 0 -0.010380482253935864 -0.00060332251691588065 0 -0.010324684136350388 -0.0011232778373333494 0 -0.010380482253935864 -0.00060332251691588065 0 -0.009950022421569938 -0.00074753069183560079 0 -0.010380482253935864 -0.00060332251691588065 0 -0.009950022421569938 -0.00074753069183560079 0 -0.010039540511163358 -0.00026780953766384805 0 -0.010380482253935864 -0.00060332251691588065 0 -0.010039540511163358 -0.00026780953766384805 0 -0.010365794828836797 -0.0001722310122474313 0 -0.010039540511163358 -0.00026780953766384805 0 -0.010109191719180111 0.00010634126423659731 0 -0.0097259374078496469 0.00010129275118246143 0 -0.010039540511163358 -0.00026780953766384805 0 -0.010365794828836797 -0.0001722310122474313 0 -0.010109191719180111 0.00010634126423659731 0 -0.010882909082964149 4.414043368883082e-05 0 -0.010570027918148326 0.00039484754416398865 0 -0.010778088022456458 0.00079646654462960293 0 -0.010690683131638156 0.00060111880563817627 0 -0.010541559191956979 0.00030965411450354827 0 -0.010365794828836797 -0.0001722310122474313 0 -0.010840290633160474 -0.0004432155627396806 0 -0.010541559191956979 0.00030965411450354827 0 -0.010690683131638156 0.00060111880563817627 0 -0.010548019070844418 0.00072455770336201893 0 -0.010522972132710539 0.0010516528495628154 0 -0.010380482253935864 -0.00060332251691588065 0 -0.010365794828836797 -0.0001722310122474313 0 -0.010840290633160474 -0.0004432155627396806 0 -0.010690683131638156 0.00060111880563817627 0 -0.010618212207016458 0.00049980095333699431 0 -0.010548019070844418 0.00072455770336201893 0 -0.010618212207016458 0.00049980095333699431 0 -0.010541559191956979 0.00030965411450354827 0 -0.010723065895243161 0.00047513397243609132 0 -0.010690683131638156 0.00060111880563817627 0 -0.010618212207016458 0.00049980095333699431 0 -0.010541559191956979 0.00030965411450354827 0 -0.010109191719180111 0.00010634126423659731 0 -0.0101140114340862 0.00032572200954397718 0 -0.0097259374078496469 0.00010129275118246143 0 -0.010541559191956979 0.00030965411450354827 0 -0.010109191719180111 0.00010634126423659731 0 -0.0101140114340862 0.00032572200954397718 0 -0.010365794828836797 -0.0001722310122474313 0 -0.010541559191956979 0.00030965411450354827 0 -0.010109191719180111 0.00010634126423659731 0 -0.0097259374078496469 0.00010129275118246143 0 -0.0093146776730394822 9.8044782958729777e-05 0 -0.009925810712242961 0.00029415400806331892 0 -0.0101140114340862 0.00032572200954397718 0 -0.0097259374078496469 0.00010129275118246143 0 -0.009925810712242961 0.00029415400806331892 0 -0.0097259374078496469 0.00010129275118246143 0 -0.0092168091056784914 -0.00013016575293989968 0 -0.0093146776730394822 9.8044782958729777e-05 0 -0.0097259374078496469 0.00010129275118246143 0 -0.0095751144048593691 -0.00047589954184219525 0 -0.0092168091056784914 -0.00013016575293989968 0 -0.010039540511163358 -0.00026780953766384805 0 -0.0097259374078496469 0.00010129275118246143 0 -0.0095751144048593691 -0.00047589954184219525 0 -0.009950022421569938 -0.00074753069183560079 0 -0.010039540511163358 -0.00026780953766384805 0 -0.0095751144048593691 -0.00047589954184219525 0 -0.0080820846074669619 -0.00036001302950553843 0 -0.0081642298734458524 -7.9092997097721603e-08 0 -0.0090270579859523907 -0.00079059102317418121 0 -0.0095751144048593691 -0.00047589954184219525 0 -0.0092168091056784914 -0.00013016575293989968 0 -0.0090270579859523907 -0.00079059102317418121 0 -0.0081664928631247861 -1.2453345889709114e-06 0 -0.0092168091056784914 -0.00013016575293989968 0 -0.0081664928631247861 -1.2453345889709114e-06 0 -0.0092168091056784914 -0.00013016575293989968 0 -0.0093146776730394822 9.8044782958729777e-05 0 -0.0081664928631247861 -1.2453345889709114e-06 0 -0.0093690613462660017 7.5174004385996262e-07 0 -0.0093146776730394822 9.8044782958729777e-05 0 -0.0093690613462660017 7.5174004385996262e-07 0 -0.0093146776730394822 9.8044782958729777e-05 0 -0.009925810712242961 0.00029415400806331892 0 -0.0093690613462660017 7.5174004385996262e-07 0 -0.009925810712242961 0.00029415400806331892 0 -0.01057412778050627 5.9683983112599849e-07 0 -0.009925810712242961 0.00029415400806331892 0 -0.010232929435765412 7.6355404214034948e-05 0 -0.010233431263853971 0.00044824696950905183 0 -0.009925810712242961 0.00029415400806331892 0 -0.01057412778050627 5.9683983112599849e-07 0 -0.010232929435765412 7.6355404214034948e-05 0 -0.01057412778050627 5.9683983112599849e-07 0 -0.010232929435765412 7.6355404214034948e-05 0 -0.011776472767815639 -8.0753361862190798e-07 0 -0.012222885383521618 -1.9121531610638426e-05 0 -0.012406196570565083 5.9031114898816215e-05 0 -0.011780626674475018 -1.257719274633095e-07 0 -0.011225238615530177 7.7796872717534143e-05 0 -0.011778153247251361 7.4766422238341497e-08 0 -0.012222885383521618 -1.9121531610638426e-05 0 -0.012265583783647439 -5.8829403286066944e-05 0 -0.012406196570565083 5.9031114898816215e-05 0 -0.013132920647411429 1.2169611316555547e-07 0 -0.012406196570565083 5.9031114898816215e-05 0 -0.011780626674475018 -1.257719274633095e-07 0 -0.011652179442933902 -0.00031328675772908604 0 -0.012006554126695971 -0.00020030732457333698 0 -0.011821071980681963 -0.00011275202893670036 0 -0.012265583783647439 -5.8829403286066944e-05 0 -0.012006554126695971 -0.00020030732457333698 0 -0.011821071980681963 -0.00011275202893670036 0 -0.012222885383521618 -1.9121531610638426e-05 0 -0.012265583783647439 -5.8829403286066944e-05 0 -0.011821071980681963 -0.00011275202893670036 0 -0.011652179442933902 -0.00031328675772908604 0 -0.011821071980681963 -0.00011275202893670036 0 -0.01134570818314944 -0.00015707958739145348 0 -0.011821071980681963 -0.00011275202893670036 0 -0.01134570818314944 -0.00015707958739145348 0 -0.011190403670018991 0.00011625758560973057 0 -0.011652179442933902 -0.00031328675772908604 0 -0.01134570818314944 -0.00015707958739145348 0 -0.011291805018066522 -0.00036962151062370119 0 -0.011821071980681963 -0.00011275202893670036 0 -0.011190403670018991 0.00011625758560973057 0 -0.011680163126015409 0.00031306370533659407 0 -0.012222885383521618 -1.9121531610638426e-05 0 -0.011821071980681963 -0.00011275202893670036 0 -0.011680163126015409 0.00031306370533659407 0 -0.011225238615530177 7.7796872717534143e-05 0 -0.010973787728117043 0.00034070319593595218 0 -0.0101140114340862 0.00032572200954397718 0 -0.009925810712242961 0.00029415400806331892 0 -0.010233431263853971 0.00044824696950905183 0 -0.010541559191956979 0.00030965411450354827 0 -0.0101140114340862 0.00032572200954397718 0 -0.010233431263853971 0.00044824696950905183 0 -0.010541559191956979 0.00030965411450354827 0 -0.010233431263853971 0.00044824696950905183 0 -0.010723065895243161 0.00047513397243609132 0 -0.011190403670018991 0.00011625758560973057 0 -0.011680163126015409 0.00031306370533659407 0 -0.010723065895243161 0.00047513397243609132 0 -0.010973787728117043 0.00034070319593595218 0 -0.010768029702713074 0.00046182898900819382 0 -0.011190403670018991 0.00011625758560973057 0 -0.010618820361397592 0.00024561930338708919 0 -0.010723065895243161 0.00047513397243609132 0 -0.010618820361397592 0.00024561930338708919 0 -0.010232746574758735 0.00032552427828478047 0 -0.010723065895243161 0.00047513397243609132 0 -0.010618820361397592 0.00024561930338708919 0 -0.010232746574758735 0.00032552427828478047 0 -0.010271703775728898 0.00017912208737047417 0 -0.010618820361397592 0.00024561930338708919 0 -0.010271703775728898 0.00017912208737047417 0 -0.01072784229552118 -9.7695532994647311e-05 0 -0.010537869556131693 0.00070802529187348245 0 -0.010957849858907269 0.00011595368790521394 0 -0.010472015916222351 0.00020831886265899432 0 -0.010436934448365119 0.00045282619967454136 0 -0.010839718272962109 2.276881547063227e-05 0 -0.011190403670018991 0.00011625758560973057 0 -0.010618820361397592 0.00024561930338708919 0 -0.01072784229552118 -9.7695532994647311e-05 0 -0.01134570818314944 -0.00015707958739145348 0 -0.01072784229552118 -9.7695532994647311e-05 0 -0.011291805018066522 -0.00036962151062370119 0 -0.01134570818314944 -0.00015707958739145348 0 -0.011190403670018991 0.00011625758560973057 0 -0.01072784229552118 -9.7695532994647311e-05 0 -0.010957849858907269 0.00011595368790521394 0 -0.010954791678382604 -0.00029049591100758501 0 -0.011291805018066522 -0.00036962151062370119 0 -0.010839718272962109 2.276881547063227e-05 0 -0.011224501999347379 -0.00033813991452270268 0 -0.010957849858907269 0.00011595368790521394 0 -0.010555223862826401 -0.00023536725806076161 0 -0.010472015916222351 0.00020831886265899432 0 -0.010957849858907269 0.00011595368790521394 0 -0.010555223862826401 -0.00023536725806076161 0 -0.010954791678382604 -0.00029049591100758501 0 -0.010555223862826401 -0.00023536725806076161 0 -0.011003946294616323 -0.0006776442049208942 0 -0.010312399586060261 -0.00070809610579415194 0 -0.010555223862826401 -0.00023536725806076161 0 -0.010954791678382604 -0.00029049591100758501 0 -0.011003946294616323 -0.0006776442049208942 0 -0.011406469120960919 -0.00083325550030615315 0 -0.011003946294616323 -0.0006776442049208942 0 -0.011291805018066522 -0.00036962151062370119 0 -0.011406469120960919 -0.00083325550030615315 0 -0.011652179442933902 -0.00031328675772908604 0 -0.011291805018066522 -0.00036962151062370119 0 -0.010954791678382604 -0.00029049591100758501 0 -0.011003946294616323 -0.0006776442049208942 0 -0.011291805018066522 -0.00036962151062370119 0 -0.0099374402494030404 -0.0014212329615494136 0 -0.0096691425443245181 -0.00061512796797701076 0 -0.010312399586060261 -0.00070809610579415194 0 -0.0096691425443245181 -0.00061512796797701076 0 -0.010312399586060261 -0.00070809610579415194 0 -0.010064960342998074 -8.8765892423709104e-05 0 -0.010555223862826401 -0.00023536725806076161 0 -0.010312399586060261 -0.00070809610579415194 0 -0.010064960342998074 -8.8765892423709104e-05 0 -0.010555223862826401 -0.00023536725806076161 0 -0.010064960342998074 -8.8765892423709104e-05 0 -0.010472015916222351 0.00020831886265899432 0 -0.0096691425443245181 -0.00061512796797701076 0 -0.010064960342998074 -8.8765892423709104e-05 0 -0.0096031008050083012 0.00020021560546775304 0 -0.0096691425443245181 -0.00061512796797701076 0 -0.0096031008050083012 0.00020021560546775304 0 -0.0090983903694397596 -3.0010175686806265e-05 0 -0.0096031008050083012 0.00020021560546775304 0 -0.0098955881698361212 0.00063746431196117837 0 -0.0091731381350076066 0.00068519541620240185 0 -0.010064960342998074 -8.8765892423709104e-05 0 -0.0096031008050083012 0.00020021560546775304 0 -0.0098955881698361212 0.00063746431196117837 0 -0.010064960342998074 -8.8765892423709104e-05 0 -0.0098955881698361212 0.00063746431196117837 0 -0.010472015916222351 0.00020831886265899432 0 -0.010537869556131693 0.00070802529187348245 0 -0.0098955881698361212 0.00063746431196117837 0 -0.010472015916222351 0.00020831886265899432 0 -0.010537869556131693 0.00070802529187348245 0 -0.0098955881698361212 0.00063746431196117837 0 -0.010100352282340581 0.001298623842815825 0 -0.010436934448365119 0.00045282619967454136 0 -0.0097483221281591762 0.00066653364543164874 0 -0.010232746574758735 0.00032552427828478047 0 -0.010271703775728898 0.00017912208737047417 0 -0.010091010282922698 0.00034994211687060743 0 -0.0098955881698361212 0.00063746431196117837 0 -0.0096471743385683276 0.0010729948941252921 0 -0.010100352282340581 0.001298623842815825 0 -0.0098955881698361212 0.00063746431196117837 0 -0.0096471743385683276 0.0010729948941252921 0 -0.0091731381350076066 0.00068519541620240185 0 -0.0096471743385683276 0.0010729948941252921 0 -0.0095570249240328684 0.0013825625089279893 0 -0.010100352282340581 0.001298623842815825 0 -0.0088593579381077182 0.0011753120527573631 0 -0.0088968696282021604 0.0015062874623400556 0 -0.009295228389141319 0.00086731341137944449 0 -0.0088968696282021604 0.0015062874623400556 0 -0.0094287646607491803 0.00079351631907473958 0 -0.009295228389141319 0.00086731341137944449 0 -0.0096471743385683276 0.0010729948941252921 0 -0.0095570249240328684 0.0013825625089279893 0 -0.0092336513313625666 0.0013865481831664189 0 -0.008916227611419969 0.00087294727640367209 0 -0.0088593579381077182 0.0011753120527573631 0 -0.009295228389141319 0.00086731341137944449 0 -0.008838551004946649 0.0012192249216526813 0 -0.0097483221281591762 0.00066653364543164874 0 -0.008916227611419969 0.00087294727640367209 0 -0.0088593579381077182 0.0011753120527573631 0 -0.0086148396558449938 0.00087882256359177863 0 -0.0091683989774855278 0.0010218011295870537 0 -0.0097483221281591762 0.00066653364543164874 0 -0.0091683989774855278 0.0010218011295870537 0 -0.0091706194451771656 0.00091437492799434209 0 -0.0089211182550682656 0.00087482219479797293 0 -0.0094287646607491803 0.00079351631907473958 0 -0.009295228389141319 0.00086731341137944449 0 -0.0087747032062003832 0.00094414625256109398 0 -0.0094998439040182518 0.00094968163809296667 0 -0.0088587723301917862 0.0014926435456189388 0 -0.0087747032062003832 0.00094414625256109398 0 -0.0094998439040182518 0.00094968163809296667 0 -0.0095089080781764375 0.00023948667391817524 0 -0.0088593579381077182 0.0011753120527573631 0 -0.0088968696282021604 0.0015062874623400556 0 -0.0086760618495222309 0.0016810845025236514 0 -0.0094998439040182518 0.00094968163809296667 0 -0.0098567009232658192 0.0005503277462196543 0 -0.01012341750608107 0.00070235329770858062 0 -0.010192092131055956 0.00031094134194277988 0 -0.0097483221281591762 0.00066653364543164874 0 -0.010232746574758735 0.00032552427828478047 0 -0.0098567009232658192 0.0005503277462196543 0 -0.0095089080781764375 0.00023948667391817524 0 -0.0094998439040182518 0.00094968163809296667 0 -0.0098567009232658192 0.0005503277462196543 0 -0.0095089080781764375 0.00023948667391817524 0 -0.010232746574758735 0.00032552427828478047 0 -0.0098567009232658192 0.0005503277462196543 0 -0.01012341750608107 0.00070235329770858062 0 -0.010232746574758735 0.00032552427828478047 0 -0.010469882931086133 0.00060139010657178865 0 -0.01012341750608107 0.00070235329770858062 0 -0.010232746574758735 0.00032552427828478047 0 -0.010723065895243161 0.00047513397243609132 0 -0.010469882931086133 0.00060139010657178865 0 -0.010618212207016458 0.00049980095333699431 0 -0.010723065895243161 0.00047513397243609132 0 -0.010469882931086133 0.00060139010657178865 0 -0.010618212207016458 0.00049980095333699431 0 -0.010469882931086133 0.00060139010657178865 0 -0.010548019070844418 0.00072455770336201893 0 -0.010469882931086133 0.00060139010657178865 0 -0.010548019070844418 0.00072455770336201893 0 -0.010343447732490674 0.00092568614716726633 0 -0.010548019070844418 0.00072455770336201893 0 -0.010343447732490674 0.00092568614716726633 0 -0.010522972132710539 0.0010516528495628154 0 -0.0094998439040182518 0.00094968163809296667 0 -0.01012341750608107 0.00070235329770858062 0 -0.0099200778044312293 0.0011538606898734249 0 -0.010469882931086133 0.00060139010657178865 0 -0.010343447732490674 0.00092568614716726633 0 -0.01012341750608107 0.00070235329770858062 0 -0.010343447732490674 0.00092568614716726633 0 -0.01012341750608107 0.00070235329770858062 0 -0.0099200778044312293 0.0011538606898734249 0 -0.0099200778044312293 0.0011538606898734249 0 -0.010063584805519615 0.0015847502999524791 0 -0.0092387281081581941 0.0017248651287771729 0 -0.010343447732490674 0.00092568614716726633 0 -0.0099200778044312293 0.0011538606898734249 0 -0.010063584805519615 0.0015847502999524791 0 -0.0099861762003997465 0.0016948198054919368 0 -0.010064110621578172 0.0011302591324777523 0 -0.010343447732490674 0.00092568614716726633 0 -0.010063584805519615 0.0015847502999524791 0 -0.010522972132710539 0.0010516528495628154 0 -0.010063584805519615 0.0015847502999524791 0 -0.010522972132710539 0.0010516528495628154 0 -0.010640509780751978 0.0014589510199176643 0 -0.0096086479732132562 0.00056300335177724662 0 -0.010064110621578172 0.0011302591324777523 0 -0.0085491407996445227 0.00058984932564156768 0 -0.0084969229495529715 0.00058859241454646007 0 -0.0082137626020151455 0.0010691502627846212 0 -0.0096086479732132562 0.00056300335177724662 0 -0.008033708912930251 0.0011863136375103137 0 -0.010064110621578172 0.0011302591324777523 0 -0.0090944091915716643 0.0018194871319523649 0 -0.009765878185791178 0.001758070153657498 0 -0.010437264946118309 0.0017604123261437271 0 -0.01012080080033082 0.0024760389705432919 0 -0.0085491407996445227 0.00058984932564156768 0 -0.0082137626020151455 0.0010691502627846212 0 -0.0082434498125275521 0.0011598267649328847 0 -0.0084658444457785392 0.00092089702145707684 0 -0.00838136346318007 0.00057254393248937338 0 -0.0081555134945171231 0.0011167455890854644 0 -0.009765878185791178 0.001758070153657498 0 -0.0094938105682451403 0.0022099162316290642 0 -0.01012080080033082 0.0024760389705432919 0 -0.009765878185791178 0.001758070153657498 0 -0.0094938105682451403 0.0022099162316290642 0 -0.0092387281081581941 0.0017248651287771729 0 -0.0094938105682451403 0.0022099162316290642 0 -0.0092387281081581941 0.0017248651287771729 0 -0.0090100956160391529 0.0024008971263700263 0 -0.0084561890150171588 0.0020828502899075613 0 -0.0089749090359077278 0.0023859232057018998 0 -0.0086750563895174812 0.002058759049117417 0 -0.0092387281081581941 0.0017248651287771729 0 -0.0090100956160391529 0.0024008971263700263 0 -0.0086750563895174812 0.002058759049117417 0 -0.0088587723301917862 0.0014926435456189388 0 -0.0092387281081581941 0.0017248651287771729 0 -0.0094998439040182518 0.00094968163809296667 0 -0.0099200778044312293 0.0011538606898734249 0 -0.0092387281081581941 0.0017248651287771729 0 -0.0094998439040182518 0.00094968163809296667 0 -0.0088587723301917862 0.0014926435456189388 0 -0.0092387281081581941 0.0017248651287771729 0 -0.0099861762003997465 0.0016948198054919368 0 -0.009254124811615071 0.0017063759819397344 0 -0.0082422686805639911 0.0017852334650386046 0 -0.0083759497397253128 0.0022043909344294991 0 -0.0077090567920720604 0.00177814040891349 0 -0.0079958985707012618 0.0018973146171694648 0 -0.0072957809353946584 0.0017775592648025731 0 -0.0074601839277159123 0.0020462752145050346 0 -0.0070467110260909382 0.0022007845999641147 0 -0.0068412079203684396 0.0017093395587036632 0 -0.007544434542878801 0.0019308074154408149 0 -0.0074601839277159123 0.0020462752145050346 0 -0.0068412079203684396 0.0017093395587036632 0 -0.008838551004946649 0.0012192249216526813 0 -0.0079958985707012618 0.0018973146171694648 0 -0.0086750563895174812 0.002058759049117417 0 -0.0088587723301917862 0.0014926435456189388 0 -0.0081528704220115676 0.0017263368051650019 0 -0.0088968696282021604 0.0015062874623400556 0 -0.0083759497397253128 0.0022043909344294991 0 -0.0086760618495222309 0.0016810845025236514 0 -0.0087747032062003832 0.00094414625256109398 0 -0.0088587723301917862 0.0014926435456189388 0 -0.0081528704220115676 0.0017263368051650019 0 -0.0082422686805639911 0.0017852334650386046 0 -0.0083759497397253128 0.0022043909344294991 0 -0.0086760618495222309 0.0016810845025236514 0 -0.0075970903510580879 0.0018537101481044022 0 -0.0074601839277159123 0.0020462752145050346 0 -0.0077895926017981978 0.0022923188580265424 0 -0.0082510031594672708 0.0020991334557935986 0 -0.0077895926017981978 0.0022923188580265424 0 -0.0081617651898948321 0.0027592990188879687 0 -0.0079958985707012618 0.0018973146171694648 0 -0.0077732653524329653 0.0020500130481064371 0 -0.0084561890150171588 0.0020828502899075613 0 -0.0079958985707012618 0.0018973146171694648 0 -0.0082510031594672708 0.0020991334557935986 0 -0.0075970903510580879 0.0018537101481044022 0 -0.0077895926017981978 0.0022923188580265424 0 -0.0074601839277159123 0.0020462752145050346 0 -0.0077895926017981978 0.0022923188580265424 0 -0.0074106494000595801 0.0022687959642329388 0 -0.0077895926017981978 0.0022923188580265424 0 -0.0074106494000595801 0.0022687959642329388 0 -0.0073778292063946148 0.0025443511928071594 0 -0.0074106494000595801 0.0022687959642329388 0 -0.0070467110260909382 0.0022007845999641147 0 -0.0073778292063946148 0.0025443511928071594 0 -0.0070467110260909382 0.0022007845999641147 0 -0.0068256568936685387 0.0025943422814557996 0 -0.0073778292063946148 0.0025443511928071594 0 -0.0074601839277159123 0.0020462752145050346 0 -0.0074106494000595801 0.0022687959642329388 0 -0.0070467110260909382 0.0022007845999641147 0 -0.0064607007001668314 0.0021485137605508444 0 -0.0063962997954753699 0.0026100499644430434 0 -0.0068256568936685387 0.0025943422814557996 0 -0.0070467110260909382 0.0022007845999641147 0 -0.0064607007001668314 0.0021485137605508444 0 -0.0068256568936685387 0.0025943422814557996 0 -0.0064607007001668314 0.0021485137605508444 0 -0.0058158662509296809 0.0025461881049235946 0 -0.0063962997954753699 0.0026100499644430434 0 -0.0064607007001668314 0.0021485137605508444 0 -0.0058933456066719786 0.0021296088269051822 0 -0.0058158662509296809 0.0025461881049235946 0 -0.0064607007001668314 0.0021485137605508444 0 -0.0062738862415487933 0.0015473552405090431 0 -0.0058933456066719786 0.0021296088269051822 0 -0.0070467110260909382 0.0022007845999641147 0 -0.0064607007001668314 0.0021485137605508444 0 -0.0068412079203684396 0.0017093395587036632 0 -0.0064607007001668314 0.0021485137605508444 0 -0.0068412079203684396 0.0017093395587036632 0 -0.0062738862415487933 0.0015473552405090431 0 -0.0077090567920720604 0.00177814040891349 0 -0.0074525718041753182 0.0013727797163833289 0 -0.0078289512133265429 0.0014178157310800502 0 -0.0074525718041753182 0.0013727797163833289 0 -0.0069277763544228011 0.0012130144791348064 0 -0.0075783133736228468 0.0012549413033577468 0 -0.0072957809353946584 0.0017775592648025731 0 -0.0066297090620740119 0.0014285905953671013 0 -0.0077090567920720604 0.00177814040891349 0 -0.0074525718041753182 0.0013727797163833289 0 -0.0070446236686515342 0.0013650907063638017 0 -0.0075783133736228468 0.0012549413033577468 0 -0.0078278247785123906 0.0012546616101604519 0 -0.0078289512133265429 0.0014178157310800502 0 -0.0074525718041753182 0.0013727797163833289 0 -0.0075783133736228468 0.0012549413033577468 0 -0.0078289512133265429 0.0014178157310800502 0 -0.0074525718041753182 0.0013727797163833289 0 -0.0070446236686515342 0.0013650907063638017 0 -0.0069277763544228011 0.0012130144791348064 0 -0.0071295565085149155 0.00092053345934876168 0 -0.0069277763544228011 0.0012130144791348064 0 -0.0078299828287251814 0.0010893661156807888 0 -0.0071295565085149155 0.00092053345934876168 0 -0.0069277763544228011 0.0012130144791348064 0 -0.0063604633698812292 0.00094250778196733461 0 -0.0071295565085149155 0.00092053345934876168 0 -0.0078299828287251814 0.0010893661156807888 0 -0.0079325111170207175 0.00091526483002887012 0 -0.0069902195920610918 0.0012109423464261636 0 -0.0077545533257530807 0.00106082736589549 0 -0.0069277763544228011 0.0012130144791348064 0 -0.0075783133736228468 0.0012549413033577468 0 -0.0077683081837868987 0.0010750882660067712 0 -0.0073018572769805289 0.0011626436176518213 0 -0.0081385142312558941 0.0011577870381230305 0 -0.0075783133736228468 0.0012549413033577468 0 -0.0077683081837868987 0.0010750882660067712 0 -0.0078278247785123906 0.0012546616101604519 0 -0.0077683081837868987 0.0010750882660067712 0 -0.0080492027617665805 0.0012475577924660585 0 -0.0086065818412560512 0.00090246437749748028 0 -0.0078299828287251814 0.0010893661156807888 0 -0.0079325111170207175 0.00091526483002887012 0 -0.008751710425929881 0.00091332192950005801 0 -0.0077545533257530807 0.00106082736589549 0 -0.0088520347592538993 0.0010949017192601962 0 -0.0083135977140085197 0.001390299414748486 0 -0.0091820417073075512 0.0013694877183474869 0 -0.0087310975257458481 0.00099140040379232025 0 -0.0081385142312558941 0.0011577870381230305 0 -0.0088520347592538993 0.0010949017192601962 0 -0.0077683081837868987 0.0010750882660067712 0 -0.0080492027617665805 0.0012475577924660585 0 -0.0078278247785123906 0.0012546616101604519 0 -0.0080492027617665805 0.0012475577924660585 0 -0.0078289512133265429 0.0014178157310800502 0 -0.0080811061722368734 0.0015177827139715406 0 -0.0082422686805639911 0.0017852334650386046 0 -0.0077090567920720604 0.00177814040891349 0 -0.0080811061722368734 0.0015177827139715406 0 -0.0080492027617665805 0.0012475577924660585 0 -0.0078278247785123906 0.0012546616101604519 0 -0.0078289512133265429 0.0014178157310800502 0 -0.0080492027617665805 0.0012475577924660585 0 -0.0082528154680857162 0.0013394905246695336 0 -0.0080811061722368734 0.0015177827139715406 0 -0.0082528154680857162 0.0013394905246695336 0 -0.0080811061722368734 0.0015177827139715406 0 -0.0084077599233855632 0.001537155301722147 0 -0.0082422686805639911 0.0017852334650386046 0 -0.0080811061722368734 0.0015177827139715406 0 -0.0084077599233855632 0.001537155301722147 0 -0.0077090567920720604 0.00177814040891349 0 -0.0078289512133265429 0.0014178157310800502 0 -0.0080811061722368734 0.0015177827139715406 0 -0.0086182357912480984 0.0015483572480200487 0 -0.0088520347592538993 0.0010949017192601962 0 -0.0086760618495222309 0.0016810845025236514 0 -0.0084077599233855632 0.001537155301722147 0 -0.0086065818412560512 0.00090246437749748028 0 -0.0082422686805639911 0.0017852334650386046 0 -0.0086760618495222309 0.0016810845025236514 0 -0.0084077599233855632 0.001537155301722147 0 -0.0080492027617665805 0.0012475577924660585 0 -0.0082528154680857162 0.0013394905246695336 0 -0.0086065818412560512 0.00090246437749748028 0 -0.0082528154680857162 0.0013394905246695336 0 -0.0084077599233855632 0.001537155301722147 0 -0.0086065818412560512 0.00090246437749748028 0 -0.0088593579381077182 0.0011753120527573631 0 -0.0086760618495222309 0.0016810845025236514 0 -0.0086148396558449938 0.00087882256359177863 0 -0.0091683989774855278 0.0010218011295870537 0 -0.0088520347592538993 0.0010949017192601962 0 -0.0096471743385683276 0.0010729948941252921 0 -0.0092336513313625666 0.0013865481831664189 0 -0.0091731381350076066 0.00068519541620240185 0 -0.0088520347592538993 0.0010949017192601962 0 -0.0091677764495243473 0.00071457800958831615 0 -0.0091820417073075512 0.0013694877183474869 0 -0.0087310975257458481 0.00099140040379232025 0 -0.0091191645292856144 0.00062109347506061386 0 -0.0087310975257458481 0.00099140040379232025 0 -0.00825187773010559 0.00043123760507930904 0 -0.0091191645292856144 0.00062109347506061386 0 -0.0083135977140085197 0.001390299414748486 0 -0.0087310975257458481 0.00099140040379232025 0 -0.00825187773010559 0.00043123760507930904 0 -0.00825187773010559 0.00043123760507930904 0 -0.0091191645292856144 0.00062109347506061386 0 -0.0090568771796186043 -0.0001178349916744326 0 -0.0091677764495243473 0.00071457800958831615 0 -0.0090756447204849832 -0.00010069502878455788 0 -0.0096031008050083012 0.00020021560546775304 0 -0.0091731381350076066 0.00068519541620240185 0 -0.0090983903694397596 -3.0010175686806265e-05 0 -0.00825187773010559 0.00043123760507930904 0 -0.0085216412926895427 -0.00048621790172696046 0 -0.0079262790442346468 -0.00038388667295300794 0 -0.00825187773010559 0.00043123760507930904 0 -0.0090568771796186043 -0.0001178349916744326 0 -0.0085216412926895427 -0.00048621790172696046 0 -0.0078153564631668147 -0.0010608439930511018 0 -0.0085239439692349206 -0.0014652250837157391 0 -0.0085216412926895427 -0.00048621790172696046 0 -0.0085239439692349206 -0.0014652250837157391 0 -0.0085216412926895427 -0.00048621790172696046 0 -0.0090170470254564827 -0.00080640643568193624 0 -0.0090756447204849832 -0.00010069502878455788 0 -0.0090224415343678512 -0.00073898573168433015 0 -0.0096691425443245181 -0.00061512796797701076 0 -0.0090983903694397596 -3.0010175686806265e-05 0 -0.0090170470254564827 -0.00080640643568193624 0 -0.0090568771796186043 -0.0001178349916744326 0 -0.0085216412926895427 -0.00048621790172696046 0 -0.0090170470254564827 -0.00080640643568193624 0 -0.0093703010812151225 -0.0012329776642667216 0 -0.0096691425443245181 -0.00061512796797701076 0 -0.0090170470254564827 -0.00080640643568193624 0 -0.0066916871492247879 -0.0013385765618028466 0 -0.0078153564631668147 -0.0010608439930511018 0 -0.0072217944601374083 -0.00050985675022730719 0 -0.0078153564631668147 -0.0010608439930511018 0 -0.0085216412926895427 -0.00048621790172696046 0 -0.0079262790442346468 -0.00038388667295300794 0 -0.0078153564631668147 -0.0010608439930511018 0 -0.0079262790442346468 -0.00038388667295300794 0 -0.0072217944601374083 -0.00050985675022730719 0 -0.00825187773010559 0.00043123760507930904 0 -0.0079262790442346468 -0.00038388667295300794 0 -0.0075616971787349999 7.0066698285382414e-05 0 -0.0072217944601374083 -0.00050985675022730719 0 -0.0075616971787349999 7.0066698285382414e-05 0 -0.0068713330121141182 0.00013898540136319607 0 -0.0079262790442346468 -0.00038388667295300794 0 -0.0072217944601374083 -0.00050985675022730719 0 -0.0075616971787349999 7.0066698285382414e-05 0 -0.0075616971787349999 7.0066698285382414e-05 0 -0.0075149707612630805 0.00067983799713683879 0 -0.0068713330121141182 0.00013898540136319607 0 -0.0075149707612630805 0.00067983799713683879 0 -0.0067055481793453602 0.00084967903728022209 0 -0.0068713330121141182 0.00013898540136319607 0 -0.00825187773010559 0.00043123760507930904 0 -0.0075616971787349999 7.0066698285382414e-05 0 -0.0075149707612630805 0.00067983799713683879 0 -0.0083135977140085197 0.001390299414748486 0 -0.00825187773010559 0.00043123760507930904 0 -0.0075149707612630805 0.00067983799713683879 0 -0.0074135334865870189 0.0014153225763474618 0 -0.0083135977140085197 0.001390299414748486 0 -0.0075149707612630805 0.00067983799713683879 0 -0.0074135334865870189 0.0014153225763474618 0 -0.0075149707612630805 0.00067983799713683879 0 -0.0067055481793453602 0.00084967903728022209 0 -0.0067055481793453602 0.00084967903728022209 0 -0.0059053463125960217 0.0010808686510890922 0 -0.0064548913641757676 0.0014376829900615146 0 -0.0074135334865870189 0.0014153225763474618 0 -0.0067055481793453602 0.00084967903728022209 0 -0.0064548913641757676 0.0014376829900615146 0 -0.0067055481793453602 0.00084967903728022209 0 -0.0059053463125960217 0.0010808686510890922 0 -0.0060057311989997631 0.00036779476674752665 0 -0.0059053463125960217 0.0010808686510890922 0 -0.0060057311989997631 0.00036779476674752665 0 -0.005356147263043419 0.00086982875517824915 0 -0.0067055481793453602 0.00084967903728022209 0 -0.0060057311989997631 0.00036779476674752665 0 -0.0068713330121141182 0.00013898540136319607 0 -0.0060057311989997631 0.00036779476674752665 0 -0.0068713330121141182 0.00013898540136319607 0 -0.0063779310471420055 -0.00039541417231769984 0 -0.0072217944601374083 -0.00050985675022730719 0 -0.0068713330121141182 0.00013898540136319607 0 -0.0063779310471420055 -0.00039541417231769984 0 -0.0060057311989997631 0.00036779476674752665 0 -0.0063779310471420055 -0.00039541417231769984 0 -0.005658113883077345 -0.00017441648475946515 0 -0.0063779310471420055 -0.00039541417231769984 0 -0.0057622019179033486 -0.00084402778197784003 0 -0.005658113883077345 -0.00017441648475946515 0 -0.010141806888298147 -0.00039868393519737521 0 -0.009373811659870836 5.7442704451672122e-05 0 -0.0066916871492247879 -0.0013385765618028466 0 -0.0063779310471420055 -0.00039541417231769984 0 -0.0057622019179033486 -0.00084402778197784003 0 -0.0066916871492247879 -0.0013385765618028466 0 -0.0072217944601374083 -0.00050985675022730719 0 -0.0063779310471420055 -0.00039541417231769984 0 -0.012224866090028331 0.00075532108846446534 0 -0.012866455105875025 0.0010023402243767578 0 -0.012098879877896583 0.0014651408908193501 0 -0.0082275672606770527 0.00064230773884581792 0 -0.011542605467079671 0.0013622916572363422 0 -0.012224866090028331 0.00075532108846446534 0 -0.012098879877896583 0.0014651408908193501 0 -0.011677152379592324 0.00083933603354840829 0 -0.009373811659870836 5.7442704451672122e-05 0 -0.0082275672606770527 0.00064230773884581792 0 -0.0057622019179033486 -0.00084402778197784003 0 -0.005658113883077345 -0.00017441648475946515 0 -0.0049115206361495696 -0.00032114647340247859 0 -0.005658113883077345 -0.00017441648475946515 0 -0.0049115206361495696 -0.00032114647340247859 0 -0.005300929524124324 0.00033947910007421487 0 -0.0046841711395155848 -0.00064455565952916468 0 -0.0045248584881824577 0.00013267609459038438 0 -0.005300929524124324 0.00033947910007421487 0 -0.0082275672606770527 0.00064230773884581792 0 -0.0042929377811816343 -0.00045765784303227944 0 -0.0045248584881824577 0.00013267609459038438 0 -0.005300929524124324 0.00033947910007421487 0 -0.0047852379157102059 0.00059678153347288187 0 -0.0045248584881824577 0.00013267609459038438 0 -0.0047852379157102059 0.00059678153347288187 0 -0.0040676577185974078 0.00053694334286835557 0 -0.0060057311989997631 0.00036779476674752665 0 -0.005658113883077345 -0.00017441648475946515 0 -0.005300929524124324 0.00033947910007421487 0 -0.0060057311989997631 0.00036779476674752665 0 -0.005300929524124324 0.00033947910007421487 0 -0.005356147263043419 0.00086982875517824915 0 -0.005356147263043419 0.00086982875517824915 0 -0.0045771627014502504 0.0011107956248731076 0 -0.0051430378397068054 0.0013754583279515231 0 -0.005300929524124324 0.00033947910007421487 0 -0.005356147263043419 0.00086982875517824915 0 -0.0047852379157102059 0.00059678153347288187 0 -0.0059053463125960217 0.0010808686510890922 0 -0.005356147263043419 0.00086982875517824915 0 -0.0051430378397068054 0.0013754583279515231 0 -0.005356147263043419 0.00086982875517824915 0 -0.0047852379157102059 0.00059678153347288187 0 -0.0045771627014502504 0.0011107956248731076 0 -0.0047852379157102059 0.00059678153347288187 0 -0.0045771627014502504 0.0011107956248731076 0 -0.0040676577185974078 0.00053694334286835557 0 -0.0045771627014502504 0.0011107956248731076 0 -0.0046829513454141568 0.0015700968578170474 0 -0.0038557786636441859 0.0013503318348683994 0 -0.0045771627014502504 0.0011107956248731076 0 -0.0046829513454141568 0.0015700968578170474 0 -0.0051430378397068054 0.0013754583279515231 0 -0.0044725599651134216 0.0019439681365480013 0 -0.005030858728678307 0.001964980984659265 0 -0.0044214978277102735 0.0023865902111551169 0 -0.0046829513454141568 0.0015700968578170474 0 -0.0044725599651134216 0.0019439681365480013 0 -0.005030858728678307 0.001964980984659265 0 -0.005030858728678307 0.001964980984659265 0 -0.0051430378397068054 0.0013754583279515231 0 -0.005432791770169863 0.0016140421553368996 0 -0.0046829513454141568 0.0015700968578170474 0 -0.005030858728678307 0.001964980984659265 0 -0.0051430378397068054 0.0013754583279515231 0 -0.0059053463125960217 0.0010808686510890922 0 -0.0051430378397068054 0.0013754583279515231 0 -0.0065063060653192352 0.0014854108128956472 0 -0.0051430378397068054 0.0013754583279515231 0 -0.0057987907992214137 0.0013288274694868321 0 -0.005432791770169863 0.0016140421553368996 0 -0.0051623673420632312 0.0014232053678428778 0 -0.0062382903332536491 0.0012487081713447583 0 -0.0060643128315201475 0.0011819635615731379 0 -0.0062382903332536491 0.0012487081713447583 0 -0.0073018572769805289 0.0011626436176518213 0 -0.0062382903332536491 0.0012487081713447583 0 -0.0066297090620740119 0.0014285905953671013 0 -0.0062382903332536491 0.0012487081713447583 0 -0.0070446236686515342 0.0013650907063638017 0 -0.0069277763544228011 0.0012130144791348064 0 -0.0063604633698812292 0.00094250778196733461 0 -0.0062738862415487933 0.0015473552405090431 0 -0.0057186850849830278 0.0018415649207987486 0 -0.0058933456066719786 0.0021296088269051822 0 -0.0062738862415487933 0.0015473552405090431 0 -0.0057987907992214137 0.0013288274694868321 0 -0.0057186850849830278 0.0018415649207987486 0 -0.0057987907992214137 0.0013288274694868321 0 -0.005432791770169863 0.0016140421553368996 0 -0.0057186850849830278 0.0018415649207987486 0 -0.005030858728678307 0.001964980984659265 0 -0.005432791770169863 0.0016140421553368996 0 -0.0057186850849830278 0.0018415649207987486 0 -0.005030858728678307 0.001964980984659265 0 -0.0057186850849830278 0.0018415649207987486 0 -0.005500576851661442 0.0025397144606431133 0 -0.0056797482018774766 0.0019322336399215502 0 -0.0056674692635686388 0.0022735735034393506 0 -0.0057186850849830278 0.0018415649207987486 0 -0.0055874571200357891 0.002209938296426437 0 -0.0058933456066719786 0.0021296088269051822 0 -0.0058933456066719786 0.0021296088269051822 0 -0.0056804919098799173 0.0024447165994284478 0 -0.0058158662509296809 0.0025461881049235946 0 -0.0055874571200357891 0.002209938296426437 0 -0.0058933456066719786 0.0021296088269051822 0 -0.0056804919098799173 0.0024447165994284478 0 -0.0056674692635686388 0.0022735735034393506 0 -0.0040396089000269133 0.0029652624331121613 0 -0.0055874571200357891 0.002209938296426437 0 -0.0056804919098799173 0.0024447165994284478 0 -0.0055662432474595895 0.002492985144219622 0 -0.005500576851661442 0.0025397144606431133 0 -0.0049148914248848107 0.0029868002948630784 0 -0.0052424838556903572 0.0031919697599250602 0 -0.005500576851661442 0.0025397144606431133 0 -0.004811592125285446 0.0026451692534988332 0 -0.0049148914248848107 0.0029868002948630784 0 -0.004811592125285446 0.0026451692534988332 0 -0.0045769173276396843 0.0030616848838197199 0 -0.0043044423387673791 0.0028144580857485876 0 -0.004811592125285446 0.0026451692534988332 0 -0.0044214978277102735 0.0023865902111551169 0 -0.0043044423387673791 0.0028144580857485876 0 -0.004811592125285446 0.0026451692534988332 0 -0.0049148914248848107 0.0029868002948630784 0 -0.0045769173276396843 0.0030616848838197199 0 -0.0045769173276396843 0.0030616848838197199 0 -0.0043044423387673791 0.0028144580857485876 0 -0.004166710378490244 0.0031903940490562175 0 -0.005030858728678307 0.001964980984659265 0 -0.004811592125285446 0.0026451692534988332 0 -0.0044214978277102735 0.0023865902111551169 0 -0.005030858728678307 0.001964980984659265 0 -0.005500576851661442 0.0025397144606431133 0 -0.004811592125285446 0.0026451692534988332 0 -0.0048958364501021437 0.0039999870195986491 0 -0.0045798177771629147 0.003792747226429187 0 -0.0047675575632760642 0.0033303434319793598 0 -0.0012405086154502203 0.0033681907385632393 0 -0.0040396089000269133 0.0029652624331121613 0 -0.0012405086154502203 0.0033681907385632393 0 -0.0031889086980104227 0.0038719857426629503 0 -0.0031889086980104227 0.0038719857426629503 0 -0.0044546066223490029 0.0036461696480054556 0 -0.0043707266648926324 0.0038209445758309742 0 -0.0044096260722096773 0.0037091008975745662 0 -0.0040748561059270622 0.0034538851641227088 0 -0.00049922593408719947 0.0035801394198477065 0 -0.0015685665586550944 0.0037354107933432082 0 -0.0014222289709178136 0.0041666694166166748 0 -0.00088142637455103986 0.0039045225617839563 0 -0.0031889086980104227 0.0038719857426629503 0 -0.0031889086980104227 0.0038719857426629503 0 -0.004700210772866171 0.0032136565454517984 0 -0.0046010985781802221 0.0038042529023871868 0 -0.0044287195944497978 0.0033681269256266738 0 -0.0040748561059270622 0.0034538851641227088 0 -0.0046010985781802221 0.0038042529023871868 0 -0.0047675575632760642 0.0033303434319793598 0 -0.0044287195944497978 0.0033681269256266738 0 -0.0045769173276396843 0.0030616848838197199 0 -0.0044287195944497978 0.0033681269256266738 0 -0.004166710378490244 0.0031903940490562175 0 -0.0049148914248848107 0.0029868002948630784 0 -0.0045769173276396843 0.0030616848838197199 0 -0.0047675575632760642 0.0033303434319793598 0 -0.0045769173276396843 0.0030616848838197199 0 -0.0047675575632760642 0.0033303434319793598 0 -0.0044287195944497978 0.0033681269256266738 0 -0.0049148914248848107 0.0029868002948630784 0 -0.0047675575632760642 0.0033303434319793598 0 -0.0049983864333991252 0.0032761129941187147 0 -0.0048958364501021437 0.0039999870195986491 0 -0.0047675575632760642 0.0033303434319793598 0 -0.0049983864333991252 0.0032761129941187147 0 -0.0048958364501021437 0.0039999870195986491 0 -0.0049983864333991252 0.0032761129941187147 0 -0.0052424838556903572 0.0031919697599250602 0 -0.0049148914248848107 0.0029868002948630784 0 -0.0049983864333991252 0.0032761129941187147 0 -0.0052424838556903572 0.0031919697599250602 0 -0.0040396089000269133 0.0029652624331121613 0 -0.003928699417595629 0.0028273418753684268 0 -0.0056804919098799173 0.0024447165994284478 0 -0.0055662432474595895 0.002492985144219622 0 -0.0057141685762993714 0.0025552540868091522 0 -0.0056804919098799173 0.0024447165994284478 0 -0.0058158662509296809 0.0025461881049235946 0 -0.0057141685762993714 0.0025552540868091522 0 -0.0056458565265389282 0.0025349462058527031 0 -0.0057141685762993714 0.0025552540868091522 0 -0.0055435582473492423 0.0024333980705501775 0 -0.0058158662509296809 0.0025461881049235946 0 -0.0056458565265389282 0.0025349462058527031 0 -0.0057141685762993714 0.0025552540868091522 0 -0.0019979551676987651 0.0030222954633319743 0 -0.0018243552181126188 0.0035533720252256483 0 -0.0014850503499939775 0.0031048507595639054 0 0.0028067527777759509 0.0033693895596209086 0 0.0027226153235545684 0.0031805721846217259 0 0.0022642583454090303 0.003513343080908025 0 -0.0019979551676987651 0.0030222954633319743 0 -0.0014850503499939775 0.0031048507595639054 0 -0.0015541780329803375 0.0027420326897112457 0 -0.0057141685762993714 0.0025552540868091522 0 -0.0055903519536913832 0.0022617111854355042 0 -0.0055435582473492423 0.0024333980705501775 0 -0.003928699417595629 0.0028273418753684268 0 -0.0006078335629733395 0.0030568462583142083 0 0.0015374512165551694 0.0031415171825438129 0 -0.0006078335629733395 0.0030568462583142083 0 -0.0014850503499939775 0.0031048507595639054 0 -0.0015541780329803375 0.0027420326897112457 0 -0.0011398303292475163 0.0026443855855515217 0 0.0025423037990150044 0.0033557974150484142 0 0.003067241634913009 0.0032369208110426717 0 0.0030586388816346414 0.0030718218175905267 0 0.0028067527777759509 0.0033693895596209086 0 0.0030586388816346414 0.0030718218175905267 0 0.0028849770537664968 0.0031381841601825695 0 0.0015374512165551694 0.0031415171825438129 0 0.003368502985391369 0.0030275060621895436 0 0.0029512768909970275 0.0030014003669933207 0 0.0030586388816346414 0.0030718218175905267 0 0.0028849770537664968 0.0031381841601825695 0 0.0029512768909970275 0.0030014003669933207 0 0.0030586388816346414 0.0030718218175905267 0 0.0030467134381602888 0.0028877180002025763 0 0.0028067527777759509 0.0033693895596209086 0 0.0027226153235545684 0.0031805721846217259 0 0.0028849770537664968 0.0031381841601825695 0 0.0027226153235545684 0.0031805721846217259 0 0.0028849770537664968 0.0031381841601825695 0 0.0027984887009100371 0.0030429886969412187 0 0.0029512768909970275 0.0030014003669933207 0 0.0028849770537664968 0.0031381841601825695 0 0.0027984887009100371 0.0030429886969412187 0 0.0027226153235545684 0.0031805721846217259 0 0.0027984887009100371 0.0030429886969412187 0 0.0026207282775485619 0.0031236223427131646 0 0.0026207282775485619 0.0031236223427131646 0 0.0024030025285590333 0.0031432804156888579 0 0.002514518842058468 0.0033025367824639049 0 0.0026207282775485619 0.0031236223427131646 0 0.0024030025285590333 0.0031432804156888579 0 0.0026775273679212736 0.0029549789804152716 0 0.0024030025285590333 0.0031432804156888579 0 0.002514518842058468 0.0033025367824639049 0 0.0023224642317266259 0.0033224751062630336 0 0.002514518842058468 0.0033025367824639049 0 0.0023964875342080486 0.0034196652442143342 0 0.0023224642317266259 0.0033224751062630336 0 0.0027226153235545684 0.0031805721846217259 0 0.0026207282775485619 0.0031236223427131646 0 0.002514518842058468 0.0033025367824639049 0 -0.0012405086154502203 0.0033681907385632393 0 0.0015374512165551694 0.0031415171825438129 0 0.0023143081080731738 0.0036728006361190966 0 0.0028067527777759509 0.0033693895596209086 0 0.0022642583454090303 0.003513343080908025 0 0.00307658261004731 0.0031351339450709972 0 0.0010585480432432543 0.003370027937539113 0 0.0027226153235545684 0.0031805721846217259 0 0.002514518842058468 0.0033025367824639049 0 0.0023887069206227772 0.0036019733059910091 0 0.0023964875342080486 0.0034196652442143342 0 0.0023494244185626027 0.0035133932311069162 0 0.0023224642317266259 0.0033224751062630336 0 0.002514518842058468 0.0033025367824639049 0 0.0023964875342080486 0.0034196652442143342 0 0.0023887069206227772 0.0036019733059910091 0 0.0023964875342080486 0.0034196652442143342 0 0.0023494244185626027 0.0035133932311069162 0 0.0023887069206227772 0.0036019733059910091 0 -0.00049922593408719947 0.0035801394198477065 0 -0.0015685665586550944 0.0037354107933432082 0 -0.00072182425042030041 0.0029657886181217907 0 0.0013360250139543967 0.0035825973320997222 0 0.0010585480432432543 0.003370027937539113 0 -0.0012405086154502203 0.0033681907385632393 0 0.0010585480432432543 0.003370027937539113 0 0.0010968478941659262 0.0038098446807639076 0 0.0009126830454772465 0.003227323976192133 0 0.00074809071408292612 0.0035988354241072032 0 0.0021859844129227491 0.0037465176806118672 0 0.0023494244185626027 0.0035133932311069162 0 0.0020514597118966812 0.0033363714578702091 0 -0.00088142637455103986 0.0039045225617839563 0 0.0017682129568288856 0.0033462563709883114 0 -0.00088142637455103986 0.0039045225617839563 0 0.0010585480432432543 0.003370027937539113 0 0.0021859844129227491 0.0037465176806118672 0 0.0023494244185626027 0.0035133932311069162 0 0.0023717106007065301 0.0035868597248496772 0 0.0023494244185626027 0.0035133932311069162 0 0.0020514597118966812 0.0033363714578702091 0 0.0023224642317266259 0.0033224751062630336 0 0.0024030025285590333 0.0031432804156888579 0 0.0020514597118966812 0.0033363714578702091 0 0.0022741324772634079 0.0029276878442525971 0 0.0024030025285590333 0.0031432804156888579 0 0.0020514597118966812 0.0033363714578702091 0 0.0023224642317266259 0.0033224751062630336 0 0.0020514597118966812 0.0033363714578702091 0 0.0022741324772634079 0.0029276878442525971 0 0.0017940672688905406 0.00298656111917097 0 0.0024030025285590333 0.0031432804156888579 0 0.0022741324772634079 0.0029276878442525971 0 0.0026775273679212736 0.0029549789804152716 0 0.0022741324772634079 0.0029276878442525971 0 0.0026775273679212736 0.0029549789804152716 0 0.0027668441790138611 0.0026804976625102832 0 0.0022741324772634079 0.0029276878442525971 0 0.0025682477300889178 0.0025355959378622205 0 0.0027668441790138611 0.0026804976625102832 0 0.0025682477300889178 0.0025355959378622205 0 0.0029401084735840169 0.0024008084773416774 0 0.0027668441790138611 0.0026804976625102832 0 0.0022741324772634079 0.0029276878442525971 0 0.0025682477300889178 0.0025355959378622205 0 0.002114899742888858 0.0024671393483089682 0 0.0022741324772634079 0.0029276878442525971 0 0.002114899742888858 0.0024671393483089682 0 0.0017940672688905406 0.00298656111917097 0 0.002114899742888858 0.0024671393483089682 0 0.0026705480767635981 0.0022850470309666634 0 0.0021716636659509956 0.0018759159630918503 0 0.0025682477300889178 0.0025355959378622205 0 0.002114899742888858 0.0024671393483089682 0 0.0026705480767635981 0.0022850470309666634 0 0.0026705480767635981 0.0022850470309666634 0 0.0031864264190217366 0.0020896389318924187 0 0.0029401084735840169 0.0024008084773416774 0 0.0025682477300889178 0.0025355959378622205 0 0.0026705480767635981 0.0022850470309666634 0 0.0029401084735840169 0.0024008084773416774 0 0.0026705480767635981 0.0022850470309666634 0 0.0031864264190217366 0.0020896389318924187 0 0.0021716636659509956 0.0018759159630918503 0 0.0031864264190217366 0.0020896389318924187 0 0.0021716636659509956 0.0018759159630918503 0 0.0028150640589469996 0.001489492719151375 0 0.0031106778641252861 0.0023333191794774758 0 0.0031307956057983447 0.0023447785428682131 0 0.0031091020250723226 0.0023167637696277685 0 0.0030892914019255702 0.0022945011713747625 0 0.0031106778641252861 0.0023333191794774758 0 0.0031091020250723226 0.0023167637696277685 0 0.0030892914019255702 0.0022945011713747625 0 0.0031106778641252861 0.0023333191794774758 0 0.003116038269327263 0.0024066533301710384 0 0.0031864264190217366 0.0020896389318924187 0 0.0030892914019255702 0.0022945011713747625 0 0.0029401084735840169 0.0024008084773416774 0 0.0031864264190217366 0.0020896389318924187 0 0.0030892914019255702 0.0022945011713747625 0 0.0031091020250723226 0.0023167637696277685 0 0.0030892914019255702 0.0022945011713747625 0 0.0029401084735840169 0.0024008084773416774 0 0.0030634907745832967 0.0024713171895268458 0 0.0030892914019255702 0.0022945011713747625 0 0.0030634907745832967 0.0024713171895268458 0 0.003116038269327263 0.0024066533301710384 0 0.0030634907745832967 0.0024713171895268458 0 0.0031197456374057117 0.0025311066965411117 0 0.003116038269327263 0.0024066533301710384 0 0.0030634907745832967 0.0024713171895268458 0 0.0030718698981395962 0.0026785062910178238 0 0.0029605201768416597 0.0026210531817981537 0 0.0030634907745832967 0.0024713171895268458 0 0.0030718698981395962 0.0026785062910178238 0 0.0031197456374057117 0.0025311066965411117 0 0.0029401084735840169 0.0024008084773416774 0 0.0030634907745832967 0.0024713171895268458 0 0.0029605201768416597 0.0026210531817981537 0 0.0029401084735840169 0.0024008084773416774 0 0.0029605201768416597 0.0026210531817981537 0 0.0027668441790138611 0.0026804976625102832 0 0.0029605201768416597 0.0026210531817981537 0 0.0027668441790138611 0.0026804976625102832 0 0.0029200417159542069 0.0028673520117462941 0 0.0026775273679212736 0.0029549789804152716 0 0.0027668441790138611 0.0026804976625102832 0 0.0029200417159542069 0.0028673520117462941 0 0.0027984887009100371 0.0030429886969412187 0 0.0026775273679212736 0.0029549789804152716 0 0.0029200417159542069 0.0028673520117462941 0 0.0029512768909970275 0.0030014003669933207 0 0.0027984887009100371 0.0030429886969412187 0 0.0029200417159542069 0.0028673520117462941 0 0.0027984887009100371 0.0030429886969412187 0 0.0026207282775485619 0.0031236223427131646 0 0.0026775273679212736 0.0029549789804152716 0 0.0030718698981395962 0.0026785062910178238 0 0.0029200417159542069 0.0028673520117462941 0 0.0030467134381602888 0.0028877180002025763 0 0.0030718698981395962 0.0026785062910178238 0 0.0029605201768416597 0.0026210531817981537 0 0.0029200417159542069 0.0028673520117462941 0 0.0029512768909970275 0.0030014003669933207 0 0.0029200417159542069 0.0028673520117462941 0 0.0030467134381602888 0.0028877180002025763 0 0.0030718698981395962 0.0026785062910178238 0 0.0032180761396744788 0.0028415393391360271 0 0.0031539816898063172 0.0026179349462737665 0 0.0032180761396744788 0.0028415393391360271 0 0.0031586007848743466 0.0025852003632071191 0 0.0031539816898063172 0.0026179349462737665 0 0.0030718698981395962 0.0026785062910178238 0 0.0030467134381602888 0.0028877180002025763 0 0.0032180761396744788 0.0028415393391360271 0 0.0026996152290222619 0.0029694985739111765 0 0.0030425571880049159 0.002902144330352247 0 0.0031586007848743466 0.0025852003632071191 0 0.0030425571880049159 0.002902144330352247 0 0.0032982696064183348 0.0026286648484607949 0 0.0030867257604576723 0.0032927191180643703 0 0.0032671245436307005 0.0029146776843563807 0 -0.0011340789792604654 0.0027177161050732888 0 0.0032914017524937607 0.0027475163498392706 0 0.0030404321353803667 0.0027231754345156782 0 0.0026996152290222619 0.0029694985739111765 0 0.0030425571880049159 0.002902144330352247 0 0.0028828328568826144 0.0031146743316335752 0 0.0030425571880049159 0.002902144330352247 0 0.0031586007848743466 0.0025852003632071191 0 0.0032982696064183348 0.0026286648484607949 0 0.0031586007848743466 0.0025852003632071191 0 0.0032126847499123756 0.0025067182800267954 0 0.0032982696064183348 0.0026286648484607949 0 0.0031586007848743466 0.0025852003632071191 0 0.0032126847499123756 0.0025067182800267954 0 0.0031558296212543654 0.0024968253316218114 0 0.0031586007848743466 0.0025852003632071191 0 0.0031539816898063172 0.0026179349462737665 0 0.0031558296212543654 0.0024968253316218114 0 0.0030718698981395962 0.0026785062910178238 0 0.0031539816898063172 0.0026179349462737665 0 0.0031197456374057117 0.0025311066965411117 0 0.0031539816898063172 0.0026179349462737665 0 0.0031197456374057117 0.0025311066965411117 0 0.0031558296212543654 0.0024968253316218114 0 0.003116038269327263 0.0024066533301710384 0 0.0031558296212543654 0.0024968253316218114 0 0.0031457276997691732 0.0023849140263354457 0 0.0031197456374057117 0.0025311066965411117 0 0.003116038269327263 0.0024066533301710384 0 0.0031558296212543654 0.0024968253316218114 0 0.0031801498994930106 0.002441387602599147 0 0.0031457276997691732 0.0023849140263354457 0 0.0031674507318303446 0.002383795664021659 0 0.0031558296212543654 0.0024968253316218114 0 0.0031801498994930106 0.002441387602599147 0 0.0031457276997691732 0.0023849140263354457 0 0.0032126847499123756 0.0025067182800267954 0 0.0031801498994930106 0.002441387602599147 0 0.0031899285814782218 0.0024242647958949109 0 0.0032126847499123756 0.0025067182800267954 0 0.0031558296212543654 0.0024968253316218114 0 0.0031801498994930106 0.002441387602599147 0 0.0031801498994930106 0.002441387602599147 0 0.0031674507318303446 0.002383795664021659 0 0.0031899285814782218 0.0024242647958949109 0 0.0031431025522552507 0.0023589120117245474 0 0.0031457276997691732 0.0023849140263354457 0 0.0031674507318303446 0.002383795664021659 0 0.0031431025522552507 0.0023589120117245474 0 0.0031357878961137905 0.0023664085225660542 0 0.0031674507318303446 0.002383795664021659 0 0.0031106778641252861 0.0023333191794774758 0 0.003116038269327263 0.0024066533301710384 0 0.0031457276997691732 0.0023849140263354457 0 0.0031431025522552507 0.0023589120117245474 0 0.0031307956057983447 0.0023447785428682131 0 0.0031457276997691732 0.0023849140263354457 0 0.0031106778641252861 0.0023333191794774758 0 0.0031307956057983447 0.0023447785428682131 0 0.0031457276997691732 0.0023849140263354457 0 0.0027861610092411093 0.0026097529406745464 0 0.0029429149560212045 0.0024171850739857625 0 0.0029744434080283978 0.0023763896440816934 0 0.0027822598786439389 0.0026132565173147015 0 0.0029688853736625827 0.0023978855499746077 0 0.0029429149560212045 0.0024171850739857625 0 0.0028497838743252427 0.002708019578513291 0 0.0029987504979415271 0.0027111919907492734 0 0.0027861610092411093 0.0026097529406745464 0 0.0029429149560212045 0.0024171850739857625 0 0.0028497838743252427 0.002708019578513291 0 0.0027861610092411093 0.0026097529406745464 0 0.0024885740467117654 0.0027717685481351839 0 0.0029744434080283978 0.0023763896440816934 0 0.0031256141389726247 0.0023705741073515906 0 0.0032014216286733806 0.002380987326073271 0 0.0029744434080283978 0.0023763896440816934 0 0.0031256141389726247 0.0023705741073515906 0 0.0031357878961137905 0.0023664085225660542 0 0.0030868954585596808 0.00237499840653988 0 0.0031256141389726247 0.0023705741073515906 0 0.0031357878961137905 0.0023664085225660542 0 0.0031674507318303446 0.002383795664021659 0 0.0031256141389726247 0.0023705741073515906 0 0.0031674507318303446 0.002383795664021659 0 0.0032014216286733806 0.002380987326073271 0 0.0024885740467117654 0.0027717685481351839 0 0.0025350091633337484 0.0029824830592956627 0 0.0024406155643596447 0.0030709735181273018 0 0.0031674507318303446 0.002383795664021659 0 0.0032014216286733806 0.002380987326073271 0 0.0031899285814782218 0.0024242647958949109 0 0.0032126847499123756 0.0025067182800267954 0 0.0032014216286733806 0.002380987326073271 0 0.0031899285814782218 0.0024242647958949109 0 0.0024885740467117654 0.0027717685481351839 0 0.0026944522459437948 0.0028489718442193551 0 0.0025350091633337484 0.0029824830592956627 0 0.0026944522459437948 0.0028489718442193551 0 0.002615801906467939 0.0029906769520169404 0 0.0025350091633337484 0.0029824830592956627 0 0.0027861610092411093 0.0026097529406745464 0 0.0024885740467117654 0.0027717685481351839 0 0.0026944522459437948 0.0028489718442193551 0 0.0028497838743252427 0.002708019578513291 0 0.0028832628720431692 0.0030288762758703958 0 0.0029987504979415271 0.0027111919907492734 0 0.0027861610092411093 0.0026097529406745464 0 0.0026944522459437948 0.0028489718442193551 0 0.0028497838743252427 0.002708019578513291 0 0.0026944522459437948 0.0028489718442193551 0 0.0028497838743252427 0.002708019578513291 0 0.0028832628720431692 0.0030288762758703958 0 0.0026032853681810962 0.0030406332826168523 0 0.0022068879011095492 0.0032681823956589523 0 0.0026944522459437948 0.0028489718442193551 0 0.0027464963395105318 0.0029916641602774656 0 0.002615801906467939 0.0029906769520169404 0 0.0022068879011095492 0.0032681823956589523 0 0.0024389734853072073 0.0034386352080959569 0 0.0027464963395105318 0.0029916641602774656 0 0.002615801906467939 0.0029906769520169404 0 0.002488806563093022 0.0031269582049945253 0 0.0027464963395105318 0.0029916641602774656 0 0.0024891812201711877 0.0031744469755322418 0 0.0023687060215783779 0.0033293423092843988 0 0.002117877938973898 0.0041217732673665634 0 0.0021633275505794376 0.0036438277045536247 0 0.0020499124172116087 0.0038034447705634789 0 0.0025350091633337484 0.0029824830592956627 0 0.002488806563093022 0.0031269582049945253 0 0.0024406155643596447 0.0030709735181273018 0 0.002615801906467939 0.0029906769520169404 0 0.0025350091633337484 0.0029824830592956627 0 0.002488806563093022 0.0031269582049945253 0 0.0027464963395105318 0.0029916641602774656 0 0.002488806563093022 0.0031269582049945253 0 0.0024891812201711877 0.0031744469755322418 0 0.0032126847499123756 0.0025067182800267954 0 0.0032014216286733806 0.002380987326073271 0 0.0032982696064183348 0.0026286648484607949 0 0.0024885740467117654 0.0027717685481351839 0 0.0024406155643596447 0.0030709735181273018 0 0.0022767889922008511 0.0031764192629499446 0 0.0027822598786439389 0.0026132565173147015 0 0.0032671245436307005 0.0029146776843563807 0 0.0024406155643596447 0.0030709735181273018 0 0.0022767889922008511 0.0031764192629499446 0 0.0023855085194751545 0.0032428552803644042 0 0.002488806563093022 0.0031269582049945253 0 0.0024406155643596447 0.0030709735181273018 0 0.0023855085194751545 0.0032428552803644042 0 0.0022767889922008511 0.0031764192629499446 0 0.0023724798080224556 0.0033535798809004183 0 0.0021589604512157463 0.0034009349907435983 0 0.0022767889922008511 0.0031764192629499446 0 0.0023855085194751545 0.0032428552803644042 0 0.0023724798080224556 0.0033535798809004183 0 0.0023855085194751545 0.0032428552803644042 0 0.0023687060215783779 0.0033293423092843988 0 0.0023724798080224556 0.0033535798809004183 0 0.002117877938973898 0.0041217732673665634 0 0.0021633275505794376 0.0036438277045536247 0 0.0023687060215783779 0.0033293423092843988 0 0.0021633275505794376 0.0036438277045536247 0 0.0021815051606763241 0.0034400689159368569 0 0.002024401886938117 0.0035975533037785937 0 0.0023855085194751545 0.0032428552803644042 0 0.0024891812201711877 0.0031744469755322418 0 0.0023687060215783779 0.0033293423092843988 0 0.002488806563093022 0.0031269582049945253 0 0.0023855085194751545 0.0032428552803644042 0 0.0024891812201711877 0.0031744469755322418 0 0.0021633275505794376 0.0036438277045536247 0 0.0023687060215783779 0.0033293423092843988 0 0.0021815051606763241 0.0034400689159368569 0 0.0023687060215783779 0.0033293423092843988 0 0.0021815051606763241 0.0034400689159368569 0 0.0022359233223645152 0.0032721759467564545 0 -0.0046509831828191062 0.0034108032882712042 0 -0.0040036761382786449 0.003239128053809508 0 -0.0080707393762451674 0.004602025060030596 0 -0.0080017712631517291 0.0045907302006076714 0 -0.0080950412593288005 0.0045194033919890696 0 -0.0080744037591828164 0.0043507799017986262 0 -0.0080949447813426952 0.0040295377058323107 0 -0.0072274337383491398 0.0039033066988320864 0 -0.0040036761382786449 0.003239128053809508 0 -0.00081493375189392852 0.0025798811850641806 0 -0.0080017712631517291 0.0045907302006076714 0 -0.0080744037591828164 0.0043507799017986262 0 -0.0080950412593288005 0.0045194033919890696 0 -0.0080017712631517291 0.0045907302006076714 0 -0.0080744037591828164 0.0043507799017986262 0 -0.0072274337383491398 0.0039033066988320864 0 -0.0040036761382786449 0.003239128053809508 0 -0.0065178755058988161 0.0032166175009049718 0 0.0023687060215783779 0.0033293423092843988 0 0.0022359233223645152 0.0032721759467564545 0 0.0023724798080224556 0.0033535798809004183 0 -0.0079077448093694078 0.0036169156179615058 0 -0.0072274337383491398 0.0039033066988320864 0 -0.0074906088087572948 0.0033716656176695568 0 -0.0080949447813426952 0.0040295377058323107 0 -0.0079077448093694078 0.0036169156179615058 0 -0.0072274337383491398 0.0039033066988320864 0 -0.0072274337383491398 0.0039033066988320864 0 -0.0074906088087572948 0.0033716656176695568 0 -0.0070788274274798807 0.00330813828637007 0 -0.00081493375189392852 0.0025798811850641806 0 -0.0011340789792604654 0.0027177161050732888 0 -0.0049546663436969866 0.0023297918589279356 0 -0.0048565844749065262 0.0020248338530899656 0 -0.0051184101112543515 0.0022573090261335379 0 -0.0048565844749065262 0.0020248338530899656 0 -0.0052104646344692234 0.0021115062762248104 0 -0.0051184101112543515 0.0022573090261335379 0 -0.0044727464552141803 0.001952203269497757 0 -0.0049546663436969866 0.0023297918589279356 0 -0.0048565844749065262 0.0020248338530899656 0 0.0030425571880049159 0.002902144330352247 0 0.0028828328568826144 0.0031146743316335752 0 0.0030867257604576723 0.0032927191180643703 0 -0.0011340789792604654 0.0027177161050732888 0 -0.0034850275154810358 0.0029280433917224548 0 -0.0052104646344692234 0.0021115062762248104 0 -0.0051184101112543515 0.0022573090261335379 0 -0.005278346482830043 0.0022649458835486192 0 0.003067241634913009 0.0032369208110426717 0 0.0030586388816346414 0.0030718218175905267 0 0.0032180761396744788 0.0028415393391360271 0 -0.0006078335629733395 0.0030568462583142083 0 -0.0011340789792604654 0.0027177161050732888 0 -0.0055903519536913832 0.0022617111854355042 0 -0.0052137308806622772 0.0021416490636670298 0 -0.005278346482830043 0.0022649458835486192 0 -0.0006078335629733395 0.0030568462583142083 0 0.0032914017524937607 0.0027475163498392706 0 0.0022781918971134497 0.0035082142388648441 0 0.0028828328568826144 0.0031146743316335752 0 0.0030867257604576723 0.0032927191180643703 0 0.0022781918971134497 0.0035082142388648441 0 0.0026996152290222619 0.0029694985739111765 0 0.0028828328568826144 0.0031146743316335752 0 0.0030586388816346414 0.0030718218175905267 0 0.0030467134381602888 0.0028877180002025763 0 0.0032180761396744788 0.0028415393391360271 0 -0.0055435582473492423 0.0024333980705501775 0 -0.005278346482830043 0.0022649458835486192 0 -0.0054145190714188296 0.0025817250897207911 0 -0.0055903519536913832 0.0022617111854355042 0 -0.0055435582473492423 0.0024333980705501775 0 -0.005278346482830043 0.0022649458835486192 0 -0.0065178755058988161 0.0032166175009049718 0 -0.0058571528257646823 0.0028364610055191838 0 -0.0049546663436969866 0.0023297918589279356 0 -0.0051184101112543515 0.0022573090261335379 0 -0.0054145190714188296 0.0025817250897207911 0 -0.0051184101112543515 0.0022573090261335379 0 -0.005278346482830043 0.0022649458835486192 0 -0.0054145190714188296 0.0025817250897207911 0 -0.0072274337383491398 0.0039033066988320864 0 -0.0064844406874430263 0.0032054142978752464 0 -0.0070788274274798807 0.00330813828637007 0 -0.0064844406874430263 0.0032054142978752464 0 -0.0071897403064493538 0.0028592613857496446 0 -0.0070788274274798807 0.00330813828637007 0 -0.0056458565265389282 0.0025349462058527031 0 -0.0055435582473492423 0.0024333980705501775 0 -0.0054145190714188296 0.0025817250897207911 0 -0.0058158662509296809 0.0025461881049235946 0 -0.0056458565265389282 0.0025349462058527031 0 -0.0054145190714188296 0.0025817250897207911 0 -0.0058158662509296809 0.0025461881049235946 0 -0.0064844406874430263 0.0032054142978752464 0 -0.0063962997954753699 0.0026100499644430434 0 -0.0058359589223055518 0.0025897086244259068 0 -0.0058571528257646823 0.0028364610055191838 0 -0.0064844406874430263 0.0032054142978752464 0 -0.0068256568936685387 0.0025943422814557996 0 -0.0071897403064493538 0.0028592613857496446 0 -0.0064844406874430263 0.0032054142978752464 0 -0.0063962997954753699 0.0026100499644430434 0 -0.0068256568936685387 0.0025943422814557996 0 -0.0068256568936685387 0.0025943422814557996 0 -0.0071897403064493538 0.0028592613857496446 0 -0.0073778292063946148 0.0025443511928071594 0 -0.0071897403064493538 0.0028592613857496446 0 -0.0073778292063946148 0.0025443511928071594 0 -0.0076051652236000375 0.0029841752000911883 0 -0.0077895926017981978 0.0022923188580265424 0 -0.0073778292063946148 0.0025443511928071594 0 -0.0077317013287121926 0.0026448169180993937 0 -0.0077895926017981978 0.0022923188580265424 0 -0.0077317013287121926 0.0026448169180993937 0 -0.0081617651898948321 0.0027592990188879687 0 -0.0077317013287121926 0.0026448169180993937 0 -0.0076051652236000375 0.0029841752000911883 0 -0.0081617651898948321 0.0027592990188879687 0 -0.0073778292063946148 0.0025443511928071594 0 -0.0077317013287121926 0.0026448169180993937 0 -0.0076051652236000375 0.0029841752000911883 0 -0.0076051652236000375 0.0029841752000911883 0 -0.0079086152511842599 0.0032523629303460584 0 -0.0074906088087572948 0.0033716656176695568 0 -0.0076051652236000375 0.0029841752000911883 0 -0.0079086152511842599 0.0032523629303460584 0 -0.0081617651898948321 0.0027592990188879687 0 -0.0079077448093694078 0.0036169156179615058 0 -0.0079086152511842599 0.0032523629303460584 0 -0.0083573557616344017 0.0033312505832249944 0 -0.0079077448093694078 0.0036169156179615058 0 -0.0079086152511842599 0.0032523629303460584 0 -0.0074906088087572948 0.0033716656176695568 0 -0.0071897403064493538 0.0028592613857496446 0 -0.0074906088087572948 0.0033716656176695568 0 -0.0070788274274798807 0.00330813828637007 0 -0.0071897403064493538 0.0028592613857496446 0 -0.0076051652236000375 0.0029841752000911883 0 -0.0074906088087572948 0.0033716656176695568 0 -0.0089570663670254912 0.0034750062937701732 0 -0.0093745802482380538 0.0027959015981134042 0 -0.0097443748035464951 0.0032865067078103397 0 -0.0087899700788110942 0.002960003902912494 0 -0.0089570663670254912 0.0034750062937701732 0 -0.0093745802482380538 0.0027959015981134042 0 -0.0087899700788110942 0.002960003902912494 0 -0.0083573557616344017 0.0033312505832249944 0 -0.0081617651898948321 0.0027592990188879687 0 -0.0087899700788110942 0.002960003902912494 0 -0.0089570663670254912 0.0034750062937701732 0 -0.0083573557616344017 0.0033312505832249944 0 -0.0079086152511842599 0.0032523629303460584 0 -0.0083573557616344017 0.0033312505832249944 0 -0.0081617651898948321 0.0027592990188879687 0 -0.0087899700788110942 0.002960003902912494 0 -0.0081617651898948321 0.0027592990188879687 0 -0.0090100956160391529 0.0024008971263700263 0 -0.0082510031594672708 0.0020991334557935986 0 -0.0081617651898948321 0.0027592990188879687 0 -0.0090100956160391529 0.0024008971263700263 0 -0.0094938105682451403 0.0022099162316290642 0 -0.0090100956160391529 0.0024008971263700263 0 -0.0093745802482380538 0.0027959015981134042 0 -0.0087899700788110942 0.002960003902912494 0 -0.0090100956160391529 0.0024008971263700263 0 -0.0093745802482380538 0.0027959015981134042 0 -0.0093745802482380538 0.0027959015981134042 0 -0.01012080080033082 0.0024760389705432919 0 -0.0097443748035464951 0.0032865067078103397 0 -0.0090944091915716643 0.0018194871319523649 0 -0.0088483228808227937 0.0023555849316606618 0 -0.0094938105682451403 0.0022099162316290642 0 -0.0093745802482380538 0.0027959015981134042 0 -0.01012080080033082 0.0024760389705432919 0 -0.0082137626020151455 0.0010691502627846212 0 -0.0082434498125275521 0.0011598267649328847 0 -0.0079374832625209758 0.0015142410365781623 0 -0.0084658444457785392 0.00092089702145707684 0 -0.0081555134945171231 0.0011167455890854644 0 -0.0083746478019717119 0.0014968077436862113 0 -0.008033708912930251 0.0011863136375103137 0 -0.0080124768831965308 0.0016248886841006144 0 -0.0081555134945171231 0.0011167455890854644 0 -0.0079459605079302831 0.0016849977747171888 0 -0.0083746478019717119 0.0014968077436862113 0 -0.0082434498125275521 0.0011598267649328847 0 -0.0079374832625209758 0.0015142410365781623 0 -0.0079459605079302831 0.0016849977747171888 0 -0.0088483228808227937 0.0023555849316606618 0 -0.0085747992276817946 0.003227982601488601 0 -0.0089570663670254912 0.0034750062937701732 0 -0.0097443748035464951 0.0032865067078103397 0 -0.0092915261705695876 0.0040882247214932216 0 -0.0079374832625209758 0.0015142410365781623 0 -0.0079459605079302831 0.0016849977747171888 0 -0.0076953000902181962 0.0019692380499235079 0 -0.0079459605079302831 0.0016849977747171888 0 -0.0076953000902181962 0.0019692380499235079 0 -0.0079388556080298 0.0019702867283735042 0 -0.0069470878011202138 0.00090295696550964197 0 -0.007306475747714385 0.00076110888690825715 0 -0.0079459605079302831 0.0016849977747171888 0 -0.0079388556080298 0.0019702867283735042 0 -0.0083746478019717119 0.0014968077436862113 0 -0.0059915782764414149 0.000130663101811603 0 -0.0062214647921517187 0.00011296630078666617 0 -0.0062178853355432618 -7.040866830650827e-06 0 -0.0059915782764414149 0.000130663101811603 0 -0.0061228514059482545 0.00028857801145185639 0 -0.0060203554524132508 0.0003180332472442862 0 -0.0059915782764414149 0.000130663101811603 0 -0.0061228514059482545 0.00028857801145185639 0 -0.0062214647921517187 0.00011296630078666617 0 -0.0069470878011202138 0.00090295696550964197 0 -0.006892210741325195 0.002267996791812213 0 -0.0076953000902181962 0.0019692380499235079 0 -0.0079388556080298 0.0019702867283735042 0 -0.0074632332720013586 0.0024515169707120085 0 -0.0085747992276817946 0.003227982601488601 0 -0.006892210741325195 0.002267996791812213 0 -0.0092915261705695876 0.0040882247214932216 0 -0.0087117095088640913 0.0040618472008183606 0 -0.0088818646969118543 0.0048139386299384558 0 -0.0089570663670254912 0.0034750062937701732 0 -0.0092915261705695876 0.0040882247214932216 0 -0.0087117095088640913 0.0040618472008183606 0 -0.0089570663670254912 0.0034750062937701732 0 -0.0087117095088640913 0.0040618472008183606 0 -0.0084032621201512153 0.003746358729421305 0 -0.0080949447813426952 0.0040295377058323107 0 -0.0087117095088640913 0.0040618472008183606 0 -0.0084032621201512153 0.003746358729421305 0 -0.0079077448093694078 0.0036169156179615058 0 -0.0083573557616344017 0.0033312505832249944 0 -0.0084032621201512153 0.003746358729421305 0 -0.0089570663670254912 0.0034750062937701732 0 -0.0083573557616344017 0.0033312505832249944 0 -0.0084032621201512153 0.003746358729421305 0 -0.0080949447813426952 0.0040295377058323107 0 -0.0079077448093694078 0.0036169156179615058 0 -0.0084032621201512153 0.003746358729421305 0 -0.0087117095088640913 0.0040618472008183606 0 -0.0083185249145844263 0.004330902053490529 0 -0.0083676286942856778 0.0045878881593881251 0 -0.0095943058039683858 0.004700202486939936 0 -0.0054209585669524329 0.003615435614292123 0 -0.0080744037591828164 0.0043507799017986262 0 -0.0080949447813426952 0.0040295377058323107 0 -0.0083185249145844263 0.004330902053490529 0 -0.0087117095088640913 0.0040618472008183606 0 -0.0083676286942856778 0.0045878881593881251 0 -0.008494038624840208 0.0050609239139068497 0 -0.0080949447813426952 0.0040295377058323107 0 -0.0087117095088640913 0.0040618472008183606 0 -0.0083185249145844263 0.004330902053490529 0 -0.0083185249145844263 0.004330902053490529 0 -0.0082239423880430818 0.00453088233355448 0 -0.0083676286942856778 0.0045878881593881251 0 -0.0080744037591828164 0.0043507799017986262 0 -0.0083185249145844263 0.004330902053490529 0 -0.0082239423880430818 0.00453088233355448 0 -0.0080744037591828164 0.0043507799017986262 0 -0.0082239423880430818 0.00453088233355448 0 -0.0080950412593288005 0.0045194033919890696 0 -0.0080707393762451674 0.004602025060030596 0 -0.0082239423880430818 0.00453088233355448 0 -0.0080950412593288005 0.0045194033919890696 0 -0.0080707393762451674 0.004602025060030596 0 -0.0082239423880430818 0.00453088233355448 0 -0.0081850861560307641 0.0046909115834341923 0 -0.0081850861560307641 0.0046909115834341923 0 -0.0083676286942856778 0.0045878881593881251 0 -0.0082902726098910817 0.0048506312795508497 0 -0.0080707393762451674 0.004602025060030596 0 -0.0080074747550246527 0.0045878535311200822 0 -0.0081850861560307641 0.0046909115834341923 0 -0.0040036761382786449 0.003239128053809508 0 -0.0045676008820332249 0.0040649335991675382 0 -0.0080074747550246527 0.0045878535311200822 0 -0.0081850861560307641 0.0046909115834341923 0 -0.0082780410841842428 0.0048298968833144877 0 0.0021815051606763241 0.0034400689159368569 0 0.0022359233223645152 0.0032721759467564545 0 0.0018653012740204699 0.0034823248860054675 0 -0.0061876035797916278 0.0051819674323874158 0 -0.0045676008820332249 0.0040649335991675382 0 -0.0082239423880430818 0.00453088233355448 0 -0.0081850861560307641 0.0046909115834341923 0 -0.0083676286942856778 0.0045878881593881251 0 -0.0083676286942856778 0.0045878881593881251 0 -0.008494038624840208 0.0050609239139068497 0 -0.0082902726098910817 0.0048506312795508497 0 -0.0054209585669524329 0.003615435614292123 0 -0.0045676008820332249 0.0040649335991675382 0 -0.0033317512166987874 0.0034937112545927883 0 -0.0043792426102133783 0.0044599183009401645 0 -0.0035668918578970294 0.0032491174031830383 0 0.0018768555085744208 0.0036861028174488874 0 0.0018653012740204699 0.0034823248860054675 0 0.0016748561558288029 0.0037360852940617299 0 -0.0045676008820332249 0.0040649335991675382 0 -0.0027529357199112619 0.0035023399274669124 0 -0.0054209585669524329 0.003615435614292123 0 -0.0027529357199112619 0.0035023399274669124 0 0.0021815051606763241 0.0034400689159368569 0 0.002024401886938117 0.0035975533037785937 0 0.0018653012740204699 0.0034823248860054675 0 0.0021633275505794376 0.0036438277045536247 0 0.002024401886938117 0.0035975533037785937 0 0.0020499124172116087 0.0038034447705634789 0 0.0018768555085744208 0.0036861028174488874 0 0.002024401886938117 0.0035975533037785937 0 0.0020499124172116087 0.0038034447705634789 0 0.0018768555085744208 0.0036861028174488874 0 0.002024401886938117 0.0035975533037785937 0 0.0018653012740204699 0.0034823248860054675 0 -0.0087117095088640913 0.0040618472008183606 0 -0.0085868175488519535 0.0050956573998068239 0 -0.0088818646969118543 0.0048139386299384558 0 -0.0047866822843414527 0.0031512429987814988 0 -0.0060203477882988304 0.0018833105225045093 0 -0.0052422341663170063 0.0035710884854921764 0 -0.0057642588780635372 0.00032163305085479644 0 -0.0058006080752670735 0.0004042762867880908 0 -0.005690711683718752 0.00044776472160409312 0 -0.0054209585669524329 0.003615435614292123 0 -0.006892210741325195 0.002267996791812213 0 -0.006892210741325195 0.002267996791812213 0 -0.0037816106302006438 0.0019781504056865032 0 -0.0057642588780635372 0.00032163305085479644 0 -0.0058006080752670735 0.0004042762867880908 0 -0.0058977039571235209 0.00036353994207545483 0 -0.0038319748185740316 0.001470324425924624 0 -0.003074887214778963 0.00077216277916630066 0 -0.0027647025199942052 0.0014442634115590584 0 -0.0058006080752670735 0.0004042762867880908 0 -0.0057109295086719292 0.00046582341632982882 0 -0.0059633371181491458 0.00045776608848954135 0 -0.0015356548241896933 0.0025028537348743846 0 -0.00033370018135088329 0.0014877689716168237 0 0.0004393543090994731 0.0022320482506571751 0 0.00037977529451025375 0.0020861855532854894 0 0.00071041295628647644 0.0018360240154029295 0 -0.0020199887969119127 0.0024261216341170235 0 -0.0022203611108628615 0.0023227476671789527 0 -0.001431804402521656 0.0011675663346187551 0 -0.0036055518871703951 0.0018433479871958847 0 -0.0020682875191419562 0.0011818347397263181 0 -0.0036055518871703951 0.0018433479871958847 0 -0.0047779510303060926 0.00058946930271238436 0 -0.0020199887969119127 0.0024261216341170235 0 -0.001431804402521656 0.0011675663346187551 0 -0.0010616871915680292 0.0015489979957194484 0 -0.0058006080752670735 0.0004042762867880908 0 -0.0057109295086719292 0.00046582341632982882 0 -0.005690711683718752 0.00044776472160409312 0 -0.0032748131157681803 0.0014748957966854537 0 -0.0039010573497520185 0.0020524509080201802 0 -0.0041544382960863055 0.0014933897081946307 0 -0.0036055518871703951 0.0018433479871958847 0 -0.0027171700649353575 0.002271110006986109 0 -0.0037816106302006438 0.0019781504056865032 0 -0.0027171700649353575 0.002271110006986109 0 -0.0031578990142394725 0.0024829957820526813 0 -0.0033061476233507991 0.0021548439269490688 0 -0.0035389489475480167 0.0024999332425643867 0 -0.0036055518871703951 0.0018433479871958847 0 -0.0037816106302006438 0.0019781504056865032 0 -0.0020199887969119127 0.0024261216341170235 0 -0.0021728232270606706 0.0024299083713009467 0 -0.0022203611108628615 0.0023227476671789527 0 0.0018768555085744208 0.0036861028174488874 0 0.0020499124172116087 0.0038034447705634789 0 0.0017654442889803825 0.0038249325844733175 0 0.0018944037709404803 0.0036940392317468865 0 -0.00016558396712255149 0.0036326266057807263 0 0.002117877938973898 0.0041217732673665634 0 0.0020499124172116087 0.0038034447705634789 0 0.0017911202645445241 0.0038076915950528783 0 0.0018768555085744208 0.0036861028174488874 0 0.0017654442889803825 0.0038249325844733175 0 0.0016748561558288029 0.0037360852940617299 0 -0.00085413421823007409 0.0025178325387760479 0 -0.00091101853598909814 0.002562962881497204 0 -0.00082582349636879128 0.0027382146586544596 0 0.00088127332769214427 0.0028777356517426856 0 0.00085182219357334324 0.0028781559215393087 0 0.00086622823697372886 0.0029499797920148202 0 -0.00016558396712255149 0.0036326266057807263 0 -0.0027529357199112619 0.0035023399274669124 0 -0.0020643017829044654 0.0033043914230084571 0 -0.0020878081422979204 0.0032833582858451302 0 -0.0020921824542957951 0.0033037945566749584 0 -0.00016558396712255149 0.0036326266057807263 0 -0.0016506879507540504 0.0028712996145696668 0 -0.0054209585669524329 0.003615435614292123 0 -0.0037816106302006438 0.0019781504056865032 0 -0.0037755105604448617 0.0030521001653229158 0 -0.0031578990142394725 0.0024829957820526813 0 -0.0035389489475480167 0.0024999332425643867 0 -0.0037755105604448617 0.0030521001653229158 0 -0.0035389489475480167 0.0024999332425643867 0 -0.0040924700188253796 0.0027218210681193597 0 -0.0035389489475480167 0.0024999332425643867 0 -0.0040924700188253796 0.0027218210681193597 0 -0.0039453719064549133 0.0021689375281251804 0 -0.0027529357199112619 0.0035023399274669124 0 -0.0016506879507540504 0.0028712996145696668 0 -0.0033061476233507991 0.0021548439269490688 0 -0.0035389489475480167 0.0024999332425643867 0 -0.0039453719064549133 0.0021689375281251804 0 -0.0027171700649353575 0.002271110006986109 0 -0.0016506879507540504 0.0028712996145696668 0 -0.0016506879507540504 0.0028712996145696668 0 -0.0015356548241896933 0.0025028537348743846 0 -0.0013318435661348071 0.0030832081480064544 0 -0.0019802909743843124 0.0030974426609380185 0 -0.0014976989067749212 0.0027167163704605569 0 -0.0027171700649353575 0.002271110006986109 0 -0.0015356548241896933 0.0025028537348743846 0 -0.0016506879507540504 0.0028712996145696668 0 -8.2848806312842564e-06 0.0026241513568237024 0 -0.0015356548241896933 0.0025028537348743846 0 -8.2848806312842564e-06 0.0026241513568237024 0 0.0022068879011095492 0.0032681823956589523 0 -0.00016558396712255149 0.0036326266057807263 0 0.00097766217571788384 0.0029638595885296583 0 0.00088127332769214427 0.0028777356517426856 0 0.00086622823697372886 0.0029499797920148202 0 -8.2848806312842564e-06 0.0026241513568237024 0 0.002015947664281822 0.0026099544793202413 0 0.0010972869671446457 0.0024041318664515224 0 0.0010709544353063893 0.0023048671971816451 0 0.0011033073967921915 0.0023138258003598412 0 0.0022068879011095492 0.0032681823956589523 0 0.002015947664281822 0.0026099544793202413 0 0.00097766217571788384 0.0029638595885296583 0 0.00086622823697372886 0.0029499797920148202 0 0.0009420629924436209 0.0030835166841886152 0 -8.2848806312842564e-06 0.0026241513568237024 0 0.00073540225355093818 0.0019451600808912174 0 0.00036458680936840733 0.0017779247321014148 0 0.00071041295628647644 0.0018360240154029295 0 0.00065675753703771833 0.0015211345192741232 0 0.00037977529451025375 0.0020861855532854894 0 0.00036458680936840733 0.0017779247321014148 0 0.00071041295628647644 0.0018360240154029295 0 0.00065675753703771833 0.0015211345192741232 0 0.00035055899422766179 0.0014809678795149142 0 0.00075273421929879355 0.0011972044731220527 0 0.0030212914387169154 0.0024170412280434608 0 0.002015947664281822 0.0026099544793202413 0 0.0030136542085076015 0.0023261433749430251 0 0.0029849920423791151 0.0022906152469328268 0 0.0029813621192402761 0.0023192167484207241 0 0.00036458680936840733 0.0017779247321014148 0 0.00065675753703771833 0.0015211345192741232 0 0.00035055899422766179 0.0014809678795149142 0 0.002015947664281822 0.0026099544793202413 0 0.0018106885031816892 0.0021333798506099795 0 0.0010709544353063893 0.0023048671971816451 0 0.0011033073967921915 0.0023138258003598412 0 0.0011060742008856038 0.0022242640535604474 0 0.00073540225355093818 0.0019451600808912174 0 0.0018106885031816892 0.0021333798506099795 0 -0.00063710399843259168 0.00026163630117304602 0 0.00049429537194703736 -0.00024154930738010005 0 -0.0013266838010301746 0.00024933215384259232 0 -0.00070669806396565283 0.00010434785867627542 0 -0.00052528232469662816 -0.00048196666397326484 0 0.0011804523089462189 -0.0002949793798952618 0 0.0011732006961771759 -0.00022528376338111421 0 0.0010505026089310571 -0.00018166276968523519 0 0.0011804523089462189 -0.0002949793798952618 0 0.0011732006961771759 -0.00022528376338111421 0 0.0012422058266668746 -0.00022593572052182577 0 0.00071041295628647644 0.0018360240154029295 0 0.00065675753703771833 0.0015211345192741232 0 0.00096315355821022328 0.0014532889441052689 0 -0.00033370018135088329 0.0014877689716168237 0 0.00057575054789827447 0.00053390469775700059 0 -0.001431804402521656 0.0011675663346187551 0 -0.00011763668334726294 0.00068162230558335278 0 -0.00065583898975654913 2.8112608872950476e-05 0 -0.00063710399843259168 0.00026163630117304602 0 0.00057575054789827447 0.00053390469775700059 0 -0.00063710399843259168 0.00026163630117304602 0 -0.0020682875191419562 0.0011818347397263181 0 -0.001431804402521656 0.0011675663346187551 0 -0.00011763668334726294 0.00068162230558335278 0 -0.0010616871915680292 0.0015489979957194484 0 -0.0023094893554133516 7.3207783404050878e-05 0 -0.003074887214778963 0.00077216277916630066 0 -0.0019892564060655215 0.00046525517816076693 0 -0.0013266838010301746 0.00024933215384259232 0 -0.0010704094905780866 0.00056298326941677836 0 -0.00070669806396565283 0.00010434785867627542 0 -0.00063710399843259168 0.00026163630117304602 0 -0.0023423440294155591 0.00024872541828544804 0 -0.0023423440294155591 0.00024872541828544804 0 -0.001550447661164093 9.9962309262788314e-05 0 -0.0040529419050880661 0.00027102476121373378 0 -0.004060703362357785 0.00046634497439916313 0 -0.003906581711969997 0.00046183548311457478 0 -0.0040529419050880661 0.00027102476121373378 0 -0.004060703362357785 0.00046634497439916313 0 -0.0042212831875738533 0.00047104188624343607 0 -0.0052111012453143393 0.00042622498833800839 0 -0.0047779510303060926 0.00058946930271238436 0 -0.0023423440294155591 0.00024872541828544804 0 -0.0047779510303060926 0.00058946930271238436 0 -0.003074887214778963 0.00077216277916630066 0 -0.0019892564060655215 0.00046525517816076693 0 -0.0027647025199942052 0.0014442634115590584 0 -0.0059915782764414149 0.000130663101811603 0 -0.0058977039571235209 0.00036353994207545483 0 -0.0060203554524132508 0.0003180332472442862 0 -0.0059915782764414149 0.000130663101811603 0 -0.0057642588780635372 0.00032163305085479644 0 -0.0058977039571235209 0.00036353994207545483 0 -0.0058006080752670735 0.0004042762867880908 0 -0.0059633371181491458 0.00045776608848954135 0 -0.0058977039571235209 0.00036353994207545483 0 -0.0047779510303060926 0.00058946930271238436 0 -0.0056527106686936413 0.00066710910255167357 0 -0.0059565609889206152 0.00040899325542051906 0 -0.0058977039571235209 0.00036353994207545483 0 -0.0060203554524132508 0.0003180332472442862 0 -0.0060753637048376538 0.00037518203548518245 0 -0.0061228514059482545 0.00028857801145185639 0 -0.0060203554524132508 0.0003180332472442862 0 -0.0060753637048376538 0.00037518203548518245 0 -0.0059565609889206152 0.00040899325542051906 0 -0.0060203554524132508 0.0003180332472442862 0 -0.0060753637048376538 0.00037518203548518245 0 -0.0061228514059482545 0.00028857801145185639 0 -0.0061099111405899078 0.00032417183093029131 0 -0.0063095922543458076 0.00029861065808076625 0 -0.0057854630044073055 0.00038769936035250123 0 -0.0061099111405899078 0.00032417183093029131 0 -0.0060871753614091528 0.00034110970491383735 0 -0.0061023053060749238 0.00032930806270555814 0 -0.0061228514059482545 0.00028857801145185639 0 -0.0063800065280643472 0.00034434811810258491 0 -0.0062633122990618188 0.00021088308104442755 0 -0.0061228514059482545 0.00028857801145185639 0 -0.0061099111405899078 0.00032417183093029131 0 -0.0060871753614091528 0.00034110970491383735 0 -0.0063369551647943787 0.00014842894950433926 0 -0.0063571692498008391 0.00012837376655572407 0 -0.0063478569490174087 0.00012288462570668058 0 -0.0057854630044073055 0.00038769936035250123 0 -0.0064378959880813449 8.9615624428633788e-05 0 -0.0023161885594975809 9.8406604044378026e-05 0 -0.0023559472294655132 9.9421513299220222e-05 0 -0.0023282833002974236 5.9284573569212765e-05 0 -0.0039009225149076831 -5.1307119543740435e-05 0 -0.0043594948797769078 0.00037039223141436184 0 -0.006076763135334882 0.00032533751420226869 0 -0.0061023053060749238 0.00032930806270555814 0 -0.0061030988234746205 0.00032598928110537948 0 -0.0057854630044073055 0.00038769936035250123 0 -0.0039009225149076831 -5.1307119543740435e-05 0 -0.0060871753614091528 0.00034110970491383735 0 -0.006076763135334882 0.00032533751420226869 0 -0.0061023053060749238 0.00032930806270555814 0 -0.0023423440294155591 0.00024872541828544804 0 -0.0043594948797769078 0.00037039223141436184 0 -0.0060753637048376538 0.00037518203548518245 0 -0.0061099111405899078 0.00032417183093029131 0 -0.0061075130246789813 0.00033298234674624289 0 -0.0052111012453143393 0.00042622498833800839 0 -0.0043594948797769078 0.00037039223141436184 0 -0.0061099111405899078 0.00032417183093029131 0 -0.0061023053060749238 0.00032930806270555814 0 -0.0061075130246789813 0.00033298234674624289 0 -0.00465250419282683 0.00018910724588271533 0 -0.0043594948797769078 0.00037039223141436184 0 -0.0023836289768308762 5.2147621481848766e-05 0 -0.0023559472294655132 9.9421513299220222e-05 0 -0.0023509633630288168 5.1287271763069736e-05 0 -0.0023559472294655132 9.9421513299220222e-05 0 -0.0023509633630288168 5.1287271763069736e-05 0 -0.0023282833002974236 5.9284573569212765e-05 0 -0.0023836289768308762 5.2147621481848766e-05 0 -0.0023509633630288168 5.1287271763069736e-05 0 -0.0023544489915146064 2.0037396466348271e-05 0 -0.0023509633630288168 5.1287271763069736e-05 0 -0.0023282833002974236 5.9284573569212765e-05 0 -0.0023212362192767981 2.7392978954748165e-05 0 -0.0023161885594975809 9.8406604044378026e-05 0 -0.0023282833002974236 5.9284573569212765e-05 0 -0.0022850007374963085 2.8641107688529463e-05 0 -0.0039009225149076831 -5.1307119543740435e-05 0 -0.0012538774471373734 -2.0797039641048569e-05 0 -0.0023282833002974236 5.9284573569212765e-05 0 -0.0023212362192767981 2.7392978954748165e-05 0 -0.0022850007374963085 2.8641107688529463e-05 0 0.00066166997980214863 -7.7699858791220621e-05 0 0.00064348246990167098 -8.9487646562771888e-05 0 0.00064135862693577063 9.2481771468897578e-05 0 -0.0005983417636867929 -0.00012521841800426918 0 -0.00041094217535739269 -0.00025390086273644879 0 -0.00062640354243114686 -6.2832382843278181e-05 0 0.00053939116138500352 3.2043730176576183e-05 0 -0.0005983417636867929 -0.00012521841800426918 0 0.00081011988698576867 -1.253649387299789e-05 0 -0.0023212362192767981 2.7392978954748165e-05 0 -0.0022851477119951204 1.8538719895302944e-05 0 -0.0023193386524625686 -1.2446843588630124e-05 0 -0.0023212362192767981 2.7392978954748165e-05 0 -0.0022850007374963085 2.8641107688529463e-05 0 -0.0022851477119951204 1.8538719895302944e-05 0 -0.0012538774471373734 -2.0797039641048569e-05 0 -0.00062640354243114686 -6.2832382843278181e-05 0 -0.0012538774471373734 -2.0797039641048569e-05 0 -0.0005983417636867929 -0.00012521841800426918 0 -0.00095046918475491765 -9.2052086400147188e-05 0 -0.00091868402340563855 1.0958764370816768e-05 0 -0.00095667660093553251 -1.4978268010597142e-05 0 -0.0005983417636867929 -0.00012521841800426918 0 -0.00062640354243114686 -6.2832382843278181e-05 0 -0.0023212362192767981 2.7392978954748165e-05 0 -0.0023544489915146064 2.0037396466348271e-05 0 -0.0023193386524625686 -1.2446843588630124e-05 0 -0.00070669806396565283 0.00010434785867627542 0 -0.00052528232469662816 -0.00048196666397326484 0 -0.00034289804566390745 -0.00035553897563885174 0 -0.001550447661164093 9.9962309262788314e-05 0 -0.00041094217535739269 -0.00025390086273644879 0 -0.0023509633630288168 5.1287271763069736e-05 0 -0.0023212362192767981 2.7392978954748165e-05 0 -0.0023544489915146064 2.0037396466348271e-05 0 -0.00033510610300874861 3.8062416958653565e-07 0 0.0002026133210856652 1.8948261477425936e-05 0 -0.00019084742420311665 -0.00018124708692987294 0 -0.0016910768449341534 2.5969472694423793e-05 0 -0.0016903571393213879 3.1107053081001595e-05 0 -0.0017180436666293566 1.0652503961726277e-05 0 0.00049940108739049405 -0.00010066250898675274 0 0.0002026133210856652 1.8948261477425936e-05 0 -0.00019084742420311665 -0.00018124708692987294 0 0.00049940108739049405 -0.00010066250898675274 0 0.00046554482555188957 3.7222559437382314e-05 0 0.00064135862693577063 9.2481771468897578e-05 0 0.00049940108739049405 -0.00010066250898675274 0 0.0002026133210856652 1.8948261477425936e-05 0 0.00046554482555188957 3.7222559437382314e-05 0 -0.00062640354243114686 -6.2832382843278181e-05 0 -0.00092954869412203371 -1.8205403300154631e-05 0 -0.0016910768449341534 2.5969472694423793e-05 0 -0.0017180436666293566 1.0652503961726277e-05 0 -0.0017100452227427345 8.7290137954372477e-06 0 -0.0016910768449341534 2.5969472694423793e-05 0 -0.0017100452227427345 8.7290137954372477e-06 0 -0.0016944907197113486 -1.5676605066983845e-05 0 -0.0012538774471373734 -2.0797039641048569e-05 0 -0.0030042067683850203 -2.6962249807943446e-05 0 -0.0017180436666293566 1.0652503961726277e-05 0 -0.0016255304146248141 3.0883779344055664e-08 0 -0.0017102044008064181 2.4935853508159345e-05 0 -0.00092954869412203371 -1.8205403300154631e-05 0 -0.0016236490996750636 -1.1501001992006056e-08 0 -0.0017180436666293566 1.0652503961726277e-05 0 -0.0017102044008064181 2.4935853508159345e-05 0 -0.0017100452227427345 8.7290137954372477e-06 0 -0.00033510610300874861 3.8062416958653565e-07 0 -0.00019084742420311665 -0.00018124708692987294 0 -0.0016222074854724115 -1.1000162389748306e-06 0 -0.0017102044008064181 2.4935853508159345e-05 0 -0.0019967694650297398 -3.2493440340185994e-08 0 -0.0017589008284952413 -5.3765995014557413e-05 0 -0.0016255304146248141 3.0883779344055664e-08 0 -0.0017102044008064181 2.4935853508159345e-05 0 -0.0019967694650297398 -3.2493440340185994e-08 0 -0.0021585088314732925 -0.00013820145493169804 0 -0.0030042067683850203 -2.6962249807943446e-05 0 -0.0017102044008064181 2.4935853508159345e-05 0 -0.0017589008284952413 -5.3765995014557413e-05 0 -0.0017100452227427345 8.7290137954372477e-06 0 -0.0021585088314732925 -0.00013820145493169804 0 -0.0041095444934658816 -0.0001574497844992777 0 -0.001999819188091027 -6.9418551519671009e-07 0 -0.0026477016775318619 -0.00012660096148267176 0 -0.0029182626869329784 3.5748099038294808e-05 0 -0.0019984930103124593 -1.6589220633000321e-07 0 -0.0021585088314732925 -0.00013820145493169804 0 -0.0023404435664536112 -0.00027350044956130244 0 -0.003448027023099519 6.1435443038684946e-05 0 -0.0035551544714193433 -0.0003001887079690142 0 -0.00257395616162155 -0.00012501813431997315 0 -0.0025698853592459516 6.2560439257681793e-05 0 -0.0026456207295125944 -0.0001235649392068102 0 -0.0017589008284952413 -5.3765995014557413e-05 0 -0.0017100452227427345 8.7290137954372477e-06 0 -0.0016944907197113486 -1.5676605066983845e-05 0 -0.0041095444934658816 -0.0001574497844992777 0 -0.0030042067683850203 -2.6962249807943446e-05 0 -0.0045669498925824687 -0.00018369933078461471 0 -0.003807783931096148 0.00010380871826130112 0 -0.0038964116194488683 -0.00019765377360183073 0 -0.0046185502228531898 0.00034896343863845589 0 -0.0045669498925824687 -0.00018369933078461471 0 -0.003807783931096148 0.00010380871826130112 0 -0.0039009225149076831 -5.1307119543740435e-05 0 -0.0030042067683850203 -2.6962249807943446e-05 0 -0.0063557684861505039 0.00016295775643378448 0 -0.0063571692498008391 0.00012837376655572407 0 -0.0063928025626962771 9.1749986700728588e-05 0 -0.0041095444934658816 -0.0001574497844992777 0 -0.004985681434209922 0.00014381243182632944 0 -0.0063369551647943787 0.00014842894950433926 0 -0.0063557684861505039 0.00016295775643378448 0 -0.0063571692498008391 0.00012837376655572407 0 -0.0057854630044073055 0.00038769936035250123 0 -0.0041095444934658816 -0.0001574497844992777 0 -0.0030405752375397854 -4.0771123494395652e-05 0 -0.0029182626869329784 3.5748099038294808e-05 0 -0.0033974408527050804 6.8245141283604249e-05 0 -0.001999819188091027 -6.9418551519671009e-07 0 -0.0029182626869329784 3.5748099038294808e-05 0 -0.0033596061773090253 5.3741317519777274e-07 0 -0.0026477016775318619 -0.00012660096148267176 0 -0.0030405752375397854 -4.0771123494395652e-05 0 -0.0029182626869329784 3.5748099038294808e-05 0 -0.0029182626869329784 3.5748099038294808e-05 0 -0.0033596061773090253 5.3741317519777274e-07 0 -0.0033974408527050804 6.8245141283604249e-05 0 -0.0033596061773090253 5.3741317519777274e-07 0 -0.0033974408527050804 6.8245141283604249e-05 0 -0.0047209767050106401 -1.4400168173255888e-07 0 -0.004985681434209922 0.00014381243182632944 0 -0.0054683821818330095 4.5634117103912359e-05 0 -0.0033974408527050804 6.8245141283604249e-05 0 -0.0047209767050106401 -1.4400168173255888e-07 0 -0.0046274046327312033 -2.7867240778583814e-05 0 -0.0063928025626962771 9.1749986700728588e-05 0 -0.0063821426653274766 1.3269214638726307e-05 0 -0.0063835322973685195 -5.6631201877994702e-05 0 -0.0063928025626962771 9.1749986700728588e-05 0 -0.0063478569490174087 0.00012288462570668058 0 -0.0063821426653274766 1.3269214638726307e-05 0 -0.0063571692498008391 0.00012837376655572407 0 -0.0063928025626962771 9.1749986700728588e-05 0 -0.0063478569490174087 0.00012288462570668058 0 -0.0063800065280643472 0.00034434811810258491 0 -0.0063478569490174087 0.00012288462570668058 0 -0.0062633122990618188 0.00021088308104442755 0 -0.0061228514059482545 0.00028857801145185639 0 -0.0062633122990618188 0.00021088308104442755 0 -0.0062214647921517187 0.00011296630078666617 0 -0.0063478569490174087 0.00012288462570668058 0 -0.0062633122990618188 0.00021088308104442755 0 -0.0062214647921517187 0.00011296630078666617 0 -0.0062214647921517187 0.00011296630078666617 0 -0.0063821426653274766 1.3269214638726307e-05 0 -0.0062178853355432618 -7.040866830650827e-06 0 -0.0063478569490174087 0.00012288462570668058 0 -0.0062214647921517187 0.00011296630078666617 0 -0.0063821426653274766 1.3269214638726307e-05 0 -0.0063821426653274766 1.3269214638726307e-05 0 -0.0062178853355432618 -7.040866830650827e-06 0 -0.006403145242996836 -3.0825360662695486e-05 0 -0.007306475747714385 0.00076110888690825715 0 -0.0075225974728268469 0.00057169824768215163 0 -0.0084658444457785392 0.00092089702145707684 0 -0.0083746478019717119 0.0014968077436862113 0 -0.0088016552570080748 0.0010260887144986788 0 -0.0063821426653274766 1.3269214638726307e-05 0 -0.006403145242996836 -3.0825360662695486e-05 0 -0.0064994903010333026 7.8254655777899529e-06 0 -0.0064994903010333026 7.8254655777899529e-06 0 -0.0060848604888230646 6.4815631062777093e-08 0 -0.0063835322973685195 -5.6631201877994702e-05 0 -0.0060824740927321128 -9.5415553904052061e-08 0 -0.0047209767050106401 -1.4400168173255888e-07 0 -0.0046274046327312033 -2.7867240778583814e-05 0 -0.0060826070820197819 2.2237329184903708e-07 0 -0.0054683821818330095 4.5634117103912359e-05 0 -0.0063821426653274766 1.3269214638726307e-05 0 -0.0064994903010333026 7.8254655777899529e-06 0 -0.0063835322973685195 -5.6631201877994702e-05 0 -0.003854117069977776 0.002683657765625287 0 -0.004892031477674961 0.0018133072318666443 0 -0.005046502613231192 0.0033450910361798383 0 -0.0039945222792057769 0.002930283563791364 0 -0.004014379934310492 0.00358695304918235 0 -0.003854117069977776 0.002683657765625287 0 -0.0031718616602690376 0.0023998220843644748 0 -0.003084967576865326 0.0028153388439171806 0 -0.003854117069977776 0.002683657765625287 0 -0.0031718616602690376 0.0023998220843644748 0 -0.0032540135487155405 0.001603722862096603 0 -0.0031718616602690376 0.0023998220843644748 0 -0.0032540135487155405 0.001603722862096603 0 -0.002741578348946146 0.0024607395696358688 0 -0.0031718616602690376 0.0023998220843644748 0 -0.003084967576865326 0.0028153388439171806 0 -0.002741578348946146 0.0024607395696358688 0 -0.0031187281290633194 0.0022429349658471369 0 -0.002741578348946146 0.0024607395696358688 0 -0.0029326423700956439 0.0020455678713622947 0 -0.0032917190884138355 0.0018691649008405794 0 -0.0027387517943734349 0.0024132260422865585 0 -0.003854117069977776 0.002683657765625287 0 -0.0032540135487155405 0.001603722862096603 0 -0.004892031477674961 0.0018133072318666443 0 -0.0032540135487155405 0.001603722862096603 0 -0.004892031477674961 0.0018133072318666443 0 -0.0049154611482355604 0.00017756721641406885 0 -0.0032917190884138355 0.0018691649008405794 0 -0.0037919144691507928 0.0013047639329055775 0 -0.004892031477674961 0.0018133072318666443 0 -0.0064329031066362513 0.00057438606263771541 0 -0.0049154611482355604 0.00017756721641406885 0 -0.004892031477674961 0.0018133072318666443 0 -0.0063245391422246579 0.0024520164787944954 0 -0.0064329031066362513 0.00057438606263771541 0 -0.0077010033142082207 0.001441456762132006 0 -0.0063245391422246579 0.0024520164787944954 0 -0.0064329031066362513 0.00057438606263771541 0 -0.0068393888984436347 0.0027771690804548298 0 -0.0062526710624157414 0.0029089315345053502 0 -0.0065353882158186915 0.0030677639959916041 0 -0.0058570840974601565 0.0036760542907288284 0 -0.00568511889586947 0.0044292770666015582 0 -0.0068393888984436347 0.0027771690804548298 0 -0.0055736737089872824 0.0045824795767836195 0 -0.0065688459803976635 0.0041110332204217876 0 -0.00568511889586947 0.0044292770666015582 0 -0.006253211442600437 0.0045129157683684133 0 -0.0064334758878010559 0.0033567231089062658 0 -0.0065688459803976635 0.0041110332204217876 0 -0.00568511889586947 0.0044292770666015582 0 -0.004892031477674961 0.0018133072318666443 0 -0.0063245391422246579 0.0024520164787944954 0 -0.005046502613231192 0.0033450910361798383 0 -0.0062526710624157414 0.0029089315345053502 0 -0.004014379934310492 0.00358695304918235 0 -0.0058570840974601565 0.0036760542907288284 0 -0.0052170212458146469 0.0042897347056707613 0 -0.00568511889586947 0.0044292770666015582 0 -0.0022243025765497034 0.004024554628121832 0 -0.0021974270278172152 0.0037815307516596503 0 -0.0019863594858716134 0.0038852800949416735 0 -0.0021974270278172152 0.0037815307516596503 0 -0.0019863594858716134 0.0038852800949416735 0 -0.0020674460330907 0.0035936346964992906 0 -0.0052170212458146469 0.0042897347056707613 0 -0.00568511889586947 0.0044292770666015582 0 -0.0059452165598662095 0.0046099781682998504 0 -0.004014379934310492 0.00358695304918235 0 -0.0042062156558885407 0.0043409026488175247 0 -0.0019863594858716134 0.0038852800949416735 0 -0.0020674460330907 0.0035936346964992906 0 -0.0018100087306361749 0.0038042352498834993 0 -0.0065688459803976635 0.0041110332204217876 0 -0.006253211442600437 0.0045129157683684133 0 -0.0065856397111831999 0.0048854057628567151 0 -0.006253211442600437 0.0045129157683684133 0 -0.0059452165598662095 0.0046099781682998504 0 -0.0065856397111831999 0.0048854057628567151 0 -0.00568511889586947 0.0044292770666015582 0 -0.006253211442600437 0.0045129157683684133 0 -0.0059452165598662095 0.0046099781682998504 0 -0.0042062156558885407 0.0043409026488175247 0 -0.0026033943833627632 0.0037781452086833671 0 -0.0016735426672303871 0.003735109137782599 0 -0.0026033943833627632 0.0037781452086833671 0 -0.0020674460330907 0.0035936346964992906 0 -0.0014936962152164099 0.0040493891148724722 0 -0.0013462989583024147 0.0037388372908718961 0 -0.0021974270278172152 0.0037815307516596503 0 -0.0020674460330907 0.0035936346964992906 0 -0.0023827891171496729 0.0035796257813829305 0 -0.0020674460330907 0.0035936346964992906 0 -0.0023827891171496729 0.0035796257813829305 0 -0.0024641348863387227 0.0033693610068387908 0 -0.0023827891171496729 0.0035796257813829305 0 -0.0028794337215095386 0.0033821458492413973 0 -0.0024641348863387227 0.0033693610068387908 0 -0.0023827891171496729 0.0035796257813829305 0 -0.0024726790602141052 0.0038505583830524509 0 -0.0028794337215095386 0.0033821458492413973 0 -0.0021974270278172152 0.0037815307516596503 0 -0.0023827891171496729 0.0035796257813829305 0 -0.0024726790602141052 0.0038505583830524509 0 -0.0030265044060719232 0.003514077640796772 0 -0.0029740787505937241 0.0034007567677156875 0 -0.003854117069977776 0.002683657765625287 0 -0.0036818716271250114 0.0030913029337301398 0 -0.003084967576865326 0.0028153388439171806 0 -0.003854117069977776 0.002683657765625287 0 -0.0040888102329562281 0.0028260570589250813 0 -0.0036818716271250114 0.0030913029337301398 0 -0.004014379934310492 0.00358695304918235 0 -0.0030265044060719232 0.003514077640796772 0 -0.0022243025765497034 0.004024554628121832 0 -0.0021974270278172152 0.0037815307516596503 0 -0.0024726790602141052 0.0038505583830524509 0 -0.0036818716271250114 0.0030913029337301398 0 -0.003084967576865326 0.0028153388439171806 0 -0.0028794337215095386 0.0033821458492413973 0 -0.003084967576865326 0.0028153388439171806 0 -0.0028794337215095386 0.0033821458492413973 0 -0.0027350686736299862 0.0029872492032745768 0 -0.0028794337215095386 0.0033821458492413973 0 -0.0027077553570834254 0.0031906362253700648 0 -0.0027350686736299862 0.0029872492032745768 0 -0.0028794337215095386 0.0033821458492413973 0 -0.0026824084941524675 0.0032803864909039591 0 -0.0024641348863387227 0.0033693610068387908 0 -0.0028794337215095386 0.0033821458492413973 0 -0.0027077553570834254 0.0031906362253700648 0 -0.0026824084941524675 0.0032803864909039591 0 -0.0027077553570834254 0.0031906362253700648 0 -0.0025801322977270814 0.0030399265353712904 0 -0.002619397492419716 0.0031870421388790564 0 -0.0027077553570834254 0.0031906362253700648 0 -0.0025801322977270814 0.0030399265353712904 0 -0.0027350686736299862 0.0029872492032745768 0 -0.0025801322977270814 0.0030399265353712904 0 -0.0024637145860940241 0.0028998267751802727 0 -0.0025664377287394633 0.0027873229203830862 0 -0.0025801322977270814 0.0030399265353712904 0 -0.0024637145860940241 0.0028998267751802727 0 -0.0024498433267706996 0.0030184470104863792 0 -0.0025664377287394633 0.0027873229203830862 0 -0.0024066111720168629 0.0027145554853493345 0 -0.0025390562688005149 0.0024632062817116418 0 -0.0024637145860940241 0.0028998267751802727 0 -0.0025664377287394633 0.0027873229203830862 0 -0.0024066111720168629 0.0027145554853493345 0 -0.0025801322977270814 0.0030399265353712904 0 -0.0025664377287394633 0.0027873229203830862 0 -0.0027350686736299862 0.0029872492032745768 0 -0.003084967576865326 0.0028153388439171806 0 -0.0027350686736299862 0.0029872492032745768 0 -0.002741578348946146 0.0024607395696358688 0 -0.0025664377287394633 0.0027873229203830862 0 -0.0027350686736299862 0.0029872492032745768 0 -0.002741578348946146 0.0024607395696358688 0 -0.0021267691976824352 0.002836127590787036 0 -0.0023085852608133155 0.0029128850222414522 0 -0.0022287876138996428 0.0026555963060239142 0 -0.002027783579444341 0.0026099361109346423 0 -0.0021267691976824352 0.002836127590787036 0 -0.0022287876138996428 0.0026555963060239142 0 -0.0024637145860940241 0.0028998267751802727 0 -0.0023085852608133155 0.0029128850222414522 0 -0.0024066111720168629 0.0027145554853493345 0 -0.0023085852608133155 0.0029128850222414522 0 -0.0024066111720168629 0.0027145554853493345 0 -0.0022287876138996428 0.0026555963060239142 0 -0.0024637145860940241 0.0028998267751802727 0 -0.0023085852608133155 0.0029128850222414522 0 -0.0024498433267706996 0.0030184470104863792 0 -0.0024066111720168629 0.0027145554853493345 0 -0.0022287876138996428 0.0026555963060239142 0 -0.0023396759312407996 0.0023960821895691975 0 -0.0021560727191274501 0.0024194448827057776 0 -0.0022287876138996428 0.0026555963060239142 0 -0.0023396759312407996 0.0023960821895691975 0 -0.002027783579444341 0.0026099361109346423 0 -0.0021560727191274501 0.0024194448827057776 0 -0.0022287876138996428 0.0026555963060239142 0 -0.0021560727191274501 0.0024194448827057776 0 -0.0022263719281252585 0.0021096603888285602 0 -0.0023396759312407996 0.0023960821895691975 0 -0.0023396759312407996 0.0023960821895691975 0 -0.0025095793539378929 0.0021785347670812043 0 -0.0025390562688005149 0.0024632062817116418 0 -0.0024066111720168629 0.0027145554853493345 0 -0.0023396759312407996 0.0023960821895691975 0 -0.0025390562688005149 0.0024632062817116418 0 -0.0022263719281252585 0.0021096603888285602 0 -0.0023396759312407996 0.0023960821895691975 0 -0.0025095793539378929 0.0021785347670812043 0 -0.0022263719281252585 0.0021096603888285602 0 -0.0025095793539378929 0.0021785347670812043 0 -0.0024658466571938426 0.0019566609621759178 0 -0.002741578348946146 0.0024607395696358688 0 -0.0025390562688005149 0.0024632062817116418 0 -0.0026933748832616085 0.0021469915111740532 0 -0.0025664377287394633 0.0027873229203830862 0 -0.002741578348946146 0.0024607395696358688 0 -0.0025390562688005149 0.0024632062817116418 0 -0.0025095793539378929 0.0021785347670812043 0 -0.0025390562688005149 0.0024632062817116418 0 -0.0026933748832616085 0.0021469915111740532 0 -0.002741578348946146 0.0024607395696358688 0 -0.0026933748832616085 0.0021469915111740532 0 -0.0029326423700956439 0.0020455678713622947 0 -0.0026933748832616085 0.0021469915111740532 0 -0.0029326423700956439 0.0020455678713622947 0 -0.0028170428199589515 0.0018827232032222552 0 -0.0025095793539378929 0.0021785347670812043 0 -0.0026933748832616085 0.0021469915111740532 0 -0.0026293952295567604 0.0019341882659092858 0 -0.0026933748832616085 0.0021469915111740532 0 -0.0028170428199589515 0.0018827232032222552 0 -0.0026293952295567604 0.0019341882659092858 0 -0.0028170428199589515 0.0018827232032222552 0 -0.0026293952295567604 0.0019341882659092858 0 -0.0027332875281346806 0.0017465683221148775 0 -0.0028170428199589515 0.0018827232032222552 0 -0.0028825226692567102 0.0017048080086762977 0 -0.0027332875281346806 0.0017465683221148775 0 -0.0028170428199589515 0.0018827232032222552 0 -0.0028825226692567102 0.0017048080086762977 0 -0.0030066661496016773 0.001826544664738931 0 -0.0029326423700956439 0.0020455678713622947 0 -0.0028170428199589515 0.0018827232032222552 0 -0.0030066661496016773 0.001826544664738931 0 -0.0022263719281252585 0.0021096603888285602 0 -0.0024134637558494987 0.0018122372417510037 0 -0.0024658466571938426 0.0019566609621759178 0 -0.0025095793539378929 0.0021785347670812043 0 -0.0024658466571938426 0.0019566609621759178 0 -0.0026293952295567604 0.0019341882659092858 0 -0.0026293952295567604 0.0019341882659092858 0 -0.0025844845156823421 0.001758106366611296 0 -0.0027332875281346806 0.0017465683221148775 0 -0.0024658466571938426 0.0019566609621759178 0 -0.0026293952295567604 0.0019341882659092858 0 -0.0025844845156823421 0.001758106366611296 0 -0.0024134637558494987 0.0018122372417510037 0 -0.0024658466571938426 0.0019566609621759178 0 -0.0025844845156823421 0.001758106366611296 0 -0.0024134637558494987 0.0018122372417510037 0 -0.0025844845156823421 0.001758106366611296 0 -0.0025900356772696666 0.0016257654098320549 0 -0.0025844845156823421 0.001758106366611296 0 -0.0025900356772696666 0.0016257654098320549 0 -0.0026943352821539161 0.001613064671584029 0 -0.0026943352821539161 0.001613064671584029 0 -0.0027332875281346806 0.0017465683221148775 0 -0.0027897392560307095 0.0016271168972398708 0 -0.0025844845156823421 0.001758106366611296 0 -0.0026943352821539161 0.001613064671584029 0 -0.0027332875281346806 0.0017465683221148775 0 -0.0027204239692067687 0.0015130823371221403 0 -0.0027899953273696444 0.0015179893506351619 0 -0.0026943352821539161 0.001613064671584029 0 -0.0027899953273696444 0.0015179893506351619 0 -0.0026943352821539161 0.001613064671584029 0 -0.0027897392560307095 0.0016271168972398708 0 -0.0027204239692067687 0.0015130823371221403 0 -0.0025900356772696666 0.0016257654098320549 0 -0.0026943352821539161 0.001613064671584029 0 -0.0028825226692567102 0.0017048080086762977 0 -0.003041103600556574 0.0016254207347813324 0 -0.0030066661496016773 0.001826544664738931 0 -0.0028825226692567102 0.0017048080086762977 0 -0.0027332875281346806 0.0017465683221148775 0 -0.0027897392560307095 0.0016271168972398708 0 -0.0027899953273696444 0.0015179893506351619 0 -0.0027897392560307095 0.0016271168972398708 0 -0.0028929424967455344 0.0015639476782742946 0 -0.0028825226692567102 0.0017048080086762977 0 -0.0027897392560307095 0.0016271168972398708 0 -0.0028929424967455344 0.0015639476782742946 0 -0.0030458128085347311 0.0014561160662819733 0 -0.0028929424967455344 0.0015639476782742946 0 -0.003041103600556574 0.0016254207347813324 0 -0.0028825226692567102 0.0017048080086762977 0 -0.0028929424967455344 0.0015639476782742946 0 -0.003041103600556574 0.0016254207347813324 0 -0.0030458128085347311 0.0014561160662819733 0 -0.0032178697582551856 0.0015341583296497739 0 -0.003041103600556574 0.0016254207347813324 0 -0.0067066379598335777 -0.00023753351308152711 0 -0.0066751287117502184 -0.00023982538390015869 0 -0.0032178697582551856 0.0015341583296497739 0 -0.0032071142600973231 0.001734736653976041 0 -0.0034262205253879235 0.0016723612396189814 0 -0.0032071142600973231 0.001734736653976041 0 -0.0034174656585257692 0.0018586650134895871 0 -0.0034262205253879235 0.0016723612396189814 0 -0.0032178697582551856 0.0015341583296497739 0 -0.0032071142600973231 0.001734736653976041 0 -0.003041103600556574 0.0016254207347813324 0 -0.0032071142600973231 0.001734736653976041 0 -0.003041103600556574 0.0016254207347813324 0 -0.0030066661496016773 0.001826544664738931 0 -0.0032071142600973231 0.001734736653976041 0 -0.0030066661496016773 0.001826544664738931 0 -0.003160699837177961 0.0019975609069576967 0 -0.0032071142600973231 0.001734736653976041 0 -0.003160699837177961 0.0019975609069576967 0 -0.0034174656585257692 0.0018586650134895871 0 -0.0031187281290633194 0.0022429349658471369 0 -0.003160699837177961 0.0019975609069576967 0 -0.0033771563403757294 0.0020539747771690453 0 -0.003160699837177961 0.0019975609069576967 0 -0.0033771563403757294 0.0020539747771690453 0 -0.0034174656585257692 0.0018586650134895871 0 -0.0029326423700956439 0.0020455678713622947 0 -0.0030066661496016773 0.001826544664738931 0 -0.003160699837177961 0.0019975609069576967 0 -0.0031187281290633194 0.0022429349658471369 0 -0.0029326423700956439 0.0020455678713622947 0 -0.003160699837177961 0.0019975609069576967 0 -0.0076753870204265924 -0.00049865124205916798 0 -0.0064329031066362513 0.00057438606263771541 0 -0.0070174655451583938 -0.0012718444729204201 0 -0.0077010033142082207 0.001441456762132006 0 -0.0076753870204265924 -0.00049865124205916798 0 -0.0064329031066362513 0.00057438606263771541 0 -0.0037919144691507928 0.0013047639329055775 0 -0.0072422684752686123 -0.00027058289889660895 0 -0.0064329031066362513 0.00057438606263771541 0 -0.0049154611482355604 0.00017756721641406885 0 -0.0070174655451583938 -0.0012718444729204201 0 -0.0033771563403757294 0.0020539747771690453 0 -0.0034174656585257692 0.0018586650134895871 0 -0.0036456212489596276 0.0018708046461962564 0 -0.0072422684752686123 -0.00027058289889660895 0 -0.0066751287117502184 -0.00023982538390015869 0 -0.0034174656585257692 0.0018586650134895871 0 -0.0036456212489596276 0.0018708046461962564 0 -0.0034262205253879235 0.0016723612396189814 0 -0.0098815866815746122 -0.0023493855823107927 0 -0.0098240888637059869 -0.0021020023344433796 0 -0.0094839462618623357 -0.0020614211387608647 0 -0.0076753870204265924 -0.00049865124205916798 0 -0.0072668792955005307 -0.0010935908371884724 0 -0.0091273761088065154 -0.00064539634026920941 0 -0.0073253634570605904 -0.00058279884372955707 0 -0.0072422684752686123 -0.00027058289889660895 0 -0.0098815866815746122 -0.0023493855823107927 0 -0.0098240888637059869 -0.0021020023344433796 0 -0.010042592358668646 -0.0021116560460071932 0 -0.0098240888637059869 -0.0021020023344433796 0 -0.0098762553332241432 -0.0019976651673785264 0 -0.0097432789631829893 -0.0020106450284217178 0 -0.0098240888637059869 -0.0021020023344433796 0 -0.010042592358668646 -0.0021116560460071932 0 -0.010010093947323993 -0.0020172278797884143 0 -0.010168022412875899 -0.0020059692913921468 0 -0.010042592358668646 -0.0021116560460071932 0 -0.010010093947323993 -0.0020172278797884143 0 -0.01002496289384803 -0.0019386908282441179 0 -0.010168022412875899 -0.0020059692913921468 0 -0.010010093947323993 -0.0020172278797884143 0 -0.0098539167055361337 -0.0019543408230879725 0 -0.01002496289384803 -0.0019386908282441179 0 -0.0098762553332241432 -0.0019976651673785264 0 -0.0098240888637059869 -0.0021020023344433796 0 -0.010010093947323993 -0.0020172278797884143 0 -0.0098762553332241432 -0.0019976651673785264 0 -0.01002496289384803 -0.0019386908282441179 0 -0.010010093947323993 -0.0020172278797884143 0 -0.0098762553332241432 -0.0019976651673785264 0 -0.0098539167055361337 -0.0019543408230879725 0 -0.0098762553332241432 -0.0019976651673785264 0 -0.0097432789631829893 -0.0020106450284217178 0 -0.0098539167055361337 -0.0019543408230879725 0 -0.0097660012106277026 -0.0020301953771897975 0 -0.0097432789631829893 -0.0020106450284217178 0 -0.0097660012106277026 -0.0020301953771897975 0 -0.0097432789631829893 -0.0020106450284217178 0 -0.0094839462618623357 -0.0020614211387608647 0 -0.0098240888637059869 -0.0021020023344433796 0 -0.0097432789631829893 -0.0020106450284217178 0 -0.0094839462618623357 -0.0020614211387608647 0 -0.0097660012106277026 -0.0020301953771897975 0 -0.0094839462618623357 -0.0020614211387608647 0 -0.009864107730293812 -0.0020402640033399359 0 -0.0076972341889489492 0.0017371820958440411 0 -0.00814654217292121 0.0016227622990698351 0 -0.0080781741088891516 0.002006724067762432 0 -0.0097660012106277026 -0.0020301953771897975 0 -0.009864107730293812 -0.0020402640033399359 0 -0.00976438440195679 -0.0019692593696940095 0 -0.0087501126822675888 -9.6996929308085255e-05 0 -0.0090103488322945541 -0.00048555594213389573 0 -0.0098514877612250473 -0.0018957796435938954 0 -0.0097660012106277026 -0.0020301953771897975 0 -0.00976438440195679 -0.0019692593696940095 0 -0.0082402257494487725 0.0010105300949143044 0 -0.009036181225602612 0.0011570241494045827 0 -0.0085703055376505684 0.0017450407744346449 0 -0.009036181225602612 0.0011570241494045827 0 -0.009069616649425816 0.0017909885279927917 0 -0.0085703055376505684 0.0017450407744346449 0 -0.009036181225602612 0.0011570241494045827 0 -0.009069616649425816 0.0017909885279927917 0 -0.0093949350857222124 0.0015347795156755582 0 -0.009069616649425816 0.0017909885279927917 0 -0.0085703055376505684 0.0017450407744346449 0 -0.0087961244559995617 0.0022709130946788197 0 -0.0082402257494487725 0.0010105300949143044 0 -0.00814654217292121 0.0016227622990698351 0 -0.0085703055376505684 0.0017450407744346449 0 -0.0076972341889489492 0.0017371820958440411 0 -0.0082402257494487725 0.0010105300949143044 0 -0.00814654217292121 0.0016227622990698351 0 -0.00814654217292121 0.0016227622990698351 0 -0.0085703055376505684 0.0017450407744346449 0 -0.0080781741088891516 0.002006724067762432 0 -0.0080781741088891516 0.002006724067762432 0 -0.0084018029053952586 0.0021919549356411183 0 -0.0079936321325895666 0.0023420215474414048 0 -0.0085703055376505684 0.0017450407744346449 0 -0.0080781741088891516 0.002006724067762432 0 -0.0084018029053952586 0.0021919549356411183 0 -0.0084018029053952586 0.0021919549356411183 0 -0.0087961244559995617 0.0022709130946788197 0 -0.0082729813208637544 0.0025622662216717466 0 -0.0084018029053952586 0.0021919549356411183 0 -0.0079936321325895666 0.0023420215474414048 0 -0.0082729813208637544 0.0025622662216717466 0 -0.0079936321325895666 0.0023420215474414048 0 -0.0082729813208637544 0.0025622662216717466 0 -0.0079145986277541231 0.0026115627952286737 0 -0.0085703055376505684 0.0017450407744346449 0 -0.0084018029053952586 0.0021919549356411183 0 -0.0087961244559995617 0.0022709130946788197 0 -0.0086771571179464716 0.0027768084466110242 0 -0.0083605259014836904 0.0029939100011429419 0 -0.0087498758839686195 0.0034927504964285469 0 -0.0086771571179464716 0.0027768084466110242 0 -0.0091979399244753578 0.0027074583446005762 0 -0.0087498758839686195 0.0034927504964285469 0 -0.0093677157496703956 0.0025608118332141314 0 -0.0048253705920521285 0.0028360010905565457 0 -0.0087961244559995617 0.0022709130946788197 0 -0.0086771571179464716 0.0027768084466110242 0 -0.0091979399244753578 0.0027074583446005762 0 -0.0087961244559995617 0.0022709130946788197 0 -0.0086771571179464716 0.0027768084466110242 0 -0.0082729813208637544 0.0025622662216717466 0 -0.0082729813208637544 0.0025622662216717466 0 -0.0080370127216532073 0.0028974415628147967 0 -0.0079145986277541231 0.0026115627952286737 0 -0.0086771571179464716 0.0027768084466110242 0 -0.0082729813208637544 0.0025622662216717466 0 -0.0083605259014836904 0.0029939100011429419 0 -0.0082729813208637544 0.0025622662216717466 0 -0.0083605259014836904 0.0029939100011429419 0 -0.0080370127216532073 0.0028974415628147967 0 -0.0083605259014836904 0.0029939100011429419 0 -0.0080370127216532073 0.0028974415628147967 0 -0.0081781073299071558 0.003236149981022709 0 -0.0080370127216532073 0.0028974415628147967 0 -0.007647685601453247 0.0027963712183376962 0 -0.0078633364618861216 0.0031868274080230343 0 -0.007647685601453247 0.0027963712183376962 0 -0.0074725613863514508 0.0031059454423776884 0 -0.0078633364618861216 0.0031868274080230343 0 -0.007647685601453247 0.0027963712183376962 0 -0.0079145986277541231 0.0026115627952286737 0 -0.0077353166395737506 0.0024722996784473641 0 -0.0080370127216532073 0.0028974415628147967 0 -0.007647685601453247 0.0027963712183376962 0 -0.0079145986277541231 0.0026115627952286737 0 -0.007647685601453247 0.0027963712183376962 0 -0.0074886840300880204 0.0025250470314768596 0 -0.0072294383865969874 0.0027460720294494221 0 -0.007647685601453247 0.0027963712183376962 0 -0.0074886840300880204 0.0025250470314768596 0 -0.0077353166395737506 0.0024722996784473641 0 -0.007647685601453247 0.0027963712183376962 0 -0.0072294383865969874 0.0027460720294494221 0 -0.0074725613863514508 0.0031059454423776884 0 -0.0068393888984436347 0.0027771690804548298 0 -0.0081936693727878221 0.00083876529221330552 0 -0.0077010033142082207 0.001441456762132006 0 -0.0076753870204265924 -0.00049865124205916798 0 -0.0091273761088065154 -0.00064539634026920941 0 -0.0067323109788505432 0.0031972703318944961 0 -0.0072294383865969874 0.0027460720294494221 0 -0.0071260861784429091 0.002533050737974437 0 -0.0068393888984436347 0.0027771690804548298 0 -0.0070431397381492192 0.0029459957912799585 0 -0.0074886840300880204 0.0025250470314768596 0 -0.0072294383865969874 0.0027460720294494221 0 -0.0071260861784429091 0.002533050737974437 0 -0.0072668792955005307 -0.0010935908371884724 0 -0.0094839462618623357 -0.0020614211387608647 0 -0.0091273761088065154 -0.00064539634026920941 0 -0.0072422684752686123 -0.00027058289889660895 0 -0.010016271051386994 -0.0026185714713490901 0 -0.0094839462618623357 -0.0020614211387608647 0 -0.009864107730293812 -0.0020402640033399359 0 -0.0091273761088065154 -0.00064539634026920941 0 -0.0087501126822675888 -9.6996929308085255e-05 0 -0.0081936693727878221 0.00083876529221330552 0 -0.0076972341889489492 0.0017371820958440411 0 -0.0071260861784429091 0.002533050737974437 0 -0.0076830325429649883 0.0022673334035216231 0 -0.0076972341889489492 0.0017371820958440411 0 -0.0080781741088891516 0.002006724067762432 0 -0.0076830325429649883 0.0022673334035216231 0 -0.0080781741088891516 0.002006724067762432 0 -0.0079936321325895666 0.0023420215474414048 0 -0.0076830325429649883 0.0022673334035216231 0 -0.0079936321325895666 0.0023420215474414048 0 -0.0076830325429649883 0.0022673334035216231 0 -0.0077353166395737506 0.0024722996784473641 0 -0.0079936321325895666 0.0023420215474414048 0 -0.0079145986277541231 0.0026115627952286737 0 -0.0077353166395737506 0.0024722996784473641 0 -0.0074886840300880204 0.0025250470314768596 0 -0.0071260861784429091 0.002533050737974437 0 -0.0076830325429649883 0.0022673334035216231 0 -0.0074886840300880204 0.0025250470314768596 0 -0.0076830325429649883 0.0022673334035216231 0 -0.0077353166395737506 0.0024722996784473641 0 -0.0082275672606770527 0.00064230773884581792 0 -0.0068881949537853608 0.00094765940698343404 0 -0.010758606212202709 0.0015948754457067191 0 -0.01043418607419052 0.0015883374956445254 0 -0.010477949604521173 0.0011937349375086737 0 -0.010758606212202709 0.0015948754457067191 0 -0.01043418607419052 0.0015883374956445254 0 -0.010358714234798727 0.0019034614271609656 0 -0.01043418607419052 0.0015883374956445254 0 -0.010126366558993322 0.0017259120343268539 0 -0.010358714234798727 0.0019034614271609656 0 -0.01043418607419052 0.0015883374956445254 0 -0.010477949604521173 0.0011937349375086737 0 -0.010200224725091168 0.0014805580151822817 0 -0.010183746142900326 0.0010801209674439478 0 -0.010477949604521173 0.0011937349375086737 0 -0.010057956877714984 0.0012720523529260843 0 -0.010477949604521173 0.0011937349375086737 0 -0.010057956877714984 0.0012720523529260843 0 -0.010200224725091168 0.0014805580151822817 0 -0.0099587442157050184 0.001072475556559094 0 -0.010183746142900326 0.0010801209674439478 0 -0.010057956877714984 0.0012720523529260843 0 -0.010057956877714984 0.0012720523529260843 0 -0.010004017986823545 0.001478906976112951 0 -0.010200224725091168 0.0014805580151822817 0 -0.010004017986823545 0.001478906976112951 0 -0.010200224725091168 0.0014805580151822817 0 -0.010126366558993322 0.0017259120343268539 0 -0.01043418607419052 0.0015883374956445254 0 -0.010200224725091168 0.0014805580151822817 0 -0.010126366558993322 0.0017259120343268539 0 -0.010004017986823545 0.001478906976112951 0 -0.010126366558993322 0.0017259120343268539 0 -0.0098344732082405652 0.0017110017583575274 0 -0.0098344732082405652 0.0017110017583575274 0 -0.0098642862446107534 0.0013269920624488891 0 -0.0093231908335951966 0.0018265827034526017 0 -0.0098347877540134777 0.0013580155579828084 0 -0.0094130984938683143 0.0019328516377319712 0 -0.010004017986823545 0.001478906976112951 0 -0.0098344732082405652 0.0017110017583575274 0 -0.0098642862446107534 0.0013269920624488891 0 -0.0098642862446107534 0.0013269920624488891 0 -0.0097818421192434699 0.001288515554264811 0 -0.0096126995146831543 0.0019516942741640564 0 -0.010057956877714984 0.0012720523529260843 0 -0.010004017986823545 0.001478906976112951 0 -0.0098642862446107534 0.0013269920624488891 0 -0.010154987225050765 0.00099357546888145711 0 -0.0098656860632045859 0.0012381258871193236 0 -0.0099587442157050184 0.001072475556559094 0 -0.0098642862446107534 0.0013269920624488891 0 -0.0097818421192434699 0.001288515554264811 0 -0.0099587442157050184 0.001072475556559094 0 -0.010057956877714984 0.0012720523529260843 0 -0.0098642862446107534 0.0013269920624488891 0 -0.0098841598870096428 0.00084854567029763741 0 -0.01043542180106034 0.00084882055237241324 0 -0.0097818421192434699 0.001288515554264811 0 -0.0094995245121542778 0.00061617276057850817 0 -0.009036181225602612 0.0011570241494045827 0 -0.0095182984426835111 0.0011024022668489686 0 -0.0097818421192434699 0.001288515554264811 0 -0.0095182984426835111 0.0011024022668489686 0 -0.0093949350857222124 0.0015347795156755582 0 -0.0098841598870096428 0.00084854567029763741 0 -0.0097818421192434699 0.001288515554264811 0 -0.0095182984426835111 0.0011024022668489686 0 -0.009036181225602612 0.0011570241494045827 0 -0.0095182984426835111 0.0011024022668489686 0 -0.0093949350857222124 0.0015347795156755582 0 -0.0097818421192434699 0.001288515554264811 0 -0.0093949350857222124 0.0015347795156755582 0 -0.0096126995146831543 0.0019516942741640564 0 -0.009069616649425816 0.0017909885279927917 0 -0.0093949350857222124 0.0015347795156755582 0 -0.0096126995146831543 0.0019516942741640564 0 -0.0094130984938683143 0.0019328516377319712 0 -0.0093677157496703956 0.0025608118332141314 0 -0.009069616649425816 0.0017909885279927917 0 -0.0087961244559995617 0.0022709130946788197 0 -0.0096126995146831543 0.0019516942741640564 0 -0.0087961244559995617 0.0022709130946788197 0 -0.0096126995146831543 0.0019516942741640564 0 -0.0091979399244753578 0.0027074583446005762 0 -0.0093231908335951966 0.0018265827034526017 0 -0.0093249950487482164 0.0023236562110320316 0 -0.0087547781151431497 0.0025360035677364726 0 -0.0087547781151431497 0.0025360035677364726 0 -0.0091191872933919262 0.0028797247363642579 0 -0.0081475899804910913 0.0034726591691477391 0 -0.0093249950487482164 0.0023236562110320316 0 -0.0087547781151431497 0.0025360035677364726 0 -0.0091191872933919262 0.0028797247363642579 0 -0.0014494508521339792 0.0014769902397447838 0 -0.0022122374499577821 0.0015165893067051047 0 -0.0023771824632953889 0.00071152483482445766 0 -0.0052294624577997025 0.0021828997973127656 0 -0.0061460046810945463 0.0015175120492399458 0 -0.0093249950487482164 0.0023236562110320316 0 -0.0091191872933919262 0.0028797247363642579 0 -0.0098562505487551529 0.0023301596090424329 0 -0.0098344732082405652 0.0017110017583575274 0 -0.0093231908335951966 0.0018265827034526017 0 -0.0098562505487551529 0.0023301596090424329 0 -0.0093231908335951966 0.0018265827034526017 0 -0.0093249950487482164 0.0023236562110320316 0 -0.0098562505487551529 0.0023301596090424329 0 -0.0023771824632953889 0.00071152483482445766 0 -0.0030841154683319476 0.00092111545587097543 0 -0.0036010632411184714 -4.7161501151230436e-05 0 -0.010126366558993322 0.0017259120343268539 0 -0.0098344732082405652 0.0017110017583575274 0 -0.0098562505487551529 0.0023301596090424329 0 -0.010126366558993322 0.0017259120343268539 0 -0.0098562505487551529 0.0023301596090424329 0 -0.010358714234798727 0.0019034614271609656 0 -0.0061460046810945463 0.0015175120492399458 0 -0.0068881949537853608 0.00094765940698343404 0 -0.0022122374499577821 0.0015165893067051047 0 -0.0023771824632953889 0.00071152483482445766 0 -0.0030841154683319476 0.00092111545587097543 0 -0.0022122374499577821 0.0015165893067051047 0 -0.0030841154683319476 0.00092111545587097543 0 -0.0032660241494283093 0.0018037547504949072 0 -0.0045771627014502504 0.0011107956248731076 0 -0.0040676577185974078 0.00053694334286835557 0 -0.0038557786636441859 0.0013503318348683994 0 -0.0040452251285881596 0.00057034876579978712 0 -0.0035454156180889395 0.0015736819928042795 0 -0.0030841154683319476 0.00092111545587097543 0 -0.0040676577185974078 0.00053694334286835557 0 -0.0032660241494283093 0.0018037547504949072 0 -0.0045248584881824577 0.00013267609459038438 0 -0.0040676577185974078 0.00053694334286835557 0 -0.0036010632411184714 -4.7161501151230436e-05 0 -0.0030841154683319476 0.00092111545587097543 0 -0.0040676577185974078 0.00053694334286835557 0 -0.0036010632411184714 -4.7161501151230436e-05 0 -0.0046841711395155848 -0.00064455565952916468 0 -0.0045248584881824577 0.00013267609459038438 0 -0.0036010632411184714 -4.7161501151230436e-05 0 -0.0044725599651134216 0.0019439681365480013 0 -0.0038557786636441859 0.0013503318348683994 0 -0.0040232798800048895 0.0021607499836360025 0 -0.0046829513454141568 0.0015700968578170474 0 -0.0044725599651134216 0.0019439681365480013 0 -0.0038557786636441859 0.0013503318348683994 0 -0.0022122374499577821 0.0015165893067051047 0 -0.0032660241494283093 0.0018037547504949072 0 -0.0021174738360070673 0.002250733330306265 0 -0.0035454156180889395 0.0015736819928042795 0 -0.0031917084408138148 0.0022377523071433389 0 -0.0038557786636441859 0.0013503318348683994 0 -0.0035638389616659142 0.0020400368319931422 0 -0.0040232798800048895 0.0021607499836360025 0 -0.0032660241494283093 0.0018037547504949072 0 -0.0025352423252772288 0.0027438335136518947 0 -0.0021174738360070673 0.002250733330306265 0 -0.0025352423252772288 0.0027438335136518947 0 -0.0018843505056835819 0.0027192554849684177 0 -0.0021174738360070673 0.002250733330306265 0 -0.0018843505056835819 0.0027192554849684177 0 -0.0015909876492168822 0.0024953040260917254 0 -0.0015124909588232242 0.0029001829871928503 0 -0.0021174738360070673 0.002250733330306265 0 -0.0017102199215005471 0.0020179503971598282 0 -0.0015909876492168822 0.0024953040260917254 0 -0.0018843505056835819 0.0027192554849684177 0 -0.0021174738360070673 0.002250733330306265 0 -0.0015909876492168822 0.0024953040260917254 0 -0.0022122374499577821 0.0015165893067051047 0 -0.0021174738360070673 0.002250733330306265 0 -0.0017102199215005471 0.0020179503971598282 0 -0.0014494508521339792 0.0014769902397447838 0 -0.0022122374499577821 0.0015165893067051047 0 -0.0017102199215005471 0.0020179503971598282 0 -0.0014494508521339792 0.0014769902397447838 0 -0.0012531156616205498 0.0022751030216238109 0 -0.00079550830112861358 0.0020977657603449421 0 -0.0014494508521339792 0.0014769902397447838 0 -0.0017102199215005471 0.0020179503971598282 0 -0.0012531156616205498 0.0022751030216238109 0 -0.0052294624577997025 0.0021828997973127656 0 -0.0048253705920521285 0.0028360010905565457 0 -0.0012531156616205498 0.0022751030216238109 0 -0.0015909876492168822 0.0024953040260917254 0 -0.0012681282218832541 0.0027671993645458281 0 -0.0017102199215005471 0.0020179503971598282 0 -0.0012531156616205498 0.0022751030216238109 0 -0.0015909876492168822 0.0024953040260917254 0 -0.0015909876492168822 0.0024953040260917254 0 -0.0012681282218832541 0.0027671993645458281 0 -0.0015124909588232242 0.0029001829871928503 0 -0.0012531156616205498 0.0022751030216238109 0 -0.0012681282218832541 0.0027671993645458281 0 -0.00095245597246388562 0.0026725012715418483 0 -0.0012681282218832541 0.0027671993645458281 0 -0.0015124909588232242 0.0029001829871928503 0 -0.0011820718396091119 0.0030838272903448583 0 -0.0012681282218832541 0.0027671993645458281 0 -0.0011820718396091119 0.0030838272903448583 0 -0.00105577502797722 0.0029077904264778079 0 -0.0015124909588232242 0.0029001829871928503 0 -0.0014201384252896202 0.0031733875975299437 0 -0.0011820718396091119 0.0030838272903448583 0 -0.0011820718396091119 0.0030838272903448583 0 -0.0010993299280186092 0.0034129218167297539 0 -0.00093662954733320417 0.0031233218059091967 0 -0.0014201384252896202 0.0031733875975299437 0 -0.0011820718396091119 0.0030838272903448583 0 -0.0010993299280186092 0.0034129218167297539 0 -0.0010993299280186092 0.0034129218167297539 0 -0.0014415751803918419 0.0034977596886037752 0 -0.0011181013481068539 0.0035885630971976591 0 -0.0010993299280186092 0.0034129218167297539 0 -0.001460423104905911 0.00334242612919829 0 -0.0014415751803918419 0.0034977596886037752 0 -0.0014201384252896202 0.0031733875975299437 0 -0.0010993299280186092 0.0034129218167297539 0 -0.001460423104905911 0.00334242612919829 0 -0.001460423104905911 0.00334242612919829 0 -0.0017639509386066668 0.0033604910259606218 0 -0.0016020920311782582 0.0032290210485296056 0 -0.00017844871118315861 0.0050103633733434181 0 2.6218206615388636e-05 0.0045180410083057471 0 -0.00042800845449293511 0.0044626176173657058 0 -0.0014415751803918419 0.0034977596886037752 0 -0.001780534838436917 0.0033992709079936571 0 -0.001285241631599003 0.0036605152260269199 0 -0.001460423104905911 0.00334242612919829 0 -0.0014415751803918419 0.0034977596886037752 0 -0.0017639509386066668 0.0033604910259606218 0 -0.0015694579844630172 0.0035680403163575792 0 -0.00079233510722685079 0.0041620198543719945 0 -0.0014415751803918419 0.0034977596886037752 0 -0.001780534838436917 0.0033992709079936571 0 -0.0017639509386066668 0.0033604910259606218 0 -0.0015694579844630172 0.0035680403163575792 0 -0.0015907369299412682 0.0035541262182502854 0 -0.0025352423252772288 0.0027438335136518947 0 -0.0018417159985866659 0.0034347445844802827 0 -0.0017639509386066668 0.0033604910259606218 0 -0.0025352423252772288 0.0027438335136518947 0 -0.0017639509386066668 0.0033604910259606218 0 -0.0017757925396833765 0.0030357919274227674 0 -0.0017639509386066668 0.0033604910259606218 0 -0.0016020920311782582 0.0032290210485296056 0 -0.0017757925396833765 0.0030357919274227674 0 -0.0014201384252896202 0.0031733875975299437 0 -0.0016020920311782582 0.0032290210485296056 0 -0.0017757925396833765 0.0030357919274227674 0 -0.0014201384252896202 0.0031733875975299437 0 -0.001460423104905911 0.00334242612919829 0 -0.0016020920311782582 0.0032290210485296056 0 -0.0018843505056835819 0.0027192554849684177 0 -0.0015124909588232242 0.0029001829871928503 0 -0.0017757925396833765 0.0030357919274227674 0 -0.0015124909588232242 0.0029001829871928503 0 -0.0014201384252896202 0.0031733875975299437 0 -0.0017757925396833765 0.0030357919274227674 0 -0.0025352423252772288 0.0027438335136518947 0 -0.0018843505056835819 0.0027192554849684177 0 -0.0017757925396833765 0.0030357919274227674 0 -0.0035638389616659142 0.0020400368319931422 0 -0.003703605522581273 0.0027406085553223704 0 -0.0039730487583546957 0.0025624227290788519 0 -0.0035638389616659142 0.0020400368319931422 0 -0.0032440593000146478 0.0027412707541019741 0 -0.003703605522581273 0.0027406085553223704 0 -0.0031917084408138148 0.0022377523071433389 0 -0.0015694579844630172 0.0035680403163575792 0 -0.0032440593000146478 0.0027412707541019741 0 -0.003703605522581273 0.0027406085553223704 0 -0.0039160739359331859 0.0033376288442527719 0 -0.0015694579844630172 0.0035680403163575792 0 -0.001872924870315941 0.0039319617411929745 0 -0.003703605522581273 0.0027406085553223704 0 -0.0039883373428465539 0.0029438109366310772 0 -0.0039160739359331859 0.0033376288442527719 0 -0.003703605522581273 0.0027406085553223704 0 -0.0039883373428465539 0.0029438109366310772 0 -0.0039730487583546957 0.0025624227290788519 0 -0.0039883373428465539 0.0029438109366310772 0 -0.0043044423387673791 0.0028144580857485876 0 -0.004166710378490244 0.0031903940490562175 0 -0.0039883373428465539 0.0029438109366310772 0 -0.0043044423387673791 0.0028144580857485876 0 -0.0039730487583546957 0.0025624227290788519 0 -0.0044214978277102735 0.0023865902111551169 0 -0.0043044423387673791 0.0028144580857485876 0 -0.0039730487583546957 0.0025624227290788519 0 -0.0035638389616659142 0.0020400368319931422 0 -0.0039730487583546957 0.0025624227290788519 0 -0.0040232798800048895 0.0021607499836360025 0 -0.0044214978277102735 0.0023865902111551169 0 -0.0039730487583546957 0.0025624227290788519 0 -0.0040232798800048895 0.0021607499836360025 0 -0.0044725599651134216 0.0019439681365480013 0 -0.0044214978277102735 0.0023865902111551169 0 -0.0040232798800048895 0.0021607499836360025 0 -0.0072709423636798829 0.0039357216236537004 0 -0.0076650402975229782 0.0036542720714064221 0 -0.0080723750976473569 0.0039393933106594038 0 -0.0072709423636798829 0.0039357216236537004 0 -0.0080723750976473569 0.0039393933106594038 0 -0.0073478861062960263 0.0044114574872403042 0 -0.00072776984937402388 0.0027034002591474144 0 -0.00063088248283832849 0.002992357704296449 0 -0.00037693406942758086 0.0030011794273382113 0 -0.0044154029110241378 0.0033265592730226481 0 -0.003962997749842683 0.0036758950417754678 0 -0.0065688459803976635 0.0041110332204217876 0 -0.0072709423636798829 0.0039357216236537004 0 -0.0071701173056917507 0.00346281640952684 0 -0.0065688459803976635 0.0041110332204217876 0 -0.0072709423636798829 0.0039357216236537004 0 -0.0073478861062960263 0.0044114574872403042 0 -0.0064334758878010559 0.0033567231089062658 0 -0.0065688459803976635 0.0041110332204217876 0 -0.0071701173056917507 0.00346281640952684 0 -0.0072294383865969874 0.0027460720294494221 0 -0.0071701173056917507 0.00346281640952684 0 -0.0074725613863514508 0.0031059454423776884 0 -0.0064334758878010559 0.0033567231089062658 0 -0.0072294383865969874 0.0027460720294494221 0 -0.0071701173056917507 0.00346281640952684 0 -0.0071701173056917507 0.00346281640952684 0 -0.0074725613863514508 0.0031059454423776884 0 -0.0075900133168527763 0.0033476360638752629 0 -0.0072709423636798829 0.0039357216236537004 0 -0.0071701173056917507 0.00346281640952684 0 -0.0076650402975229782 0.0036542720714064221 0 -0.0071701173056917507 0.00346281640952684 0 -0.0075900133168527763 0.0033476360638752629 0 -0.0076650402975229782 0.0036542720714064221 0 -0.0075900133168527763 0.0033476360638752629 0 -0.0076650402975229782 0.0036542720714064221 0 -0.0080561473892708287 0.0035333742837316941 0 -0.0075900133168527763 0.0033476360638752629 0 -0.0078633364618861216 0.0031868274080230343 0 -0.0080561473892708287 0.0035333742837316941 0 -0.0074725613863514508 0.0031059454423776884 0 -0.0075900133168527763 0.0033476360638752629 0 -0.0078633364618861216 0.0031868274080230343 0 -0.0048253705920521285 0.0028360010905565457 0 -0.0044154029110241378 0.0033265592730226481 0 -0.0080370127216532073 0.0028974415628147967 0 -0.0078633364618861216 0.0031868274080230343 0 -0.0081781073299071558 0.003236149981022709 0 -0.0080561473892708287 0.0035333742837316941 0 -0.0087498758839686195 0.0034927504964285469 0 -0.0080723750976473569 0.0039393933106594038 0 -0.0078633364618861216 0.0031868274080230343 0 -0.0081781073299071558 0.003236149981022709 0 -0.0080561473892708287 0.0035333742837316941 0 -0.0081781073299071558 0.003236149981022709 0 -0.0080561473892708287 0.0035333742837316941 0 -0.0087498758839686195 0.0034927504964285469 0 -0.0083605259014836904 0.0029939100011429419 0 -0.0081781073299071558 0.003236149981022709 0 -0.0087498758839686195 0.0034927504964285469 0 -0.0076650402975229782 0.0036542720714064221 0 -0.0080561473892708287 0.0035333742837316941 0 -0.0080723750976473569 0.0039393933106594038 0 -0.0012531156616205498 0.0022751030216238109 0 -0.00079550830112861358 0.0020977657603449421 0 -0.00095245597246388562 0.0026725012715418483 0 -0.0048253705920521285 0.0028360010905565457 0 -0.00051522782991683463 0.0029503824163371237 0 -0.00079550830112861358 0.0020977657603449421 0 -0.00095245597246388562 0.0026725012715418483 0 -0.0006032319791024614 0.0027537399910364329 0 -0.00095245597246388562 0.0026725012715418483 0 -0.0006032319791024614 0.0027537399910364329 0 -0.00083044500425222137 0.0029044463183578216 0 -0.00095245597246388562 0.0026725012715418483 0 -0.00105577502797722 0.0029077904264778079 0 -0.00083044500425222137 0.0029044463183578216 0 -0.0012681282218832541 0.0027671993645458281 0 -0.00095245597246388562 0.0026725012715418483 0 -0.00105577502797722 0.0029077904264778079 0 -0.0013146183832632695 0.0023460877430344597 0 -0.00072776984937402388 0.0027034002591474144 0 -0.00093916928524907242 0.0028899163721898685 0 -0.00072776984937402388 0.0027034002591474144 0 -0.00093916928524907242 0.0028899163721898685 0 -0.00063088248283832849 0.002992357704296449 0 -0.00093916928524907242 0.0028899163721898685 0 -0.00063088248283832849 0.002992357704296449 0 -0.00058558333656204265 0.0032195653986213956 0 -0.00051522782991683463 0.0029503824163371237 0 -0.00066675792078972141 0.0030854187959703521 0 -0.0006032319791024614 0.0027537399910364329 0 -0.00074352873585161242 0.003072957854165434 0 -0.00058558333656204265 0.0032195653986213956 0 -0.0006032319791024614 0.0027537399910364329 0 -0.00074352873585161242 0.003072957854165434 0 -0.00083044500425222137 0.0029044463183578216 0 -0.00074352873585161242 0.003072957854165434 0 -0.00058558333656204265 0.0032195653986213956 0 -0.00082178567942891505 0.0033046582885903884 0 -0.0011820718396091119 0.0030838272903448583 0 -0.00105577502797722 0.0029077904264778079 0 -0.00093662954733320417 0.0031233218059091967 0 -0.00105577502797722 0.0029077904264778079 0 -0.00083044500425222137 0.0029044463183578216 0 -0.00093662954733320417 0.0031233218059091967 0 -0.00074352873585161242 0.003072957854165434 0 -0.00083044500425222137 0.0029044463183578216 0 -0.00093662954733320417 0.0031233218059091967 0 -0.00074352873585161242 0.003072957854165434 0 -0.00093662954733320417 0.0031233218059091967 0 -0.00082178567942891505 0.0033046582885903884 0 -0.0010993299280186092 0.0034129218167297539 0 -0.00082178567942891505 0.0033046582885903884 0 -0.00079036825422707164 0.0035675854853780241 0 -0.0010993299280186092 0.0034129218167297539 0 -0.00079036825422707164 0.0035675854853780241 0 -0.00090473581279270916 0.0036543950751106303 0 -0.0010993299280186092 0.0034129218167297539 0 -0.00093662954733320417 0.0031233218059091967 0 -0.00082178567942891505 0.0033046582885903884 0 -0.00058558333656204265 0.0032195653986213956 0 -0.00079036825422707164 0.0035675854853780241 0 -0.00042788326890263296 0.003329524898656139 0 -0.00093716753363711565 0.003628767034775555 0 -0.00038253872904773069 0.0034752927990888429 0 -0.00058558333656204265 0.0032195653986213956 0 -0.00082178567942891505 0.0033046582885903884 0 -0.00079036825422707164 0.0035675854853780241 0 -0.0010389154496610493 0.003821283753557044 0 -0.0013462989583024147 0.0037388372908718961 0 -0.00098096910130761935 0.0035869207368105912 0 -0.00079036825422707164 0.0035675854853780241 0 -0.0010389154496610493 0.003821283753557044 0 -0.00098096910130761935 0.0035869207368105912 0 -0.00063088248283832849 0.002992357704296449 0 -0.00058558333656204265 0.0032195653986213956 0 -0.00043327832925078857 0.0031577342414363598 0 -0.00058558333656204265 0.0032195653986213956 0 -0.00042788326890263296 0.003329524898656139 0 -0.00043327832925078857 0.0031577342414363598 0 -0.00063088248283832849 0.002992357704296449 0 -0.00043327832925078857 0.0031577342414363598 0 -0.00037693406942758086 0.0030011794273382113 0 -0.0065688459803976635 0.0041110332204217876 0 -0.0073478861062960263 0.0044114574872403042 0 -0.0065856397111831999 0.0048854057628567151 0 -0.00042788326890263296 0.003329524898656139 0 -0.00043327832925078857 0.0031577342414363598 0 -0.00015681130937548991 0.003181403960195089 0 -0.003962997749842683 0.0036758950417754678 0 -0.0026033943833627632 0.0037781452086833671 0 -0.00043327832925078857 0.0031577342414363598 0 -0.00037693406942758086 0.0030011794273382113 0 -0.00015681130937548991 0.003181403960195089 0 -0.00038253872904773069 0.0034752927990888429 0 -0.0026033943833627632 0.0037781452086833671 0 -0.0010389154496610493 0.003821283753557044 0 -0.0014936962152164099 0.0040493891148724722 0 -0.0013462989583024147 0.0037388372908718961 0 -0.0013462989583024147 0.0037388372908718961 0 -0.0013881649636360873 0.0034691729362850165 0 -0.00098096910130761935 0.0035869207368105912 0 -0.0013881649636360873 0.0034691729362850165 0 -0.00087832848457551269 0.0034530995000090262 0 -0.0013629182292824642 0.0031986528920053036 0 -0.0013881649636360873 0.0034691729362850165 0 -0.00087832848457551269 0.0034530995000090262 0 -0.00098096910130761935 0.0035869207368105912 0 -0.00087832848457551269 0.0034530995000090262 0 -0.00098096910130761935 0.0035869207368105912 0 -0.00084395047896133868 0.0035730744002297329 0 -0.00079036825422707164 0.0035675854853780241 0 -0.00098096910130761935 0.0035869207368105912 0 -0.00084395047896133868 0.0035730744002297329 0 -0.00079036825422707164 0.0035675854853780241 0 -0.00090473581279270916 0.0036543950751106303 0 -0.00084395047896133868 0.0035730744002297329 0 -0.00090473581279270916 0.0036543950751106303 0 -0.00083439476124588503 0.0036404694399892793 0 -0.00084395047896133868 0.0035730744002297329 0 -0.00083439476124588503 0.0036404694399892793 0 -0.00084395047896133868 0.0035730744002297329 0 -0.0009192294588985507 0.0034722985138922907 0 -0.00087832848457551269 0.0034530995000090262 0 -0.00084395047896133868 0.0035730744002297329 0 -0.0009192294588985507 0.0034722985138922907 0 -0.00084944160168507192 0.0034492399431559407 0 -0.00058328182974606445 0.0032760263711359597 0 -0.00025112889077226708 0.0031122181575098831 0 -0.00050984259361930057 0.0027437503514669229 0 -0.0010414068206726914 0.002917200282630053 0 -0.00087832848457551269 0.0034530995000090262 0 -0.00025112889077226708 0.0031122181575098831 0 -0.0010414068206726914 0.002917200282630053 0 -0.00083439476124588503 0.0036404694399892793 0 -0.0009192294588985507 0.0034722985138922907 0 -0.00062129508148628843 0.0034692165328578319 0 -0.00058328182974606445 0.0032760263711359597 0 -0.00016215527198051806 0.0029141326547664692 0 -0.00025112889077226708 0.0031122181575098831 0 0.00024515721503024461 0.0028029094270276534 0 -0.00018637090319608947 0.0025111358738179614 0 -0.00025112889077226708 0.0031122181575098831 0 -0.00050984259361930057 0.0027437503514669229 0 -0.00018637090319608947 0.0025111358738179614 0 -0.0010414068206726914 0.002917200282630053 0 -0.0013065783989719987 0.0025197071513089631 0 -0.0017016348208412357 0.0028774758175133023 0 -0.0010414068206726914 0.002917200282630053 0 -0.0013629182292824642 0.0031986528920053036 0 -0.0017016348208412357 0.0028774758175133023 0 -0.00087832848457551269 0.0034530995000090262 0 -0.0010414068206726914 0.002917200282630053 0 -0.0013629182292824642 0.0031986528920053036 0 0.00065797048583131649 0.0039131621175042524 0 0.00051229982569699268 0.0043747354845729723 0 0.00037521381403731656 0.004039633479889183 0 0.0010968478941659262 0.0038098446807639076 0 0.00065797048583131649 0.0039131621175042524 0 0.00074809071408292612 0.0035988354241072032 0 0.0010968478941659262 0.0038098446807639076 0 0.00065797048583131649 0.0039131621175042524 0 0.00051229982569699268 0.0043747354845729723 0 -0.0043707266648926324 0.0038209445758309742 0 -0.0040748561059270622 0.0034538851641227088 0 -0.0039160739359331859 0.0033376288442527719 0 -0.00088142637455103986 0.0039045225617839563 0 -0.001872924870315941 0.0039319617411929745 0 0.00065797048583131649 0.0039131621175042524 0 0.00042146862816309021 0.0036710277794124724 0 0.00074809071408292612 0.0035988354241072032 0 0.00065797048583131649 0.0039131621175042524 0 0.00037521381403731656 0.004039633479889183 0 0.00042146862816309021 0.0036710277794124724 0 -0.0044287195944497978 0.0033681269256266738 0 -0.0040748561059270622 0.0034538851641227088 0 -0.004166710378490244 0.0031903940490562175 0 -0.0040748561059270622 0.0034538851641227088 0 -0.004166710378490244 0.0031903940490562175 0 -0.0039160739359331859 0.0033376288442527719 0 -0.0039883373428465539 0.0029438109366310772 0 -0.004166710378490244 0.0031903940490562175 0 -0.0039160739359331859 0.0033376288442527719 0 0.00051229982569699268 0.0043747354845729723 0 0.00017361186450742946 0.0042350024040713344 0 0.00037521381403731656 0.004039633479889183 0 -0.00017844871118315861 0.0050103633733434181 0 0.00051229982569699268 0.0043747354845729723 0 2.6218206615388636e-05 0.0045180410083057471 0 0.00051229982569699268 0.0043747354845729723 0 2.6218206615388636e-05 0.0045180410083057471 0 0.00017361186450742946 0.0042350024040713344 0 2.6218206615388636e-05 0.0045180410083057471 0 0.00017361186450742946 0.0042350024040713344 0 -0.00013535347580011521 0.0042531579345879379 0 0.00017361186450742946 0.0042350024040713344 0 4.7465799549057577e-05 0.0039476596931864137 0 -0.00013535347580011521 0.0042531579345879379 0 4.7465799549057577e-05 0.0039476596931864137 0 -0.00011269274287745147 0.0035483503061327862 0 0.00042146862816309021 0.0036710277794124724 0 0.00017361186450742946 0.0042350024040713344 0 4.7465799549057577e-05 0.0039476596931864137 0 0.00037521381403731656 0.004039633479889183 0 4.7465799549057577e-05 0.0039476596931864137 0 0.00037521381403731656 0.004039633479889183 0 0.00042146862816309021 0.0036710277794124724 0 4.7465799549057577e-05 0.0039476596931864137 0 -0.00072303993128827217 0.0038038931219491665 0 -0.00011269274287745147 0.0035483503061327862 0 4.7465799549057577e-05 0.0039476596931864137 0 -0.00013535347580011521 0.0042531579345879379 0 -0.00072303993128827217 0.0038038931219491665 0 -0.00013535347580011521 0.0042531579345879379 0 -0.00042800845449293511 0.0044626176173657058 0 -0.00072303993128827217 0.0038038931219491665 0 -0.00079233510722685079 0.0041620198543719945 0 -0.00081079636758652602 0.0037686578059193555 0 2.6218206615388636e-05 0.0045180410083057471 0 -0.00013535347580011521 0.0042531579345879379 0 -0.00042800845449293511 0.0044626176173657058 0 -0.0014415751803918419 0.0034977596886037752 0 -0.001285241631599003 0.0036605152260269199 0 -0.0011181013481068539 0.0035885630971976591 0 -0.001285241631599003 0.0036605152260269199 0 -0.0011181013481068539 0.0035885630971976591 0 -0.00072303993128827217 0.0038038931219491665 0 -0.0010993299280186092 0.0034129218167297539 0 -0.00090473581279270916 0.0036543950751106303 0 -0.0011181013481068539 0.0035885630971976591 0 -0.00090473581279270916 0.0036543950751106303 0 -0.0011181013481068539 0.0035885630971976591 0 -0.00072303993128827217 0.0038038931219491665 0 -0.00090473581279270916 0.0036543950751106303 0 -0.00083439476124588503 0.0036404694399892793 0 -0.00072303993128827217 0.0038038931219491665 0 -0.00083439476124588503 0.0036404694399892793 0 -0.00072303993128827217 0.0038038931219491665 0 -0.00062129508148628843 0.0034692165328578319 0 -0.00062129508148628843 0.0034692165328578319 0 -0.00060105065514747674 0.0030214825648102427 0 -0.00016853409923999062 0.0032017571724901133 0 -0.0009192294588985507 0.0034722985138922907 0 -0.00062129508148628843 0.0034692165328578319 0 -0.00060105065514747674 0.0030214825648102427 0 -0.00016853409923999062 0.0032017571724901133 0 -0.00011269274287745147 0.0035483503061327862 0 0.00038452649617133215 0.0031089442555964986 0 -0.00062129508148628843 0.0034692165328578319 0 -0.00016853409923999062 0.0032017571724901133 0 -0.00011269274287745147 0.0035483503061327862 0 -0.00072303993128827217 0.0038038931219491665 0 -0.00062129508148628843 0.0034692165328578319 0 -0.00011269274287745147 0.0035483503061327862 0 0.00042146862816309021 0.0036710277794124724 0 0.00038452649617133215 0.0031089442555964986 0 0.00063336574346560645 0.0033933368241224056 0 -0.00011269274287745147 0.0035483503061327862 0 0.00042146862816309021 0.0036710277794124724 0 0.00038452649617133215 0.0031089442555964986 0 0.0009126830454772465 0.003227323976192133 0 0.00038452649617133215 0.0031089442555964986 0 0.00063336574346560645 0.0033933368241224056 0 0.0009126830454772465 0.003227323976192133 0 0.00038452649617133215 0.0031089442555964986 0 0.00084260447176660554 0.00270187489119813 0 0.0009126830454772465 0.003227323976192133 0 0.00063336574346560645 0.0033933368241224056 0 0.00074809071408292612 0.0035988354241072032 0 0.00042146862816309021 0.0036710277794124724 0 0.00063336574346560645 0.0033933368241224056 0 0.00074809071408292612 0.0035988354241072032 0 0.0012741368916351285 0.0027804271124882191 0 0.0011531386276671758 0.0022695994980957441 0 0.002114899742888858 0.0024671393483089682 0 0.0017940672688905406 0.00298656111917097 0 0.0011527926658256721 0.0022609278076148763 0 0.00084260447176660554 0.00270187489119813 0 0.00067479176134652608 0.0025383523492365531 0 0.0011527926658256721 0.0022609278076148763 0 0.0017682129568288856 0.0033462563709883114 0 0.0012741368916351285 0.0027804271124882191 0 0.00038452649617133215 0.0031089442555964986 0 0.00084260447176660554 0.00270187489119813 0 0.00067479176134652608 0.0025383523492365531 0 0.00038452649617133215 0.0031089442555964986 0 0.00067479176134652608 0.0025383523492365531 0 9.2381185239511727e-05 0.0025574062416727997 0 0.00042690208170336169 0.0025654429080354908 0 0.0012399249480167212 0.0022538855332025847 0 0.00075343648684222963 0.0025448272930687905 0 0.0010525738299539235 0.0022199575064423918 0 0.0013870484333447916 0.002252595528392424 0 0.00067479176134652608 0.0025383523492365531 0 9.2381185239511727e-05 0.0025574062416727997 0 0.001073858087275067 0.002245698451013964 0 0.00067479176134652608 0.0025383523492365531 0 0.001073858087275067 0.002245698451013964 0 0.0011527926658256721 0.0022609278076148763 0 0.00075343648684222963 0.0025448272930687905 0 0.00076689191193788037 0.0021471252495065931 0 0.0010525738299539235 0.0022199575064423918 0 0.00075343648684222963 0.0025448272930687905 0 0.00039770305722586024 0.0021766486524644269 0 0.00076689191193788037 0.0021471252495065931 0 -0.00016215527198051806 0.0029141326547664692 0 0.00042690208170336169 0.0025654429080354908 0 -0.00060105065514747674 0.0030214825648102427 0 -0.00016853409923999062 0.0032017571724901133 0 9.2381185239511727e-05 0.0025574062416727997 0 -0.00016853409923999062 0.0032017571724901133 0 0.00038452649617133215 0.0031089442555964986 0 9.2381185239511727e-05 0.0025574062416727997 0 0.00024515721503024461 0.0028029094270276534 0 0.00075343648684222963 0.0025448272930687905 0 0.00013551234597518561 0.0023754852783780291 0 0.00039770305722586024 0.0021766486524644269 0 0.00013551234597518561 0.0023754852783780291 0 1.4378451747978933e-05 0.0020577415959028887 0 0.00075343648684222963 0.0025448272930687905 0 0.00039770305722586024 0.0021766486524644269 0 0.00013551234597518561 0.0023754852783780291 0 0.00039770305722586024 0.0021766486524644269 0 0.00027683154568007795 0.0019618780930490539 0 1.4378451747978933e-05 0.0020577415959028887 0 0.00039770305722586024 0.0021766486524644269 0 0.00053233701331238702 0.00197388737229487 0 0.00027683154568007795 0.0019618780930490539 0 0.00053233701331238702 0.00197388737229487 0 0.00027683154568007795 0.0019618780930490539 0 0.00037588816700828887 0.0017880974666022592 0 0.00027683154568007795 0.0019618780930490539 0 0.00037588816700828887 0.0017880974666022592 0 0.00011417222229379081 0.0017466701981579055 0 0.0003060555620649102 0.0016139503512015855 0 0.00037588816700828887 0.0017880974666022592 0 0.00011417222229379081 0.0017466701981579055 0 0.0003060555620649102 0.0016139503512015855 0 0.00016998068243685786 0.0015747104175274191 0 0.00011417222229379081 0.0017466701981579055 0 0.0003060555620649102 0.0016139503512015855 0 0.00044603582005296884 0.0014862734107697825 0 0.00026093953247471738 0.001450287479388211 0 0.0003060555620649102 0.0016139503512015855 0 0.00016998068243685786 0.0015747104175274191 0 0.00026093953247471738 0.001450287479388211 0 0.00044603582005296884 0.0014862734107697825 0 0.00047171173695274409 0.0016556111279323728 0 0.00064716831186431491 0.0016013639649252826 0 0.0003060555620649102 0.0016139503512015855 0 0.00044603582005296884 0.0014862734107697825 0 0.00047171173695274409 0.0016556111279323728 0 0.0003060555620649102 0.0016139503512015855 0 0.00047171173695274409 0.0016556111279323728 0 0.00037588816700828887 0.0017880974666022592 0 0.00053233701331238702 0.00197388737229487 0 0.00037588816700828887 0.0017880974666022592 0 0.00059127404180421344 0.0017830308037576749 0 0.00047171173695274409 0.0016556111279323728 0 0.00037588816700828887 0.0017880974666022592 0 0.00059127404180421344 0.0017830308037576749 0 0.00053233701331238702 0.00197388737229487 0 0.00059127404180421344 0.0017830308037576749 0 0.00077078332615660718 0.001911232164513647 0 0.00074278058033912307 0.0017541612521353761 0 0.00059127404180421344 0.0017830308037576749 0 0.00077078332615660718 0.001911232164513647 0 0.00074278058033912307 0.0017541612521353761 0 0.00059127404180421344 0.0017830308037576749 0 0.00064716831186431491 0.0016013639649252826 0 0.00064716831186431491 0.0016013639649252826 0 0.00086744401358175712 0.0014665449947116223 0 0.00061936029659804366 0.0014019959745642941 0 0.00047171173695274409 0.0016556111279323728 0 0.00059127404180421344 0.0017830308037576749 0 0.00064716831186431491 0.0016013639649252826 0 0.00074278058033912307 0.0017541612521353761 0 0.00064716831186431491 0.0016013639649252826 0 0.00084532488018311612 0.001658255655647237 0 0.00044603582005296884 0.0014862734107697825 0 0.00064716831186431491 0.0016013639649252826 0 0.00061936029659804366 0.0014019959745642941 0 0.0010239739509701942 0.001656574184864641 0 0.0011256059550696176 0.0014991996362530798 0 0.00086744401358175712 0.0014665449947116223 0 0.00084532488018311612 0.001658255655647237 0 0.0010239739509701942 0.001656574184864641 0 0.00086744401358175712 0.0014665449947116223 0 0.00064716831186431491 0.0016013639649252826 0 0.00084532488018311612 0.001658255655647237 0 0.00086744401358175712 0.0014665449947116223 0 0.00084532488018311612 0.001658255655647237 0 0.00092946840068918932 0.0017955850097863702 0 0.0010239739509701942 0.001656574184864641 0 0.00092946840068918932 0.0017955850097863702 0 0.00077078332615660718 0.001911232164513647 0 0.0010837622294953332 0.0019831405674968368 0 0.00074278058033912307 0.0017541612521353761 0 0.00084532488018311612 0.001658255655647237 0 0.00092946840068918932 0.0017955850097863702 0 0.00074278058033912307 0.0017541612521353761 0 0.00092946840068918932 0.0017955850097863702 0 0.00077078332615660718 0.001911232164513647 0 0.00077078332615660718 0.001911232164513647 0 0.00076689191193788037 0.0021471252495065931 0 0.0010837622294953332 0.0019831405674968368 0 0.00053233701331238702 0.00197388737229487 0 0.00077078332615660718 0.001911232164513647 0 0.00076689191193788037 0.0021471252495065931 0 0.00039770305722586024 0.0021766486524644269 0 0.00053233701331238702 0.00197388737229487 0 0.00076689191193788037 0.0021471252495065931 0 0.00076689191193788037 0.0021471252495065931 0 0.0010525738299539235 0.0022199575064423918 0 0.0010837622294953332 0.0019831405674968368 0 0.0010525738299539235 0.0022199575064423918 0 0.0013870484333447916 0.002252595528392424 0 0.0012118807685329908 0.0021160661486002929 0 0.0013870484333447916 0.002252595528392424 0 0.0013263028592383991 0.0020040850987394724 0 0.0016265818638942081 0.0019103311496090623 0 0.0013870484333447916 0.002252595528392424 0 0.0013263028592383991 0.0020040850987394724 0 0.0012118807685329908 0.0021160661486002929 0 0.0013263028592383991 0.0020040850987394724 0 0.0010837622294953332 0.0019831405674968368 0 0.0012348249825311734 0.0018920825979522396 0 0.0013263028592383991 0.0020040850987394724 0 0.0012118807685329908 0.0021160661486002929 0 0.0010837622294953332 0.0019831405674968368 0 0.0010525738299539235 0.0022199575064423918 0 0.0012118807685329908 0.0021160661486002929 0 0.0010837622294953332 0.0019831405674968368 0 0.00092946840068918932 0.0017955850097863702 0 0.0010837622294953332 0.0019831405674968368 0 0.0011348606982186375 0.0017909980995990903 0 0.0010837622294953332 0.0019831405674968368 0 0.0012348249825311734 0.0018920825979522396 0 0.0011348606982186375 0.0017909980995990903 0 0.00092946840068918932 0.0017955850097863702 0 0.0011348606982186375 0.0017909980995990903 0 0.0010239739509701942 0.001656574184864641 0 0.0011348606982186375 0.0017909980995990903 0 0.0010239739509701942 0.001656574184864641 0 0.0012556759296907124 0.0016463280399377262 0 0.0010239739509701942 0.001656574184864641 0 0.0012556759296907124 0.0016463280399377262 0 0.0011256059550696176 0.0014991996362530798 0 0.0012556759296907124 0.0016463280399377262 0 0.0014667436340803598 0.0014948448251078015 0 0.0011256059550696176 0.0014991996362530798 0 0.0012556759296907124 0.0016463280399377262 0 0.0013975820675420274 0.0017866676409189401 0 0.0014667436340803598 0.0014948448251078015 0 0.0013263028592383991 0.0020040850987394724 0 0.0013975820675420274 0.0017866676409189401 0 0.0016265818638942081 0.0019103311496090623 0 0.0011348606982186375 0.0017909980995990903 0 0.0012556759296907124 0.0016463280399377262 0 0.0013975820675420274 0.0017866676409189401 0 0.0013263028592383991 0.0020040850987394724 0 0.0012348249825311734 0.0018920825979522396 0 0.0013975820675420274 0.0017866676409189401 0 0.0012348249825311734 0.0018920825979522396 0 0.0011348606982186375 0.0017909980995990903 0 0.0013975820675420274 0.0017866676409189401 0 0.0013975820675420274 0.0017866676409189401 0 0.0017964412226928114 0.0016250111336866707 0 0.0014667436340803598 0.0014948448251078015 0 0.0013975820675420274 0.0017866676409189401 0 0.0016265818638942081 0.0019103311496090623 0 0.0017964412226928114 0.0016250111336866707 0 0.0021716636659509956 0.0018759159630918503 0 0.0016265818638942081 0.0019103311496090623 0 0.0017964412226928114 0.0016250111336866707 0 0.0021716636659509956 0.0018759159630918503 0 0.0013870484333447916 0.002252595528392424 0 0.0016265818638942081 0.0019103311496090623 0 0.002114899742888858 0.0024671393483089682 0 0.0021716636659509956 0.0018759159630918503 0 0.0011527926658256721 0.0022609278076148763 0 0.0021716636659509956 0.0018759159630918503 0 0.001073858087275067 0.002245698451013964 0 0.0011527926658256721 0.0022609278076148763 0 0.0020804693299871038 0.0018702367630519727 0 0.0012399249480167212 0.0022538855332025847 0 -0.00061425637525299099 0.0023136465483021705 0 -0.00031606294565682518 0.0021776325342189361 0 -0.00046471137340687847 0.0021307357977424861 0 -0.00040220962775365537 0.0021237181224854269 0 -0.00061425637525299099 0.0023136465483021705 0 -0.00046471137340687847 0.0021307357977424861 0 -0.00082286436423576175 0.0021144690166799034 0 -0.00059702776353012484 0.0022976832185145225 0 -0.0012334451640384904 0.002071103399957619 0 -0.0013065783989719987 0.0025197071513089631 0 -0.00061425637525299099 0.0023136465483021705 0 -0.0012334451640384904 0.002071103399957619 0 -0.0013065783989719987 0.0025197071513089631 0 -0.0015511231463988312 0.002221620979111676 0 -0.0010414068206726914 0.002917200282630053 0 -0.0013065783989719987 0.0025197071513089631 0 -0.00061425637525299099 0.0023136465483021705 0 -0.00050984259361930057 0.0027437503514669229 0 -0.0010414068206726914 0.002917200282630053 0 -0.00061425637525299099 0.0023136465483021705 0 -0.00050984259361930057 0.0027437503514669229 0 -0.00061425637525299099 0.0023136465483021705 0 -0.00018637090319608947 0.0025111358738179614 0 0.00024515721503024461 0.0028029094270276534 0 -0.00018637090319608947 0.0025111358738179614 0 0.00013551234597518561 0.0023754852783780291 0 0.00013551234597518561 0.0023754852783780291 0 -0.00031606294565682518 0.0021776325342189361 0 1.4378451747978933e-05 0.0020577415959028887 0 -0.00018637090319608947 0.0025111358738179614 0 0.00013551234597518561 0.0023754852783780291 0 -0.00031606294565682518 0.0021776325342189361 0 -0.00061425637525299099 0.0023136465483021705 0 -0.00018637090319608947 0.0025111358738179614 0 -0.00031606294565682518 0.0021776325342189361 0 -0.00031606294565682518 0.0021776325342189361 0 -0.00024955406921383256 0.0020279591103716747 0 1.4378451747978933e-05 0.0020577415959028887 0 -0.00031606294565682518 0.0021776325342189361 0 -0.00024955406921383256 0.0020279591103716747 0 -0.00040131708575967269 0.0019828842252094122 0 -0.00031606294565682518 0.0021776325342189361 0 -0.00040131708575967269 0.0019828842252094122 0 -0.00046471137340687847 0.0021307357977424861 0 -0.00024955406921383256 0.0020279591103716747 0 1.4378451747978933e-05 0.0020577415959028887 0 -0.00010709050967046103 0.001820455047570313 0 0.00027683154568007795 0.0019618780930490539 0 1.4378451747978933e-05 0.0020577415959028887 0 0.00011417222229379081 0.0017466701981579055 0 1.4378451747978933e-05 0.0020577415959028887 0 0.00011417222229379081 0.0017466701981579055 0 -0.00010709050967046103 0.001820455047570313 0 0.00011417222229379081 0.0017466701981579055 0 -0.00010709050967046103 0.001820455047570313 0 -8.1848594746582136e-05 0.0016279578854578116 0 -0.00010709050967046103 0.001820455047570313 0 -8.1848594746582136e-05 0.0016279578854578116 0 -0.00031278736971581772 0.0016179380491899008 0 -8.1848594746582136e-05 0.0016279578854578116 0 -0.00031278736971581772 0.0016179380491899008 0 -0.00011679402438287545 0.0014581678289970991 0 -8.1848594746582136e-05 0.0016279578854578116 0 2.8811931328330647e-05 0.0014930010985162909 0 -0.00011679402438287545 0.0014581678289970991 0 0.00011417222229379081 0.0017466701981579055 0 -8.1848594746582136e-05 0.0016279578854578116 0 2.8811931328330647e-05 0.0014930010985162909 0 0.00016998068243685786 0.0015747104175274191 0 0.00011417222229379081 0.0017466701981579055 0 2.8811931328330647e-05 0.0014930010985162909 0 -0.00024955406921383256 0.0020279591103716747 0 -0.00040131708575967269 0.0019828842252094122 0 -0.00031278736971581772 0.0016179380491899008 0 -0.00024955406921383256 0.0020279591103716747 0 -0.00010709050967046103 0.001820455047570313 0 -0.00031278736971581772 0.0016179380491899008 0 -0.00040131708575967269 0.0019828842252094122 0 -0.00043233214104658967 0.00207633498337789 0 -0.00036908882983250761 0.0021057745189317334 0 -0.00039375968950009106 0.0019393416592118195 0 -0.00038361549100460841 0.0018838290353082627 0 -0.00017051951108590694 0.0020381650335040539 0 3.6774060141343608e-06 0.0020082538987097102 0 -0.00040131708575967269 0.0019828842252094122 0 -0.0002088953822494328 0.0020451889598105417 0 -0.00036908882983250761 0.0021057745189317334 0 -0.00040131708575967269 0.0019828842252094122 0 -0.00046471137340687847 0.0021307357977424861 0 -0.00034611672167165434 0.0020933631158687061 0 -0.00040131708575967269 0.0019828842252094122 0 -0.00034611672167165434 0.0020933631158687061 0 -0.0002088953822494328 0.0020451889598105417 0 -0.00040220962775365537 0.0021237181224854269 0 -0.00046471137340687847 0.0021307357977424861 0 -0.00034611672167165434 0.0020933631158687061 0 -0.00040220962775365537 0.0021237181224854269 0 -0.00034611672167165434 0.0020933631158687061 0 -0.00038869411001177441 0.0020978906001203191 0 -0.00034611672167165434 0.0020933631158687061 0 -0.0003574149623840832 0.0020559072084951643 0 -0.00038869411001177441 0.0020978906001203191 0 -0.00034611672167165434 0.0020933631158687061 0 -0.0002088953822494328 0.0020451889598105417 0 -0.0003574149623840832 0.0020559072084951643 0 -0.0002088953822494328 0.0020451889598105417 0 -0.0003574149623840832 0.0020559072084951643 0 -0.00023920720787104136 0.0018705989178908141 0 -0.0003574149623840832 0.0020559072084951643 0 -0.0004291470967347856 0.0019817210992415534 0 -0.00023920720787104136 0.0018705989178908141 0 -0.0004291470967347856 0.0019817210992415534 0 -0.00047954537232614843 0.0018867897629834644 0 -0.00023920720787104136 0.0018705989178908141 0 -0.0003574149623840832 0.0020559072084951643 0 -0.00044846778398788099 0.0020331167451955743 0 -0.000419523301554641 0.0020798970503589547 0 -0.0003574149623840832 0.0020559072084951643 0 -0.00044846778398788099 0.0020331167451955743 0 -0.0004291470967347856 0.0019817210992415534 0 -0.00044846778398788099 0.0020331167451955743 0 -0.0004291470967347856 0.0019817210992415534 0 -0.00048965565838538828 0.0019884431534414404 0 -0.0004291470967347856 0.0019817210992415534 0 -0.00048965565838538828 0.0019884431534414404 0 -0.00047954537232614843 0.0018867897629834644 0 -0.00016568613921681008 0.0015651521028676614 0 -0.0001394447768420701 0.0015258257342720496 0 -0.00013808300443521982 0.0015364623925895246 0 -0.00015590930506974429 0.0015708376892907916 0 -0.00016568613921681008 0.0015651521028676614 0 -0.00013808300443521982 0.0015364623925895246 0 0.00066167350721495135 0.0017635139244296402 0 -0.0004507908605875111 0.0015247238383162744 0 -0.00016240078500851218 0.0020823867580594905 0 -0.00031092669938466785 0.0016837319735739603 0 -0.00048965565838538828 0.0019884431534414404 0 -0.00060028599924315186 0.002069553917860692 0 -0.00047954537232614843 0.0018867897629834644 0 -0.00021437178208454926 0.0015644194325188075 0 -0.00018995108870378455 0.0015297074275787148 0 -0.0001394447768420701 0.0015258257342720496 0 -0.00048965565838538828 0.0019884431534414404 0 -0.00050396621682792053 0.0020379922351089434 0 -0.00060028599924315186 0.002069553917860692 0 -0.00044846778398788099 0.0020331167451955743 0 -0.00048965565838538828 0.0019884431534414404 0 -0.00050396621682792053 0.0020379922351089434 0 -0.00044846778398788099 0.0020331167451955743 0 -0.00050396621682792053 0.0020379922351089434 0 -0.0004769421588919745 0.002078793485463457 0 -0.0004769421588919745 0.002078793485463457 0 -0.00060028599924315186 0.002069553917860692 0 -0.00045942620008309465 0.0021262671314426543 0 -0.00050396621682792053 0.0020379922351089434 0 -0.0004769421588919745 0.002078793485463457 0 -0.00060028599924315186 0.002069553917860692 0 -0.001004692550658599 0.0020324663721451672 0 -0.0015630805752480505 0.0021324275459413591 0 -0.00070430470052217466 0.002163772964135622 0 -0.00083753430317101663 0.0020906764706830937 0 -0.00066033970086110474 0.0020213394849793592 0 -0.00016240078500851218 0.0020823867580594905 0 -0.001004692550658599 0.0020324663721451672 0 -0.00040220962775365537 0.0021237181224854269 0 -0.00043727537310658566 0.0021156212368702988 0 -0.00043366937839742946 0.0021140401937479675 0 -0.00040220962775365537 0.0021237181224854269 0 -0.00038869411001177441 0.0020978906001203191 0 -0.00043366937839742946 0.0021140401937479675 0 -0.00082286436423576175 0.0021144690166799034 0 -0.001004692550658599 0.0020324663721451672 0 -0.001004692550658599 0.0020324663721451672 0 -0.00092372679761516081 0.002013803280728841 0 -0.0003574149623840832 0.0020559072084951643 0 -0.00038869411001177441 0.0020978906001203191 0 -0.000419523301554641 0.0020798970503589547 0 -0.00038869411001177441 0.0020978906001203191 0 -0.000419523301554641 0.0020798970503589547 0 -0.00043366937839742946 0.0021140401937479675 0 -0.00044846778398788099 0.0020331167451955743 0 -0.0004769421588919745 0.002078793485463457 0 -0.000419523301554641 0.0020798970503589547 0 -0.0004769421588919745 0.002078793485463457 0 -0.00045942620008309465 0.0021262671314426543 0 -0.00043366937839742946 0.0021140401937479675 0 -0.0004769421588919745 0.002078793485463457 0 -0.000419523301554641 0.0020798970503589547 0 -0.00043366937839742946 0.0021140401937479675 0 0.0022091355640775885 0.0016125034402685316 0 0.0021490776554941929 0.0016047535285885516 0 0.0021274709530857846 0.0015309021278359571 0 0.0022004124773829766 0.0016357732891964869 0 0.0021970346290917609 0.0016658842108862979 0 0.0022560687862595553 0.0016382353264552279 0 0.0021669519658978147 0.0016327953876752392 0 0.0021556415275053899 0.00167303797991648 0 0.0021171684330617822 0.0016676460991823497 0 0.0021669519658978147 0.0016327953876752392 0 0.0021970346290917609 0.0016658842108862979 0 0.0021556415275053899 0.00167303797991648 0 0.0021669519658978147 0.0016327953876752392 0 0.0022004124773829766 0.0016357732891964869 0 0.0021970346290917609 0.0016658842108862979 0 0.0021669519658978147 0.0016327953876752392 0 0.0022091355640775885 0.0016125034402685316 0 0.0021490776554941929 0.0016047535285885516 0 0.0017270480197427594 0.0015280616732631749 0 0.0018622330411033545 0.0015054792634184827 0 0.0021669519658978147 0.0016327953876752392 0 0.0022091355640775885 0.0016125034402685316 0 0.0022004124773829766 0.0016357732891964869 0 0.0017270480197427594 0.0015280616732631749 0 0.00066167350721495135 0.0017635139244296402 0 0.0022081732150179092 0.0016165052066815803 0 0.0022004124773829766 0.0016357732891964869 0 0.0022560687862595553 0.0016382353264552279 0 -0.00023822623570834154 0.0015458205137898096 0 -0.00021437178208454926 0.0015644194325188075 0 -0.00021900986526444163 0.0015306800274274073 0 -0.00021437178208454926 0.0015644194325188075 0 -0.00021900986526444163 0.0015306800274274073 0 -0.00018995108870378455 0.0015297074275787148 0 -0.00016240078500851218 0.0020823867580594905 0 0.00066167350721495135 0.0017635139244296402 0 0.0011633884856977299 0.0024893737604902658 0 0.0012440923736452816 0.002248243657447707 0 0.001489394864461969 0.0022623333739865093 0 0.0010433157895476648 0.0024243520678356679 0 0.0011633884856977299 0.0024893737604902658 0 0.0012440923736452816 0.002248243657447707 0 -0.00070430470052217466 0.002163772964135622 0 -0.00059428850306276386 0.0020575449458413997 0 -0.00066033970086110474 0.0020213394849793592 0 -0.00016240078500851218 0.0020823867580594905 0 0.00043407364532674385 0.002059404246894333 0 0.0021970346290917609 0.0016658842108862979 0 0.0022560687862595553 0.0016382353264552279 0 0.0021933108854230131 0.0017559538025579689 0 0.00066167350721495135 0.0017635139244296402 0 0.0020165823725551636 0.0020034289795738082 0 0.0021933108854230131 0.0017559538025579689 0 0.0021556415275053899 0.00167303797991648 0 0.0021278031703188694 0.0016984404224571997 0 0.0021970346290917609 0.0016658842108862979 0 0.0021933108854230131 0.0017559538025579689 0 0.0021556415275053899 0.00167303797991648 0 0.001489394864461969 0.0022623333739865093 0 0.0014333554338925244 0.0021056948898525488 0 0.001674689946621127 0.0020540524602433679 0 0.0012440923736452816 0.002248243657447707 0 0.001489394864461969 0.0022623333739865093 0 0.0014333554338925244 0.0021056948898525488 0 -0.0024119809541225728 0.0023651980233742155 0 -0.0023774548274527354 0.0025376356290537955 0 -0.0024986291212604926 0.0025167242982174023 0 0.00043407364532674385 0.002059404246894333 0 -0.00055969194907574005 0.0020734923959569414 0 -0.00055969194907574005 0.0020734923959569414 0 -0.0015630805752480505 0.0021324275459413591 0 -0.00059428850306276386 0.0020575449458413997 0 -0.00048513517542353701 0.0019567556485065806 0 -0.00066033970086110474 0.0020213394849793592 0 -0.0020688744902314891 0.0021351592757523634 0 -0.0022262530644530844 0.002560368382087821 0 -0.0019749822568975155 0.0025772011760405978 0 -0.0024119809541225728 0.0023651980233742155 0 -0.0020688744902314891 0.0021351592757523634 0 -0.0022262530644530844 0.002560368382087821 0 -0.0022262530644530844 0.002560368382087821 0 -0.0019749822568975155 0.0025772011760405978 0 -0.0021621399595002566 0.0028677696830358454 0 -0.0022262530644530844 0.002560368382087821 0 -0.0021621399595002566 0.0028677696830358454 0 -0.0024350858035841133 0.0028220674451713561 0 -0.0024119809541225728 0.0023651980233742155 0 -0.0022262530644530844 0.002560368382087821 0 -0.0023774548274527354 0.0025376356290537955 0 -0.0022262530644530844 0.002560368382087821 0 -0.0023774548274527354 0.0025376356290537955 0 -0.0024350858035841133 0.0028220674451713561 0 -0.0023774548274527354 0.0025376356290537955 0 -0.0025164826997938743 0.0025938682261783313 0 -0.0024350858035841133 0.0028220674451713561 0 -0.0025164826997938743 0.0025938682261783313 0 -0.0024350858035841133 0.0028220674451713561 0 -0.0025766994976768303 0.0026465144816859719 0 -0.0023774548274527354 0.0025376356290537955 0 -0.0025164826997938743 0.0025938682261783313 0 -0.0024986291212604926 0.0025167242982174023 0 -0.001683751721108096 0.0019099292873864286 0 -0.0015511231463988312 0.002221620979111676 0 -0.0017981751174297115 0.0022688371199601006 0 -0.0012334451640384904 0.002071103399957619 0 -0.001683751721108096 0.0019099292873864286 0 -0.0015511231463988312 0.002221620979111676 0 -0.0015511231463988312 0.002221620979111676 0 -0.0017981751174297115 0.0022688371199601006 0 -0.0016780943167868164 0.0024769366359570833 0 -0.0020688744902314891 0.0021351592757523634 0 -0.0017981751174297115 0.0022688371199601006 0 -0.0019749822568975155 0.0025772011760405978 0 -0.001683751721108096 0.0019099292873864286 0 -0.0020688744902314891 0.0021351592757523634 0 -0.0017981751174297115 0.0022688371199601006 0 -0.0019749822568975155 0.0025772011760405978 0 -0.0016780943167868164 0.0024769366359570833 0 -0.0017016348208412357 0.0028774758175133023 0 -0.0017981751174297115 0.0022688371199601006 0 -0.0019749822568975155 0.0025772011760405978 0 -0.0016780943167868164 0.0024769366359570833 0 -0.0013065783989719987 0.0025197071513089631 0 -0.0015511231463988312 0.002221620979111676 0 -0.0016780943167868164 0.0024769366359570833 0 -0.0013065783989719987 0.0025197071513089631 0 -0.0016780943167868164 0.0024769366359570833 0 -0.0017016348208412357 0.0028774758175133023 0 -0.0013629182292824642 0.0031986528920053036 0 -0.0017016348208412357 0.0028774758175133023 0 -0.0018112816737020712 0.0032430356025126587 0 -0.0017016348208412357 0.0028774758175133023 0 -0.0020155952942481946 0.0030437678589019311 0 -0.0018112816737020712 0.0032430356025126587 0 -0.0017016348208412357 0.0028774758175133023 0 -0.0020155952942481946 0.0030437678589019311 0 -0.0021621399595002566 0.0028677696830358454 0 -0.0019749822568975155 0.0025772011760405978 0 -0.0017016348208412357 0.0028774758175133023 0 -0.0021621399595002566 0.0028677696830358454 0 -0.0021621399595002566 0.0028677696830358454 0 -0.0024350858035841133 0.0028220674451713561 0 -0.002409388010209422 0.002999624268492102 0 -0.0024350858035841133 0.0028220674451713561 0 -0.002409388010209422 0.002999624268492102 0 -0.0024958300360276272 0.0030148076263028113 0 -0.002409388010209422 0.002999624268492102 0 -0.002485081451828942 0.0030711882587414756 0 -0.0024958300360276272 0.0030148076263028113 0 -0.002409388010209422 0.002999624268492102 0 -0.0024655181772699243 0.0031046254819105594 0 -0.002485081451828942 0.0030711882587414756 0 -0.002409388010209422 0.002999624268492102 0 -0.0024655181772699243 0.0031046254819105594 0 -0.002299100898454864 0.003092790267227388 0 -0.0021621399595002566 0.0028677696830358454 0 -0.002409388010209422 0.002999624268492102 0 -0.002299100898454864 0.003092790267227388 0 -0.0020155952942481946 0.0030437678589019311 0 -0.0021621399595002566 0.0028677696830358454 0 -0.002299100898454864 0.003092790267227388 0 -0.0020155952942481946 0.0030437678589019311 0 -0.002299100898454864 0.003092790267227388 0 -0.0022826750549045376 0.0032402081909195172 0 -0.002299100898454864 0.003092790267227388 0 -0.0022826750549045376 0.0032402081909195172 0 -0.0024430982713144998 0.0031648935964265919 0 -0.0022826750549045376 0.0032402081909195172 0 -0.0024430982713144998 0.0031648935964265919 0 -0.0025532836437203521 0.0032291028893997962 0 -0.0024655181772699243 0.0031046254819105594 0 -0.0024430982713144998 0.0031648935964265919 0 -0.0025356714788173822 0.0031628415149698237 0 -0.0024655181772699243 0.0031046254819105594 0 -0.002299100898454864 0.003092790267227388 0 -0.0024430982713144998 0.0031648935964265919 0 -0.0024430982713144998 0.0031648935964265919 0 -0.0025532836437203521 0.0032291028893997962 0 -0.0025356714788173822 0.0031628415149698237 0 -0.0025532836437203521 0.0032291028893997962 0 -0.002619397492419716 0.0031870421388790564 0 -0.0025356714788173822 0.0031628415149698237 0 -0.0025532836437203521 0.0032291028893997962 0 -0.0026824084941524675 0.0032803864909039591 0 -0.0024641348863387227 0.0033693610068387908 0 -0.0025532836437203521 0.0032291028893997962 0 -0.0026824084941524675 0.0032803864909039591 0 -0.002619397492419716 0.0031870421388790564 0 -0.0022826750549045376 0.0032402081909195172 0 -0.0025532836437203521 0.0032291028893997962 0 -0.0024641348863387227 0.0033693610068387908 0 -0.0020674460330907 0.0035936346964992906 0 -0.0022826750549045376 0.0032402081909195172 0 -0.0024641348863387227 0.0033693610068387908 0 -0.0020674460330907 0.0035936346964992906 0 -0.0022826750549045376 0.0032402081909195172 0 -0.0018112816737020712 0.0032430356025126587 0 -0.0020674460330907 0.0035936346964992906 0 -0.0013881649636360873 0.0034691729362850165 0 -0.0018112816737020712 0.0032430356025126587 0 -0.0020674460330907 0.0035936346964992906 0 -0.0013462989583024147 0.0037388372908718961 0 -0.0013881649636360873 0.0034691729362850165 0 -0.0013881649636360873 0.0034691729362850165 0 -0.0013629182292824642 0.0031986528920053036 0 -0.0018112816737020712 0.0032430356025126587 0 -0.0020155952942481946 0.0030437678589019311 0 -0.0022826750549045376 0.0032402081909195172 0 -0.0018112816737020712 0.0032430356025126587 0 -0.0024219133064327177 0.0031015339004312943 0 -0.0023122903715888025 0.0031648096553937616 0 -0.0022418831648769767 0.0030529968490278711 0 -0.0024219133064327177 0.0031015339004312943 0 -0.0024199103080075209 0.0031497724595713488 0 -0.0023122903715888025 0.0031648096553937616 0 -0.0023122903715888025 0.0031648096553937616 0 -0.002145850531792138 0.0031543702886156571 0 -0.0022418831648769767 0.0030529968490278711 0 -0.002145850531792138 0.0031543702886156571 0 -0.0020969246077752151 0.003073108910932158 0 -0.0022418831648769767 0.0030529968490278711 0 -0.0020216560755454286 0.0029590227158592919 0 -0.0021267691976824352 0.002836127590787036 0 -0.0022418831648769767 0.0030529968490278711 0 -0.0020216560755454286 0.0029590227158592919 0 -0.0020969246077752151 0.003073108910932158 0 -0.0022418831648769767 0.0030529968490278711 0 -0.0021267691976824352 0.002836127590787036 0 -0.0023085852608133155 0.0029128850222414522 0 -0.0022418831648769767 0.0030529968490278711 0 -0.0023085852608133155 0.0029128850222414522 0 -0.0022418831648769767 0.0030529968490278711 0 -0.0023598397162980598 0.0030237417885145921 0 -0.0023085852608133155 0.0029128850222414522 0 -0.0023598397162980598 0.0030237417885145921 0 -0.0024498433267706996 0.0030184470104863792 0 -0.0024219133064327177 0.0031015339004312943 0 -0.0022418831648769767 0.0030529968490278711 0 -0.0023598397162980598 0.0030237417885145921 0 -0.0024219133064327177 0.0031015339004312943 0 -0.0023598397162980598 0.0030237417885145921 0 -0.0024498433267706996 0.0030184470104863792 0 -0.0025801322977270814 0.0030399265353712904 0 -0.0024498433267706996 0.0030184470104863792 0 -0.0025258054226762437 0.003114932688265792 0 -0.0024219133064327177 0.0031015339004312943 0 -0.0024498433267706996 0.0030184470104863792 0 -0.0025258054226762437 0.003114932688265792 0 -0.0025801322977270814 0.0030399265353712904 0 -0.0025258054226762437 0.003114932688265792 0 -0.002619397492419716 0.0031870421388790564 0 -0.0027077553570834254 0.0031906362253700648 0 -0.0026824084941524675 0.0032803864909039591 0 -0.002619397492419716 0.0031870421388790564 0 -0.0025258054226762437 0.003114932688265792 0 -0.002619397492419716 0.0031870421388790564 0 -0.0025377870553723388 0.0031457718868308404 0 -0.002619397492419716 0.0031870421388790564 0 -0.0025356714788173822 0.0031628415149698237 0 -0.0025377870553723388 0.0031457718868308404 0 -0.0025377870553723388 0.0031457718868308404 0 -0.0024858682193066657 0.0031431085405442859 0 -0.0025144269622792048 0.0031219638817142768 0 -0.0025356714788173822 0.0031628415149698237 0 -0.0025377870553723388 0.0031457718868308404 0 -0.0025144269622792048 0.0031219638817142768 0 -0.0024655181772699243 0.0031046254819105594 0 -0.0025356714788173822 0.0031628415149698237 0 -0.0025144269622792048 0.0031219638817142768 0 -0.0024219133064327177 0.0031015339004312943 0 -0.0025258054226762437 0.003114932688265792 0 -0.0024903104044789715 0.0031327676531006207 0 -0.0025258054226762437 0.003114932688265792 0 -0.0025377870553723388 0.0031457718868308404 0 -0.0024903104044789715 0.0031327676531006207 0 -0.0025377870553723388 0.0031457718868308404 0 -0.0024903104044789715 0.0031327676531006207 0 -0.0024858682193066657 0.0031431085405442859 0 -0.0024219133064327177 0.0031015339004312943 0 -0.0024199103080075209 0.0031497724595713488 0 -0.0024903104044789715 0.0031327676531006207 0 -0.0024199103080075209 0.0031497724595713488 0 -0.0024903104044789715 0.0031327676531006207 0 -0.0024858682193066657 0.0031431085405442859 0 -0.0024199103080075209 0.0031497724595713488 0 -0.0024858682193066657 0.0031431085405442859 0 -0.0023945639536033679 0.0031890146970099112 0 -0.0024858682193066657 0.0031431085405442859 0 -0.0024567007743434349 0.003155462788314013 0 -0.0024963851202050987 0.0031040032673439249 0 -0.0024858682193066657 0.0031431085405442859 0 -0.0024567007743434349 0.003155462788314013 0 -0.0023945639536033679 0.0031890146970099112 0 -0.0024567007743434349 0.003155462788314013 0 -0.0024142433445309354 0.0031920290505008031 0 -0.0023945639536033679 0.0031890146970099112 0 -0.0024655181772699243 0.0031046254819105594 0 -0.0025144269622792048 0.0031219638817142768 0 -0.002485081451828942 0.0030711882587414756 0 -0.0024858682193066657 0.0031431085405442859 0 -0.0025144269622792048 0.0031219638817142768 0 -0.0024963851202050987 0.0031040032673439249 0 -0.0025144269622792048 0.0031219638817142768 0 -0.0024963851202050987 0.0031040032673439249 0 -0.002485081451828942 0.0030711882587414756 0 -0.0024963851202050987 0.0031040032673439249 0 -0.0024958300360276272 0.0030148076263028113 0 -0.0024559691829024203 0.0031572502293014657 0 -0.0024958300360276272 0.0030148076263028113 0 -0.0024559691829024203 0.0031572502293014657 0 -0.0024929104133696268 0.0030919267223905923 0 -0.0024350858035841133 0.0028220674451713561 0 -0.0024958300360276272 0.0030148076263028113 0 -0.0024929104133696268 0.0030919267223905923 0 -0.0024963851202050987 0.0031040032673439249 0 -0.002485081451828942 0.0030711882587414756 0 -0.0024958300360276272 0.0030148076263028113 0 -0.0024559691829024203 0.0031572502293014657 0 -0.0023386500728213452 0.0032671365290871568 0 -0.0024141368930273252 0.0032470084576156455 0 -0.0024142433445309354 0.0031920290505008031 0 -0.0024559691829024203 0.0031572502293014657 0 -0.0023386500728213452 0.0032671365290871568 0 -0.0024567007743434349 0.003155462788314013 0 -0.0024142433445309354 0.0031920290505008031 0 -0.0024559691829024203 0.0031572502293014657 0 -0.0024567007743434349 0.003155462788314013 0 -0.0024963851202050987 0.0031040032673439249 0 -0.0024559691829024203 0.0031572502293014657 0 -0.0023386500728213452 0.0032671365290871568 0 -0.0021993909945127819 0.0033820335613339381 0 -0.0024141368930273252 0.0032470084576156455 0 -0.0023386500728213452 0.0032671365290871568 0 -0.0023945639536033679 0.0031890146970099112 0 -0.0022795136414034442 0.003255350528289474 0 -0.0023386500728213452 0.0032671365290871568 0 -0.0022795136414034442 0.003255350528289474 0 -0.0022562812980963273 0.0033036515374683874 0 -0.0024142433445309354 0.0031920290505008031 0 -0.0023386500728213452 0.0032671365290871568 0 -0.0023945639536033679 0.0031890146970099112 0 -0.0023122903715888025 0.0031648096553937616 0 -0.0023945639536033679 0.0031890146970099112 0 -0.0022795136414034442 0.003255350528289474 0 -0.0024199103080075209 0.0031497724595713488 0 -0.0023122903715888025 0.0031648096553937616 0 -0.0023945639536033679 0.0031890146970099112 0 -0.0020331302806331736 0.0032535019007306491 0 -0.002145850531792138 0.0031543702886156571 0 -0.0021703525065613024 0.003249146903084631 0 -0.0023122903715888025 0.0031648096553937616 0 -0.0022795136414034442 0.003255350528289474 0 -0.0021703525065613024 0.003249146903084631 0 -0.0023122903715888025 0.0031648096553937616 0 -0.002145850531792138 0.0031543702886156571 0 -0.0021703525065613024 0.003249146903084631 0 -0.0022795136414034442 0.003255350528289474 0 -0.0021703525065613024 0.003249146903084631 0 -0.0021987885208789326 0.0033064254485926817 0 -0.0020734723056187072 0.003331087427603031 0 -0.0021703525065613024 0.003249146903084631 0 -0.0021987885208789326 0.0033064254485926817 0 -0.0020734723056187072 0.003331087427603031 0 -0.0020331302806331736 0.0032535019007306491 0 -0.0021703525065613024 0.003249146903084631 0 -0.0020734723056187072 0.003331087427603031 0 -0.0021987885208789326 0.0033064254485926817 0 -0.0021993909945127819 0.0033820335613339381 0 -0.0023386500728213452 0.0032671365290871568 0 -0.0022562812980963273 0.0033036515374683874 0 -0.0021993909945127819 0.0033820335613339381 0 -0.0021987885208789326 0.0033064254485926817 0 -0.0022562812980963273 0.0033036515374683874 0 -0.0021993909945127819 0.0033820335613339381 0 -0.0022795136414034442 0.003255350528289474 0 -0.0021987885208789326 0.0033064254485926817 0 -0.0022562812980963273 0.0033036515374683874 0 0.0017530052101667074 0.0019860395453703493 0 0.0017471707617856774 0.0021935172008125444 0 0.0020083851274543367 0.0020422362916036191 0 0.0012503570057474413 0.0024864720332705348 0 0.0010771662266393874 0.002388254470976508 0 0.00097217012637998239 0.0026836338796892194 0 0.0014543296134097705 0.0023679266399585768 0 0.0016780406015073936 0.002217960341757327 0 0.0017455389729456401 0.0019827406734095701 0 0.0016780406015073936 0.002217960341757327 0 0.0013203499664171813 0.0021419689534829863 0 0.001560213467476992 0.0021776691453803225 0 0.0015835376800470259 0.0020983575766690484 0 -0.00061413580916213283 0.0029317196907095349 0 -0.0007006690339831376 0.0026727875016487358 0 0.0010771662266393874 0.002388254470976508 0 0.00097217012637998239 0.0026836338796892194 0 0.00049669102898493333 0.002589397078669264 0 0.0016780406015073936 0.002217960341757327 0 -0.0007006690339831376 0.0026727875016487358 0 0.0018456886944037405 0.0019612970590620819 0 0.0018983747707311358 0.0018067040832824201 0 0.0020223088530391606 0.0018078089562652139 0 0.0018983747707311358 0.0018067040832824201 0 0.0020223088530391606 0.0018078089562652139 0 0.0019658077701809906 0.0017150907478820292 0 0.0016780406015073936 0.002217960341757327 0 0.0017818044209477509 0.0018748475559915525 0 0.0013203499664171813 0.0021419689534829863 0 0.0015835376800470259 0.0020983575766690484 0 0.0015587212942983467 0.0019841711403288716 0 0.0018456886944037405 0.0019612970590620819 0 0.0018983747707311358 0.0018067040832824201 0 0.0017711023095133328 0.0018375792504692508 0 0.0018983747707311358 0.0018067040832824201 0 0.0017711023095133328 0.0018375792504692508 0 0.0018446655709231389 0.001718730016520478 0 0.0016966742240858525 0.0019530326488225104 0 0.0018456886944037405 0.0019612970590620819 0 0.0017711023095133328 0.0018375792504692508 0 -0.0023209142338300156 0.0028741509638404474 0 -0.0028694190146366736 0.0028218043652834543 0 -0.0024350858035841133 0.0028220674451713561 0 -0.0025766994976768303 0.0026465144816859719 0 -0.0026680798945862305 0.0026687062364117819 0 -0.0025164826997938743 0.0025938682261783313 0 -0.0024986291212604926 0.0025167242982174023 0 -0.0026588144753139282 0.0025586449842593603 0 -0.0025164826997938743 0.0025938682261783313 0 -0.0025766994976768303 0.0026465144816859719 0 -0.0026588144753139282 0.0025586449842593603 0 -0.0025766994976768303 0.0026465144816859719 0 -0.0026680798945862305 0.0026687062364117819 0 -0.0026588144753139282 0.0025586449842593603 0 -0.0024559691829024203 0.0031572502293014657 0 -0.0024929104133696268 0.0030919267223905923 0 -0.0024141368930273252 0.0032470084576156455 0 0.001674689946621127 0.0020540524602433679 0 0.001560213467476992 0.0021776691453803225 0 0.0015835376800470259 0.0020983575766690484 0 -0.0026680798945862305 0.0026687062364117819 0 -0.0026588144753139282 0.0025586449842593603 0 -0.002764271848177716 0.0026361125486300757 0 -0.00046432847593854483 0.0022916847528167074 0 -0.0007006690339831376 0.0026727875016487358 0 -0.0028694190146366736 0.0028218043652834543 0 -0.0007006690339831376 0.0026727875016487358 0 0.0017818044209477509 0.0018748475559915525 0 0.0020486212586078132 0.0017389547270003683 0 0.001674689946621127 0.0020540524602433679 0 0.0015835376800470259 0.0020983575766690484 0 0.0017033904580992612 0.0020701105420663168 0 0.0015587212942983467 0.0019841711403288716 0 0.0017033904580992612 0.0020701105420663168 0 0.0020635974057184453 0.0017203327016438803 0 0.0015835376800470259 0.0020983575766690484 0 0.0015587212942983467 0.0019841711403288716 0 0.0017033904580992612 0.0020701105420663168 0 0.001489394864461969 0.0022623333739865093 0 0.001674689946621127 0.0020540524602433679 0 0.0017033904580992612 0.0020701105420663168 0 -0.0024119809541225728 0.0023651980233742155 0 -0.0024986291212604926 0.0025167242982174023 0 -0.0026588144753139282 0.0025586449842593603 0 -0.00055969194907574005 0.0020734923959569414 0 -0.00046432847593854483 0.0022916847528167074 0 0.0020165823725551636 0.0020034289795738082 0 0.0016494147963141983 0.00208737125240306 0 0.0021933108854230131 0.0017559538025579689 0 0.0017033904580992612 0.0020701105420663168 0 0.0020635974057184453 0.0017203327016438803 0 0.0021171684330617822 0.0016676460991823497 0 0.0020635974057184453 0.0017203327016438803 0 0.002074770865475493 0.0016938672479772389 0 0.0021171684330617822 0.0016676460991823497 0 0.0021278031703188694 0.0016984404224571997 0 0.0020635974057184453 0.0017203327016438803 0 0.0021556415275053899 0.00167303797991648 0 0.0021171684330617822 0.0016676460991823497 0 0.0021278031703188694 0.0016984404224571997 0 0.0021933108854230131 0.0017559538025579689 0 0.0021278031703188694 0.0016984404224571997 0 0.0020635974057184453 0.0017203327016438803 0 0.0020635974057184453 0.0017203327016438803 0 0.002074770865475493 0.0016938672479772389 0 0.0020438471524657918 0.0017322069386368874 0 0.002074770865475493 0.0016938672479772389 0 0.0020438471524657918 0.0017322069386368874 0 0.0020823084069325568 0.0016417570201083874 0 0.0020223088530391606 0.0018078089562652139 0 0.0020635974057184453 0.0017203327016438803 0 0.0020438471524657918 0.0017322069386368874 0 0.0020223088530391606 0.0018078089562652139 0 0.0020438471524657918 0.0017322069386368874 0 0.0019658077701809906 0.0017150907478820292 0 0.0020438471524657918 0.0017322069386368874 0 0.0020211442425581384 0.0016473415280347495 0 0.0019658077701809906 0.0017150907478820292 0 0.0020438471524657918 0.0017322069386368874 0 0.0020211442425581384 0.0016473415280347495 0 0.0020823084069325568 0.0016417570201083874 0 0.0020211442425581384 0.0016473415280347495 0 0.0020823084069325568 0.0016417570201083874 0 0.0020518306763404959 0.001541185804460709 0 0.0020823084069325568 0.0016417570201083874 0 0.0021490776554941929 0.0016047535285885516 0 0.0021274709530857846 0.0015309021278359571 0 0.0021171684330617822 0.0016676460991823497 0 0.002074770865475493 0.0016938672479772389 0 0.0020823084069325568 0.0016417570201083874 0 0.0021171684330617822 0.0016676460991823497 0 0.0020823084069325568 0.0016417570201083874 0 0.0021490776554941929 0.0016047535285885516 0 0.0021669519658978147 0.0016327953876752392 0 0.0021171684330617822 0.0016676460991823497 0 0.0021490776554941929 0.0016047535285885516 0 0.0016840656003436654 0.0017363524133765023 0 0.0017711023095133328 0.0018375792504692508 0 0.0018446655709231389 0.001718730016520478 0 0.0016840656003436654 0.0017363524133765023 0 0.0018446655709231389 0.001718730016520478 0 0.0017818709235014375 0.0016206093052815245 0 0.0018446655709231389 0.001718730016520478 0 0.0019658077701809906 0.0017150907478820292 0 0.0019252693184083646 0.0015821848468122136 0 0.0018983747707311358 0.0018067040832824201 0 0.0018446655709231389 0.001718730016520478 0 0.0019658077701809906 0.0017150907478820292 0 0.0020211442425581384 0.0016473415280347495 0 0.0019658077701809906 0.0017150907478820292 0 0.0019252693184083646 0.0015821848468122136 0 0.0020211442425581384 0.0016473415280347495 0 0.0019252693184083646 0.0015821848468122136 0 0.0020518306763404959 0.001541185804460709 0 0.0018446655709231389 0.001718730016520478 0 0.0019252693184083646 0.0015821848468122136 0 0.0017818709235014375 0.0016206093052815245 0 0.0019252693184083646 0.0015821848468122136 0 0.0017818709235014375 0.0016206093052815245 0 0.0017797602845570526 0.0015236704523623372 0 0.0019252693184083646 0.0015821848468122136 0 0.0019041006417393404 0.001443445661159412 0 0.0017797602845570526 0.0015236704523623372 0 0.0019252693184083646 0.0015821848468122136 0 0.002032615891099029 0.0014525189762733262 0 0.0019041006417393404 0.001443445661159412 0 0.0019252693184083646 0.0015821848468122136 0 0.002032615891099029 0.0014525189762733262 0 0.0020518306763404959 0.001541185804460709 0 0.002032615891099029 0.0014525189762733262 0 0.0019041006417393404 0.001443445661159412 0 0.0020918431158917566 0.0013596699136122004 0 0.002032615891099029 0.0014525189762733262 0 0.0021290040567939475 0.0014415390190879967 0 0.0020918431158917566 0.0013596699136122004 0 0.0021274709530857846 0.0015309021278359571 0 0.0021290040567939475 0.0014415390190879967 0 0.0022008987819724861 0.0015153612560359058 0 0.0020823084069325568 0.0016417570201083874 0 0.0021274709530857846 0.0015309021278359571 0 0.0020518306763404959 0.001541185804460709 0 0.0021274709530857846 0.0015309021278359571 0 0.0020518306763404959 0.001541185804460709 0 0.0021290040567939475 0.0014415390190879967 0 0.002032615891099029 0.0014525189762733262 0 0.0020518306763404959 0.001541185804460709 0 0.0021290040567939475 0.0014415390190879967 0 0.0021290040567939475 0.0014415390190879967 0 0.0021487757101328569 0.0013613634546519335 0 0.0022150997359718879 0.0013995616143816826 0 0.0026529257429829039 0.001656177770134067 0 0.0035871313103754614 0.0020501656406579217 0 0.0021290040567939475 0.0014415390190879967 0 0.0021487757101328569 0.0013613634546519335 0 0.0020918431158917566 0.0013596699136122004 0 0.0032919137383120682 0.0020407673270493587 0 0.0022648229989225884 0.0013458844130440964 0 0.003069442890904051 0.0013066607024973397 0 0.0026529257429829039 0.001656177770134067 0 0.0023210691379783083 0.0014020726406771414 0 0.0032919137383120682 0.0020407673270493587 0 0.003069442890904051 0.0013066607024973397 0 0.0039501914776494213 0.0015245879145115069 0 0.0032919137383120682 0.0020407673270493587 0 0.0039501914776494213 0.0015245879145115069 0 0.0043351158605138352 0.0024739053527261475 0 0.0019041006417393404 0.001443445661159412 0 0.0020918431158917566 0.0013596699136122004 0 0.0018598916107634012 0.0013322504581854348 0 0.0020918431158917566 0.0013596699136122004 0 0.0020345418299589188 0.0012847935180221198 0 0.0018598916107634012 0.0013322504581854348 0 0.0021487757101328569 0.0013613634546519335 0 0.0020918431158917566 0.0013596699136122004 0 0.0022648229989225884 0.0013458844130440964 0 0.0020918431158917566 0.0013596699136122004 0 0.0022648229989225884 0.0013458844130440964 0 0.0020345418299589188 0.0012847935180221198 0 0.0022648229989225884 0.0013458844130440964 0 0.0020345418299589188 0.0012847935180221198 0 0.0020457637460194775 0.0011428890710481875 0 0.0022648229989225884 0.0013458844130440964 0 0.0020457637460194775 0.0011428890710481875 0 0.0022307379017484788 0.00092725729263440782 0 0.0020457637460194775 0.0011428890710481875 0 0.0022307379017484788 0.00092725729263440782 0 0.0018445699091381048 0.000969852459292575 0 0.0022307379017484788 0.00092725729263440782 0 0.0023926853599236571 0.00026445517661756885 0 0.0020387813455947754 0.00044418510752564734 0 0.0022307379017484788 0.00092725729263440782 0 0.0023926853599236571 0.00026445517661756885 0 0.0031141571723613116 0.00030073633310128697 0 0.0023019577059897388 0.00092133576723858008 0 0.003094107439130018 0.00077766018497767175 0 0.0022307379017484788 0.00092725729263440782 0 0.0034164545116186036 0.00089462228264384439 0 0.0031141571723613116 0.00030073633310128697 0 0.0022648229989225884 0.0013458844130440964 0 0.0022307379017484788 0.00092725729263440782 0 0.0027578754133640499 0.00067566825587610463 0 0.0022648229989225884 0.0013458844130440964 0 0.003069442890904051 0.0013066607024973397 0 0.0027578754133640499 0.00067566825587610463 0 0.003069442890904051 0.0013066607024973397 0 0.0034690056402777777 0.0009709673442037768 0 0.0027578754133640499 0.00067566825587610463 0 0.003069442890904051 0.0013066607024973397 0 0.0039501914776494213 0.0015245879145115069 0 0.0034690056402777777 0.0009709673442037768 0 0.0039501914776494213 0.0015245879145115069 0 0.0034690056402777777 0.0009709673442037768 0 0.0040986116794314558 0.00092728160592478405 0 0.0034690056402777777 0.0009709673442037768 0 0.00378644902649964 0.00039522596357209432 0 0.0040986116794314558 0.00092728160592478405 0 0.0041996175656562025 0.00052648527200751106 0 0.003094107439130018 0.00077766018497767175 0 0.0034690056402777777 0.0009709673442037768 0 0.00378644902649964 0.00039522596357209432 0 0.0027578754133640499 0.00067566825587610463 0 0.0046118160285633066 0.00066756817231235384 0 0.0034164545116186036 0.00089462228264384439 0 0.0039374341002628883 0.00037949309634899259 0 0.0034164545116186036 0.00089462228264384439 0 0.0039374341002628883 0.00037949309634899259 0 0.0031141571723613116 0.00030073633310128697 0 0.0039374341002628883 0.00037949309634899259 0 0.0038305377595156172 -4.6244208104304351e-05 0 0.0031141571723613116 0.00030073633310128697 0 0.0039374341002628883 0.00037949309634899259 0 0.0038305377595156172 -4.6244208104304351e-05 0 0.0044295975103769633 4.3440426229327505e-05 0 0.0038305377595156172 -4.6244208104304351e-05 0 0.0033927768459349728 -0.0003386784526731072 0 0.0031141571723613116 0.00030073633310128697 0 0.0044295975103769633 4.3440426229327505e-05 0 0.0047086283086306673 -0.00058878033323799754 0 0.005106510481287168 0.00032906982490224246 0 0.0046118160285633066 0.00066756817231235384 0 0.0044295975103769633 4.3440426229327505e-05 0 0.005106510481287168 0.00032906982490224246 0 0.0046118160285633066 0.00066756817231235384 0 0.0039374341002628883 0.00037949309634899259 0 0.0044295975103769633 4.3440426229327505e-05 0 0.0038305377595156172 -4.6244208104304351e-05 0 0.0044295975103769633 4.3440426229327505e-05 0 0.0042404173450646572 -0.00036224166026507267 0 0.0042404173450646572 -0.00036224166026507267 0 0.0047086283086306673 -0.00058878033323799754 0 0.0040008256090002196 -0.0007733743660356707 0 0.0044295975103769633 4.3440426229327505e-05 0 0.0042404173450646572 -0.00036224166026507267 0 0.0047086283086306673 -0.00058878033323799754 0 0.0038305377595156172 -4.6244208104304351e-05 0 0.0040008256090002196 -0.0007733743660356707 0 0.0033927768459349728 -0.0003386784526731072 0 0.0040008256090002196 -0.0007733743660356707 0 0.0033927768459349728 -0.0003386784526731072 0 0.0032903109966187986 -0.0010353269509012187 0 0.0038305377595156172 -4.6244208104304351e-05 0 0.0042404173450646572 -0.00036224166026507267 0 0.0040008256090002196 -0.0007733743660356707 0 0.0033927768459349728 -0.0003386784526731072 0 0.0027392429524593534 -0.0001686108178597535 0 0.0032903109966187986 -0.0010353269509012187 0 0.0049427006065045458 -0.00023177870602173473 0 0.0057618656630671478 -5.8017676753024907e-05 0 0.0027392429524593534 -0.0001686108178597535 0 0.0022255776665723276 -0.00038791884731909749 0 0.0032903109966187986 -0.0010353269509012187 0 0.0072072599995074401 0.00096651083770375994 0 0.0077510821225911701 0.00059629242900175068 0 0.0070927838881032577 0.00084091441717143391 0 0.0049427006065045458 -0.00023177870602173473 0 0.0066254151949700132 -8.8815325272039361e-05 0 0.0022255776665723276 -0.00038791884731909749 0 0.0022392320281730614 -0.00016265406627184869 0 0.0021313762421741886 -3.3465614842225668e-05 0 0.0022255776665723276 -0.00038791884731909749 0 0.0022392320281730614 -0.00016265406627184869 0 0.0023913289324344776 -9.1122345412316777e-05 0 0.0022392320281730614 -0.00016265406627184869 0 0.0022389895139374645 4.3405686907079511e-05 0 0.0021313762421741886 -3.3465614842225668e-05 0 0.0022392320281730614 -0.00016265406627184869 0 0.0023913289324344776 -9.1122345412316777e-05 0 0.0022389895139374645 4.3405686907079511e-05 0 0.0027392429524593534 -0.0001686108178597535 0 0.0022255776665723276 -0.00038791884731909749 0 0.0023913289324344776 -9.1122345412316777e-05 0 0.0027392429524593534 -0.0001686108178597535 0 0.0023913289324344776 -9.1122345412316777e-05 0 0.0023926853599236571 0.00026445517661756885 0 0.0022389895139374645 4.3405686907079511e-05 0 0.0023926853599236571 0.00026445517661756885 0 0.0020821771040674402 0.00020573052469686188 0 0.0023913289324344776 -9.1122345412316777e-05 0 0.0022389895139374645 4.3405686907079511e-05 0 0.0023926853599236571 0.00026445517661756885 0 0.0023926853599236571 0.00026445517661756885 0 0.0020821771040674402 0.00020573052469686188 0 0.0020387813455947754 0.00044418510752564734 0 0.0027392429524593534 -0.0001686108178597535 0 0.0023926853599236571 0.00026445517661756885 0 0.0031141571723613116 0.00030073633310128697 0 0.0033927768459349728 -0.0003386784526731072 0 0.0027392429524593534 -0.0001686108178597535 0 0.0031141571723613116 0.00030073633310128697 0 0.00674789487455569 -2.3164557997512322e-05 0 0.0068422015639746023 0.00063088790774942544 0 0.00788137987751974 0.00014621363619303078 0 0.00674789487455569 -2.3164557997512322e-05 0 0.0075446057198685131 -0.00066705044932366571 0 0.00788137987751974 0.00014621363619303078 0 0.00674789487455569 -2.3164557997512322e-05 0 0.0075446057198685131 -0.00066705044932366571 0 0.0066916801879145374 -0.00078010817244851744 0 0.0075446057198685131 -0.00066705044932366571 0 0.0066916801879145374 -0.00078010817244851744 0 0.0070004391842582898 -0.0014966246154541523 0 0.00674789487455569 -2.3164557997512322e-05 0 0.0066916801879145374 -0.00078010817244851744 0 0.0061737023689070443 -0.00034914574378223126 0 0.0066916801879145374 -0.00078010817244851744 0 0.0062436149746784965 -0.00087327399488217495 0 0.0061737023689070443 -0.00034914574378223126 0 0.0062436149746784965 -0.00087327399488217495 0 0.0058931651157936383 -0.00080195158164061357 0 0.0061737023689070443 -0.00034914574378223126 0 0.0058931651157936383 -0.00080195158164061357 0 0.0061737023689070443 -0.00034914574378223126 0 0.0055740757082959978 -0.00021675613515917332 0 0.0052845947764885073 -0.00073910273535065705 0 0.0053362567771435233 -0.00045955363898192263 0 0.0054676300557264246 -0.00093503922870178638 0 0.0053362567771435233 -0.00045955363898192263 0 0.0055740757082959978 -0.00021675613515917332 0 0.0054676300557264246 -0.00093503922870178638 0 0.0050793595841657777 -0.00060236259381030903 0 0.0053362567771435233 -0.00045955363898192263 0 0.005106510481287168 0.00032906982490224246 0 0.0058931651157936383 -0.00080195158164061357 0 0.0055740757082959978 -0.00021675613515917332 0 0.0054901556039061326 -0.0012499670064108021 0 0.0056148325204407436 -0.00021008637386702331 0 0.0052626534102197982 -0.0012222418993193913 0 0.0050793595841657777 -0.00060236259381030903 0 0.0052845947764885073 -0.00073910273535065705 0 0.0053362567771435233 -0.00045955363898192263 0 0.0046118160285633066 0.00066756817231235384 0 0.005106510481287168 0.00032906982490224246 0 0.0058318036573621985 0.00030953798226091944 0 0.0047853782907494782 -0.00064412144529474281 0 0.0051321617474000538 0.00031929320768275663 0 0.0053362567771435233 -0.00045955363898192263 0 0.0055740757082959978 -0.00021675613515917332 0 0.005106510481287168 0.00032906982490224246 0 0.0055740757082959978 -0.00021675613515917332 0 0.005106510481287168 0.00032906982490224246 0 0.0058318036573621985 0.00030953798226091944 0 0.0066438951667158177 -1.3190838878296796e-05 0 0.0054546856407324922 0.00021641561646096229 0 0.00674789487455569 -2.3164557997512322e-05 0 0.0050596427500310152 0.00010255168395036199 0 0.0054402232592084534 0.00071026302569843019 0 0.00674789487455569 -2.3164557997512322e-05 0 0.0061737023689070443 -0.00034914574378223126 0 0.0058318036573621985 0.00030953798226091944 0 0.0061737023689070443 -0.00034914574378223126 0 0.0055740757082959978 -0.00021675613515917332 0 0.0058318036573621985 0.00030953798226091944 0 0.0050596427500310152 0.00010255168395036199 0 0.0054402232592084534 0.00071026302569843019 0 0.0046004248586237508 0.00064543271896066318 0 0.0054402232592084534 0.00071026302569843019 0 0.0046004248586237508 0.00064543271896066318 0 0.004878907452732055 0.0011249070228068101 0 0.0054402232592084534 0.00071026302569843019 0 0.0059322001121879997 0.0016120801519732056 0 0.0061231044991861133 0.00097470222356000735 0 0.0046004248586237508 0.00064543271896066318 0 0.0040986116794314558 0.00092728160592478405 0 0.004878907452732055 0.0011249070228068101 0 0.0041996175656562025 0.00052648527200751106 0 0.0054546856407324922 0.00021641561646096229 0 0.00378644902649964 0.00039522596357209432 0 0.0050596427500310152 0.00010255168395036199 0 0.0046004248586237508 0.00064543271896066318 0 0.00378644902649964 0.00039522596357209432 0 0.0046004248586237508 0.00064543271896066318 0 0.0040986116794314558 0.00092728160592478405 0 0.0039501914776494213 0.0015245879145115069 0 0.004878907452732055 0.0011249070228068101 0 0.0048218820561724421 0.0017624664364308872 0 0.0039501914776494213 0.0015245879145115069 0 0.0040986116794314558 0.00092728160592478405 0 0.004878907452732055 0.0011249070228068101 0 0.004878907452732055 0.0011249070228068101 0 0.00531959973867517 0.0013731290180619179 0 0.0048218820561724421 0.0017624664364308872 0 0.0054402232592084534 0.00071026302569843019 0 0.004878907452732055 0.0011249070228068101 0 0.0059322001121879997 0.0016120801519732056 0 0.0048050785449698999 0.0011073607582731532 0 0.0060976035487632189 0.0016939725259676858 0 0.00531959973867517 0.0013731290180619179 0 0.0058218276484797819 0.0016048676106546061 0 0.0052520574934520579 0.0018285925230015466 0 0.0059322001121879997 0.0016120801519732056 0 0.0064814476023477051 0.0014005969483551338 0 0.0066969316064202679 0.0018962358285571569 0 0.0060976035487632189 0.0016939725259676858 0 0.0030306208630098007 0.001314686450755727 0 0.0059322001121879997 0.0016120801519732056 0 0.0064814476023477051 0.0014005969483551338 0 0.0061231044991861133 0.00097470222356000735 0 0.00674789487455569 -2.3164557997512322e-05 0 0.0068422015639746023 0.00063088790774942544 0 0.0061231044991861133 0.00097470222356000735 0 0.00674789487455569 -2.3164557997512322e-05 0 0.0054402232592084534 0.00071026302569843019 0 0.0061231044991861133 0.00097470222356000735 0 0.0064814476023477051 0.0014005969483551338 0 0.0061231044991861133 0.00097470222356000735 0 0.0071221855605409449 0.0010592371513182179 0 0.0069284567422453524 0.00097532928257393022 0 0.0054254249263532891 0.0012517367121288459 0 0.0068422015639746023 0.00063088790774942544 0 0.0061231044991861133 0.00097470222356000735 0 0.0074383194783428953 0.0010509107873412507 0 0.0054254249263532891 0.0012517367121288459 0 0.0081359981595888354 -0.00010513755310872819 0 0.0068422015639746023 0.00063088790774942544 0 0.0074383194783428953 0.0010509107873412507 0 0.00788137987751974 0.00014621363619303078 0 0.00054506253873001678 0.00092630296374853534 0 0.0005331398567503282 0.00095148882053510103 0 0.00052991004049324599 0.00094504256906133668 0 0.0054254249263532891 0.0012517367121288459 0 0.0030306208630098007 0.001314686450755727 0 0.0064814476023477051 0.0014005969483551338 0 0.0071221855605409449 0.0010592371513182179 0 0.0066969316064202679 0.0018962358285571569 0 -0.00011455747363128806 0.00097540368483225429 0 -6.8886054907355468e-05 0.0011578412220636777 0 -0.00021049723120134306 0.0011844090690293601 0 -0.00011455747363128806 0.00097540368483225429 0 -6.8886054907355468e-05 0.0011578412220636777 0 9.8681980296318674e-05 0.0010277742095270769 0 0.0005331398567503282 0.00095148882053510103 0 0.00051241538042430697 0.00098861579977059673 0 0.00052991004049324599 0.00094504256906133668 0 0.0030306208630098007 0.001314686450755727 0 -0.00022883836373814801 0.00083859890899420008 0 0.0058218276484797819 0.0016048676106546061 0 0.0055328390243653287 0.0021960703044307814 0 0.0052520574934520579 0.0018285925230015466 0 0.0030306208630098007 0.001314686450755727 0 0.002639770243346831 0.0017474766177033717 0 0.0055328390243653287 0.0021960703044307814 0 0.0052520574934520579 0.0018285925230015466 0 0.0050325857346861375 0.0022415222809113607 0 -0.00021049723120134306 0.0011844090690293601 0 -0.00026228959917339744 0.0013846125034918054 0 -0.00022041421034006662 0.0014044359854210582 0 0.002639770243346831 0.0017474766177033717 0 0.0023068373629877184 0.0016872658296199171 0 0.0055328390243653287 0.0021960703044307814 0 0.0050325857346861375 0.0022415222809113607 0 0.0052193306667977857 0.0028115352357463959 0 -0.00021049723120134306 0.0011844090690293601 0 -0.00015129432106944824 0.0013173250114638518 0 -0.00022041421034006662 0.0014044359854210582 0 -6.8886054907355468e-05 0.0011578412220636777 0 -0.00021049723120134306 0.0011844090690293601 0 -0.00015129432106944824 0.0013173250114638518 0 -0.00015129432106944824 0.0013173250114638518 0 -0.0001206589731731138 0.0014453115480941353 0 2.3268885066870977e-05 0.0012893715233574566 0 -6.8886054907355468e-05 0.0011578412220636777 0 9.8681980296318674e-05 0.0010277742095270769 0 2.3268885066870977e-05 0.0012893715233574566 0 -6.8886054907355468e-05 0.0011578412220636777 0 -0.00015129432106944824 0.0013173250114638518 0 2.3268885066870977e-05 0.0012893715233574566 0 0.0039501914776494213 0.0015245879145115069 0 0.0048218820561724421 0.0017624664364308872 0 0.0043351158605138352 0.0024739053527261475 0 0.0048218820561724421 0.0017624664364308872 0 0.0050325857346861375 0.0022415222809113607 0 0.0043351158605138352 0.0024739053527261475 0 0.00531959973867517 0.0013731290180619179 0 0.0048218820561724421 0.0017624664364308872 0 0.0052520574934520579 0.0018285925230015466 0 0.0048218820561724421 0.0017624664364308872 0 0.0052520574934520579 0.0018285925230015466 0 0.0050325857346861375 0.0022415222809113607 0 0.0022150997359718879 0.0013995616143816826 0 0.0022327364827728477 0.0014551761401820848 0 0.0023039634460889956 0.001442062650973969 0 0.0050325857346861375 0.0022415222809113607 0 0.0043351158605138352 0.0024739053527261475 0 0.0052193306667977857 0.0028115352357463959 0 0.0035871313103754614 0.0020501656406579217 0 0.0023068373629877184 0.0016872658296199171 0 0.0021290040567939475 0.0014415390190879967 0 0.0022150997359718879 0.0013995616143816826 0 0.0022327364827728477 0.0014551761401820848 0 0.0022327364827728477 0.0014551761401820848 0 0.0022667703649444605 0.0015096349690046946 0 0.0022008987819724861 0.0015153612560359058 0 0.0021290040567939475 0.0014415390190879967 0 0.0022327364827728477 0.0014551761401820848 0 0.0022008987819724861 0.0015153612560359058 0 0.0023068373629877184 0.0016872658296199171 0 0.00090345061072584433 0.0015840846860766069 0 -0.00022758596335090774 0.0014019578109170992 0 -0.00023425419003616276 0.00149174176486831 0 -0.00020980864213803501 0.0014526971477349232 0 0.0022327364827728477 0.0014551761401820848 0 0.0023039634460889956 0.001442062650973969 0 0.0022667703649444605 0.0015096349690046946 0 0.0017270480197427594 0.0015280616732631749 0 0.00090345061072584433 0.0015840846860766069 0 -0.00023822623570834154 0.0015458205137898096 0 -0.00021900986526444163 0.0015306800274274073 0 -0.00023425419003616276 0.00149174176486831 0 -0.00023425419003616276 0.00149174176486831 0 -0.00020980864213803501 0.0014526971477349232 0 -0.00020235089935931623 0.0015012064296892049 0 -0.00021900986526444163 0.0015306800274274073 0 -0.00020235089935931623 0.0015012064296892049 0 -0.00018995108870378455 0.0015297074275787148 0 -0.00021900986526444163 0.0015306800274274073 0 -0.00023425419003616276 0.00149174176486831 0 -0.00020235089935931623 0.0015012064296892049 0 0.0017270480197427594 0.0015280616732631749 0 0.0023195564686145599 0.0015949415378473265 0 0.0022302923476607544 0.0015844025551009317 0 0.0022667703649444605 0.0015096349690046946 0 0.0022008987819724861 0.0015153612560359058 0 0.0022302923476607544 0.0015844025551009317 0 0.0021274709530857846 0.0015309021278359571 0 0.0022008987819724861 0.0015153612560359058 0 -0.0001206589731731138 0.0014453115480941353 0 -6.9455013317351201e-05 0.001537535963539627 0 2.3268885066870977e-05 0.0012893715233574566 0 -0.0001206589731731138 0.0014453115480941353 0 -0.00017465588678550612 0.0014350329780232784 0 -0.00014864699207163223 0.0014773467776064476 0 -0.0001206589731731138 0.0014453115480941353 0 -0.00014864699207163223 0.0014773467776064476 0 -0.00011374392645301829 0.0015138510927740622 0 -0.0001206589731731138 0.0014453115480941353 0 -0.00011374392645301829 0.0015138510927740622 0 -6.9455013317351201e-05 0.001537535963539627 0 -0.00015129432106944824 0.0013173250114638518 0 -0.00022041421034006662 0.0014044359854210582 0 -0.00017465588678550612 0.0014350329780232784 0 -0.00015129432106944824 0.0013173250114638518 0 -0.0001206589731731138 0.0014453115480941353 0 -0.00017465588678550612 0.0014350329780232784 0 -0.00022758596335090774 0.0014019578109170992 0 -0.00022041421034006662 0.0014044359854210582 0 -0.00020980864213803501 0.0014526971477349232 0 -0.00022041421034006662 0.0014044359854210582 0 -0.00020980864213803501 0.0014526971477349232 0 -0.00017465588678550612 0.0014350329780232784 0 0.0023068373629877184 0.0016872658296199171 0 0.0010446239578757897 0.0012903039398563044 0 -0.00020980864213803501 0.0014526971477349232 0 -0.00017465588678550612 0.0014350329780232784 0 -0.00017760020852098968 0.0014814063868967213 0 -0.00017465588678550612 0.0014350329780232784 0 -0.00014864699207163223 0.0014773467776064476 0 -0.00017760020852098968 0.0014814063868967213 0 -0.00017320050760163836 0.0015088328893972508 0 -0.00015366513541274239 0.0015033556932824274 0 -0.0001394447768420701 0.0015258257342720496 0 -0.00014864699207163223 0.0014773467776064476 0 -0.00017760020852098968 0.0014814063868967213 0 -0.00015366513541274239 0.0015033556932824274 0 -0.00017760020852098968 0.0014814063868967213 0 -0.00017320050760163836 0.0015088328893972508 0 -0.00015366513541274239 0.0015033556932824274 0 -0.00020980864213803501 0.0014526971477349232 0 -0.00017760020852098968 0.0014814063868967213 0 -0.00020235089935931623 0.0015012064296892049 0 -0.00017760020852098968 0.0014814063868967213 0 -0.00017320050760163836 0.0015088328893972508 0 -0.00020235089935931623 0.0015012064296892049 0 -0.00017320050760163836 0.0015088328893972508 0 -0.00020235089935931623 0.0015012064296892049 0 -0.00018995108870378455 0.0015297074275787148 0 -0.00017320050760163836 0.0015088328893972508 0 -0.00018995108870378455 0.0015297074275787148 0 -0.0001394447768420701 0.0015258257342720496 0 -0.0001394447768420701 0.0015258257342720496 0 -0.00013808300443521982 0.0015364623925895246 0 -0.00011374392645301829 0.0015138510927740622 0 -0.00031092669938466785 0.0016837319735739603 0 -9.1163278969324672e-05 0.0015512497191559795 0 -0.00013808300443521982 0.0015364623925895246 0 -0.00011374392645301829 0.0015138510927740622 0 -6.9455013317351201e-05 0.001537535963539627 0 -0.00047954537232614843 0.0018867897629834644 0 -0.00023920720787104136 0.0018705989178908141 0 -6.9455013317351201e-05 0.001537535963539627 0 -0.00015366513541274239 0.0015033556932824274 0 -0.0001394447768420701 0.0015258257342720496 0 -0.00011374392645301829 0.0015138510927740622 0 -0.00014864699207163223 0.0014773467776064476 0 -0.00015366513541274239 0.0015033556932824274 0 -0.00011374392645301829 0.0015138510927740622 0 -0.0002088953822494328 0.0020451889598105417 0 -0.00023920720787104136 0.0018705989178908141 0 0.00019022857608953171 0.0016230993469478722 0 -0.00023920720787104136 0.0018705989178908141 0 -6.9455013317351201e-05 0.001537535963539627 0 0.00019022857608953171 0.0016230993469478722 0 -6.9455013317351201e-05 0.001537535963539627 0 0.00026153979426630407 0.0013558075094178175 0 2.3268885066870977e-05 0.0012893715233574566 0 -6.9455013317351201e-05 0.001537535963539627 0 0.00026153979426630407 0.0013558075094178175 0 0.00019022857608953171 0.0016230993469478722 0 0.00026153979426630407 0.0013558075094178175 0 0.00019022857608953171 0.0016230993469478722 0 0.00049803617689826642 0.001400276953762817 0 0.00019022857608953171 0.0016230993469478722 0 0.00050906028039080908 0.0015893673065403018 0 0.00049803617689826642 0.001400276953762817 0 0.00019022857608953171 0.0016230993469478722 0 0.00041436984187605562 0.0018707590343652752 0 0.00050906028039080908 0.0015893673065403018 0 -0.0002088953822494328 0.0020451889598105417 0 0.00019022857608953171 0.0016230993469478722 0 0.00041436984187605562 0.0018707590343652752 0 3.6774060141343608e-06 0.0020082538987097102 0 0.00015337782752803154 0.0016333438545363891 0 0.00041436984187605562 0.0018707590343652752 0 0.0006058883119749377 0.0016517014935888126 0 0.00079500748629825928 0.0016658655804542551 0 -0.00043233214104658967 0.00207633498337789 0 -0.00036908882983250761 0.0021057745189317334 0 -0.00046656709117903506 0.0021373249070347597 0 -0.00038361549100460841 0.0018838290353082627 0 0.00015337782752803154 0.0016333438545363891 0 0.0006058883119749377 0.0016517014935888126 0 0.00079500748629825928 0.0016658655804542551 0 0.00069939367261737063 0.001495146002575221 0 0.00041436984187605562 0.0018707590343652752 0 0.0006058883119749377 0.0016517014935888126 0 0.00050906028039080908 0.0015893673065403018 0 7.4555129002775876e-05 0.0013104998764407599 0 0.00014739717538902696 0.0014160672436098448 0 0.00020532572722963804 0.0012798786564825586 0 7.4555129002775876e-05 0.0013104998764407599 0 0.00014739717538902696 0.0014160672436098448 0 2.8811931328330647e-05 0.0014930010985162909 0 0.00016998068243685786 0.0015747104175274191 0 0.00014739717538902696 0.0014160672436098448 0 2.8811931328330647e-05 0.0014930010985162909 0 7.4555129002775876e-05 0.0013104998764407599 0 2.8811931328330647e-05 0.0014930010985162909 0 -4.6074206736339134e-05 0.001294437530326629 0 -0.00031278736971581772 0.0016179380491899008 0 -0.00011679402438287545 0.0014581678289970991 0 -0.00016188015418137856 0.0012214477321850195 0 -0.00011679402438287545 0.0014581678289970991 0 -0.00016188015418137856 0.0012214477321850195 0 -4.6074206736339134e-05 0.001294437530326629 0 2.8811931328330647e-05 0.0014930010985162909 0 -0.00011679402438287545 0.0014581678289970991 0 -4.6074206736339134e-05 0.001294437530326629 0 0.00030482773478113576 0.0015769581408387372 0 0.00046096785845307979 0.0015029751832256208 0 0.00050572541987199617 0.001242677474980013 0 0.00015337782752803154 0.0016333438545363891 0 0.00033344574323920811 0.0013671860351865944 0 -0.00016188015418137856 0.0012214477321850195 0 -5.1253399104991655e-05 0.0011543215921715974 0 -4.6074206736339134e-05 0.001294437530326629 0 -5.1253399104991655e-05 0.0011543215921715974 0 0.00010006529716559264 0.0011911461690067274 0 0.00028112122458013618 0.0010134459493091584 0 7.4555129002775876e-05 0.0013104998764407599 0 -4.6074206736339134e-05 0.001294437530326629 0 0.00010006529716559264 0.0011911461690067274 0 -5.1253399104991655e-05 0.0011543215921715974 0 -4.6074206736339134e-05 0.001294437530326629 0 0.00010006529716559264 0.0011911461690067274 0 7.4555129002775876e-05 0.0013104998764407599 0 0.00010006529716559264 0.0011911461690067274 0 0.00020532572722963804 0.0012798786564825586 0 0.00066911397847226484 0.0012649785363916595 0 0.00095554234187148379 0.0010708676191786561 0 0.00039929974469804871 0.0013224279270162332 0 0.00044393482681787284 0.0010593012861933671 0 0.00098844743787463514 0.0010275508323301229 0 0.00033344574323920811 0.0013671860351865944 0 0.00066911397847226484 0.0012649785363916595 0 0.00015337782752803154 0.0016333438545363891 0 0.00066911397847226484 0.0012649785363916595 0 0.00079500748629825928 0.0016658655804542551 0 0.00088279739302372202 0.0014857602404019551 0 0.00069939367261737063 0.001495146002575221 0 0.00088279739302372202 0.0014857602404019551 0 0.00069939367261737063 0.001495146002575221 0 0.00072852773148527803 0.0012841033850353478 0 0.00066911397847226484 0.0012649785363916595 0 0.00092916388251769856 0.00078416524383667879 0 0.0006058883119749377 0.0016517014935888126 0 0.00050906028039080908 0.0015893673065403018 0 0.00069939367261737063 0.001495146002575221 0 0.00050906028039080908 0.0015893673065403018 0 0.00069939367261737063 0.001495146002575221 0 0.00049803617689826642 0.001400276953762817 0 0.00069939367261737063 0.001495146002575221 0 0.00049803617689826642 0.001400276953762817 0 0.00072852773148527803 0.0012841033850353478 0 0.00049803617689826642 0.001400276953762817 0 0.00072852773148527803 0.0012841033850353478 0 0.00047341296834909865 0.0011058503105483514 0 0.00072852773148527803 0.0012841033850353478 0 0.00073646444785681916 0.0010898669111984055 0 0.00047341296834909865 0.0011058503105483514 0 0.00093319375338335865 0.0013244872436532394 0 0.0010117330783353654 0.00088900380793705913 0 0.0011596121490793552 0.00095329395510115205 0 0.00088279739302372202 0.0014857602404019551 0 0.00072852773148527803 0.0012841033850353478 0 0.00090776243469050256 0.0012146537727748517 0 0.00072852773148527803 0.0012841033850353478 0 0.00090776243469050256 0.0012146537727748517 0 0.00073646444785681916 0.0010898669111984055 0 0.00090776243469050256 0.0012146537727748517 0 0.0009252879402039877 0.0010137567958506042 0 0.00073646444785681916 0.0010898669111984055 0 0.0013251146221704847 0.00079798663853528496 0 0.00070342434506832463 0.0010003858024839744 0 0.00095554234187148379 0.0010708676191786561 0 0.0013251146221704847 0.00079798663853528496 0 0.0010117330783353654 0.00088900380793705913 0 0.0010881234887568142 0.00045583123268762944 0 0.0011692928091355929 0.00071650084706041098 0 0.0009252879402039877 0.0010137567958506042 0 0.00073646444785681916 0.0010898669111984055 0 0.00074116793356219493 0.00094410703243275518 0 0.00062484104029456988 0.0010230494500778704 0 0.00073646444785681916 0.0010898669111984055 0 0.00074116793356219493 0.00094410703243275518 0 0.00062484104029456988 0.0010230494500778704 0 0.00073646444785681916 0.0010898669111984055 0 0.00047341296834909865 0.0011058503105483514 0 0.00062484104029456988 0.0010230494500778704 0 0.00047341296834909865 0.0011058503105483514 0 0.00055962424336972595 0.00096827843027893047 0 0.00051241538042430697 0.00098861579977059673 0 0.00047341296834909865 0.0011058503105483514 0 0.00055962424336972595 0.00096827843027893047 0 -0.00022883836373814801 0.00083859890899420008 0 0.00067902717896928255 0.0011808041636118746 0 9.8681980296318674e-05 0.0010277742095270769 0 2.3268885066870977e-05 0.0012893715233574566 0 0.00047341296834909865 0.0011058503105483514 0 0.00026153979426630407 0.0013558075094178175 0 2.3268885066870977e-05 0.0012893715233574566 0 0.00047341296834909865 0.0011058503105483514 0 0.00026153979426630407 0.0013558075094178175 0 0.00049803617689826642 0.001400276953762817 0 0.00047341296834909865 0.0011058503105483514 0 0.0017465713969800965 0.00079314698232846575 0 0.0022653949401759046 0.0012049624770476288 0 0.0022925560622749893 0.00036539317344218747 0 0.0017465713969800965 0.00079314698232846575 0 0.0017679931060237321 0.00024798486658377715 0 0.0022925560622749893 0.00036539317344218747 0 0.0017465713969800965 0.00079314698232846575 0 0.001390436243912445 0.00044657759569128328 0 0.0017679931060237321 0.00024798486658377715 0 0.0021716636659509956 0.0018759159630918503 0 0.0017964412226928114 0.0016250111336866707 0 0.0022653949401759046 0.0012049624770476288 0 0.0017465713969800965 0.00079314698232846575 0 0.0017374847404401936 0.0012709645304692378 0 0.0022653949401759046 0.0012049624770476288 0 0.0017964412226928114 0.0016250111336866707 0 0.0017374847404401936 0.0012709645304692378 0 0.0022653949401759046 0.0012049624770476288 0 0.0017964412226928114 0.0016250111336866707 0 0.0017374847404401936 0.0012709645304692378 0 0.0014667436340803598 0.0014948448251078015 0 0.0017465713969800965 0.00079314698232846575 0 0.0017374847404401936 0.0012709645304692378 0 0.001407897208304619 0.0011594366110284635 0 0.0017374847404401936 0.0012709645304692378 0 0.001407897208304619 0.0011594366110284635 0 0.0014667436340803598 0.0014948448251078015 0 0.001407897208304619 0.0011594366110284635 0 0.0014667436340803598 0.0014948448251078015 0 0.0010697861958049401 0.001216467313290136 0 0.0014667436340803598 0.0014948448251078015 0 0.0011256059550696176 0.0014991996362530798 0 0.0010697861958049401 0.001216467313290136 0 0.001407897208304619 0.0011594366110284635 0 0.0010697861958049401 0.001216467313290136 0 0.0011812888221840257 0.00096914946492757874 0 0.0010697861958049401 0.001216467313290136 0 0.0011812888221840257 0.00096914946492757874 0 0.00091542554443642399 0.00099129478372545388 0 0.0011812888221840257 0.00096914946492757874 0 0.0014133638668029881 0.00078513006405685204 0 0.001118441317177398 0.00068349205151003057 0 0.0011812888221840257 0.00096914946492757874 0 0.001118441317177398 0.00068349205151003057 0 0.00091542554443642399 0.00099129478372545388 0 0.001407897208304619 0.0011594366110284635 0 0.0011812888221840257 0.00096914946492757874 0 0.0014133638668029881 0.00078513006405685204 0 0.0017465713969800965 0.00079314698232846575 0 0.001407897208304619 0.0011594366110284635 0 0.0014133638668029881 0.00078513006405685204 0 0.0014133638668029881 0.00078513006405685204 0 0.001390436243912445 0.00044657759569128328 0 0.001118441317177398 0.00068349205151003057 0 0.0017465713969800965 0.00079314698232846575 0 0.0014133638668029881 0.00078513006405685204 0 0.001390436243912445 0.00044657759569128328 0 0.001118441317177398 0.00068349205151003057 0 0.00090296094057843671 0.00059843218140357031 0 0.0010880009336861351 0.0003341545030202862 0 0.001390436243912445 0.00044657759569128328 0 0.001118441317177398 0.00068349205151003057 0 0.0010880009336861351 0.0003341545030202862 0 0.00090296094057843671 0.00059843218140357031 0 0.0004507387229873757 0.00078435903989747756 0 0.0010880009336861351 0.0003341545030202862 0 0.00052588694987464935 0.0007398363072392436 0 0.0010354042156012627 0.000362222984244483 0 0.00090296094057843671 0.00059843218140357031 0 0.00066159451113707477 0.0007542677174426143 0 0.00088550643980809846 0.00076915697677491833 0 0.001118441317177398 0.00068349205151003057 0 0.00090296094057843671 0.00059843218140357031 0 0.00088550643980809846 0.00076915697677491833 0 0.00090296094057843671 0.00059843218140357031 0 0.00066159451113707477 0.0007542677174426143 0 0.0004507387229873757 0.00078435903989747756 0 0.00074892933418463641 0.00090788454392810598 0 0.00091542554443642399 0.00099129478372545388 0 0.00067895440174838928 0.0010940845353097698 0 0.00066159451113707477 0.0007542677174426143 0 0.00074892933418463641 0.00090788454392810598 0 0.00088550643980809846 0.00076915697677491833 0 0.00066159451113707477 0.0007542677174426143 0 0.00054752568924278599 0.00084001438490175851 0 0.0004507387229873757 0.00078435903989747756 0 0.00066159451113707477 0.0007542677174426143 0 0.00058906067269505426 0.00093296964179002918 0 0.00054752568924278599 0.00084001438490175851 0 0.00066159451113707477 0.0007542677174426143 0 0.00058906067269505426 0.00093296964179002918 0 0.00074892933418463641 0.00090788454392810598 0 0.00058906067269505426 0.00093296964179002918 0 0.00074892933418463641 0.00090788454392810598 0 0.00067895440174838928 0.0010940845353097698 0 0.001118441317177398 0.00068349205151003057 0 0.00088550643980809846 0.00076915697677491833 0 0.00091542554443642399 0.00099129478372545388 0 0.00074892933418463641 0.00090788454392810598 0 0.00088550643980809846 0.00076915697677491833 0 0.00091542554443642399 0.00099129478372545388 0 0.00091542554443642399 0.00099129478372545388 0 0.00078524356245236217 0.001236454586986777 0 0.00067895440174838928 0.0010940845353097698 0 0.0010697861958049401 0.001216467313290136 0 0.00091542554443642399 0.00099129478372545388 0 0.00078524356245236217 0.001236454586986777 0 0.0011256059550696176 0.0014991996362530798 0 0.0010697861958049401 0.001216467313290136 0 0.00086744401358175712 0.0014665449947116223 0 0.0010697861958049401 0.001216467313290136 0 0.00078524356245236217 0.001236454586986777 0 0.00086744401358175712 0.0014665449947116223 0 0.00078524356245236217 0.001236454586986777 0 0.00086744401358175712 0.0014665449947116223 0 0.00061936029659804366 0.0014019959745642941 0 0.00078524356245236217 0.001236454586986777 0 0.00061936029659804366 0.0014019959745642941 0 0.00058155669085530222 0.0012328236567229511 0 0.00061936029659804366 0.0014019959745642941 0 0.00058155669085530222 0.0012328236567229511 0 0.00049013881611191209 0.0013277961213047735 0 0.00078524356245236217 0.001236454586986777 0 0.00058155669085530222 0.0012328236567229511 0 0.00067895440174838928 0.0010940845353097698 0 0.00058155669085530222 0.0012328236567229511 0 0.00067895440174838928 0.0010940845353097698 0 0.00054815257571598779 0.0010810310480297402 0 0.00058906067269505426 0.00093296964179002918 0 0.00067895440174838928 0.0010940845353097698 0 0.00054815257571598779 0.0010810310480297402 0 0.00054815257571598779 0.0010810310480297402 0 0.00045240469857707081 0.0011960057371544733 0 0.00043517479653601773 0.0010201756795793376 0 0.00045240469857707081 0.0011960057371544733 0 0.00032201380084666552 0.0011594327169846604 0 0.00043517479653601773 0.0010201756795793376 0 0.00045240469857707081 0.0011960057371544733 0 0.00035666606130593716 0.0013183128992427945 0 0.00032201380084666552 0.0011594327169846604 0 0.00058155669085530222 0.0012328236567229511 0 0.00045240469857707081 0.0011960057371544733 0 0.00049013881611191209 0.0013277961213047735 0 0.00058155669085530222 0.0012328236567229511 0 0.00054815257571598779 0.0010810310480297402 0 0.00045240469857707081 0.0011960057371544733 0 0.00045240469857707081 0.0011960057371544733 0 0.00049013881611191209 0.0013277961213047735 0 0.00035666606130593716 0.0013183128992427945 0 0.00044603582005296884 0.0014862734107697825 0 0.00049013881611191209 0.0013277961213047735 0 0.00035666606130593716 0.0013183128992427945 0 0.00044603582005296884 0.0014862734107697825 0 0.00061936029659804366 0.0014019959745642941 0 0.00049013881611191209 0.0013277961213047735 0 0.00016998068243685786 0.0015747104175274191 0 0.00014739717538902696 0.0014160672436098448 0 0.00026093953247471738 0.001450287479388211 0 0.00044603582005296884 0.0014862734107697825 0 0.00035666606130593716 0.0013183128992427945 0 0.00026093953247471738 0.001450287479388211 0 0.00035666606130593716 0.0013183128992427945 0 0.00026093953247471738 0.001450287479388211 0 0.00020532572722963804 0.0012798786564825586 0 0.00014739717538902696 0.0014160672436098448 0 0.00026093953247471738 0.001450287479388211 0 0.00020532572722963804 0.0012798786564825586 0 0.00020532572722963804 0.0012798786564825586 0 0.00032201380084666552 0.0011594327169846604 0 0.00022259868808335298 0.001150687161969374 0 0.00010006529716559264 0.0011911461690067274 0 0.00020532572722963804 0.0012798786564825586 0 0.00022259868808335298 0.001150687161969374 0 0.00035666606130593716 0.0013183128992427945 0 0.00020532572722963804 0.0012798786564825586 0 0.00032201380084666552 0.0011594327169846604 0 0.00032201380084666552 0.0011594327169846604 0 0.00022259868808335298 0.001150687161969374 0 0.00028112122458013618 0.0010134459493091584 0 0.00032201380084666552 0.0011594327169846604 0 0.00028112122458013618 0.0010134459493091584 0 0.00043517479653601773 0.0010201756795793376 0 0.00010006529716559264 0.0011911461690067274 0 0.00022259868808335298 0.001150687161969374 0 0.00028112122458013618 0.0010134459493091584 0 0.00044393482681787284 0.0010593012861933671 0 0.00098844743787463514 0.0010275508323301229 0 0.00075322585055665121 0.00054142138691370154 0 0.00033344574323920811 0.0013671860351865944 0 0.00052793941418441187 0.00080797130521718832 0 -5.1253399104991655e-05 0.0011543215921715974 0 0.00028112122458013618 0.0010134459493091584 0 0.00037156678766866108 0.00084628894279493321 0 0.00028112122458013618 0.0010134459493091584 0 0.00041420901111228624 0.00092528197742324935 0 0.00043517479653601773 0.0010201756795793376 0 0.00041420901111228624 0.00092528197742324935 0 0.00043517479653601773 0.0010201756795793376 0 0.0004905669160453714 0.000887292188374574 0 0.00058906067269505426 0.00093296964179002918 0 0.00043517479653601773 0.0010201756795793376 0 0.0004905669160453714 0.000887292188374574 0 0.00058906067269505426 0.00093296964179002918 0 0.00054815257571598779 0.0010810310480297402 0 0.00043517479653601773 0.0010201756795793376 0 0.00041420901111228624 0.00092528197742324935 0 0.0004905669160453714 0.000887292188374574 0 0.0004507387229873757 0.00078435903989747756 0 0.00058906067269505426 0.00093296964179002918 0 0.0004905669160453714 0.000887292188374574 0 0.00054752568924278599 0.00084001438490175851 0 0.0004905669160453714 0.000887292188374574 0 0.00054752568924278599 0.00084001438490175851 0 0.0004507387229873757 0.00078435903989747756 0 0.00028112122458013618 0.0010134459493091584 0 0.00037156678766866108 0.00084628894279493321 0 0.0004507387229873757 0.00078435903989747756 0 0.00028112122458013618 0.0010134459493091584 0 0.00041420901111228624 0.00092528197742324935 0 0.0004507387229873757 0.00078435903989747756 0 0.00052793941418441187 0.00080797130521718832 0 0.00052588694987464935 0.0007398363072392436 0 0.00035361071103881439 0.00068779977484353136 0 0.00045245397105038801 0.00063807947595512541 0 0.00065083253286540648 0.00027443246878452424 0 0.00035361071103881439 0.00068779977484353136 0 0.00050573380814385302 -0.00017704358116186366 0 0.00065083253286540648 0.00027443246878452424 0 0.00098844743787463514 0.0010275508323301229 0 0.00075322585055665121 0.00054142138691370154 0 0.0011616533056898412 6.4518626926465692e-05 0 0.00052793941418441187 0.00080797130521718832 0 0.001097579246571366 -7.5734880822567448e-05 0 0.00075322585055665121 0.00054142138691370154 0 0.0011616533056898412 6.4518626926465692e-05 0 0.0010650193866231649 2.2312146584411251e-05 0 0.00092916388251769856 0.00078416524383667879 0 0.0017342189574396857 0.00021086051276302052 0 0.0011596121490793552 0.00095329395510115205 0 0.0011692928091355929 0.00071650084706041098 0 0.0013832832402714389 0.00058245693052808771 0 0.0010117330783353654 0.00088900380793705913 0 0.0011596121490793552 0.00095329395510115205 0 0.0011692928091355929 0.00071650084706041098 0 0.0010881234887568142 0.00045583123268762944 0 0.0011692928091355929 0.00071650084706041098 0 0.0013832832402714389 0.00058245693052808771 0 0.0013251146221704847 0.00079798663853528496 0 0.0017342189574396857 0.00021086051276302052 0 0.0027202044069681453 -4.0019705740268211e-05 0 0.0029826695101492378 -3.6295335708811157e-05 0 0.0030185115725963945 8.1236607489147642e-05 0 0.0027202044069681453 -4.0019705740268211e-05 0 0.0028977752941866598 -0.00012238518829160616 0 0.0029826695101492378 -3.6295335708811157e-05 0 0.0028977752941866598 -0.00012238518829160616 0 0.0029826695101492378 -3.6295335708811157e-05 0 0.0030981384109724673 -5.7507288243607073e-05 0 0.0029894581915394865 -2.0658190459917858e-05 0 0.0019940174020163935 -0.0002288048771358455 0 0.0028977752941866598 -0.00012238518829160616 0 0.0031342736710770268 -5.2198434613887404e-05 0 0.0031611063479708673 -9.6356391921407502e-05 0 0.0019940174020163935 -0.0002288048771358455 0 0.0023192432014479234 -0.00037138654466494826 0 0.0029826695101492378 -3.6295335708811157e-05 0 0.0030981384109724673 -5.7507288243607073e-05 0 0.0030185115725963945 8.1236607489147642e-05 0 0.0019940174020163935 -0.0002288048771358455 0 0.0017342189574396857 0.00021086051276302052 0 0.00172040262079957 -0.00022830593025907248 0 0.0016719819379120303 0.00031005260493674729 0 0.0014550943657084692 0.00021537816982296286 0 0.0019940174020163935 -0.0002288048771358455 0 0.001097579246571366 -7.5734880822567448e-05 0 0.001097579246571366 -7.5734880822567448e-05 0 0.0017342189574396857 0.00021086051276302052 0 0.00057367115699674068 -0.00037488317743542107 0 0.0011007141018326387 -0.00012003128997848251 0 0.0010599448857187318 -0.00043866731475311756 0 0.00059465677899523599 -0.00057169906802725587 0 0.00057367115699674068 -0.00037488317743542107 0 0.0010599448857187318 -0.00043866731475311756 0 0.0019940174020163935 -0.0002288048771358455 0 0.0014757805331719828 -0.00061657687898434936 0 0.0021164816540350968 -0.00071782663074206954 0 0.0021737324410490396 -0.00073998206231945377 0 0.0022084915631289249 -0.00069233714452920589 0 0.0021164816540350968 -0.00071782663074206954 0 0.002122027073276688 -0.00072732969571059273 0 0.0021737324410490396 -0.00073998206231945377 0 0.0021737324410490396 -0.00073998206231945377 0 0.0022084915631289249 -0.00069233714452920589 0 0.0022376155941937585 -0.00074208968711595325 0 0.001097579246571366 -7.5734880822567448e-05 0 0.0010024478838927052 -6.8435374364245703e-05 0 0.00045245397105038801 0.00063807947595512541 0 0.00065083253286540648 0.00027443246878452424 0 0.0010880009336861351 0.0003341545030202862 0 0.00050573380814385302 -0.00017704358116186366 0 0.00088265172022180269 0.00019970297262628358 0 0.0010831865359948669 6.3274608410855514e-05 0 0.00050573380814385302 -0.00017704358116186366 0 0.00065083253286540648 0.00027443246878452424 0 0.00088265172022180269 0.00019970297262628358 0 0.00088265172022180269 0.00019970297262628358 0 0.0010880009336861351 0.0003341545030202862 0 0.0010831865359948669 6.3274608410855514e-05 0 0.00065083253286540648 0.00027443246878452424 0 0.00088265172022180269 0.00019970297262628358 0 0.0010880009336861351 0.0003341545030202862 0 0.0010024478838927052 -6.8435374364245703e-05 0 0.0017607655026595265 0.00024971636006242647 0 0.0011007141018326387 -0.00012003128997848251 0 0.0016009602498051909 -0.00031001503472321179 0 0.0016933774258738217 -0.00020273273330619903 0 0.001390436243912445 0.00044657759569128328 0 0.0010831865359948669 6.3274608410855514e-05 0 0.0017679931060237321 0.00024798486658377715 0 0.0011007141018326387 -0.00012003128997848251 0 0.0016933774258738217 -0.00020273273330619903 0 0.0017679931060237321 0.00024798486658377715 0 0.001390436243912445 0.00044657759569128328 0 0.0010880009336861351 0.0003341545030202862 0 0.0010831865359948669 6.3274608410855514e-05 0 0.0014757805331719828 -0.00061657687898434936 0 0.0022369758098205331 -0.00047471983696629843 0 0.0022084915631289249 -0.00069233714452920589 0 0.0022376155941937585 -0.00074208968711595325 0 0.0022958463520326351 -0.0006656759029176841 0 0.0027486978723995927 -0.0010094474901444917 0 0.0030004894749340186 -0.00062027174004762055 0 0.0031672298206110627 -0.00093350547991495896 0 0.0011007141018326387 -0.00012003128997848251 0 0.0010599448857187318 -0.00043866731475311756 0 0.0016009602498051909 -0.00031001503472321179 0 0.0024888177819981793 -0.00087568379039824288 0 0.0022369758098205331 -0.00047471983696629843 0 0.0030004894749340186 -0.00062027174004762055 0 0.003375401512746218 -0.00069907409463760076 0 0.0036609555795765266 -0.00027382888227055891 0 0.0030004894749340186 -0.00062027174004762055 0 0.0031672298206110627 -0.00093350547991495896 0 0.003375401512746218 -0.00069907409463760076 0 0.0031672298206110627 -0.00093350547991495896 0 0.0033525479407762204 -0.0011668825868846773 0 0.0034364425272862395 -0.00095197704936910202 0 0.0031672298206110627 -0.00093350547991495896 0 0.003375401512746218 -0.00069907409463760076 0 0.0034364425272862395 -0.00095197704936910202 0 0.0022369758098205331 -0.00047471983696629843 0 0.003222565562288832 -0.00019846210984177982 0 0.0015789323132464445 -0.00032018084388881266 0 0.0016933774258738217 -0.00020273273330619903 0 0.0026764652547332395 -0.00017039240999787913 0 0.0022369758098205331 -0.00047471983696629843 0 0.0021104716963550184 -0.00048427433241978661 0 0.0016933774258738217 -0.00020273273330619903 0 0.0017679931060237321 0.00024798486658377715 0 0.0022925560622749893 0.00036539317344218747 0 0.0032591861081611132 -0.0016210841643347256 0 0.0032276437274659157 -0.0017288806042100042 0 0.0036453324076627706 -0.001664169696149404 0 0.0032276437274659157 -0.0017288806042100042 0 0.0031148434095274167 -0.0018968795787627601 0 0.0036453324076627706 -0.001664169696149404 0 0.0032591861081611132 -0.0016210841643347256 0 0.0032276437274659157 -0.0017288806042100042 0 0.0030162585100474318 -0.0016948485914965305 0 0.0032591861081611132 -0.0016210841643347256 0 0.0032679396858271994 -0.0013830352087626403 0 0.0029606087286216153 -0.0014349900363002882 0 0.0032591861081611132 -0.0016210841643347256 0 0.0029606087286216153 -0.0014349900363002882 0 0.0030162585100474318 -0.0016948485914965305 0 0.0032591861081611132 -0.0016210841643347256 0 0.0032679396858271994 -0.0013830352087626403 0 0.0034629874173401653 -0.0015203441121188056 0 0.0032679396858271994 -0.0013830352087626403 0 0.0035204853838351866 -0.0013811776972489829 0 0.0034629874173401653 -0.0015203441121188056 0 0.0032679396858271994 -0.0013830352087626403 0 0.0033525479407762204 -0.0011668825868846773 0 0.0030735118753326377 -0.001206039752525043 0 0.0032679396858271994 -0.0013830352087626403 0 0.0033525479407762204 -0.0011668825868846773 0 0.0035204853838351866 -0.0013811776972489829 0 0.0031672298206110627 -0.00093350547991495896 0 0.0033525479407762204 -0.0011668825868846773 0 0.0030735118753326377 -0.001206039752525043 0 0.0032679396858271994 -0.0013830352087626403 0 0.0030735118753326377 -0.001206039752525043 0 0.0029606087286216153 -0.0014349900363002882 0 0.0027486978723995927 -0.0010094474901444917 0 0.0031672298206110627 -0.00093350547991495896 0 0.0030735118753326377 -0.001206039752525043 0 0.0027486978723995927 -0.0010094474901444917 0 0.0029606087286216153 -0.0014349900363002882 0 0.002472283834602941 -0.001453766284793693 0 0.0028491793514578891 -0.0014431321460983289 0 0.0028215624960019948 -0.0013823144099445073 0 0.0027486978723995927 -0.0010094474901444917 0 0.0030735118753326377 -0.001206039752525043 0 0.0029606087286216153 -0.0014349900363002882 0 0.0029606087286216153 -0.0014349900363002882 0 0.002817083239552745 -0.0016245044749246065 0 0.0027288398356256844 -0.001477616064926339 0 0.0029606087286216153 -0.0014349900363002882 0 0.0030162585100474318 -0.0016948485914965305 0 0.002817083239552745 -0.0016245044749246065 0 0.0030162585100474318 -0.0016948485914965305 0 0.002817083239552745 -0.0016245044749246065 0 0.0028837655847691779 -0.0018377368791814004 0 0.0045649924375066181 -0.0013937569610625929 0 0.0046374140442882374 -0.0015309826837724822 0 0.002648471389369775 -0.0015673701716383563 0 0.0027292740491927474 -0.0015717253628388063 0 0.00270639539241113 -0.0018438610251475718 0 0.002817083239552745 -0.0016245044749246065 0 0.0027292740491927474 -0.0015717253628388063 0 0.00270639539241113 -0.0018438610251475718 0 0.0045649924375066181 -0.0013937569610625929 0 0.0039315204626365913 -0.001104852875800127 0 0.0040502846650703403 -0.0011807441399154365 0 0.0039342156100196169 -0.0013211489203902079 0 0.0040737679373444866 -0.0013159070271429813 0 0.002648471389369775 -0.0015673701716383563 0 0.0027292740491927474 -0.0015717253628388063 0 0.0027092705854563108 -0.0014936217038625697 0 0.0045649924375066181 -0.0013937569610625929 0 0.0031586950313180896 -0.0013622587456161739 0 0.0028390147877176766 -0.0015694513893872357 0 0.0028215624960019948 -0.0013823144099445073 0 0.002817083239552745 -0.0016245044749246065 0 0.0027292740491927474 -0.0015717253628388063 0 0.0027449869909165979 -0.0014932025051406037 0 0.0027292740491927474 -0.0015717253628388063 0 0.0027092705854563108 -0.0014936217038625697 0 0.0027449869909165979 -0.0014932025051406037 0 0.0023192432014479234 -0.00037138654466494826 0 0.0039315204626365913 -0.001104852875800127 0 0.0027486978723995927 -0.0010094474901444917 0 0.002472283834602941 -0.001453766284793693 0 0.0024435032702074312 -0.0014056069931188484 0 0.0023192432014479234 -0.00037138654466494826 0 0.0027878028063307212 -0.0013047985365467309 0 0.002122027073276688 -0.00072732969571059273 0 0.0021737324410490396 -0.00073998206231945377 0 0.0021796498594796859 -0.00082238581954803428 0 0.0027336697727485993 -0.00034445843816799891 0 0.0032810907130521021 -0.0012580999352635579 0 0.0029247465962362945 -0.001367925501242927 0 0.00278138256246385 -0.0014944156456658214 0 0.0029149564771124084 -0.0014897557913514966 0 0.0028597030567682051 -0.001396876702038458 0 0.0031586950313180896 -0.0013622587456161739 0 0.0028215624960019948 -0.0013823144099445073 0 0.0031586950313180896 -0.0013622587456161739 0 0.0027878028063307212 -0.0013047985365467309 0 0.0028215624960019948 -0.0013823144099445073 0 0.0027878028063307212 -0.0013047985365467309 0 0.0024888177819981793 -0.00087568379039824288 0 0.0027878028063307212 -0.0013047985365467309 0 0.0021737324410490396 -0.00073998206231945377 0 0.0022376155941937585 -0.00074208968711595325 0 0.0021796498594796859 -0.00082238581954803428 0 0.0032006988977475053 -0.0013583549263288576 0 0.0032810907130521021 -0.0012580999352635579 0 0.0029247465962362945 -0.001367925501242927 0 0.0031586950313180896 -0.0013622587456161739 0 0.0039315204626365913 -0.001104852875800127 0 0.0028977752941866598 -0.00012238518829160616 0 0.0030429359027570615 -0.00035292132015695446 0 0.0028260622701983423 -0.00059016744700932913 0 0.0031611063479708673 -9.6356391921407502e-05 0 0.0032581494421124605 -0.00058084781508826241 0 0.0030429359027570615 -0.00035292132015695446 0 0.0027202044069681453 -4.0019705740268211e-05 0 0.0028977752941866598 -0.00012238518829160616 0 0.0028260622701983423 -0.00059016744700932913 0 0.0032581494421124605 -0.00058084781508826241 0 0.0030429359027570615 -0.00035292132015695446 0 0.0028260622701983423 -0.00059016744700932913 0 0.0013251146221704847 0.00079798663853528496 0 0.0052847834631250595 -0.0002475878798339164 0 0.0028977752941866598 -0.00012238518829160616 0 0.0031611063479708673 -9.6356391921407502e-05 0 0.0030429359027570615 -0.00035292132015695446 0 0.0039315204626365913 -0.001104852875800127 0 0.0052847834631250595 -0.0002475878798339164 0 0.0054126481206982387 -0.00086419234426168552 0 0.0063155105892131712 -0.0010811579515387533 0 0.0061477498010710707 2.3050023833607561e-05 0 0.0054126481206982387 -0.00086419234426168552 0 0.0054557108754932568 -0.0011146679329745283 0 0.0063155105892131712 -0.0010811579515387533 0 0.0045649924375066181 -0.0013937569610625929 0 0.008568679071843003 -0.00038618181121110744 0 0.0052847834631250595 -0.0002475878798339164 0 0.008568679071843003 -0.00038618181121110744 0 0.008568679071843003 -0.00038618181121110744 0 0.010466232540500144 4.6991582719630196e-05 0 0.010216226775808496 -0.00044996972594331971 0 0.010791221473671357 -0.0010954662212359933 0 0.010422871280714355 -0.0010207474938700109 0 0.008568679071843003 -0.00038618181121110744 0 0.0090411785108571053 -0.00092860622966630529 0 0.0070304394136817229 -0.0012324666779327832 0 0.0065059718481503929 -0.00078626858581524225 0 0.0069234968001178213 -0.00050902963849225043 0 0.010581402938680311 1.9893648530678305e-05 0 0.010216226775808496 -0.00044996972594331971 0 0.010791221473671357 -0.0010954662212359933 0 0.0055594145048614403 -0.0015649316831127216 0 0.0090411785108571053 -0.00092860622966630529 0 0.0055594145048614403 -0.0015649316831127216 0 0.0079760355452388725 -0.0017149565842143131 0 0.0055594145048614403 -0.0015649316831127216 0 0.0046374140442882374 -0.0015309826837724822 0 0.0070304394136817229 -0.0012324666779327832 0 0.0065059718481503929 -0.00078626858581524225 0 0.0065787507700011726 -0.0012318326636027324 0 0.0066475875638916842 -0.0016799435434248795 0 0.0070304394136817229 -0.0012324666779327832 0 0.0065787507700011726 -0.0012318326636027324 0 0.0027721545545135672 -0.0021033526172320855 0 0.00270639539241113 -0.0018438610251475718 0 0.0028837655847691779 -0.0018377368791814004 0 0.002817083239552745 -0.0016245044749246065 0 0.00270639539241113 -0.0018438610251475718 0 0.0028837655847691779 -0.0018377368791814004 0 0.0027721545545135672 -0.0021033526172320855 0 0.0028837655847691779 -0.0018377368791814004 0 0.0031148434095274167 -0.0018968795787627601 0 0.0030162585100474318 -0.0016948485914965305 0 0.0028837655847691779 -0.0018377368791814004 0 0.0031148434095274167 -0.0018968795787627601 0 0.0065336153387125688 -0.0014739275007869489 0 0.00653060348921053 -0.0015573105642312686 0 0.0063709132478876138 -0.0016187120804479515 0 0.0057067742485626396 -0.0016944885151660945 0 0.0058320768739611216 -0.0016634983582676371 0 0.0058182283537498939 -0.0015806644105010018 0 0.0057067742485626396 -0.0016944885151660945 0 0.0058320768739611216 -0.0016634983582676371 0 0.0057301467762020299 -0.0017631945726415724 0 0.0058191661819856954 -0.0016532561568866474 0 0.0079760355452388725 -0.0017149565842143131 0 0.0055594145048614403 -0.0015649316831127216 0 0.0042018396782699113 -0.0018490376943828941 0 0.0065336153387125688 -0.0014739275007869489 0 0.00653060348921053 -0.0015573105642312686 0 0.0065753881608598061 -0.0014931449466666334 0 0.00653060348921053 -0.0015573105642312686 0 0.0065753881608598061 -0.0014931449466666334 0 0.0065994076173212122 -0.0015650467797824058 0 0.0065336153387125688 -0.0014739275007869489 0 0.0065753881608598061 -0.0014931449466666334 0 0.0065770899440157184 -0.0014411842612765825 0 0.0058320768739611216 -0.0016634983582676371 0 0.0058182283537498939 -0.0015806644105010018 0 0.006064416093139696 -0.0014828869943212084 0 0.0042018396782699113 -0.0018490376943828941 0 0.0049254782972209393 -0.0014987440266036678 0 0.0058191661819856954 -0.0016532561568866474 0 0.006401821644662577 -0.0013831143748012577 0 0.0065336153387125688 -0.0014739275007869489 0 0.0065854058050932307 -0.0013787261106424718 0 0.0065770899440157184 -0.0014411842612765825 0 0.0032276437274659157 -0.0017288806042100042 0 0.0030162585100474318 -0.0016948485914965305 0 0.0031148434095274167 -0.0018968795787627601 0 0.0084908720588902347 0.00089481727004851708 0 0.0092513776360815692 0.00033163283866144552 0 0.0086409751583298392 0.00016179651865479478 0 0.004209919175959094 0.00083184789692893123 0 0.0053167200092861019 0.0009282591898897559 0 0.0084908720588902347 0.00089481727004851708 0 0.0086409751583298392 0.00016179651865479478 0 0.00788137987751974 0.00014621363619303078 0 0.0054254249263532891 0.0012517367121288459 0 0.004209919175959094 0.00083184789692893123 0 0.007473797671299685 0.00087767821334495217 0 0.0084908720588902347 0.00089481727004851708 0 0.00788137987751974 0.00014621363619303078 0 0.00051241538042430697 0.00098861579977059673 0 0.00052991004049324599 0.00094504256906133668 0 0.00055962424336972595 0.00096827843027893047 0 0.00054506253873001678 0.00092630296374853534 0 0.00056952739705355801 0.00087112554172240938 0 0.00052991004049324599 0.00094504256906133668 0 0.00056952739705355801 0.00087112554172240938 0 0.00052991004049324599 0.00094504256906133668 0 0.00055962424336972595 0.00096827843027893047 0 0.00056952739705355801 0.00087112554172240938 0 0.00055962424336972595 0.00096827843027893047 0 0.00078366103437994784 0.00076438786221587091 0 0.00055962424336972595 0.00096827843027893047 0 0.00074116793356219493 0.00094410703243275518 0 0.00078366103437994784 0.00076438786221587091 0 0.00062484104029456988 0.0010230494500778704 0 0.00055962424336972595 0.00096827843027893047 0 0.00074116793356219493 0.00094410703243275518 0 0.00074116793356219493 0.00094410703243275518 0 0.0010240762743501293 0.00087841272832153879 0 0.00078366103437994784 0.00076438786221587091 0 0.0013302059320925142 0.00069565988921143956 0 0.0010240762743501293 0.00087841272832153879 0 0.00078366103437994784 0.00076438786221587091 0 0.0012361151532629352 0.0011980370928599869 0 0.0013302059320925142 0.00069565988921143956 0 0.0010240762743501293 0.00087841272832153879 0 0.0012361151532629352 0.0011980370928599869 0 0.00074116793356219493 0.00094410703243275518 0 0.0010240762743501293 0.00087841272832153879 0 0.0052847834631250595 -0.0002475878798339164 0 0.0053167200092861019 0.0009282591898897559 0 0.010379941306898175 0.00089147637026469357 0 0.0094628159301680323 0.00088496962891222383 0 0.0099185132030860344 0.00025910346095385555 0 0.010379941306898175 0.00089147637026469357 0 0.010559998934675579 3.8576685369733133e-05 0 0.0099185132030860344 0.00025910346095385555 0 0.0094628159301680323 0.00088496962891222383 0 0.0092513776360815692 0.00033163283866144552 0 0.0099185132030860344 0.00025910346095385555 0 0.0084908720588902347 0.00089481727004851708 0 0.0094628159301680323 0.00088496962891222383 0 0.0092513776360815692 0.00033163283866144552 0 0.0092513776360815692 0.00033163283866144552 0 0.0095978773740557129 -0.00016579729429518105 0 0.0099185132030860344 0.00025910346095385555 0 0.0092513776360815692 0.00033163283866144552 0 0.0095978773740557129 -0.00016579729429518105 0 0.009127394264121267 -0.00025133881606442099 0 0.0095978773740557129 -0.00016579729429518105 0 0.0099185132030860344 0.00025910346095385555 0 0.010216226775808496 -0.00044996972594331971 0 0.010559998934675579 3.8576685369733133e-05 0 0.0099185132030860344 0.00025910346095385555 0 0.010216226775808496 -0.00044996972594331971 0 0.0095978773740557129 -0.00016579729429518105 0 0.010216226775808496 -0.00044996972594331971 0 0.009673244305024354 -0.00067649943440553672 0 0.010216226775808496 -0.00044996972594331971 0 0.009673244305024354 -0.00067649943440553672 0 0.010095278841762456 -0.00097261093067065832 0 0.010216226775808496 -0.00044996972594331971 0 0.010095278841762456 -0.00097261093067065832 0 0.010422871280714355 -0.0010207474938700109 0 0.009127394264121267 -0.00025133881606442099 0 0.009673244305024354 -0.00067649943440553672 0 0.0090772383983756342 -0.0010326496771808427 0 0.0095978773740557129 -0.00016579729429518105 0 0.009127394264121267 -0.00025133881606442099 0 0.009673244305024354 -0.00067649943440553672 0 0.009127394264121267 -0.00025133881606442099 0 0.0084324405944585616 -0.00031100649211864316 0 0.0090772383983756342 -0.0010326496771808427 0 0.0084324405944585616 -0.00031100649211864316 0 0.0082993099942640976 -0.00095364770420112164 0 0.0090772383983756342 -0.0010326496771808427 0 0.009127394264121267 -0.00025133881606442099 0 0.0086409751583298392 0.00016179651865479478 0 0.0084324405944585616 -0.00031100649211864316 0 0.0092513776360815692 0.00033163283866144552 0 0.009127394264121267 -0.00025133881606442099 0 0.0086409751583298392 0.00016179651865479478 0 0.0086409751583298392 0.00016179651865479478 0 0.0084324405944585616 -0.00031100649211864316 0 0.00788137987751974 0.00014621363619303078 0 0.0075446057198685131 -0.00066705044932366571 0 0.0084324405944585616 -0.00031100649211864316 0 0.00788137987751974 0.00014621363619303078 0 0.0075446057198685131 -0.00066705044932366571 0 0.0084324405944585616 -0.00031100649211864316 0 0.0082993099942640976 -0.00095364770420112164 0 0.0075446057198685131 -0.00066705044932366571 0 0.0082993099942640976 -0.00095364770420112164 0 0.0078949971739313389 -0.001651533108512972 0 0.0082993099942640976 -0.00095364770420112164 0 0.0078949971739313389 -0.001651533108512972 0 0.0090416660295761092 -0.0018069472130404825 0 0.0078949971739313389 -0.001651533108512972 0 0.0090416660295761092 -0.0018069472130404825 0 0.0082468813748731787 -0.0026093758601335951 0 0.009335694252240484 -0.0015828889389985423 0 0.0075975997523399274 -0.0030518172944426188 0 0.0082993099942640976 -0.00095364770420112164 0 0.0090416660295761092 -0.0018069472130404825 0 0.0090772383983756342 -0.0010326496771808427 0 0.0090416660295761092 -0.0018069472130404825 0 0.0090772383983756342 -0.0010326496771808427 0 0.0097772987023870342 -0.0013425654371223218 0 0.009673244305024354 -0.00067649943440553672 0 0.0090772383983756342 -0.0010326496771808427 0 0.0097772987023870342 -0.0013425654371223218 0 0.009673244305024354 -0.00067649943440553672 0 0.0097772987023870342 -0.0013425654371223218 0 0.010095278841762456 -0.00097261093067065832 0 0.010095278841762456 -0.00097261093067065832 0 0.010319157360709205 -0.0012892415625941609 0 0.010422871280714355 -0.0010207474938700109 0 0.0097772987023870342 -0.0013425654371223218 0 0.010095278841762456 -0.00097261093067065832 0 0.010319157360709205 -0.0012892415625941609 0 0.0097772987023870342 -0.0013425654371223218 0 0.010319157360709205 -0.0012892415625941609 0 0.010297789673964721 -0.0016508957374874521 0 0.0097772987023870342 -0.0013425654371223218 0 0.010297789673964721 -0.0016508957374874521 0 0.0097262761442493927 -0.0019312427896974755 0 0.010297789673964721 -0.0016508957374874521 0 0.0097262761442493927 -0.0019312427896974755 0 0.01017309573817507 -0.0023610374120307176 0 0.0090416660295761092 -0.0018069472130404825 0 0.0097262761442493927 -0.0019312427896974755 0 0.0093828470944614731 -0.0026228419637438962 0 0.0090416660295761092 -0.0018069472130404825 0 0.0097772987023870342 -0.0013425654371223218 0 0.0097262761442493927 -0.0019312427896974755 0 0.0097262761442493927 -0.0019312427896974755 0 0.0093828470944614731 -0.0026228419637438962 0 0.01017309573817507 -0.0023610374120307176 0 0.0093828470944614731 -0.0026228419637438962 0 0.01017309573817507 -0.0023610374120307176 0 0.010452967977854898 -0.003094471122423267 0 0.0093828470944614731 -0.0026228419637438962 0 0.010452967977854898 -0.003094471122423267 0 0.0098067532629402231 -0.0036157226522812269 0 0.0093828470944614731 -0.0026228419637438962 0 0.0089828477364944231 -0.003218620940245746 0 0.0098067532629402231 -0.0036157226522812269 0 0.0093828470944614731 -0.0026228419637438962 0 0.0087041394020492702 -0.0023751239049082124 0 0.0089828477364944231 -0.003218620940245746 0 0.016111115464599337 -0.0013575599867222691 0 0.013107783551920361 -0.0015717717044758327 0 0.0087041394020492702 -0.0023751239049082124 0 0.0089828477364944231 -0.003218620940245746 0 0.0082992784979121006 -0.0028920838139522937 0 0.022253179149298936 0.0004874487956417681 0 0.022422296192348642 0.00054715578279703912 0 0.022044784698719795 0.00069949955939140637 0 0.0075975997523399274 -0.0030518172944426188 0 0.013107783551920361 -0.0015717717044758327 0 0.0090416660295761092 -0.0018069472130404825 0 0.0093828470944614731 -0.0026228419637438962 0 0.0087041394020492702 -0.0023751239049082124 0 0.0065991336504347825 -0.0018172439762308087 0 0.0065440672823879956 -0.0016537061133414738 0 0.0064796874366608217 -0.0017443101336769311 0 0.0065991336504347825 -0.0018172439762308087 0 0.0065440672823879956 -0.0016537061133414738 0 0.00669864571072695 -0.0016744898495587551 0 0.0065994076173212122 -0.0015650467797824058 0 0.0065440672823879956 -0.0016537061133414738 0 0.00669864571072695 -0.0016744898495587551 0 0.00653060348921053 -0.0015573105642312686 0 0.0065994076173212122 -0.0015650467797824058 0 0.0065440672823879956 -0.0016537061133414738 0 0.00653060348921053 -0.0015573105642312686 0 0.0065440672823879956 -0.0016537061133414738 0 0.0063709132478876138 -0.0016187120804479515 0 0.0065440672823879956 -0.0016537061133414738 0 0.0064796874366608217 -0.0017443101336769311 0 0.0063709132478876138 -0.0016187120804479515 0 0.0064796874366608217 -0.0017443101336769311 0 0.0063709132478876138 -0.0016187120804479515 0 0.0064095140231659152 -0.0018987397574096792 0 0.0065991336504347825 -0.0018172439762308087 0 0.0064796874366608217 -0.0017443101336769311 0 0.0064095140231659152 -0.0018987397574096792 0 0.0079760355452388725 -0.0017149565842143131 0 0.0093170591940883261 -0.0018008223589170949 0 0.011754022117391174 -0.001441521637056772 0 0.011593442183781479 -0.001600591502381844 0 0.011871708125027476 -0.0017765915307965403 0 0.0077770851616370219 -0.0013147998003193201 0 0.0088221950255291132 -0.001470974237299211 0 0.0086776459862321752 -0.00054702175437335899 0 0.0079084295444369814 -0.0020898060639660686 0 0.0077770851616370219 -0.0013147998003193201 0 0.0088221950255291132 -0.001470974237299211 0 0.0079760355452388725 -0.0017149565842143131 0 0.010591429338610896 -0.001325478873486228 0 0.0090411785108571053 -0.00092860622966630529 0 0.010591429338610896 -0.001325478873486228 0 0.010780102814707957 -0.0011048480065392597 0 0.010607637586645529 -0.0014585476630029114 0 0.0108648050240518 -0.0016820586395070308 0 0.010780102814707957 -0.0011048480065392597 0 0.010669958627404417 -0.0011809494333778904 0 0.010607637586645529 -0.0014585476630029114 0 0.0090411785108571053 -0.00092860622966630529 0 0.0095438096314366238 -0.00075928793503264569 0 0.010791221473671357 -0.0010954662212359933 0 0.010422871280714355 -0.0010207474938700109 0 0.010669958627404417 -0.0011809494333778904 0 0.010319157360709205 -0.0012892415625941609 0 0.010422871280714355 -0.0010207474938700109 0 0.010669958627404417 -0.0011809494333778904 0 0.010319157360709205 -0.0012892415625941609 0 0.010297789673964721 -0.0016508957374874521 0 0.010607637586645529 -0.0014585476630029114 0 0.010319157360709205 -0.0012892415625941609 0 0.010669958627404417 -0.0011809494333778904 0 0.010607637586645529 -0.0014585476630029114 0 0.010297789673964721 -0.0016508957374874521 0 0.010607637586645529 -0.0014585476630029114 0 0.0108648050240518 -0.0016820586395070308 0 0.010591429338610896 -0.001325478873486228 0 0.011612754329354755 -0.0022400106810081472 0 0.010297789673964721 -0.0016508957374874521 0 0.01017309573817507 -0.0023610374120307176 0 0.0108648050240518 -0.0016820586395070308 0 0.010321750791745712 -0.0023965882605923327 0 0.010591429338610896 -0.001325478873486228 0 0.01017309573817507 -0.0023610374120307176 0 0.010452967977854898 -0.003094471122423267 0 0.011261182007005143 -0.0025284735853809293 0 0.01017309573817507 -0.0023610374120307176 0 0.01108793861925274 -0.0015367069290626021 0 0.011261182007005143 -0.0025284735853809293 0 0.010452967977854898 -0.003094471122423267 0 0.011261182007005143 -0.0025284735853809293 0 0.011468718268868812 -0.0034397699452895442 0 0.011612754329354755 -0.0022400106810081472 0 0.011056651001827636 -0.0030831124140749356 0 0.011831462131775945 -0.0020505354390038134 0 0.011681108894921244 -0.0019108586331701713 0 0.011790290238706579 -0.0022407011229069675 0 0.011831462131775945 -0.0020505354390038134 0 0.012026522209850765 -0.0021559471562721125 0 0.011790290238706579 -0.0022407011229069675 0 0.011593442183781479 -0.001600591502381844 0 0.011681108894921244 -0.0019108586331701713 0 0.011871708125027476 -0.0017765915307965403 0 0.011831462131775945 -0.0020505354390038134 0 0.011681108894921244 -0.0019108586331701713 0 0.011871708125027476 -0.0017765915307965403 0 0.0065991336504347825 -0.0018172439762308087 0 0.0064095140231659152 -0.0018987397574096792 0 0.0065952233947778813 -0.0020439524176636332 0 0.0064095140231659152 -0.0018987397574096792 0 0.0064926678038800941 -0.0022781947337600019 0 0.0065952233947778813 -0.0020439524176636332 0 0.011831462131775945 -0.0020505354390038134 0 0.011871708125027476 -0.0017765915307965403 0 0.012026522209850765 -0.0021559471562721125 0 0.0093170591940883261 -0.0018008223589170949 0 0.0090108602927816868 -0.0023261209776939966 0 0.0064926678038800941 -0.0022781947337600019 0 0.0067433550762550087 -0.0024312299587856807 0 0.0068393930541714529 -0.0021495292447247347 0 0.0064926678038800941 -0.0022781947337600019 0 0.0065952233947778813 -0.0020439524176636332 0 0.0068393930541714529 -0.0021495292447247347 0 0.0066138706909660795 -0.0018369389779028075 0 0.0067790586607723597 -0.0021288929877805274 0 0.0065991336504347825 -0.0018172439762308087 0 0.0065952233947778813 -0.0020439524176636332 0 0.0068393930541714529 -0.0021495292447247347 0 0.0067433550762550087 -0.0024312299587856807 0 0.0066038532646766693 -0.002646850082914902 0 0.0068825649762188574 -0.0028028643148828919 0 0.012026522209850765 -0.0021559471562721125 0 0.011971787561974376 -0.0023398233913741731 0 0.012070409041232365 -0.0024805418103818725 0 0.0064926678038800941 -0.0022781947337600019 0 0.0067433550762550087 -0.0024312299587856807 0 0.0066038532646766693 -0.002646850082914902 0 0.0090108602927816868 -0.0023261209776939966 0 0.011155516459638486 -0.0019866046587252869 0 0.012026522209850765 -0.0021559471562721125 0 0.012070409041232365 -0.0024805418103818725 0 0.012161855091224893 -0.0025262100239989206 0 0.011971787561974376 -0.0023398233913741731 0 0.012070409041232365 -0.0024805418103818725 0 0.012157409697094359 -0.0026480667278001749 0 0.011971787561974376 -0.0023398233913741731 0 0.011920020327956572 -0.0026810985176668974 0 0.012261118839878325 -0.0028035304600140306 0 0.010977181700544965 -0.0024212940977107879 0 0.016518862746096021 -0.0018507088889871527 0 0.012031852400102103 -0.0024475111304140093 0 0.011155516459638486 -0.0019866046587252869 0 0.012070409041232365 -0.0024805418103818725 0 0.012182920950446006 -0.0025200393801399585 0 0.012157409697094359 -0.0026480667278001749 0 0.011700841817232835 -0.0043663132718921435 0 0.011468718268868812 -0.0034397699452895442 0 0.010732085455184021 -0.0040065260202551438 0 0.01741293498403829 -0.0018437751295018751 0 0.011056651001827636 -0.0030831124140749356 0 0.011971787561974376 -0.0023398233913741731 0 0.011920020327956572 -0.0026810985176668974 0 0.011790290238706579 -0.0022407011229069675 0 0.012026522209850765 -0.0021559471562721125 0 0.011971787561974376 -0.0023398233913741731 0 0.011790290238706579 -0.0022407011229069675 0 0.010452967977854898 -0.003094471122423267 0 0.011468718268868812 -0.0034397699452895442 0 0.010732085455184021 -0.0040065260202551438 0 0.01741293498403829 -0.0018437751295018751 0 0.016931600212657917 -0.0019331449681731588 0 0.023293900017963918 8.9640280042981943e-05 0 0.0230453602147658 0.0002235415122996667 0 0.023065131261242006 4.2038708141233098e-05 0 0.023293900017963918 8.9640280042981943e-05 0 0.023065131261242006 4.2038708141233098e-05 0 0.023183891182043226 -9.2134311189461944e-05 0 0.023065131261242006 4.2038708141233098e-05 0 0.023183891182043226 -9.2134311189461944e-05 0 0.023026195634603421 -0.00011890737184871086 0 0.023183891182043226 -9.2134311189461944e-05 0 0.023243598612171106 -0.00023732969830032755 0 0.023148697003108953 -0.00026617351771568242 0 0.023183891182043226 -9.2134311189461944e-05 0 0.023026195634603421 -0.00011890737184871086 0 0.023148697003108953 -0.00026617351771568242 0 0.023183891182043226 -9.2134311189461944e-05 0 0.023243598612171106 -0.00023732969830032755 0 0.023373288164365031 -0.00019181974250083962 0 0.023293900017963918 8.9640280042981943e-05 0 0.023183891182043226 -9.2134311189461944e-05 0 0.023373288164365031 -0.00019181974250083962 0 0.01741293498403829 -0.0018437751295018751 0 0.023759148753008358 -6.3881773981286499e-05 0 0.01852646477096024 -0.0010624852419198203 0 0.018314561195333659 -0.00098260936218214187 0 0.018730431201691308 -0.0018957020774785713 0 0.022705365592712856 -0.00032538502364685696 0 0.022837517818697247 -0.00051940248129090521 0 0.022855990957397643 -0.00037128681871107758 0 0.01741293498403829 -0.0018437751295018751 0 0.016518862746096021 -0.0018507088889871527 0 0.012182920950446006 -0.0025200393801399585 0 0.012236331161323279 -0.002675066948958485 0 0.012157409697094359 -0.0026480667278001749 0 0.011155516459638486 -0.0019866046587252869 0 0.016421995170756737 -0.0016356906946433795 0 0.016421995170756737 -0.0016356906946433795 0 0.016518862746096021 -0.0018507088889871527 0 0.016518862746096021 -0.0018507088889871527 0 0.021267014274782444 -0.001115090842627401 0 0.022837517818697247 -0.00051940248129090521 0 0.022855990957397643 -0.00037128681871107758 0 0.022985440285356321 -0.00053912787757781253 0 0.016421995170756737 -0.0016356906946433795 0 0.021267014274782444 -0.001115090842627401 0 0.020814901094740948 -0.00099706786310003971 0 0.020890371744101705 -0.0011293887484306253 0 0.020987505371607373 -0.0010632273858497622 0 0.016421995170756737 -0.0016356906946433795 0 0.017557233913781889 -0.0015754552062260622 0 0.011155516459638486 -0.0019866046587252869 0 0.010086202826423021 -0.0023226170450877165 0 0.01336619890571023 -0.0016838180402299952 0 0.013416717524992117 -0.0018923098872038113 0 0.013788463639605205 -0.0019022399165694256 0 0.013416717524992117 -0.0018923098872038113 0 0.013788463639605205 -0.0019022399165694256 0 0.013826491269299915 -0.0020585681158731928 0 0.022614701885943802 0.00027845843091414305 0 0.02241094468529975 0.00029029893107681952 0 0.022585815531121291 0.00011293258310945433 0 0.02241094468529975 0.00029029893107681952 0 0.022395588055729315 5.71066937800655e-05 0 0.022171014882423717 0.00025034570200478499 0 0.02241094468529975 0.00029029893107681952 0 0.022253179149298936 0.0004874487956417681 0 0.022171014882423717 0.00025034570200478499 0 0.02241094468529975 0.00029029893107681952 0 0.022253179149298936 0.0004874487956417681 0 0.022422296192348642 0.00054715578279703912 0 0.016111115464599337 -0.0013575599867222691 0 0.016193511734216116 -0.0015908972247515598 0 0.022614701885943802 0.00027845843091414305 0 0.02241094468529975 0.00029029893107681952 0 0.022422296192348642 0.00054715578279703912 0 0.022614701885943802 0.00027845843091414305 0 0.022422296192348642 0.00054715578279703912 0 0.022758241333052914 0.00038572744718172089 0 0.016931600212657917 -0.0019331449681731588 0 0.016193511734216116 -0.0015908972247515598 0 0.010452967977854898 -0.003094471122423267 0 0.010732085455184021 -0.0040065260202551438 0 0.0098067532629402231 -0.0036157226522812269 0 0.0230453602147658 0.0002235415122996667 0 0.022758241333052914 0.00038572744718172089 0 0.022861693511499373 7.9663786930645605e-05 0 0.0230453602147658 0.0002235415122996667 0 0.023065131261242006 4.2038708141233098e-05 0 0.022861693511499373 7.9663786930645605e-05 0 0.022614701885943802 0.00027845843091414305 0 0.022758241333052914 0.00038572744718172089 0 0.022861693511499373 7.9663786930645605e-05 0 0.022614701885943802 0.00027845843091414305 0 0.022861693511499373 7.9663786930645605e-05 0 0.022585815531121291 0.00011293258310945433 0 0.023065131261242006 4.2038708141233098e-05 0 0.022861693511499373 7.9663786930645605e-05 0 0.023026195634603421 -0.00011890737184871086 0 0.023026195634603421 -0.00011890737184871086 0 0.022875363068729414 -0.00017052794572761212 0 0.023025594785666185 -0.00029651578728917251 0 0.023026195634603421 -0.00011890737184871086 0 0.023025594785666185 -0.00029651578728917251 0 0.023148697003108953 -0.00026617351771568242 0 0.022861693511499373 7.9663786930645605e-05 0 0.023026195634603421 -0.00011890737184871086 0 0.022875363068729414 -0.00017052794572761212 0 0.022861693511499373 7.9663786930645605e-05 0 0.022875363068729414 -0.00017052794572761212 0 0.0226620814103171 -9.3863879375308281e-05 0 0.0226620814103171 -9.3863879375308281e-05 0 0.022489462709184466 -0.00019430999069508718 0 0.022740842202085922 -0.00026461264280741478 0 0.022875363068729414 -0.00017052794572761212 0 0.0226620814103171 -9.3863879375308281e-05 0 0.022740842202085922 -0.00026461264280741478 0 0.0226620814103171 -9.3863879375308281e-05 0 0.022585815531121291 0.00011293258310945433 0 0.022395588055729315 5.71066937800655e-05 0 0.022861693511499373 7.9663786930645605e-05 0 0.0226620814103171 -9.3863879375308281e-05 0 0.022585815531121291 0.00011293258310945433 0 0.02241094468529975 0.00029029893107681952 0 0.022585815531121291 0.00011293258310945433 0 0.022395588055729315 5.71066937800655e-05 0 0.022395588055729315 5.71066937800655e-05 0 0.022489462709184466 -0.00019430999069508718 0 0.022134270579027809 -3.0642549875955047e-05 0 0.0226620814103171 -9.3863879375308281e-05 0 0.022395588055729315 5.71066937800655e-05 0 0.022489462709184466 -0.00019430999069508718 0 0.022489462709184466 -0.00019430999069508718 0 0.022216808018039755 -0.00023163512638189779 0 0.022134270579027809 -3.0642549875955047e-05 0 0.022134270579027809 -3.0642549875955047e-05 0 0.021922989835393845 3.9679482180888986e-06 0 0.021859354082828082 -0.0002506073710815409 0 0.022216808018039755 -0.00023163512638189779 0 0.022134270579027809 -3.0642549875955047e-05 0 0.021859354082828082 -0.0002506073710815409 0 0.021922989835393845 3.9679482180888986e-06 0 0.021959839030139539 0.00016857051012161611 0 0.021738885328033176 0.00011881515999377056 0 0.022134270579027809 -3.0642549875955047e-05 0 0.021922989835393845 3.9679482180888986e-06 0 0.021959839030139539 0.00016857051012161611 0 0.022134270579027809 -3.0642549875955047e-05 0 0.021959839030139539 0.00016857051012161611 0 0.022171014882423717 0.00025034570200478499 0 0.022395588055729315 5.71066937800655e-05 0 0.022134270579027809 -3.0642549875955047e-05 0 0.022171014882423717 0.00025034570200478499 0 0.021959839030139539 0.00016857051012161611 0 0.022171014882423717 0.00025034570200478499 0 0.021976079649113432 0.00032554078648452809 0 0.022171014882423717 0.00025034570200478499 0 0.021976079649113432 0.00032554078648452809 0 0.02208323015415551 0.00040242808245186237 0 0.021959839030139539 0.00016857051012161611 0 0.021814297598282073 0.00027452299067446962 0 0.021738885328033176 0.00011881515999377056 0 0.021959839030139539 0.00016857051012161611 0 0.021976079649113432 0.00032554078648452809 0 0.021814297598282073 0.00027452299067446962 0 0.021849791172366635 0.00041606750265821621 0 0.02177436963608885 0.00040816608588079516 0 0.021814297598282073 0.00027452299067446962 0 0.021976079649113432 0.00032554078648452809 0 0.021849791172366635 0.00041606750265821621 0 0.021814297598282073 0.00027452299067446962 0 0.021978867907003936 0.00043925471126319909 0 0.021849791172366635 0.00041606750265821621 0 0.021992958084361934 0.00055178709825126236 0 0.021976079649113432 0.00032554078648452809 0 0.021978867907003936 0.00043925471126319909 0 0.021849791172366635 0.00041606750265821621 0 0.021849791172366635 0.00041606750265821621 0 0.02180486410392643 0.0004755096263610219 0 0.02177436963608885 0.00040816608588079516 0 0.014446006977220991 -5.5909526176233555e-05 0 0.014769944796065233 3.527056226460733e-05 0 0.014560426263432534 0.00015226296156895124 0 0.021849791172366635 0.00041606750265821621 0 0.02180486410392643 0.0004755096263610219 0 0.021873501311985913 0.00048842185754685574 0 0.022085043102393349 0.00075789343745770866 0 0.020073678346469552 0.00053622069957814141 0 0.017743891051101815 0.00011815744010384515 0 0.020073678346469552 0.00053622069957814141 0 0.021978867907003936 0.00043925471126319909 0 0.022059925756130513 0.00050761442949784699 0 0.021992958084361934 0.00055178709825126236 0 0.022059925756130513 0.00050761442949784699 0 0.021992958084361934 0.00055178709825126236 0 0.022062788956276617 0.00058622593492635943 0 0.022253179149298936 0.0004874487956417681 0 0.022171014882423717 0.00025034570200478499 0 0.02208323015415551 0.00040242808245186237 0 0.022253179149298936 0.0004874487956417681 0 0.022059925756130513 0.00050761442949784699 0 0.022062788956276617 0.00058622593492635943 0 0.022253179149298936 0.0004874487956417681 0 0.022059925756130513 0.00050761442949784699 0 0.02208323015415551 0.00040242808245186237 0 0.021976079649113432 0.00032554078648452809 0 0.021978867907003936 0.00043925471126319909 0 0.02208323015415551 0.00040242808245186237 0 0.021978867907003936 0.00043925471126319909 0 0.022059925756130513 0.00050761442949784699 0 0.02208323015415551 0.00040242808245186237 0 0.015490806953729631 0.0016708941495815757 0 0.014810252932802153 0.0014642686614906976 0 0.015330584940780644 0.00079368922399814228 0 0.018247039063238775 0.0020083038919316721 0 0.014032372667880568 0.00094692794845107589 0 0.018511685832903819 0.0010885563993729567 0 0.014450997107732188 0.00055867331867629475 0 0.018247039063238775 0.0020083038919316721 0 0.018511685832903819 0.0010885563993729567 0 0.017743891051101815 0.00011815744010384515 0 0.018511685832903819 0.0010885563993729567 0 0.014446006977220991 -5.5909526176233555e-05 0 0.014133369633402743 -0.00014865441921922996 0 0.014280452042752547 0.0001177017058995294 0 0.02180486410392643 0.0004755096263610219 0 0.02177436963608885 0.00040816608588079516 0 0.021621424133429875 0.00045239781607876885 0 0.018511685832903819 0.0010885563993729567 0 0.022609469066142578 0.0011656420516945735 0 0.021621424133429875 0.00045239781607876885 0 0.021814297598282073 0.00027452299067446962 0 0.021738885328033176 0.00011881515999377056 0 0.022495188793477793 0.0026258234482749812 0 0.022396637818522906 0.0023068170563270286 0 0.022675233876926059 0.002138819132853667 0 0.02177436963608885 0.00040816608588079516 0 0.021621424133429875 0.00045239781607876885 0 0.021814297598282073 0.00027452299067446962 0 0.022207474529191917 0.0025401740925107773 0 0.022396637818522906 0.0023068170563270286 0 0.022155913477053937 0.0021391188460196252 0 0.022207474529191917 0.0025401740925107773 0 0.022495188793477793 0.0026258234482749812 0 0.022396637818522906 0.0023068170563270286 0 0.022396637818522906 0.0023068170563270286 0 0.022675233876926059 0.002138819132853667 0 0.022426153128881552 0.0019361704561594736 0 0.022396637818522906 0.0023068170563270286 0 0.022426153128881552 0.0019361704561594736 0 0.022155913477053937 0.0021391188460196252 0 0.022426153128881552 0.0019361704561594736 0 0.022109225242932341 0.00182127234139706 0 0.022155913477053937 0.0021391188460196252 0 0.022609469066142578 0.0011656420516945735 0 0.022710848581532692 0.00067624091879129081 0 0.022675233876926059 0.002138819132853667 0 0.022426153128881552 0.0019361704561594736 0 0.022797009791456241 0.0016708680672232476 0 0.021922989835393845 3.9679482180888986e-06 0 0.021738885328033176 0.00011881515999377056 0 0.021859354082828082 -0.0002506073710815409 0 0.022490811145912379 0.0021824422892942241 0 0.022710848581532692 0.00067624091879129081 0 0.022426153128881552 0.0019361704561594736 0 0.022599691273372458 0.0014836992054647463 0 0.023188907368948384 0.0015508594869210949 0 0.022109225242932341 0.00182127234139706 0 0.022145424397973571 0.0014302851125464692 0 0.022599691273372458 0.0014836992054647463 0 0.022426153128881552 0.0019361704561594736 0 0.022109225242932341 0.00182127234139706 0 0.022599691273372458 0.0014836992054647463 0 0.022097071231804585 0.0018991367458783132 0 0.022133039466591557 0.0016140867193157112 0 0.022109225242932341 0.00182127234139706 0 0.021695046825339896 0.0018613479963994295 0 0.022145424397973571 0.0014302851125464692 0 0.022109225242932341 0.00182127234139706 0 0.021695046825339896 0.0018613479963994295 0 0.021932925313045502 0.0020188213080581411 0 0.021745445572175569 0.0023479263328987192 0 0.021498658936134112 0.0017519574465614013 0 0.022244874931573427 0.0016814328052672971 0 0.021745445572175569 0.0023479263328987192 0 0.021007493407272627 0.0021615563987995318 0 0.021498658936134112 0.0017519574465614013 0 0.022097071231804585 0.0018991367458783132 0 0.018059262552638726 0.0027393982720225439 0 0.021695046825339896 0.0018613479963994295 0 0.021521928725383208 0.0023052456099200459 0 0.021757194033668398 0.0022672621173028848 0 0.021695046825339896 0.0018613479963994295 0 0.021521928725383208 0.0023052456099200459 0 0.021223052508269547 0.0023541931894463298 0 0.021745445572175569 0.0023479263328987192 0 0.021007493407272627 0.0021615563987995318 0 0.021221740400400993 0.0030033349246818678 0 0.021521928725383208 0.0023052456099200459 0 0.021757194033668398 0.0022672621173028848 0 0.021598501160210278 0.0024848265423365705 0 0.021757194033668398 0.0022672621173028848 0 0.022155913477053937 0.0021391188460196252 0 0.021888674903719249 0.0024968972465392435 0 0.022109225242932341 0.00182127234139706 0 0.022155913477053937 0.0021391188460196252 0 0.021932925313045502 0.0020188213080581411 0 0.021695046825339896 0.0018613479963994295 0 0.021757194033668398 0.0022672621173028848 0 0.021932925313045502 0.0020188213080581411 0 0.021757194033668398 0.0022672621173028848 0 0.022155913477053937 0.0021391188460196252 0 0.021932925313045502 0.0020188213080581411 0 0.015764094146670134 0.0034200478023205276 0 0.016420846370127806 0.0031960476832965188 0 0.016062700227369373 0.0036271924136031032 0 0.015764094146670134 0.0034200478023205276 0 0.015947425769777441 0.0029776962631989129 0 0.016420846370127806 0.0031960476832965188 0 0.015764094146670134 0.0034200478023205276 0 0.015684754838465577 0.0031660026380121329 0 0.01550298703231838 0.0032646688241718814 0 0.015764094146670134 0.0034200478023205276 0 0.015684754838465577 0.0031660026380121329 0 0.015947425769777441 0.0029776962631989129 0 0.015684754838465577 0.0031660026380121329 0 0.015947425769777441 0.0029776962631989129 0 0.015523733847009114 0.0030003499406119458 0 0.016261592965724572 0.0037801887864404651 0 0.015621800521195595 0.0038789796425723741 0 0.016447685053590889 0.0041031547280091594 0 0.018820012573211309 0.002844693030490827 0 0.018059262552638726 0.0027393982720225439 0 0.016420846370127806 0.0031960476832965188 0 0.016599703929058032 0.0039121385447482915 0 0.016261592965724572 0.0037801887864404651 0 0.016420846370127806 0.0031960476832965188 0 0.016261592965724572 0.0037801887864404651 0 0.016062700227369373 0.0036271924136031032 0 0.016599703929058032 0.0039121385447482915 0 0.016261592965724572 0.0037801887864404651 0 0.016447685053590889 0.0041031547280091594 0 0.016261592965724572 0.0037801887864404651 0 0.016062700227369373 0.0036271924136031032 0 0.015621800521195595 0.0038789796425723741 0 0.015764094146670134 0.0034200478023205276 0 0.016062700227369373 0.0036271924136031032 0 0.015621800521195595 0.0038789796425723741 0 0.013343077404130339 0.0031754374558843027 0 0.013944601770758073 0.0024484824241787413 0 0.011051715002596503 0.0022789791497356137 0 0.011126993402595037 0.0023199081481782868 0 0.011265021718886589 0.0022993364547835484 0 0.011069389985771866 0.0023336169028345408 0 0.011126993402595037 0.0023199081481782868 0 0.011096265587463995 0.0023983552953588997 0 0.011069389985771866 0.0023336169028345408 0 0.011096265587463995 0.0023983552953588997 0 0.011013550857345327 0.0023750292044902631 0 0.011051715002596503 0.0022789791497356137 0 0.011069750520324544 0.0023037371988266033 0 0.011126993402595037 0.0023199081481782868 0 0.011069389985771866 0.0023336169028345408 0 0.011069750520324544 0.0023037371988266033 0 0.011043539571691534 0.0022847799758042905 0 0.011069389985771866 0.0023336169028345408 0 0.011069750520324544 0.0023037371988266033 0 0.011126993402595037 0.0023199081481782868 0 0.011051715002596503 0.0022789791497356137 0 0.011069750520324544 0.0023037371988266033 0 0.011043539571691534 0.0022847799758042905 0 0.011126993402595037 0.0023199081481782868 0 0.011223639666392339 0.0023486068262406098 0 0.011096265587463995 0.0023983552953588997 0 0.010316167125059783 0.001717917288728725 0 0.009742413591449086 0.0014368172483323737 0 0.011126993402595037 0.0023199081481782868 0 0.011223639666392339 0.0023486068262406098 0 0.011265021718886589 0.0022993364547835484 0 0.011558200228481979 0.0023539734728843329 0 0.012449216910776745 0.0011849500498005566 0 0.013323423633040312 0.0014464120072365944 0 0.01566731134853969 0.0022751121601530073 0 0.015536364744512388 0.0024363546306798455 0 0.015649049790196001 0.0024686482275519169 0 0.018059262552638726 0.0027393982720225439 0 0.013944601770758073 0.0024484824241787413 0 0.013944601770758073 0.0024484824241787413 0 0.013457230845023918 0.0019722748930900424 0 0.0084624604266538093 0.00045945876336389818 0 0.0084694424809065565 0.00047055304672400587 0 0.0084499274301683309 0.00044823203543045096 0 0.0084694424809065565 0.00047055304672400587 0 0.0084499274301683309 0.00044823203543045096 0 0.0084666918158334738 0.00047060421578322956 0 0.010316167125059783 0.001717917288728725 0 0.013457230845023918 0.0019722748930900424 0 0.010316167125059783 0.001717917288728725 0 0.013944601770758073 0.0024484824241787413 0 0.0084499274301683309 0.00044823203543045096 0 0.0084250460510228442 0.0004337139156681457 0 0.0084317276233723919 0.00042162754236369144 0 0.0084499274301683309 0.00044823203543045096 0 0.0084448566777600483 0.00043099607898915669 0 0.0084317276233723919 0.00042162754236369144 0 0.0084448566777600483 0.00043099607898915669 0 0.0084343362316302312 0.00041655663949434599 0 0.0084317276233723919 0.00042162754236369144 0 0.0084624604266538093 0.00045945876336389818 0 0.0084499274301683309 0.00044823203543045096 0 0.0084448566777600483 0.00043099607898915669 0 0.0084624604266538093 0.00045945876336389818 0 0.0084448566777600483 0.00043099607898915669 0 0.0084355089103884482 0.00040645436893428654 0 0.010316167125059783 0.001717917288728725 0 0.0079909098642196065 0.00013289743163873361 0 0.0084635388949361161 0.00046031829603075967 0 0.0084400855430609434 0.00041024781473181476 0 0.0084517141998550916 0.00043560147222723033 0 0.0084635388949361161 0.00046031829603075967 0 0.0084400855430609434 0.00041024781473181476 0 0.0084355089103884482 0.00040645436893428654 0 0.0084448566777600483 0.00043099607898915669 0 0.0084364351485936122 0.00041548771445597233 0 0.0084355089103884482 0.00040645436893428654 0 0.0084448566777600483 0.00043099607898915669 0 0.0084364351485936122 0.00041548771445597233 0 0.0084343362316302312 0.00041655663949434599 0 0.0084400855430609434 0.00041024781473181476 0 0.0084517141998550916 0.00043560147222723033 0 0.0084978166225853028 0.00042157512774424415 0 0.022173550220634924 0.0028555505601172916 0 0.022155913477053937 0.0021391188460196252 0 0.021888674903719249 0.0024968972465392435 0 0.018247039063238775 0.0020083038919316721 0 0.02295210774261524 0.0025581160594199273 0 0.022173550220634924 0.0028555505601172916 0 0.021751053742845944 0.0027279896562937794 0 0.021888674903719249 0.0024968972465392435 0 0.018247039063238775 0.0020083038919316721 0 0.017926655255457898 0.002417455981051227 0 0.021751053742845944 0.0027279896562937794 0 0.021888674903719249 0.0024968972465392435 0 0.021598501160210278 0.0024848265423365705 0 0.021757194033668398 0.0022672621173028848 0 0.021888674903719249 0.0024968972465392435 0 0.021598501160210278 0.0024848265423365705 0 0.021751053742845944 0.0027279896562937794 0 0.021598501160210278 0.0024848265423365705 0 0.021285374219975436 0.0026014701500004212 0 0.01339111761582645 0.0018943486382233601 0 0.013879563728884794 0.0020412488625674205 0 0.013668249632265005 0.0013816151278726169 0 0.021598501160210278 0.0024848265423365705 0 0.021285374219975436 0.0026014701500004212 0 0.021271077970099819 0.0025428880949241255 0 0.021521928725383208 0.0023052456099200459 0 0.021598501160210278 0.0024848265423365705 0 0.021271077970099819 0.0025428880949241255 0 0.021521928725383208 0.0023052456099200459 0 0.021223052508269547 0.0023541931894463298 0 0.021271077970099819 0.0025428880949241255 0 0.01566731134853969 0.0022751121601530073 0 0.015649049790196001 0.0024686482275519169 0 0.015708010662153535 0.0024384791890466623 0 0.018059262552638726 0.0027393982720225439 0 0.015046929732475645 0.0019024187592017799 0 0.014489495795015735 0.0018567586859866891 0 0.015046929732475645 0.0019024187592017799 0 0.015023468017475807 0.002054830637942436 0 0.014415373269861819 0.0018712040105591386 0 0.014540105712636449 0.0023048291845976267 0 0.013457230845023918 0.0019722748930900424 0 0.014489495795015735 0.0018567586859866891 0 0.013457230845023918 0.0019722748930900424 0 0.015046929732475645 0.0019024187592017799 0 0.017926655255457898 0.002417455981051227 0 0.014489495795015735 0.0018567586859866891 0 0.01339111761582645 0.0018943486382233601 0 0.013668249632265005 0.0013816151278726169 0 0.01323576645414996 0.0013559026169611887 0 0.014489495795015735 0.0018567586859866891 0 0.01079826218537688 0.00066017922984781645 0 0.0084499274301683309 0.00044823203543045096 0 0.0084666918158334738 0.00047060421578322956 0 0.0084250460510228442 0.0004337139156681457 0 0.012906716697707552 0.0017478519072984006 0 0.01339111761582645 0.0018943486382233601 0 0.01323576645414996 0.0013559026169611887 0 0.012906716697707552 0.0017478519072984006 0 0.01323576645414996 0.0013559026169611887 0 0.012766271840993408 0.0010279117697093122 0 0.01323576645414996 0.0013559026169611887 0 0.013446345160714706 0.0007234633871838228 0 0.012766271840993408 0.0010279117697093122 0 0.0084250460510228442 0.0004337139156681457 0 0.0084134537026675817 0.00041382617665327041 0 0.0084317276233723919 0.00042162754236369144 0 0.013668249632265005 0.0013816151278726169 0 0.01323576645414996 0.0013559026169611887 0 0.013446345160714706 0.0007234633871838228 0 0.01079826218537688 0.00066017922984781645 0 0.011049313067838505 0.00065797446815669416 0 0.0084250460510228442 0.0004337139156681457 0 0.0084134537026675817 0.00041382617665327041 0 0.0083936512713581775 0.00040513796703644508 0 0.0084134537026675817 0.00041382617665327041 0 0.0083936512713581775 0.00040513796703644508 0 0.0083992467413562671 0.00040254021130425426 0 0.0083936512713581775 0.00040513796703644508 0 0.0083992467413562671 0.00040254021130425426 0 0.0083786934171727404 0.00038864022585097485 0 0.0083936512713581775 0.00040513796703644508 0 0.0083786934171727404 0.00038864022585097485 0 0.0083752827606504189 0.00038527920249380751 0 0.0083992467413562671 0.00040254021130425426 0 0.0083786934171727404 0.00038864022585097485 0 0.0083867273308787793 0.00039237208328851637 0 0.013446345160714706 0.0007234633871838228 0 0.01322315971246589 7.1288079814267214e-05 0 0.012634228248340242 0.0003118733934750279 0 0.013446345160714706 0.0007234633871838228 0 0.012766271840993408 0.0010279117697093122 0 0.012634228248340242 0.0003118733934750279 0 0.011049313067838505 0.00065797446815669416 0 0.0091405850803365531 0.00034211360772054252 0 0.0084081071280765803 0.00039974683353427879 0 0.0084160756704145887 0.00040206056863882731 0 0.0084116175826428104 0.00039922438826762714 0 0.0084081071280765803 0.00039974683353427879 0 0.0084160756704145887 0.00040206056863882731 0 0.008412501535255832 0.00040199613321183388 0 0.0084160756704145887 0.00040206056863882731 0 0.0084235202534563847 0.00040343196564780439 0 0.008423248252419276 0.00040546179828721934 0 0.0084160756704145887 0.00040206056863882731 0 0.008423248252419276 0.00040546179828721934 0 0.008412501535255832 0.00040199613321183388 0 0.0084160756704145887 0.00040206056863882731 0 0.0084235202534563847 0.00040343196564780439 0 0.0084116175826428104 0.00039922438826762714 0 0.0084235202534563847 0.00040343196564780439 0 0.0084203358877525964 0.00039831301061205943 0 0.0084116175826428104 0.00039922438826762714 0 0.0084400855430609434 0.00041024781473181476 0 0.0084355089103884482 0.00040645436893428654 0 0.0084203358877525964 0.00039831301061205943 0 0.0084235202534563847 0.00040343196564780439 0 0.0084355089103884482 0.00040645436893428654 0 0.0084203358877525964 0.00039831301061205943 0 0.0084235202534563847 0.00040343196564780439 0 0.0084355089103884482 0.00040645436893428654 0 0.0084285988327077298 0.00040610267254130567 0 0.0084235202534563847 0.00040343196564780439 0 0.0084285988327077298 0.00040610267254130567 0 0.008423248252419276 0.00040546179828721934 0 0.0084285988327077298 0.00040610267254130567 0 0.0084308628045342768 0.00040953142741846068 0 0.008423248252419276 0.00040546179828721934 0 0.0084355089103884482 0.00040645436893428654 0 0.0084285988327077298 0.00040610267254130567 0 0.0084308628045342768 0.00040953142741846068 0 0.0084364351485936122 0.00041548771445597233 0 0.0084355089103884482 0.00040645436893428654 0 0.0084308628045342768 0.00040953142741846068 0 0.0084308628045342768 0.00040953142741846068 0 0.0084343362316302312 0.00041655663949434599 0 0.0084267357863321273 0.00041082643676171782 0 0.0084364351485936122 0.00041548771445597233 0 0.0084308628045342768 0.00040953142741846068 0 0.0084343362316302312 0.00041655663949434599 0 0.0084308628045342768 0.00040953142741846068 0 0.0084267357863321273 0.00041082643676171782 0 0.008423248252419276 0.00040546179828721934 0 0.0084267357863321273 0.00041082643676171782 0 0.0084184413323532357 0.00040555056312816597 0 0.008423248252419276 0.00040546179828721934 0 0.0084184413323532357 0.00040555056312816597 0 0.008423248252419276 0.00040546179828721934 0 0.008412501535255832 0.00040199613321183388 0 0.0084184413323532357 0.00040555056312816597 0 0.008412501535255832 0.00040199613321183388 0 0.008410809900948597 0.00040262222228026038 0 0.0084184413323532357 0.00040555056312816597 0 0.0084143283408778247 0.00040687377324930338 0 0.008410809900948597 0.00040262222228026038 0 0.0084267357863321273 0.00041082643676171782 0 0.0084184413323532357 0.00040555056312816597 0 0.0084143283408778247 0.00040687377324930338 0 0.0084343362316302312 0.00041655663949434599 0 0.0084267357863321273 0.00041082643676171782 0 0.0084317276233723919 0.00042162754236369144 0 0.0084267357863321273 0.00041082643676171782 0 0.0084143283408778247 0.00040687377324930338 0 0.0084317276233723919 0.00042162754236369144 0 0.0084134537026675817 0.00041382617665327041 0 0.0084143283408778247 0.00040687377324930338 0 0.0084317276233723919 0.00042162754236369144 0 0.0084134537026675817 0.00041382617665327041 0 0.0083992467413562671 0.00040254021130425426 0 0.0084143283408778247 0.00040687377324930338 0 0.0083992467413562671 0.00040254021130425426 0 0.0084001159301766489 0.00039963346205565772 0 0.0083867273308787793 0.00039237208328851637 0 0.0083992467413562671 0.00040254021130425426 0 0.0084143283408778247 0.00040687377324930338 0 0.0084001159301766489 0.00039963346205565772 0 0.0084001159301766489 0.00039963346205565772 0 0.0083867273308787793 0.00039237208328851637 0 0.0083890069829855151 0.00039358684858989672 0 0.0083890069829855151 0.00039358684858989672 0 0.0084026343306817779 0.00039947799455062797 0 0.0083949012095431621 0.00039579311984459629 0 0.0084001159301766489 0.00039963346205565772 0 0.0083890069829855151 0.00039358684858989672 0 0.0084026343306817779 0.00039947799455062797 0 0.0084143283408778247 0.00040687377324930338 0 0.0084001159301766489 0.00039963346205565772 0 0.0084026343306817779 0.00039947799455062797 0 0.0084143283408778247 0.00040687377324930338 0 0.0084026343306817779 0.00039947799455062797 0 0.008410809900948597 0.00040262222228026038 0 0.008412501535255832 0.00040199613321183388 0 0.008410809900948597 0.00040262222228026038 0 0.0084036217986504444 0.00039915201998656275 0 0.0084026343306817779 0.00039947799455062797 0 0.008410809900948597 0.00040262222228026038 0 0.0084036217986504444 0.00039915201998656275 0 0.0084026343306817779 0.00039947799455062797 0 0.0084036217986504444 0.00039915201998656275 0 0.0083949012095431621 0.00039579311984459629 0 0.0084036217986504444 0.00039915201998656275 0 0.0083945421527644361 0.00039603048094329795 0 0.0084014580190929621 0.0003983090547846426 0 0.0084036217986504444 0.00039915201998656275 0 0.0083949012095431621 0.00039579311984459629 0 0.0083945421527644361 0.00039603048094329795 0 0.008412501535255832 0.00040199613321183388 0 0.0084036217986504444 0.00039915201998656275 0 0.0084014580190929621 0.0003983090547846426 0 0.0084081071280765803 0.00039974683353427879 0 0.008412501535255832 0.00040199613321183388 0 0.0084014580190929621 0.0003983090547846426 0 0.0083812324286300938 0.00038809183311398608 0 0.0083892257093663922 0.0003937706773545192 0 0.0083845982046236792 0.00039196639106018721 0 0.0083949012095431621 0.00039579311984459629 0 0.0083945421527644361 0.00039603048094329795 0 0.0083892257093663922 0.0003937706773545192 0 0.0083812324286300938 0.00038809183311398608 0 0.0083892257093663922 0.0003937706773545192 0 0.0083891016706969818 0.00039499157817456804 0 0.0083945421527644361 0.00039603048094329795 0 0.0083892257093663922 0.0003937706773545192 0 0.0083891016706969818 0.00039499157817456804 0 0.0083890069829855151 0.00039358684858989672 0 0.0083949012095431621 0.00039579311984459629 0 0.0083845982046236792 0.00039196639106018721 0 0.0083949012095431621 0.00039579311984459629 0 0.0083892257093663922 0.0003937706773545192 0 0.0083845982046236792 0.00039196639106018721 0 0.0083845982046236792 0.00039196639106018721 0 0.0083742484463897246 0.00039018947206130778 0 0.0083772101336569427 0.00038755252763950435 0 0.0083812324286300938 0.00038809183311398608 0 0.0083845982046236792 0.00039196639106018721 0 0.0083772101336569427 0.00038755252763950435 0 0.0083742484463897246 0.00039018947206130778 0 0.0083713694740320706 0.00038970559556800215 0 0.0083772101336569427 0.00038755252763950435 0 0.0083742484463897246 0.00039018947206130778 0 0.0083608031721224482 0.00039597311817163598 0 0.0083713694740320706 0.00038970559556800215 0 0.0083890069829855151 0.00039358684858989672 0 0.0083742484463897246 0.00039018947206130778 0 0.0083773562391368014 0.00038808331517512363 0 0.0083890069829855151 0.00039358684858989672 0 0.0083845982046236792 0.00039196639106018721 0 0.0083742484463897246 0.00039018947206130778 0 0.0083867273308787793 0.00039237208328851637 0 0.0083890069829855151 0.00039358684858989672 0 0.0083773562391368014 0.00038808331517512363 0 0.0083867273308787793 0.00039237208328851637 0 0.0083773562391368014 0.00038808331517512363 0 0.0083748078498662795 0.00038266483195950477 0 0.0083773562391368014 0.00038808331517512363 0 0.0083611729849203172 0.00038339060154137108 0 0.0083748078498662795 0.00038266483195950477 0 0.0083742484463897246 0.00039018947206130778 0 0.0083611729849203172 0.00038339060154137108 0 0.0083608031721224482 0.00039597311817163598 0 0.0083611729849203172 0.00038339060154137108 0 0.0083608031721224482 0.00039597311817163598 0 0.0083413838166591526 0.00042356024562429772 0 0.0083742484463897246 0.00039018947206130778 0 0.0083773562391368014 0.00038808331517512363 0 0.0083611729849203172 0.00038339060154137108 0 0.0082236923080412846 0.00048628836344104975 0 0.0082568994457894278 0.00043762967254949372 0 0.0083608031721224482 0.00039597311817163598 0 0.0083721017362818322 0.00037793164923690948 0 0.0083413838166591526 0.00042356024562429772 0 0.0072072599995074401 0.00096651083770375994 0 0.0080819452891294722 0.00063388465345531029 0 0.0077510821225911701 0.00059629242900175068 0 0.0080819452891294722 0.00063388465345531029 0 0.0077510821225911701 0.00059629242900175068 0 0.0083413838166591526 0.00042356024562429772 0 0.0083721017362818322 0.00037793164923690948 0 0.0083713694740320706 0.00038970559556800215 0 0.0083772101336569427 0.00038755252763950435 0 0.0083608031721224482 0.00039597311817163598 0 0.0083721017362818322 0.00037793164923690948 0 0.0083713694740320706 0.00038970559556800215 0 0.0083812324286300938 0.00038809183311398608 0 0.0083756536900789456 0.00038253859030743388 0 0.0083708556423558005 0.00037775173194386176 0 0.0083721017362818322 0.00037793164923690948 0 0.0083756536900789456 0.00038253859030743388 0 0.0083708556423558005 0.00037775173194386176 0 0.0082236923080412846 0.00048628836344104975 0 0.0066254151949700132 -8.8815325272039361e-05 0 0.0083721017362818322 0.00037793164923690948 0 0.0083756536900789456 0.00038253859030743388 0 0.0083772101336569427 0.00038755252763950435 0 0.0083812324286300938 0.00038809183311398608 0 0.0083756536900789456 0.00038253859030743388 0 0.0083772101336569427 0.00038755252763950435 0 0.0091405850803365531 0.00034211360772054252 0 0.010095211382909034 -0.00038215571330250844 0 0.0052326591847903295 -0.0013452278518416775 0 0.0050244070117913733 -0.0013692593878452649 0 0.0054389207341235925 -0.0015364246021745797 0 0.0050950313594058166 -0.0011713140742963641 0 0.0052326591847903295 -0.0013452278518416775 0 0.0052585932484433195 -0.00095572318694450275 0 0.0050667368794495606 -0.0011581410356380376 0 0.0050950313594058166 -0.0011713140742963641 0 0.0050244070117913733 -0.0013692593878452649 0 0.0058534478230194619 -0.0011567538291837182 0 0.0091405850803365531 0.00034211360772054252 0 0.008743514756006137 0.00039014820459970973 0 0.0086514208440745307 0.00016709192725192909 0 0.0085278031769427786 0.00033220289412735015 0 0.0058534478230194619 -0.0011567538291837182 0 0.0057879565200560507 -0.0011369157346757279 0 0.0050950313594058166 -0.0011713140742963641 0 0.0052326591847903295 -0.0013452278518416775 0 0.0050244070117913733 -0.0013692593878452649 0 0.008743514756006137 0.00039014820459970973 0 0.0085278031769427786 0.00033220289412735015 0 0.0083413838166591526 0.00042356024562429772 0 0.0091405850803365531 0.00034211360772054252 0 0.0082243693841768922 0.00042005454790733729 0 0.0083786934171727404 0.00038864022585097485 0 0.0083752827606504189 0.00038527920249380751 0 0.0083603142769182442 0.00036492190902964722 0 0.0083786934171727404 0.00038864022585097485 0 0.0083748078498662795 0.00038266483195950477 0 0.0083603142769182442 0.00036492190902964722 0 0.0083786934171727404 0.00038864022585097485 0 0.0083867273308787793 0.00039237208328851637 0 0.0083748078498662795 0.00038266483195950477 0 0.0083603142769182442 0.00036492190902964722 0 0.0085278031769427786 0.00033220289412735015 0 0.0083413838166591526 0.00042356024562429772 0 0.0083611729849203172 0.00038339060154137108 0 0.0083748078498662795 0.00038266483195950477 0 0.0083603142769182442 0.00036492190902964722 0 0.0083611729849203172 0.00038339060154137108 0 0.0083603142769182442 0.00036492190902964722 0 0.0083413838166591526 0.00042356024562429772 0 0.0086514208440745307 0.00016709192725192909 0 0.0083603142769182442 0.00036492190902964722 0 0.0085278031769427786 0.00033220289412735015 0 0.0057618656630671478 -5.8017676753024907e-05 0 0.0058534478230194619 -0.0011567538291837182 0 0.0080819452891294722 0.00063388465345531029 0 0.008743514756006137 0.00039014820459970973 0 0.0083413838166591526 0.00042356024562429772 0 0.0040008256090002196 -0.0007733743660356707 0 0.0032903109966187986 -0.0010353269509012187 0 0.0044328053327170186 -0.0015561009555983038 0 0.0047086283086306673 -0.00058878033323799754 0 0.0040008256090002196 -0.0007733743660356707 0 0.0044328053327170186 -0.0015561009555983038 0 0.0047853782907494782 -0.00064412144529474281 0 0.0058534478230194619 -0.0011567538291837182 0 0.0050793595841657777 -0.00060236259381030903 0 0.0050616103970251474 -0.0011612299749213717 0 0.0052585932484433195 -0.00095572318694450275 0 0.0050616103970251474 -0.0011612299749213717 0 0.0050950313594058166 -0.0011713140742963641 0 0.0052585932484433195 -0.00095572318694450275 0 0.0052585932484433195 -0.00095572318694450275 0 0.0054676300557264246 -0.00093503922870178638 0 0.0054301017008114042 -0.001503993675207976 0 0.0052845947764885073 -0.00073910273535065705 0 0.0052585932484433195 -0.00095572318694450275 0 0.0054676300557264246 -0.00093503922870178638 0 0.0050793595841657777 -0.00060236259381030903 0 0.0052845947764885073 -0.00073910273535065705 0 0.0052585932484433195 -0.00095572318694450275 0 0.0054901556039061326 -0.0012499670064108021 0 0.005674701575762206 -0.0017706180643720577 0 0.0059718418291299221 -0.0013199529183093002 0 0.0052326591847903295 -0.0013452278518416775 0 0.0052585932484433195 -0.00095572318694450275 0 0.0054473155346459736 -0.0014312589692222471 0 0.0052626534102197982 -0.0012222418993193913 0 0.007706352158475452 -0.0013743086197848429 0 0.0054901556039061326 -0.0012499670064108021 0 0.005674701575762206 -0.0017706180643720577 0 0.0054103002984746103 -0.002243926231045685 0 0.0048957309821726089 -0.00090341498977361686 0 0.007706352158475452 -0.0013743086197848429 0 0.005674701575762206 -0.0017706180643720577 0 0.0057275025761793791 -0.0021175549712151354 0 0.0054103002984746103 -0.002243926231045685 0 0.0057275025761793791 -0.0021175549712151354 0 0.0054730349184688061 -0.0024789721431567992 0 0.0060523731079926381 -0.0023309714491293087 0 0.0057275025761793791 -0.0021175549712151354 0 0.0054103002984746103 -0.002243926231045685 0 0.0054730349184688061 -0.0024789721431567992 0 0.0052326591847903295 -0.0013452278518416775 0 0.0054473155346459736 -0.0014312589692222471 0 0.0054389207341235925 -0.0015364246021745797 0 0.0061828166810649543 -0.0018406762809220977 0 0.0066013647088390458 -0.0021934099611744832 0 0.0060523731079926381 -0.0023309714491293087 0 0.0057275025761793791 -0.0021175549712151354 0 0.0061828166810649543 -0.0018406762809220977 0 0.0060523731079926381 -0.0023309714491293087 0 0.005674701575762206 -0.0017706180643720577 0 0.0057275025761793791 -0.0021175549712151354 0 0.0061828166810649543 -0.0018406762809220977 0 0.0061828166810649543 -0.0018406762809220977 0 0.0059718418291299221 -0.0013199529183093002 0 0.0064678598678839646 -0.0013395610024231558 0 0.005674701575762206 -0.0017706180643720577 0 0.0061828166810649543 -0.0018406762809220977 0 0.0059718418291299221 -0.0013199529183093002 0 0.0062436149746784965 -0.00087327399488217495 0 0.0058931651157936383 -0.00080195158164061357 0 0.0059718418291299221 -0.0013199529183093002 0 0.0058931651157936383 -0.00080195158164061357 0 0.0054901556039061326 -0.0012499670064108021 0 0.0059718418291299221 -0.0013199529183093002 0 0.0062436149746784965 -0.00087327399488217495 0 0.0059718418291299221 -0.0013199529183093002 0 0.0064678598678839646 -0.0013395610024231558 0 0.0061828166810649543 -0.0018406762809220977 0 0.0070004391842582898 -0.0014966246154541523 0 0.0064678598678839646 -0.0013395610024231558 0 0.0066916801879145374 -0.00078010817244851744 0 0.0070004391842582898 -0.0014966246154541523 0 0.0064678598678839646 -0.0013395610024231558 0 0.0066916801879145374 -0.00078010817244851744 0 0.0062436149746784965 -0.00087327399488217495 0 0.0064678598678839646 -0.0013395610024231558 0 0.0075446057198685131 -0.00066705044932366571 0 0.0078949971739313389 -0.001651533108512972 0 0.0070004391842582898 -0.0014966246154541523 0 0.0078949971739313389 -0.001651533108512972 0 0.0070004391842582898 -0.0014966246154541523 0 0.0072739832834846745 -0.0023932362176020366 0 0.0078949971739313389 -0.001651533108512972 0 0.0082468813748731787 -0.0026093758601335951 0 0.0072739832834846745 -0.0023932362176020366 0 0.0070004391842582898 -0.0014966246154541523 0 0.0066013647088390458 -0.0021934099611744832 0 0.0072739832834846745 -0.0023932362176020366 0 0.0061828166810649543 -0.0018406762809220977 0 0.0070004391842582898 -0.0014966246154541523 0 0.0066013647088390458 -0.0021934099611744832 0 0.0066013647088390458 -0.0021934099611744832 0 0.0065027973105363001 -0.0029053761540358261 0 0.0072739832834846745 -0.0023932362176020366 0 0.0065027973105363001 -0.0029053761540358261 0 0.0072739832834846745 -0.0023932362176020366 0 0.007561879378914063 -0.003327815992727847 0 0.0082468813748731787 -0.0026093758601335951 0 0.0072739832834846745 -0.0023932362176020366 0 0.007561879378914063 -0.003327815992727847 0 0.014769944796065233 3.527056226460733e-05 0 0.014956912584587794 0.00023409558363742008 0 0.014560426263432534 0.00015226296156895124 0 0.02184482131678743 0.00053651418028451668 0 0.022044784698719795 0.00069949955939140637 0 0.022062788956276617 0.00058622593492635943 0 0.020073678346469552 0.00053622069957814141 0 0.022061135342351778 0.00082408312635328794 0 0.020073678346469552 0.00053622069957814141 0 0.013107783551920361 -0.0015717717044758327 0 0.022253179149298936 0.0004874487956417681 0 0.022044784698719795 0.00069949955939140637 0 0.022062788956276617 0.00058622593492635943 0 0.0099432702714909223 -0.001171567109812012 0 0.013107783551920361 -0.0015717717044758327 0 0.014412430608005523 0.00045930204647032246 0 0.014956912584587794 0.00023409558363742008 0 0.014560426263432534 0.00015226296156895124 0 0.014412430608005523 0.00045930204647032246 0 0.014560426263432534 0.00015226296156895124 0 0.014280452042752547 0.0001177017058995294 0 0.014446006977220991 -5.5909526176233555e-05 0 0.014560426263432534 0.00015226296156895124 0 0.014280452042752547 0.0001177017058995294 0 0.014133369633402743 -0.00014865441921922996 0 0.014280452042752547 0.0001177017058995294 0 0.013988376785956148 0.00025510223981507491 0 0.014412430608005523 0.00045930204647032246 0 0.014280452042752547 0.0001177017058995294 0 0.013988376785956148 0.00025510223981507491 0 0.014810252932802153 0.0014642686614906976 0 0.014952131697813809 0.00070805968708573599 0 0.015330584940780644 0.00079368922399814228 0 0.014952131697813809 0.00070805968708573599 0 0.015330584940780644 0.00079368922399814228 0 0.01506815431293204 -4.5644615452276977e-05 0 0.014032372667880568 0.00094692794845107589 0 0.010095211382909034 -0.00038215571330250844 0 0.015330584940780644 0.00079368922399814228 0 0.015143448502488371 -7.7641477653800042e-05 0 0.01506815431293204 -4.5644615452276977e-05 0 0.014450997107732188 0.00055867331867629475 0 0.010501855717652612 -0.00054908872963431259 0 0.0090417860762158787 -0.00099208340169260338 0 0.0090906300893829287 -0.0006610925103805223 0 0.0089555498563668994 -0.00060603263222341517 0 0.007706352158475452 -0.0013743086197848429 0 0.010095211382909034 -0.00038215571330250844 0 0.007706352158475452 -0.0013743086197848429 0 0.010501855717652612 -0.00054908872963431259 0 0.010095211382909034 -0.00038215571330250844 0 0.010501855717652612 -0.00054908872963431259 0 0.014412430608005523 0.00045930204647032246 0 0.013988376785956148 0.00025510223981507491 0 0.01384681583292024 0.00067558945623752962 0 0.0066013647088390458 -0.0021934099611744832 0 0.0065027973105363001 -0.0029053761540358261 0 0.0060523731079926381 -0.0023309714491293087 0 0.0099432702714909223 -0.001171567109812012 0 0.010501855717652612 -0.00054908872963431259 0 0.0065027973105363001 -0.0029053761540358261 0 0.0054730349184688061 -0.0024789721431567992 0 0.0060523731079926381 -0.0023309714491293087 0 0.0049839889745982172 0.00011705608695654968 0 0.0050279391480730646 5.2133886880159241e-05 0 0.0047978144749446609 8.5794021965612338e-05 0 0.0065258058107035277 -0.00038039981243492279 0 0.0064239229534993284 -0.0002402210692313948 0 0.0049839889745982172 0.00011705608695654968 0 0.0050279391480730646 5.2133886880159241e-05 0 0.0052393294849841137 -3.9119425610972253e-06 0 0.0051910211533951027 8.0396517465271822e-07 0 0.0050279391480730646 5.2133886880159241e-05 0 0.0047978144749446609 8.5794021965612338e-05 0 0.0051910211533951027 8.0396517465271822e-07 0 0.0050279391480730646 5.2133886880159241e-05 0 0.0052393294849841137 -3.9119425610972253e-06 0 0.0064239229534993284 -0.0002402210692313948 0 0.0065763159280342268 7.6055928926264177e-08 0 0.0051910211533951027 8.0396517465271822e-07 0 0.0052393294849841137 -3.9119425610972253e-06 0 0.0065753815811820625 -7.7721220107973656e-07 0 0.0080658394737227225 -0.00084440873222968633 0 0.0076375697115243953 -0.00064727066866950532 0 0.0082426675715589464 -0.00052388410994671673 0 0.0076375697115243953 -0.00064727066866950532 0 0.0082426675715589464 -0.00052388410994671673 0 0.0082593458808000401 -8.5385258011636656e-05 0 0.0082426675715589464 -0.00052388410994671673 0 0.008610912199624135 -0.00035537796791056911 0 0.0084785313324317914 -0.00069713939809713896 0 0.008610912199624135 -0.00035537796791056911 0 0.0086797666691263466 -0.00060066866778583949 0 0.0084785313324317914 -0.00069713939809713896 0 0.0086797666691263466 -0.00060066866778583949 0 0.0084785313324317914 -0.00069713939809713896 0 0.0087598006974548021 -0.00082871811254192531 0 0.0080658394737227225 -0.00084440873222968633 0 0.0082426675715589464 -0.00052388410994671673 0 0.0084785313324317914 -0.00069713939809713896 0 0.0068459364135010064 -0.00049646610408473333 0 0.0050775469244728642 -0.00015917753711906901 0 0.0065258058107035277 -0.00038039981243492279 0 0.0068459364135010064 -0.00049646610408473333 0 0.0080658394737227225 -0.00084440873222968633 0 0.0084785313324317914 -0.00069713939809713896 0 0.0083254516481580873 -0.0010430665137031669 0 0.0049839889745982172 0.00011705608695654968 0 0.0052238889752715288 -0.00012760868028716951 0 0.0049790960693056859 -0.0001813464411636774 0 0.0068459364135010064 -0.00049646610408473333 0 0.0082531246997019272 -0.00067586808334922752 0 0.0084785313324317914 -0.00069713939809713896 0 0.0083254516481580873 -0.0010430665137031669 0 0.0087598006974548021 -0.00082871811254192531 0 0.0068572936632948743 -0.00064074922702189285 0 0.0072317452142495204 -0.00074796641541783975 0 0.0074508544127967896 -0.00045647068626496244 0 0.0068572936632948743 -0.00064074922702189285 0 0.0072317452142495204 -0.00074796641541783975 0 0.0071802483403640054 -0.00098193433873070544 0 0.0068459364135010064 -0.00049646610408473333 0 0.0070410484035360651 -0.00082335723349875878 0 0.0063088873169414288 0.00015764730354099712 0 0.0065247600244980712 -0.00060003566407665636 0 0.0071802483403640054 -0.00098193433873070544 0 0.0063088873169414288 0.00015764730354099712 0 0.0057550639442135931 -0.00081809708268761429 0 0.0053322578806753815 -7.179702219593181e-05 0 0.0057550639442135931 -0.00081809708268761429 0 0.0065247600244980712 -0.00060003566407665636 0 0.0071103566991387512 -0.0011796655321080329 0 0.0063088873169414288 0.00015764730354099712 0 0.0057550639442135931 -0.00081809708268761429 0 0.0065247600244980712 -0.00060003566407665636 0 0.0050775469244728642 -0.00015917753711906901 0 0.0038541477307705322 -0.00017080920684493583 0 0.0022421516429314879 -0.00018877603522129971 0 0.0028712615218189335 -0.0002601887141847001 0 0.0027563269379884112 9.1057469799149215e-05 0 0.0039356414975520249 -0.00049613103947159279 0 0.0038541477307705322 -0.00017080920684493583 0 0.0057550639442135931 -0.00081809708268761429 0 0.0053322578806753815 -7.179702219593181e-05 0 0.0043363676036887715 -0.00032519661647589766 0 0.0049790960693056859 -0.0001813464411636774 0 0.0047457101970734862 -4.8965165027490747e-05 0 0.0044360591923663971 -0.00035387254951682308 0 0.0049839889745982172 0.00011705608695654968 0 0.0049790960693056859 -0.0001813464411636774 0 0.0047457101970734862 -4.8965165027490747e-05 0 0.0049839889745982172 0.00011705608695654968 0 0.0047978144749446609 8.5794021965612338e-05 0 0.0047457101970734862 -4.8965165027490747e-05 0 0.0051910211533951027 8.0396517465271822e-07 0 0.0047978144749446609 8.5794021965612338e-05 0 0.0038077425921116876 -8.5251977954571692e-07 0 0.0047978144749446609 8.5794021965612338e-05 0 0.0047457101970734862 -4.8965165027490747e-05 0 0.0038077425921116876 -8.5251977954571692e-07 0 0.0038541477307705322 -0.00017080920684493583 0 0.0035062681769454248 -2.4456270565914037e-07 0 0.0038045365772887006 4.2731849851707873e-09 0 0.0036345136924878893 -5.5413096777754502e-07 0 0.0035079085613633921 -4.6921764670407601e-09 0 0.0038061104417007 -1.7600109384175819e-07 0 0.0038541477307705322 -0.00017080920684493583 0 0.0047457101970734862 -4.8965165027490747e-05 0 0.0038077425921116876 -8.5251977954571692e-07 0 0.0044360591923663971 -0.00035387254951682308 0 0.0028712615218189335 -0.0002601887141847001 0 0.0035039057359689319 -7.2721710163755237e-07 0 0.0027563269379884112 9.1057469799149215e-05 0 0.0027563269379884112 9.1057469799149215e-05 0 0.0025938893648503195 0.00021273348238571942 0 0.0022454644073905228 7.0039767193483661e-07 0 0.0035039057359689319 -7.2721710163755237e-07 0 0.0027563269379884112 9.1057469799149215e-05 0 0.0022454644073905228 7.0039767193483661e-07 0 0.0022421516429314879 -0.00018877603522129971 0 0.0027563269379884112 9.1057469799149215e-05 0 0.0025938893648503195 0.00021273348238571942 0 0.0018072740395892858 3.2803648407713898e-05 0 0.0014288624640507442 0.00014969213018680412 0 0.001042381750282969 -0.00019046067622331342 0 0.0010592219693709834 0.00012127285445371578 0 0.00086748447219803248 3.5011139518290503e-05 0 0.002240789737030797 -8.4036371109193516e-07 0 0.00095437850969080278 5.9598974358165662e-07 0 0.0010592219693709834 0.00012127285445371578 0 0.0018072740395892858 3.2803648407713898e-05 0 0.002242855314985017 3.7872134577375579e-09 0 0.001042381750282969 -0.00019046067622331342 0 0.002240789737030797 -8.4036371109193516e-07 0 0.0010592219693709834 0.00012127285445371578 0 0.00095437850969080278 5.9598974358165662e-07 0 0.0010592219693709834 0.00012127285445371578 0 0.00064316294942080507 0.00013184387484241903 0 0.0010592219693709834 0.00012127285445371578 0 0.00082731744858648485 0.0001196299870797862 0 0.00064316294942080507 0.00013184387484241903 0 0.0010592219693709834 0.00012127285445371578 0 0.00082731744858648485 0.0001196299870797862 0 0.00086748447219803248 3.5011139518290503e-05 0 0.00082731744858648485 0.0001196299870797862 0 0.00064316294942080507 0.00013184387484241903 0 0.0007254197281778953 0.00012034000098875689 0 0.0002026133210856652 1.8948261477425936e-05 0 0.00064316294942080507 0.00013184387484241903 0 0.00054051285844415185 9.915987617922488e-05 0 0.00064316294942080507 0.00013184387484241903 0 0.0007254197281778953 0.00012034000098875689 0 0.00054051285844415185 9.915987617922488e-05 0 0.0007254197281778953 0.00012034000098875689 0 0.00064135862693577063 9.2481771468897578e-05 0 0.00054051285844415185 9.915987617922488e-05 0 0.00046554482555188957 3.7222559437382314e-05 0 0.00064135862693577063 9.2481771468897578e-05 0 0.00054051285844415185 9.915987617922488e-05 0 0.0002026133210856652 1.8948261477425936e-05 0 0.00046554482555188957 3.7222559437382314e-05 0 0.00054051285844415185 9.915987617922488e-05 0 -0.00033510610300874861 3.8062416958653565e-07 0 0.00095437850969080278 5.9598974358165662e-07 0 0.00064316294942080507 0.00013184387484241903 0 -0.00033510610300874861 3.8062416958653565e-07 0 0.0002026133210856652 1.8948261477425936e-05 0 0.00064316294942080507 0.00013184387484241903 0 0.00094578165703079612 -0.00017874825356861316 0 0.0010294821122893523 -0.000117818344692191 0 0.0010101846708738596 -0.00022817678301513197 0 0.00094578165703079612 -0.00017874825356861316 0 0.0010294821122893523 -0.000117818344692191 0 0.00094810483051897799 -9.2163545122766647e-05 0 0.001104639711808643 -0.00014665015832782707 0 0.0010294821122893523 -0.000117818344692191 0 0.0010101846708738596 -0.00022817678301513197 0 0.001104639711808643 -0.00014665015832782707 0 0.0010294821122893523 -0.000117818344692191 0 0.0011147736325283508 -5.4535686252870087e-05 0 0.0010532806977159479 -5.131091570240583e-05 0 0.00049429537194703736 -0.00024154930738010005 0 0.001104639711808643 -0.00014665015832782707 0 0.0010505026089310571 -0.00018166276968523519 0 0.0011451726205574317 -0.00017004087781295944 0 0.00094578165703079612 -0.00017874825356861316 0 0.0010091140074350549 -0.0002420214419292621 0 0.00094488779992288948 -0.00028775701428165938 0 0.00049429537194703736 -0.00024154930738010005 0 -0.00041094217535739269 -0.00025390086273644879 0 0.00077205820097466979 -0.00032719425974795448 0 0.00049429537194703736 -0.00024154930738010005 0 0.0009204670624537169 -0.0002879002464609563 0 0.00078743040554529297 -0.00020154433531774458 0 0.00082832461072369196 -0.00014527601908614354 0 -0.00041094217535739269 -0.00025390086273644879 0 0.00082717781350947345 -0.00044579367224780852 0 0.00066166997980214863 -7.7699858791220621e-05 0 0.00064135862693577063 9.2481771468897578e-05 0 0.00074205048415614948 0.00010825374401731763 0 0.00094578165703079612 -0.00017874825356861316 0 0.00094488779992288948 -0.00028775701428165938 0 0.00082832461072369196 -0.00014527601908614354 0 0.00070107468457086635 -0.00043185344005185704 0 0.0009204670624537169 -0.0002879002464609563 0 0.00078743040554529297 -0.00020154433531774458 0 0.00078743040554529297 -0.00020154433531774458 0 0.00082832461072369196 -0.00014527601908614354 0 0.00088974319257234622 3.6533510165273068e-05 0 0.0007254197281778953 0.00012034000098875689 0 0.00074205048415614948 0.00010825374401731763 0 0.00088974319257234622 3.6533510165273068e-05 0 0.0007254197281778953 0.00012034000098875689 0 0.00064135862693577063 9.2481771468897578e-05 0 0.00074205048415614948 0.00010825374401731763 0 0.00094578165703079612 -0.00017874825356861316 0 0.00082832461072369196 -0.00014527601908614354 0 0.00094810483051897799 -9.2163545122766647e-05 0 0.00082832461072369196 -0.00014527601908614354 0 0.00088974319257234622 3.6533510165273068e-05 0 0.00094810483051897799 -9.2163545122766647e-05 0 0.00081011988698576867 -1.253649387299789e-05 0 0.00085565670458173117 3.0637138115598539e-05 0 0.00082731744858648485 0.0001196299870797862 0 0.0007254197281778953 0.00012034000098875689 0 0.00088974319257234622 3.6533510165273068e-05 0 0.00082731744858648485 0.0001196299870797862 0 0.00088974319257234622 3.6533510165273068e-05 0 0.00086748447219803248 3.5011139518290503e-05 0 0.00088974319257234622 3.6533510165273068e-05 0 0.0010190585189889031 2.3778405150229638e-05 0 0.0010269744980607035 -4.3373387541906917e-05 0 0.00088974319257234622 3.6533510165273068e-05 0 0.00094810483051897799 -9.2163545122766647e-05 0 0.0010269744980607035 -4.3373387541906917e-05 0 0.0010294821122893523 -0.000117818344692191 0 0.00094810483051897799 -9.2163545122766647e-05 0 0.0010269744980607035 -4.3373387541906917e-05 0 0.0010294821122893523 -0.000117818344692191 0 0.0010269744980607035 -4.3373387541906917e-05 0 0.0011147736325283508 -5.4535686252870087e-05 0 0.0010190585189889031 2.3778405150229638e-05 0 0.0010269744980607035 -4.3373387541906917e-05 0 0.0011222182148424916 2.8532756770595205e-05 0 0.0010269744980607035 -4.3373387541906917e-05 0 0.0011222182148424916 2.8532756770595205e-05 0 0.0011147736325283508 -5.4535686252870087e-05 0 0.001024390300355847 5.2770566835612246e-05 0 0.0008991607260891688 6.6213500822175694e-05 0 0.0012449429693214974 0.00013494011844588066 0 0.0010190585189889031 2.3778405150229638e-05 0 0.001024390300355847 5.2770566835612246e-05 0 0.0011520865064741687 8.239856410954306e-05 0 0.0010190585189889031 2.3778405150229638e-05 0 0.0011222182148424916 2.8532756770595205e-05 0 0.0011520865064741687 8.239856410954306e-05 0 0.00088974319257234622 3.6533510165273068e-05 0 0.0010190585189889031 2.3778405150229638e-05 0 0.001024390300355847 5.2770566835612246e-05 0 0.001024390300355847 5.2770566835612246e-05 0 0.0011520865064741687 8.239856410954306e-05 0 0.0012449429693214974 0.00013494011844588066 0 0.001042381750282969 -0.00019046067622331342 0 0.00086748447219803248 3.5011139518290503e-05 0 0.0008991607260891688 6.6213500822175694e-05 0 0.00088974319257234622 3.6533510165273068e-05 0 0.001024390300355847 5.2770566835612246e-05 0 0.00086748447219803248 3.5011139518290503e-05 0 0.001024390300355847 5.2770566835612246e-05 0 0.00086748447219803248 3.5011139518290503e-05 0 0.0008991607260891688 6.6213500822175694e-05 0 0.0039356414975520249 -0.00049613103947159279 0 0.004254762774292843 -0.00056358922831870127 0 0.0022421516429314879 -0.00018877603522129971 0 0.0025938893648503195 0.00021273348238571942 0 0.0019138560313464081 0.00029498073754131819 0 0.0022421516429314879 -0.00018877603522129971 0 0.0019138560313464081 0.00029498073754131819 0 0.001364765333180329 1.8996840045603333e-05 0 0.0019138560313464081 0.00029498073754131819 0 0.0012449429693214974 0.00013494011844588066 0 0.001364765333180329 1.8996840045603333e-05 0 0.0014288624640507442 0.00014969213018680412 0 0.0012631966951991906 0.00014868020728063918 0 0.0065247600244980712 -0.00060003566407665636 0 0.0071103566991387512 -0.0011796655321080329 0 0.0071802483403640054 -0.00098193433873070544 0 0.0071103566991387512 -0.0011796655321080329 0 0.0071802483403640054 -0.00098193433873070544 0 0.007373362106727027 -0.0010251492851843405 0 0.004254762774292843 -0.00056358922831870127 0 0.0042421027541376475 -0.00050702778225705434 0 0.0012449429693214974 0.00013494011844588066 0 0.001364765333180329 1.8996840045603333e-05 0 0.0012026384653736806 0.00015785291942430711 0 0.0071103566991387512 -0.0011796655321080329 0 0.007373362106727027 -0.0010251492851843405 0 0.0074776772507156551 -0.001094248837230027 0 0.007373362106727027 -0.0010251492851843405 0 0.007504585052832565 -0.0010185499472491705 0 0.0074776772507156551 -0.001094248837230027 0 0.007504585052832565 -0.0010185499472491705 0 0.0075507198506981855 -0.0010950945160176737 0 0.0075542645277136078 -0.0010013850526990171 0 0.007504585052832565 -0.0010185499472491705 0 0.0074776772507156551 -0.001094248837230027 0 0.0075507198506981855 -0.0010950945160176737 0 0.0012683823218012605 6.5642351416284357e-05 0 0.0013892571003804445 1.5653298774710183e-05 0 0.0014637350023509804 0.00011417799024884374 0 0.0042421027541376475 -0.00050702778225705434 0 0.0050524001765626363 -7.2473741461911395e-05 0 0.0012026384653736806 0.00015785291942430711 0 0.0012683823218012605 6.5642351416284357e-05 0 0.0014637350023509804 0.00011417799024884374 0 0.0012449429693214974 0.00013494011844588066 0 0.0012026384653736806 0.00015785291942430711 0 0.0011920840749216756 0.000103269574456066 0 0.0011520865064741687 8.239856410954306e-05 0 0.0012449429693214974 0.00013494011844588066 0 0.0011920840749216756 0.000103269574456066 0 0.0012026384653736806 0.00015785291942430711 0 0.0012683823218012605 6.5642351416284357e-05 0 0.0011920840749216756 0.000103269574456066 0 0.0012683823218012605 6.5642351416284357e-05 0 0.0011920840749216756 0.000103269574456066 0 0.0011940741517718701 1.6953948369211994e-05 0 0.0011222182148424916 2.8532756770595205e-05 0 0.0011920840749216756 0.000103269574456066 0 0.0011940741517718701 1.6953948369211994e-05 0 0.0011222182148424916 2.8532756770595205e-05 0 0.0011520865064741687 8.239856410954306e-05 0 0.0011920840749216756 0.000103269574456066 0 0.0011222182148424916 2.8532756770595205e-05 0 0.0011147736325283508 -5.4535686252870087e-05 0 0.0011940741517718701 1.6953948369211994e-05 0 0.001104639711808643 -0.00014665015832782707 0 0.0011147736325283508 -5.4535686252870087e-05 0 0.0011868009320350542 -7.9399309733792071e-05 0 0.0011147736325283508 -5.4535686252870087e-05 0 0.0011868009320350542 -7.9399309733792071e-05 0 0.0011940741517718701 1.6953948369211994e-05 0 0.0011868009320350542 -7.9399309733792071e-05 0 0.0011940741517718701 1.6953948369211994e-05 0 0.0012712388566662551 -5.7871445973192509e-06 0 0.0012683823218012605 6.5642351416284357e-05 0 0.0011940741517718701 1.6953948369211994e-05 0 0.0012712388566662551 -5.7871445973192509e-06 0 0.0012712388566662551 -5.7871445973192509e-06 0 0.0013846908394259786 -0.000138828488665928 0 0.0013892571003804445 1.5653298774710183e-05 0 0.0012712388566662551 -5.7871445973192509e-06 0 0.0012625641621016549 -9.7452602113730661e-05 0 0.0013846908394259786 -0.000138828488665928 0 0.0012683823218012605 6.5642351416284357e-05 0 0.0012712388566662551 -5.7871445973192509e-06 0 0.0013892571003804445 1.5653298774710183e-05 0 0.0011868009320350542 -7.9399309733792071e-05 0 0.0012712388566662551 -5.7871445973192509e-06 0 0.0012625641621016549 -9.7452602113730661e-05 0 0.0012746829358617081 -0.00025522433242070248 0 0.0012167110547359906 -0.00016869780944601693 0 0.0013846908394259786 -0.000138828488665928 0 0.00065675753703771833 0.0015211345192741232 0 0.00096315355821022328 0.0014532889441052689 0 0.00075273421929879355 0.0011972044731220527 0 0.0012625641621016549 -9.7452602113730661e-05 0 0.0012167110547359906 -0.00016869780944601693 0 0.0013846908394259786 -0.000138828488665928 0 0.00057575054789827447 0.00053390469775700059 0 0.00097734856749197101 0.00041852367949200836 0 0.00057575054789827447 0.00053390469775700059 0 0.0012941881880557491 -0.00035765560596165197 0 0.0011732006961771759 -0.00022528376338111421 0 0.0012422058266668746 -0.00022593572052182577 0 0.0012167110547359906 -0.00016869780944601693 0 0.0011732006961771759 -0.00022528376338111421 0 0.0012167110547359906 -0.00016869780944601693 0 0.0011451726205574317 -0.00017004087781295944 0 0.0011732006961771759 -0.00022528376338111421 0 0.0010505026089310571 -0.00018166276968523519 0 0.0011451726205574317 -0.00017004087781295944 0 0.001104639711808643 -0.00014665015832782707 0 0.0011868009320350542 -7.9399309733792071e-05 0 0.0011451726205574317 -0.00017004087781295944 0 0.0011868009320350542 -7.9399309733792071e-05 0 0.0012167110547359906 -0.00016869780944601693 0 0.0011451726205574317 -0.00017004087781295944 0 0.0011868009320350542 -7.9399309733792071e-05 0 0.0012625641621016549 -9.7452602113730661e-05 0 0.0012167110547359906 -0.00016869780944601693 0 0.0029774098727086708 0.0023205062627586611 0 0.0029916195205985591 0.002350281182743998 0 0.0029780378366850179 0.0023737726858642384 0 0.0018106885031816892 0.0021333798506099795 0 0.0021683014404805553 0.0011339947778674355 0 0.0029916195205985591 0.002350281182743998 0 0.0030144616179082697 0.0023738231338412009 0 0.0030144000032696371 0.0023568222609564875 0 0.0030136542085076015 0.0023261433749430251 0 0.0029916195205985591 0.002350281182743998 0 0.0030144000032696371 0.0023568222609564875 0 0.0030136542085076015 0.0023261433749430251 0 0.0029813621192402761 0.0023192167484207241 0 0.0029916195205985591 0.002350281182743998 0 0.0018106885031816892 0.0021333798506099795 0 0.00284612104800354 0.0024419900902047913 0 0.00035055899422766179 0.0014809678795149142 0 0.00075273421929879355 0.0011972044731220527 0 0.00055104510993502648 0.00094176228554620491 0 0.0013846908394259786 -0.000138828488665928 0 0.0013892571003804445 1.5653298774710183e-05 0 0.0014994671163157725 -2.1698167643588567e-05 0 0.00097734856749197101 0.00041852367949200836 0 0.0021683014404805553 0.0011339947778674355 0 0.0013892571003804445 1.5653298774710183e-05 0 0.0014994671163157725 -2.1698167643588567e-05 0 0.0014637350023509804 0.00011417799024884374 0 0.0021683014404805553 0.0011339947778674355 0 0.0050000752541454084 0.0010041736746673974 0 0.0029780378366850179 0.0023737726858642384 0 0.0030144616179082697 0.0023738231338412009 0 0.0030033612841829089 0.0023939946102592684 0 0.0029916195205985591 0.002350281182743998 0 0.0029780378366850179 0.0023737726858642384 0 0.0030144616179082697 0.0023738231338412009 0 0.0050000752541454084 0.0010041736746673974 0 0.0073777329032506198 -8.6592219553915278e-05 0 0.0064721632203868108 0.00019559519832227146 0 0.0068242176479550443 6.8284733979490208e-05 0 0.006592192116459456 -0.00037089849623320263 0 0.0021683014404805553 0.0011339947778674355 0 0.0050524001765626363 -7.2473741461911395e-05 0 0.0050000752541454084 0.0010041736746673974 0 0.0050524001765626363 -7.2473741461911395e-05 0 0.0040489168123416693 0.00091854196786802221 0 0.0038035392505895321 0.00061285777918308683 0 0.0042106283742279881 0.00046259662824142081 0 0.0050524001765626363 -7.2473741461911395e-05 0 0.0078390374993882184 -0.00097562674151869589 0 0.0068242176479550443 6.8284733979490208e-05 0 0.006592192116459456 -0.00037089849623320263 0 0.007042967199138923 -0.00054188385732683339 0 0.0074477210943617632 -0.00053097282250903278 0 0.0078390374993882184 -0.00097562674151869589 0 0.0084414514129991444 -0.00073833014444109324 0 0.0084085398397318982 -0.00062716379540448449 0 0.0083800724901275953 -0.00052252890744669078 0 0.0074477210943617632 -0.00053097282250903278 0 0.0073777329032506198 -8.6592219553915278e-05 0 0.0064721632203868108 0.00019559519832227146 0 0.006592192116459456 -0.00037089849623320263 0 0.0061562272228180932 -0.00020348372241619529 0 0.0084414514129991444 -0.00073833014444109324 0 0.0084707224457806832 -0.00073919791350432159 0 0.0084085398397318982 -0.00062716379540448449 0 0.0084414514129991444 -0.00073833014444109324 0 0.0084707224457806832 -0.00073919791350432159 0 0.0084054815817645682 -0.00075688679142850955 0 0.0084707224457806832 -0.00073919791350432159 0 0.008418856899716826 -0.00071788864583406057 0 0.0084054815817645682 -0.00075688679142850955 0 0.0084707224457806832 -0.00073919791350432159 0 0.0086026108992258155 -0.00071430966672548005 0 0.008418856899716826 -0.00071788864583406057 0 0.0086026108992258155 -0.00071430966672548005 0 0.008418856899716826 -0.00071788864583406057 0 0.0082107435670108371 -0.00042049928595086164 0 0.008418856899716826 -0.00071788864583406057 0 0.0082040405423466876 -0.00066177441180645803 0 0.0082107435670108371 -0.00042049928595086164 0 0.0082040405423466876 -0.00066177441180645803 0 0.0083022418117660278 -0.00075484745692957025 0 0.008090146343932101 -0.00077471408405681145 0 0.008418856899716826 -0.00071788864583406057 0 0.0082040405423466876 -0.00066177441180645803 0 0.0083022418117660278 -0.00075484745692957025 0 0.0084414514129991444 -0.00073833014444109324 0 0.0084054815817645682 -0.00075688679142850955 0 0.0082431466001495375 -0.00085011416613184571 0 0.0083022418117660278 -0.00075484745692957025 0 0.0082431466001495375 -0.00085011416613184571 0 0.008090146343932101 -0.00077471408405681145 0 0.008418856899716826 -0.00071788864583406057 0 0.0083022418117660278 -0.00075484745692957025 0 0.0084054815817645682 -0.00075688679142850955 0 0.0083022418117660278 -0.00075484745692957025 0 0.0084054815817645682 -0.00075688679142850955 0 0.0082431466001495375 -0.00085011416613184571 0 0.007504585052832565 -0.0010185499472491705 0 0.0075542645277136078 -0.0010013850526990171 0 0.007460826222715493 -0.00087059027677396136 0 0.0082227956451149803 -0.0011724015772053759 0 0.008090146343932101 -0.00077471408405681145 0 0.007460826222715493 -0.00087059027677396136 0 0.0078390374993882184 -0.00097562674151869589 0 0.0075059795566873094 -0.00091706899607850293 0 0.0078390374993882184 -0.00097562674151869589 0 0.0080601542947867783 -0.00085969581405469675 0 0.008090146343932101 -0.00077471408405681145 0 0.007460826222715493 -0.00087059027677396136 0 0.0078681866406355525 -0.00061722448669795699 0 0.0071802483403640054 -0.00098193433873070544 0 0.007373362106727027 -0.0010251492851843405 0 0.007460826222715493 -0.00087059027677396136 0 0.0072317452142495204 -0.00074796641541783975 0 0.0071802483403640054 -0.00098193433873070544 0 0.007460826222715493 -0.00087059027677396136 0 0.007373362106727027 -0.0010251492851843405 0 0.007504585052832565 -0.0010185499472491705 0 0.007460826222715493 -0.00087059027677396136 0 0.0072317452142495204 -0.00074796641541783975 0 0.007460826222715493 -0.00087059027677396136 0 0.0074508544127967896 -0.00045647068626496244 0 0.007460826222715493 -0.00087059027677396136 0 0.0074508544127967896 -0.00045647068626496244 0 0.0078681866406355525 -0.00061722448669795699 0 0.0074508544127967896 -0.00045647068626496244 0 0.0078681866406355525 -0.00061722448669795699 0 0.0082107435670108371 -0.00042049928595086164 0 0.0082531246997019272 -0.00067586808334922752 0 0.0085589851125312255 -0.00049602080147348579 0 0.0082040405423466876 -0.00066177441180645803 0 0.008090146343932101 -0.00077471408405681145 0 0.0078681866406355525 -0.00061722448669795699 0 0.0082040405423466876 -0.00066177441180645803 0 0.0078681866406355525 -0.00061722448669795699 0 0.0082107435670108371 -0.00042049928595086164 0 0.0087598006974548021 -0.00082871811254192531 0 0.0088672502052147256 -0.00051215190401207459 0 0.0090242584113801941 -0.00055046604758160521 0 0.0088672502052147256 -0.00051215190401207459 0 0.0089943460620832555 -0.00046010142723394113 0 0.0090242584113801941 -0.00055046604758160521 0 0.0086797666691263466 -0.00060066866778583949 0 0.0087598006974548021 -0.00082871811254192531 0 0.0088672502052147256 -0.00051215190401207459 0 0.008610912199624135 -0.00035537796791056911 0 0.0088672502052147256 -0.00051215190401207459 0 0.0089770804702936167 -0.00021904915841404815 0 0.008610912199624135 -0.00035537796791056911 0 0.0086797666691263466 -0.00060066866778583949 0 0.0088672502052147256 -0.00051215190401207459 0 0.0089943460620832555 -0.00046010142723394113 0 0.0090791061914021563 -0.00033436757927771924 0 0.0089770804702936167 -0.00021904915841404815 0 0.0088672502052147256 -0.00051215190401207459 0 0.0089943460620832555 -0.00046010142723394113 0 0.0089770804702936167 -0.00021904915841404815 0 0.0089943460620832555 -0.00046010142723394113 0 0.0090791061914021563 -0.00033436757927771924 0 0.0089688209768422119 -0.00046778679868793375 0 0.0089688209768422119 -0.00046778679868793375 0 0.008979192970120068 -0.0003718584392485449 0 0.0090837903821022626 -0.0002866789272287068 0 0.0090791061914021563 -0.00033436757927771924 0 0.0089688209768422119 -0.00046778679868793375 0 0.0090837903821022626 -0.0002866789272287068 0 0.0087813343742903539 -0.00046684451069283839 0 0.0089688209768422119 -0.00046778679868793375 0 0.008979192970120068 -0.0003718584392485449 0 0.0086026108992258155 -0.00071430966672548005 0 0.0087813343742903539 -0.00046684451069283839 0 0.0082107435670108371 -0.00042049928595086164 0 0.0089943460620832555 -0.00046010142723394113 0 0.0089688209768422119 -0.00046778679868793375 0 0.0090242584113801941 -0.00055046604758160521 0 0.0087770673761486933 -0.00046516586816370973 0 0.0085589851125312255 -0.00049602080147348579 0 0.0087813343742903539 -0.00046684451069283839 0 0.0089688209768422119 -0.00046778679868793375 0 0.0090242584113801941 -0.00055046604758160521 0 0.0080533503014253386 -0.0014202360831766644 0 0.0075100547898915432 -0.0015485228219367791 0 0.0080913370462955079 -0.001414824726599067 0 0.0072368625758285204 -0.0016851696074814792 0 0.0076881556498511992 -0.0011334816818032666 0 0.0080870682232991372 -0.0015438807686192298 0 0.0080913370462955079 -0.001414824726599067 0 0.0079470569305748508 -0.0015593783182179094 0 0.0080913370462955079 -0.001414824726599067 0 0.0079470569305748508 -0.0015593783182179094 0 0.0077609509229494625 -0.0014381008744572769 0 0.0086026108992258155 -0.00071430966672548005 0 0.0087813343742903539 -0.00046684451069283839 0 0.0090219745721425524 -0.00044004578430743396 0 0.0087813343742903539 -0.00046684451069283839 0 0.0090219745721425524 -0.00044004578430743396 0 0.008979192970120068 -0.0003718584392485449 0 0.0080870682232991372 -0.0015438807686192298 0 0.0080913370462955079 -0.001414824726599067 0 0.0084554737217411909 -0.00086701241283351023 0 0.0085495925394382041 -0.00096185652256865824 0 0.0084850608371773977 -0.00084175966327915044 0 0.008979192970120068 -0.0003718584392485449 0 0.0091914333465110565 -0.00020543360024570024 0 0.0090837903821022626 -0.0002866789272287068 0 0.0090219745721425524 -0.00044004578430743396 0 0.008979192970120068 -0.0003718584392485449 0 0.0091914333465110565 -0.00020543360024570024 0 0.0080870682232991372 -0.0015438807686192298 0 0.0079470569305748508 -0.0015593783182179094 0 0.0080040854722150251 -0.0016693110248446907 0 0.0085495925394382041 -0.00096185652256865824 0 0.008595537828067901 -0.00094043686466195923 0 0.0079470569305748508 -0.0015593783182179094 0 0.0077609509229494625 -0.0014381008744572769 0 0.0077746031134014442 -0.0016620816470930416 0 0.0072368625758285204 -0.0016851696074814792 0 0.0068960790822484809 -0.0014520986037667946 0 0.0067600238899707885 -0.0016194062097714998 0 0.0077609509229494625 -0.0014381008744572769 0 0.0074084407889481807 -0.0014465863582119522 0 0.0077746031134014442 -0.0016620816470930416 0 0.0075100547898915432 -0.0015485228219367791 0 0.0070879624411583752 -0.0015412668316630274 0 0.0072368625758285204 -0.0016851696074814792 0 0.0068960790822484809 -0.0014520986037667946 0 0.0070747058063855249 -0.0011658062810769947 0 0.0072368625758285204 -0.0016851696074814792 0 0.0070747058063855249 -0.0011658062810769947 0 0.0076881556498511992 -0.0011334816818032666 0 0.0070747058063855249 -0.0011658062810769947 0 0.0075092861720465545 -0.0007806659847610656 0 0.0076881556498511992 -0.0011334816818032666 0 0.0068960790822484809 -0.0014520986037667946 0 0.0070747058063855249 -0.0011658062810769947 0 0.0066173145249893445 -0.0011475671638186949 0 0.0070747058063855249 -0.0011658062810769947 0 0.0068567499846277991 -0.00088567669600311805 0 0.0066173145249893445 -0.0011475671638186949 0 0.0068567499846277991 -0.00088567669600311805 0 0.0075092861720465545 -0.0007806659847610656 0 0.007042725355446808 -0.00040920367351339449 0 0.0070747058063855249 -0.0011658062810769947 0 0.0068567499846277991 -0.00088567669600311805 0 0.0075092861720465545 -0.0007806659847610656 0 0.0075092861720465545 -0.0007806659847610656 0 0.0079734494303746305 -0.00080614503617706175 0 0.0076881556498511992 -0.0011334816818032666 0 0.0075092861720465545 -0.0007806659847610656 0 0.0079734494303746305 -0.00080614503617706175 0 0.0079017144254458008 -0.00055993689880461865 0 0.0079734494303746305 -0.00080614503617706175 0 0.0083037323696231874 -0.00069229137417660424 0 0.0079017144254458008 -0.00055993689880461865 0 0.0080913370462955079 -0.001414824726599067 0 0.0076881556498511992 -0.0011334816818032666 0 0.0084554737217411909 -0.00086701241283351023 0 0.0079734494303746305 -0.00080614503617706175 0 0.0076881556498511992 -0.0011334816818032666 0 0.0084554737217411909 -0.00086701241283351023 0 0.0086026108992258155 -0.00071430966672548005 0 0.0090219745721425524 -0.00044004578430743396 0 0.0084554737217411909 -0.00086701241283351023 0 0.0084707224457806832 -0.00073919791350432159 0 0.0086026108992258155 -0.00071430966672548005 0 0.0084554737217411909 -0.00086701241283351023 0 0.0084707224457806832 -0.00073919791350432159 0 0.0084554737217411909 -0.00086701241283351023 0 0.0083037323696231874 -0.00069229137417660424 0 0.0079734494303746305 -0.00080614503617706175 0 0.0084554737217411909 -0.00086701241283351023 0 0.0083037323696231874 -0.00069229137417660424 0 0.0084707224457806832 -0.00073919791350432159 0 0.0083037323696231874 -0.00069229137417660424 0 0.0084085398397318982 -0.00062716379540448449 0 0.0083157655874380055 -0.00050743715380630028 0 0.0084603954537644209 -0.00032826972012449217 0 0.0077057814369785038 2.1634331138107257e-05 0 0.0083037323696231874 -0.00069229137417660424 0 0.0084085398397318982 -0.00062716379540448449 0 0.0083157655874380055 -0.00050743715380630028 0 0.0084085398397318982 -0.00062716379540448449 0 0.0083157655874380055 -0.00050743715380630028 0 0.0083800724901275953 -0.00052252890744669078 0 0.0083037323696231874 -0.00069229137417660424 0 0.0083157655874380055 -0.00050743715380630028 0 0.0079017144254458008 -0.00055993689880461865 0 0.0078533669476404371 -0.00012937990885661719 0 0.0073777329032506198 -8.6592219553915278e-05 0 0.0083157655874380055 -0.00050743715380630028 0 0.0079017144254458008 -0.00055993689880461865 0 0.0077057814369785038 2.1634331138107257e-05 0 0.0079017144254458008 -0.00055993689880461865 0 0.0077057814369785038 2.1634331138107257e-05 0 0.0075251477910584603 -0.00039706179286501506 0 0.0075092861720465545 -0.0007806659847610656 0 0.0079017144254458008 -0.00055993689880461865 0 0.0075251477910584603 -0.00039706179286501506 0 0.0065076981589659577 0.00061351549714355822 0 0.006203968901723457 0.00070403433557890145 0 0.006336557014486442 0.0007767157160488633 0 0.0073777329032506198 -8.6592219553915278e-05 0 0.0069651431062304715 0.0003890460746950507 0 0.006203968901723457 0.00070403433557890145 0 0.006336557014486442 0.0007767157160488633 0 0.0061387322397154914 0.00089010266208360261 0 0.006641654936186501 0.00079667669664661134 0 0.0064591600936413085 0.00077709371447615757 0 0.0063434867791006457 0.00093082991039330652 0 0.006641654936186501 0.00079667669664661134 0 0.0065076981589659577 0.00061351549714355822 0 0.0064591600936413085 0.00077709371447615757 0 0.0065076981589659577 0.00061351549714355822 0 0.006336557014486442 0.0007767157160488633 0 0.0064591600936413085 0.00077709371447615757 0 0.006336557014486442 0.0007767157160488633 0 0.0064591600936413085 0.00077709371447615757 0 0.0063434867791006457 0.00093082991039330652 0 0.0050000752541454084 0.0010041736746673974 0 0.0046485121360222217 0.001758255263611708 0 0.0030144616179082697 0.0023738231338412009 0 0.0030033612841829089 0.0023939946102592684 0 0.0030680699032485091 0.002400984956797646 0 0.0030144616179082697 0.0023738231338412009 0 0.0030380508849545077 0.0023740886350025062 0 0.0030680699032485091 0.002400984956797646 0 0.0030380508849545077 0.0023740886350025062 0 0.0030680699032485091 0.002400984956797646 0 0.0030642377053281883 0.0023827604292998364 0 0.0046485121360222217 0.001758255263611708 0 0.0045650547738676876 0.0017551851659289648 0 0.0063434867791006457 0.00093082991039330652 0 0.0059663358911839961 0.0011573098989478372 0 0.0061387322397154914 0.00089010266208360261 0 0.006336557014486442 0.0007767157160488633 0 0.0063434867791006457 0.00093082991039330652 0 0.0061387322397154914 0.00089010266208360261 0 0.0030680699032485091 0.002400984956797646 0 0.0030984356421241495 0.0023773410817971414 0 0.0031498772666544122 0.0023627283256084128 0 0.0030680699032485091 0.002400984956797646 0 0.0030642377053281883 0.0023827604292998364 0 0.0030984356421241495 0.0023773410817971414 0 0.0030573105272922525 0.0023833411245767519 0 0.0030984356421241495 0.0023773410817971414 0 0.0030868954585596808 0.00237499840653988 0 0.0030642377053281883 0.0023827604292998364 0 0.0030573105272922525 0.0023833411245767519 0 0.0030984356421241495 0.0023773410817971414 0 0.0031357878961137905 0.0023664085225660542 0 0.0030984356421241495 0.0023773410817971414 0 0.0031323651956090721 0.0023639259851855974 0 0.0031357878961137905 0.0023664085225660542 0 0.0030984356421241495 0.0023773410817971414 0 0.0030868954585596808 0.00237499840653988 0 0.0030573105272922525 0.0023833411245767519 0 0.0030868954585596808 0.00237499840653988 0 0.0029744434080283978 0.0023763896440816934 0 0.0031256141389726247 0.0023705741073515906 0 0.0030868954585596808 0.00237499840653988 0 0.0029744434080283978 0.0023763896440816934 0 0.0029429149560212045 0.0024171850739857625 0 0.0030380508849545077 0.0023740886350025062 0 0.0029744434080283978 0.0023763896440816934 0 0.0030136542085076015 0.0023261433749430251 0 0.0030380508849545077 0.0023740886350025062 0 0.0030144000032696371 0.0023568222609564875 0 0.0030212914387169154 0.0024170412280434608 0 0.0030088350456500684 0.0023513837900268272 0 0.0030144616179082697 0.0023738231338412009 0 0.0030380508849545077 0.0023740886350025062 0 0.0030144000032696371 0.0023568222609564875 0 0.0030380508849545077 0.0023740886350025062 0 0.0030573105272922525 0.0023833411245767519 0 0.0029744434080283978 0.0023763896440816934 0 0.0030380508849545077 0.0023740886350025062 0 0.0030642377053281883 0.0023827604292998364 0 0.0030573105272922525 0.0023833411245767519 0 0.0031307956057983447 0.0023447785428682131 0 0.0031498772666544122 0.0023627283256084128 0 0.0031091020250723226 0.0023167637696277685 0 0.0045650547738676876 0.0017551851659289648 0 0.0041259601167276012 0.0019652186276354253 0 0.0059663358911839961 0.0011573098989478372 0 0.0055101002757275636 0.0011064556312244834 0 0.0052229185035802062 0.0016472074467505577 0 0.0030984356421241495 0.0023773410817971414 0 0.0031498772666544122 0.0023627283256084128 0 0.0031323651956090721 0.0023639259851855974 0 0.0031431025522552507 0.0023589120117245474 0 0.0031307956057983447 0.0023447785428682131 0 0.0031498772666544122 0.0023627283256084128 0 0.0031431025522552507 0.0023589120117245474 0 0.0031498772666544122 0.0023627283256084128 0 0.0031323651956090721 0.0023639259851855974 0 0.0031431025522552507 0.0023589120117245474 0 0.0031357878961137905 0.0023664085225660542 0 0.0031323651956090721 0.0023639259851855974 0 0.0059663358911839961 0.0011573098989478372 0 0.0061387322397154914 0.00089010266208360261 0 0.0057605141279194281 0.00078759592482491433 0 0.0059663358911839961 0.0011573098989478372 0 0.0055101002757275636 0.0011064556312244834 0 0.0057605141279194281 0.00078759592482491433 0 0.006721094340683127 0.00041260721682053294 0 0.007042725355446808 -0.00040920367351339449 0 0.0060461460560302391 -0.00072758698766843164 0 0.0069651431062304715 0.0003890460746950507 0 0.0062019551821244174 0.00059125945652956026 0 0.006203968901723457 0.00070403433557890145 0 0.0061387322397154914 0.00089010266208360261 0 0.0057605141279194281 0.00078759592482491433 0 0.0077057814369785038 2.1634331138107257e-05 0 0.006721094340683127 0.00041260721682053294 0 0.007042725355446808 -0.00040920367351339449 0 0.0077057814369785038 2.1634331138107257e-05 0 0.007042725355446808 -0.00040920367351339449 0 0.0075251477910584603 -0.00039706179286501506 0 0.0075092861720465545 -0.0007806659847610656 0 0.007042725355446808 -0.00040920367351339449 0 0.0075251477910584603 -0.00039706179286501506 0 0.0068567499846277991 -0.00088567669600311805 0 0.007042725355446808 -0.00040920367351339449 0 0.0060461460560302391 -0.00072758698766843164 0 0.0060461460560302391 -0.00072758698766843164 0 0.0045850739068165483 -0.00090550030024484098 0 0.004451033764708779 -0.0014438160516306697 0 0.0060461460560302391 -0.00072758698766843164 0 0.0045850739068165483 -0.00090550030024484098 0 0.0045246585582692078 -0.00036100109650341562 0 0.006068402449000406 -0.00074508930647226987 0 0.005449281632100819 -0.0012548083009788879 0 0.0043878094589910694 0.00020810628608997368 0 0.0054454025540248861 5.3771288304398798e-05 0 0.0049907430484816776 0.00086554214452454876 0 0.0060461460560302391 -0.00072758698766843164 0 0.0045246585582692078 -0.00036100109650341562 0 0.0054454025540248861 5.3771288304398798e-05 0 0.0045246585582692078 -0.00036100109650341562 0 0.0043878094589910694 0.00020810628608997368 0 0.0054454025540248861 5.3771288304398798e-05 0 0.006721094340683127 0.00041260721682053294 0 0.0060461460560302391 -0.00072758698766843164 0 0.0054454025540248861 5.3771288304398798e-05 0 0.0062019551821244174 0.00059125945652956026 0 0.0050758169788863369 0.0008741004252117928 0 0.0055101002757275636 0.0011064556312244834 0 0.0057605141279194281 0.00078759592482491433 0 0.0049907430484816776 0.00086554214452454876 0 0.0055101002757275636 0.0011064556312244834 0 0.0049907430484816776 0.00086554214452454876 0 0.0052229185035802062 0.0016472074467505577 0 0.006721094340683127 0.00041260721682053294 0 0.0054454025540248861 5.3771288304398798e-05 0 0.0049907430484816776 0.00086554214452454876 0 0.0049907430484816776 0.00086554214452454876 0 0.0042798007830721395 0.0014301468812464727 0 0.0037011415574507356 0.0011674689387478276 0 0.0043878094589910694 0.00020810628608997368 0 0.0049907430484816776 0.00086554214452454876 0 0.0037011415574507356 0.0011674689387478276 0 0.0031864264190217366 0.0020896389318924187 0 0.0042798007830721395 0.0014301468812464727 0 0.0037011415574507356 0.0011674689387478276 0 0.0031864264190217366 0.0020896389318924187 0 0.0042798007830721395 0.0014301468812464727 0 0.0052229185035802062 0.0016472074467505577 0 0.0049907430484816776 0.00086554214452454876 0 0.0042798007830721395 0.0014301468812464727 0 0.0052229185035802062 0.0016472074467505577 0 0.0032590517440275065 0.0021099145149151353 0 0.0041259601167276012 0.0019652186276354253 0 0.0022653949401759046 0.0012049624770476288 0 0.0028150640589469996 0.001489492719151375 0 0.0029709161761061007 0.00075508660272384477 0 0.0021716636659509956 0.0018759159630918503 0 0.0022653949401759046 0.0012049624770476288 0 0.0028150640589469996 0.001489492719151375 0 0.0028150640589469996 0.001489492719151375 0 0.0037011415574507356 0.0011674689387478276 0 0.0029709161761061007 0.00075508660272384477 0 0.0031864264190217366 0.0020896389318924187 0 0.0028150640589469996 0.001489492719151375 0 0.0037011415574507356 0.0011674689387478276 0 0.0043878094589910694 0.00020810628608997368 0 0.0037011415574507356 0.0011674689387478276 0 0.0029709161761061007 0.00075508660272384477 0 0.0022653949401759046 0.0012049624770476288 0 0.0029709161761061007 0.00075508660272384477 0 0.0022925560622749893 0.00036539317344218747 0 0.0029709161761061007 0.00075508660272384477 0 0.0022925560622749893 0.00036539317344218747 0 0.0026764652547332395 -0.00017039240999787913 0 0.0016933774258738217 -0.00020273273330619903 0 0.0022925560622749893 0.00036539317344218747 0 0.0026764652547332395 -0.00017039240999787913 0 0.0043878094589910694 0.00020810628608997368 0 0.0029709161761061007 0.00075508660272384477 0 0.0026764652547332395 -0.00017039240999787913 0 0.0043281767639391762 0.00017641141733979029 0 0.003222565562288832 -0.00019846210984177982 0 0.0045246585582692078 -0.00036100109650341562 0 0.0043878094589910694 0.00020810628608997368 0 0.0036609555795765266 -0.00027382888227055891 0 0.0045246585582692078 -0.00036100109650341562 0 0.0036609555795765266 -0.00027382888227055891 0 0.0040777069722787241 -0.0007363869240530949 0 0.0045850739068165483 -0.00090550030024484098 0 0.0045246585582692078 -0.00036100109650341562 0 0.0040777069722787241 -0.0007363869240530949 0 0.0040777069722787241 -0.0007363869240530949 0 0.0036743200057105518 -0.00080400294277384538 0 0.0039066587556739812 -0.0010628018807258479 0 0.0040777069722787241 -0.0007363869240530949 0 0.0039066587556739812 -0.0010628018807258479 0 0.004201543033807942 -0.0010823489644003724 0 0.0045850739068165483 -0.00090550030024484098 0 0.0040777069722787241 -0.0007363869240530949 0 0.004201543033807942 -0.0010823489644003724 0 0.0045850739068165483 -0.00090550030024484098 0 0.004201543033807942 -0.0010823489644003724 0 0.0043691836381552183 -0.0011813498120806561 0 0.003375401512746218 -0.00069907409463760076 0 0.0036609555795765266 -0.00027382888227055891 0 0.0036743200057105518 -0.00080400294277384538 0 0.0036609555795765266 -0.00027382888227055891 0 0.0040777069722787241 -0.0007363869240530949 0 0.0036743200057105518 -0.00080400294277384538 0 0.0036743200057105518 -0.00080400294277384538 0 0.0036355537638788874 -0.0011533396920878976 0 0.0039066587556739812 -0.0010628018807258479 0 0.003375401512746218 -0.00069907409463760076 0 0.0036743200057105518 -0.00080400294277384538 0 0.0034364425272862395 -0.00095197704936910202 0 0.0036743200057105518 -0.00080400294277384538 0 0.0034364425272862395 -0.00095197704936910202 0 0.0036355537638788874 -0.0011533396920878976 0 0.0033525479407762204 -0.0011668825868846773 0 0.0036355537638788874 -0.0011533396920878976 0 0.0035204853838351866 -0.0013811776972489829 0 0.0033525479407762204 -0.0011668825868846773 0 0.0034364425272862395 -0.00095197704936910202 0 0.0036355537638788874 -0.0011533396920878976 0 0.0036355537638788874 -0.0011533396920878976 0 0.0038706449839923593 -0.0013017206820824159 0 0.0039066587556739812 -0.0010628018807258479 0 0.0036355537638788874 -0.0011533396920878976 0 0.0037106487573373439 -0.0013925862279600891 0 0.0038706449839923593 -0.0013017206820824159 0 0.0037106487573373439 -0.0013925862279600891 0 0.0038932357427115304 -0.0014458304719688012 0 0.0038706449839923593 -0.0013017206820824159 0 0.0037106487573373439 -0.0013925862279600891 0 0.0036228192737132086 -0.0015366189923478237 0 0.0037382402993239891 -0.0015117402856550414 0 0.0037106487573373439 -0.0013925862279600891 0 0.0037382402993239891 -0.0015117402856550414 0 0.0038932357427115304 -0.0014458304719688012 0 0.0036355537638788874 -0.0011533396920878976 0 0.0037106487573373439 -0.0013925862279600891 0 0.0035204853838351866 -0.0013811776972489829 0 0.0037106487573373439 -0.0013925862279600891 0 0.0035204853838351866 -0.0013811776972489829 0 0.0036228192737132086 -0.0015366189923478237 0 0.0032591861081611132 -0.0016210841643347256 0 0.0034629874173401653 -0.0015203441121188056 0 0.0036453324076627706 -0.001664169696149404 0 0.0034629874173401653 -0.0015203441121188056 0 0.0036228192737132086 -0.0015366189923478237 0 0.0036453324076627706 -0.001664169696149404 0 0.0058182283537498939 -0.0015806644105010018 0 0.0060651058036038912 -0.0013834366960786045 0 0.006064416093139696 -0.0014828869943212084 0 0.0035204853838351866 -0.0013811776972489829 0 0.0034629874173401653 -0.0015203441121188056 0 0.0036228192737132086 -0.0015366189923478237 0 0.0037382402993239891 -0.0015117402856550414 0 0.0036453324076627706 -0.001664169696149404 0 0.0038932357427115304 -0.0014458304719688012 0 0.0036228192737132086 -0.0015366189923478237 0 0.0037382402993239891 -0.0015117402856550414 0 0.0036453324076627706 -0.001664169696149404 0 0.0065854058050932307 -0.0013787261106424718 0 0.0065299679019197674 -0.0013138558639964621 0 0.0064276891754798619 -0.0012002725995851036 0 0.006401821644662577 -0.0013831143748012577 0 0.0064114786055462702 -0.0012308821210574078 0 0.0060651058036038912 -0.0013834366960786045 0 0.006064416093139696 -0.0014828869943212084 0 0.0064276891754798619 -0.0012002725995851036 0 0.0065299679019197674 -0.0013138558639964621 0 0.006540360571482013 -0.0013183993152123753 0 0.0065794981743456478 -0.0013692100654857059 0 0.0065299679019197674 -0.0013138558639964621 0 0.006540360571482013 -0.0013183993152123753 0 0.0064887165420796531 -0.0012562665373313344 0 0.0065854058050932307 -0.0013787261106424718 0 0.0065299679019197674 -0.0013138558639964621 0 0.0065828826971132603 -0.0013786830214703434 0 0.0065299679019197674 -0.0013138558639964621 0 0.0064276891754798619 -0.0012002725995851036 0 0.0064887165420796531 -0.0012562665373313344 0 0.0036453324076627706 -0.001664169696149404 0 0.0041592054489773779 -0.0014369537173100969 0 0.004451033764708779 -0.0014438160516306697 0 0.0060651058036038912 -0.0013834366960786045 0 0.0064276891754798619 -0.0012002725995851036 0 0.006439358139159506 -0.0011383578790988113 0 0.0049254782972209393 -0.0014987440266036678 0 0.005449281632100819 -0.0012548083009788879 0 0.0036453324076627706 -0.001664169696149404 0 0.0041592054489773779 -0.0014369537173100969 0 0.0038932357427115304 -0.0014458304719688012 0 0.0041592054489773779 -0.0014369537173100969 0 0.0038932357427115304 -0.0014458304719688012 0 0.0040432381055932227 -0.0012762906142152136 0 0.0038932357427115304 -0.0014458304719688012 0 0.0038706449839923593 -0.0013017206820824159 0 0.0040432381055932227 -0.0012762906142152136 0 0.0040432381055932227 -0.0012762906142152136 0 0.0039066587556739812 -0.0010628018807258479 0 0.004201543033807942 -0.0010823489644003724 0 0.0038706449839923593 -0.0013017206820824159 0 0.0040432381055932227 -0.0012762906142152136 0 0.0039066587556739812 -0.0010628018807258479 0 0.0041592054489773779 -0.0014369537173100969 0 0.0042542309961481773 -0.0012828462907543182 0 0.004451033764708779 -0.0014438160516306697 0 0.0042542309961481773 -0.0012828462907543182 0 0.0043691836381552183 -0.0011813498120806561 0 0.004451033764708779 -0.0014438160516306697 0 0.0041592054489773779 -0.0014369537173100969 0 0.0040432381055932227 -0.0012762906142152136 0 0.0042542309961481773 -0.0012828462907543182 0 0.0042542309961481773 -0.0012828462907543182 0 0.004201543033807942 -0.0010823489644003724 0 0.0043691836381552183 -0.0011813498120806561 0 0.0040432381055932227 -0.0012762906142152136 0 0.0042542309961481773 -0.0012828462907543182 0 0.004201543033807942 -0.0010823489644003724 0 0.0045850739068165483 -0.00090550030024484098 0 0.0043691836381552183 -0.0011813498120806561 0 0.004451033764708779 -0.0014438160516306697 0 0.0060461460560302391 -0.00072758698766843164 0 0.006439358139159506 -0.0011383578790988113 0 0.0064305295481205402 -0.0011276078567780748 0 0.006439358139159506 -0.0011383578790988113 0 0.0064305295481205402 -0.0011276078567780748 0 0.0064537797412052289 -0.0011833914933629432 0 0.0064276891754798619 -0.0012002725995851036 0 0.006439358139159506 -0.0011383578790988113 0 0.0064537797412052289 -0.0011833914933629432 0 0.0060461460560302391 -0.00072758698766843164 0 0.0064305295481205402 -0.0011276078567780748 0 0.0066173145249893445 -0.0011475671638186949 0 0.0068567499846277991 -0.00088567669600311805 0 0.0060461460560302391 -0.00072758698766843164 0 0.0066173145249893445 -0.0011475671638186949 0 0.0064305295481205402 -0.0011276078567780748 0 0.0066173145249893445 -0.0011475671638186949 0 0.0066354574928444458 -0.0013573001029237289 0 0.0068960790822484809 -0.0014520986037667946 0 0.0066173145249893445 -0.0011475671638186949 0 0.0066354574928444458 -0.0013573001029237289 0 0.0064305295481205402 -0.0011276078567780748 0 0.0065178283534446163 -0.0012723282103669843 0 0.0066354574928444458 -0.0013573001029237289 0 0.0064276891754798619 -0.0012002725995851036 0 0.0064537797412052289 -0.0011833914933629432 0 0.0064887165420796531 -0.0012562665373313344 0 0.0064537797412052289 -0.0011833914933629432 0 0.0064887165420796531 -0.0012562665373313344 0 0.0065178283534446163 -0.0012723282103669843 0 0.0064305295481205402 -0.0011276078567780748 0 0.0064537797412052289 -0.0011833914933629432 0 0.0065178283534446163 -0.0012723282103669843 0 0.006540360571482013 -0.0013183993152123753 0 0.0064887165420796531 -0.0012562665373313344 0 0.0065178283534446163 -0.0012723282103669843 0 0.006540360571482013 -0.0013183993152123753 0 0.0065178283534446163 -0.0012723282103669843 0 0.006626668964816688 -0.0014156337426014663 0 0.0065178283534446163 -0.0012723282103669843 0 0.006626668964816688 -0.0014156337426014663 0 0.0066354574928444458 -0.0013573001029237289 0 0.0068960790822484809 -0.0014520986037667946 0 0.0066354574928444458 -0.0013573001029237289 0 0.0067600238899707885 -0.0016194062097714998 0 0.006626668964816688 -0.0014156337426014663 0 0.0066354574928444458 -0.0013573001029237289 0 0.0067600238899707885 -0.0016194062097714998 0 0.0067600238899707885 -0.0016194062097714998 0 0.006716208936319963 -0.0014854987920057332 0 0.0068531487386055186 -0.0015553539928152658 0 0.006626668964816688 -0.0014156337426014663 0 0.0067600238899707885 -0.0016194062097714998 0 0.006716208936319963 -0.0014854987920057332 0 0.0070879624411583752 -0.0015412668316630274 0 0.0068613791990728059 -0.0015596263789602624 0 0.006716208936319963 -0.0014854987920057332 0 0.0066429956740681152 -0.0014881299214948112 0 0.0066178343529722265 -0.0014199055897106323 0 0.006716208936319963 -0.0014854987920057332 0 0.0066429956740681152 -0.0014881299214948112 0 0.0068531487386055186 -0.0015553539928152658 0 0.0065753881608598061 -0.0014931449466666334 0 0.0065994076173212122 -0.0015650467797824058 0 0.0066429956740681152 -0.0014881299214948112 0 0.0065753881608598061 -0.0014931449466666334 0 0.0066429956740681152 -0.0014881299214948112 0 0.0065770899440157184 -0.0014411842612765825 0 0.0066429956740681152 -0.0014881299214948112 0 0.0065979961558544405 -0.001414633793015638 0 0.0066178343529722265 -0.0014199055897106323 0 0.0065979961558544405 -0.001414633793015638 0 0.0065828826971132603 -0.0013786830214703434 0 0.0066178343529722265 -0.0014199055897106323 0 0.0066429956740681152 -0.0014881299214948112 0 0.0065979961558544405 -0.001414633793015638 0 0.0065770899440157184 -0.0014411842612765825 0 0.0065854058050932307 -0.0013787261106424718 0 0.0065979961558544405 -0.001414633793015638 0 0.0065770899440157184 -0.0014411842612765825 0 0.0065854058050932307 -0.0013787261106424718 0 0.0065979961558544405 -0.001414633793015638 0 0.0065828826971132603 -0.0013786830214703434 0 0.0065299679019197674 -0.0013138558639964621 0 0.0065828826971132603 -0.0013786830214703434 0 0.0065794981743456478 -0.0013692100654857059 0 0.0065828826971132603 -0.0013786830214703434 0 0.0065794981743456478 -0.0013692100654857059 0 0.0066178343529722265 -0.0014199055897106323 0 0.006716208936319963 -0.0014854987920057332 0 0.0065794981743456478 -0.0013692100654857059 0 0.0066178343529722265 -0.0014199055897106323 0 0.006626668964816688 -0.0014156337426014663 0 0.006716208936319963 -0.0014854987920057332 0 0.0065794981743456478 -0.0013692100654857059 0 0.006540360571482013 -0.0013183993152123753 0 0.006626668964816688 -0.0014156337426014663 0 0.0065794981743456478 -0.0013692100654857059 0 0.00669864571072695 -0.0016744898495587551 0 0.0068531487386055186 -0.0015553539928152658 0 0.0069955225561678458 -0.0019249706871542524 0 0.0065991336504347825 -0.0018172439762308087 0 0.00669864571072695 -0.0016744898495587551 0 0.0067521335717510358 -0.0018791436189290781 0 0.00669864571072695 -0.0016744898495587551 0 0.0069955225561678458 -0.0019249706871542524 0 0.0067521335717510358 -0.0018791436189290781 0 0.0065994076173212122 -0.0015650467797824058 0 0.0066429956740681152 -0.0014881299214948112 0 0.00669864571072695 -0.0016744898495587551 0 0.0066429956740681152 -0.0014881299214948112 0 0.00669864571072695 -0.0016744898495587551 0 0.0068531487386055186 -0.0015553539928152658 0 0.0074084407889481807 -0.0014465863582119522 0 0.0068531487386055186 -0.0015553539928152658 0 0.0072145278707624726 -0.0017820612887904878 0 0.0074084407889481807 -0.0014465863582119522 0 0.0072145278707624726 -0.0017820612887904878 0 0.0075668273265458745 -0.0018678016539740621 0 0.0072145278707624726 -0.0017820612887904878 0 0.0073405974374668118 -0.0020318911522581285 0 0.0075668273265458745 -0.0018678016539740621 0 0.0068531487386055186 -0.0015553539928152658 0 0.0072145278707624726 -0.0017820612887904878 0 0.0069955225561678458 -0.0019249706871542524 0 0.0072145278707624726 -0.0017820612887904878 0 0.0073405974374668118 -0.0020318911522581285 0 0.0069955225561678458 -0.0019249706871542524 0 0.0073405974374668118 -0.0020318911522581285 0 0.0071110664402237629 -0.0022039156005085291 0 0.0069955225561678458 -0.0019249706871542524 0 0.0073405974374668118 -0.0020318911522581285 0 0.0074482684544792633 -0.0022562822626137464 0 0.0076812161943895906 -0.0021263491777615538 0 0.0073405974374668118 -0.0020318911522581285 0 0.0074482684544792633 -0.0022562822626137464 0 0.0071110664402237629 -0.0022039156005085291 0 0.0071110664402237629 -0.0022039156005085291 0 0.0069955225561678458 -0.0019249706871542524 0 0.0067230492832557574 -0.002114735017898503 0 0.0071110664402237629 -0.0022039156005085291 0 0.0067230492832557574 -0.002114735017898503 0 0.0069301547398133824 -0.0024381116802733491 0 0.0065991336504347825 -0.0018172439762308087 0 0.0067521335717510358 -0.0018791436189290781 0 0.0067230492832557574 -0.002114735017898503 0 0.0069955225561678458 -0.0019249706871542524 0 0.0067521335717510358 -0.0018791436189290781 0 0.0067230492832557574 -0.002114735017898503 0 0.0067433550762550087 -0.0024312299587856807 0 0.0068393930541714529 -0.0021495292447247347 0 0.0070114108032767481 -0.0024970656516156388 0 0.0067790586607723597 -0.0021288929877805274 0 0.0069705462980379704 -0.0024712880796398393 0 0.0071110664402237629 -0.0022039156005085291 0 0.0069301547398133824 -0.0024381116802733491 0 0.0072837907811450966 -0.0025002452141372833 0 0.0069301547398133824 -0.0024381116802733491 0 0.0071460551733291498 -0.0028274273723123563 0 0.0072837907811450966 -0.0025002452141372833 0 0.0069705462980379704 -0.0024712880796398393 0 0.0071361160956945327 -0.0028068118303118477 0 0.0067433550762550087 -0.0024312299587856807 0 0.0070114108032767481 -0.0024970656516156388 0 0.0068825649762188574 -0.0028028643148828919 0 0.0070114108032767481 -0.0024970656516156388 0 0.0068825649762188574 -0.0028028643148828919 0 0.0071460551733291498 -0.0028274273723123563 0 0.013788463639605205 -0.0019022399165694256 0 0.013826491269299915 -0.0020585681158731928 0 0.014202446060347788 -0.0021274847530209297 0 0.0068825649762188574 -0.0028028643148828919 0 0.0071460551733291498 -0.0028274273723123563 0 0.007124886192810596 -0.00304856511867962 0 0.010086202826423021 -0.0023226170450877165 0 0.010836339695389486 -0.0026394972518931996 0 0.0071460551733291498 -0.0028274273723123563 0 0.007124886192810596 -0.00304856511867962 0 0.0073702342097331048 -0.0029232208192796981 0 0.013826491269299915 -0.0020585681158731928 0 0.014227290467790766 -0.0022340699632041592 0 0.014202446060347788 -0.0021274847530209297 0 0.017557233913781889 -0.0015754552062260622 0 0.017519465140429555 -0.0016546495834456961 0 0.020987505371607373 -0.0010632273858497622 0 0.021088482705301431 -0.0011404680288200275 0 0.021023109274576512 -0.0011354856972426359 0 0.020890371744101705 -0.0011293887484306253 0 0.020987505371607373 -0.0010632273858497622 0 0.021023109274576512 -0.0011354856972426359 0 0.0078296143238777548 -0.0036569496489395727 0 0.0075950816388087698 -0.0026894760159909422 0 0.0086343826937784959 -0.0027792391357857726 0 0.007124886192810596 -0.00304856511867962 0 0.0078296143238777548 -0.0036569496489395727 0 0.0073702342097331048 -0.0029232208192796981 0 0.017519465140429555 -0.0016546495834456961 0 0.018431911190511012 -0.0018690821085669163 0 0.014227290467790766 -0.0022340699632041592 0 0.014202446060347788 -0.0021274847530209297 0 0.014620769726514739 -0.0023724186205844409 0 0.014227290467790766 -0.0022340699632041592 0 0.014620769726514739 -0.0023724186205844409 0 0.014632887274922931 -0.0024293106982615606 0 0.0078296143238777548 -0.0036569496489395727 0 0.0073702342097331048 -0.0029232208192796981 0 0.0075950816388087698 -0.0026894760159909422 0 0.010836339695389486 -0.0026394972518931996 0 0.010643529610497993 -0.0030033650988980486 0 0.0071460551733291498 -0.0028274273723123563 0 0.0073702342097331048 -0.0029232208192796981 0 0.0073403917853183363 -0.0027073142822046071 0 0.0073702342097331048 -0.0029232208192796981 0 0.0073403917853183363 -0.0027073142822046071 0 0.0075950816388087698 -0.0026894760159909422 0 0.0075950816388087698 -0.0026894760159909422 0 0.0076092260689424917 -0.0025403965843764104 0 0.0076828056072382207 -0.0026963985175375536 0 0.0078492935749938202 -0.0027202695201612513 0 0.0076346221566171591 -0.0026916285797304019 0 0.0075950816388087698 -0.0026894760159909422 0 0.0076092260689424917 -0.0025403965843764104 0 0.0072837907811450966 -0.0025002452141372833 0 0.0073403917853183363 -0.0027073142822046071 0 0.0075950816388087698 -0.0026894760159909422 0 0.0072837907811450966 -0.0025002452141372833 0 0.0071460551733291498 -0.0028274273723123563 0 0.0073403917853183363 -0.0027073142822046071 0 0.0072837907811450966 -0.0025002452141372833 0 0.0074482684544792633 -0.0022562822626137464 0 0.0071110664402237629 -0.0022039156005085291 0 0.0072837907811450966 -0.0025002452141372833 0 0.0074482684544792633 -0.0022562822626137464 0 0.0076092260689424917 -0.0025403965843764104 0 0.0072837907811450966 -0.0025002452141372833 0 0.0074482684544792633 -0.0022562822626137464 0 0.0076092260689424917 -0.0025403965843764104 0 0.007732192121329238 -0.0023894964618380765 0 0.007732192121329238 -0.0023894964618380765 0 0.007897629847612964 -0.0025054578220264781 0 0.0079342437138646155 -0.0022325026173365984 0 0.007732192121329238 -0.0023894964618380765 0 0.007897629847612964 -0.0025054578220264781 0 0.0077568012430904642 -0.002576954747713077 0 0.0076092260689424917 -0.0025403965843764104 0 0.007732192121329238 -0.0023894964618380765 0 0.0077568012430904642 -0.002576954747713077 0 0.0076092260689424917 -0.0025403965843764104 0 0.0077568012430904642 -0.002576954747713077 0 0.0076828056072382207 -0.0026963985175375536 0 0.0076346221566171591 -0.0026916285797304019 0 0.011718603144236308 -0.0019068730892158837 0 0.0077568012430904642 -0.002576954747713077 0 0.0076828056072382207 -0.0026963985175375536 0 0.0078750656026130589 -0.0027389631332174142 0 0.007897629847612964 -0.0025054578220264781 0 0.0077568012430904642 -0.002576954747713077 0 0.0078750656026130589 -0.0027389631332174142 0 0.0080378709796726372 -0.0016578408107326642 0 0.011718603144236308 -0.0019068730892158837 0 0.0089767666585470508 -0.00067653867385244451 0 0.0089180788413706046 -0.0010783020834322613 0 0.0091298184489342956 -0.0009248403404611376 0 0.0097002320333626438 -0.0029712195014708516 0 0.0089337985875661708 -0.0036354758127701494 0 0.009464001142097226 -0.0045084246118346615 0 0.0078296143238777548 -0.0036569496489395727 0 0.0086343826937784959 -0.0027792391357857726 0 0.0089337985875661708 -0.0036354758127701494 0 0.0086343826937784959 -0.0027792391357857726 0 0.0097002320333626438 -0.0029712195014708516 0 0.0089337985875661708 -0.0036354758127701494 0 0.019761805246789371 -0.0017140040188546874 0 0.020142239412372514 -0.0018668315087767384 0 0.020001858181650314 -0.001953969716330866 0 0.0089180788413706046 -0.0010783020834322613 0 0.0093089064310078688 -0.0012049943377801071 0 0.0091298184489342956 -0.0009248403404611376 0 0.011718603144236308 -0.0019068730892158837 0 0.015279608858641561 -0.0015368973157893733 0 0.0093089064310078688 -0.0012049943377801071 0 0.0091298184489342956 -0.0009248403404611376 0 0.009319942491366499 -0.00076943440613954479 0 0.0093089064310078688 -0.0012049943377801071 0 0.009319942491366499 -0.00076943440613954479 0 0.0095831548623892537 -0.00095310610820370924 0 0.0089767666585470508 -0.00067653867385244451 0 0.0091298184489342956 -0.0009248403404611376 0 0.009319942491366499 -0.00076943440613954479 0 0.0089767666585470508 -0.00067653867385244451 0 0.009319942491366499 -0.00076943440613954479 0 0.0093059163331050028 -0.00039595596735003279 0 0.0089767666585470508 -0.00067653867385244451 0 0.0093059163331050028 -0.00039595596735003279 0 0.0090756367959844344 -0.00032218388287771487 0 0.0080378709796726372 -0.0016578408107326642 0 0.0085548150562388299 -0.0012596877064044683 0 0.009319942491366499 -0.00076943440613954479 0 0.0093059163331050028 -0.00039595596735003279 0 0.0096058353518441494 -0.00048465082368734353 0 0.009167991492392032 -0.00013708168576911781 0 0.0090756367959844344 -0.00032218388287771487 0 0.009358547279802943 -0.00014680409178339802 0 0.0093059163331050028 -0.00039595596735003279 0 0.0090756367959844344 -0.00032218388287771487 0 0.009358547279802943 -0.00014680409178339802 0 0.009167991492392032 -0.00013708168576911781 0 0.0092275253252291911 -0.00012686014149576466 0 0.009358547279802943 -0.00014680409178339802 0 0.0085623187965771334 -0.0010490008778554702 0 0.0085548150562388299 -0.0012596877064044683 0 0.0079736470632491303 -0.0019374453865777799 0 0.0076812161943895906 -0.0021263491777615538 0 0.0075668273265458745 -0.0018678016539740621 0 0.007732192121329238 -0.0023894964618380765 0 0.0079342437138646155 -0.0022325026173365984 0 0.0076812161943895906 -0.0021263491777615538 0 0.0079736470632491303 -0.0019374453865777799 0 0.0079342437138646155 -0.0022325026173365984 0 0.0076812161943895906 -0.0021263491777615538 0 0.0074482684544792633 -0.0022562822626137464 0 0.007732192121329238 -0.0023894964618380765 0 0.0076812161943895906 -0.0021263491777615538 0 0.0073405974374668118 -0.0020318911522581285 0 0.0076812161943895906 -0.0021263491777615538 0 0.0075668273265458745 -0.0018678016539740621 0 0.0079736470632491303 -0.0019374453865777799 0 0.0075668273265458745 -0.0018678016539740621 0 0.0077746031134014442 -0.0016620816470930416 0 0.0074084407889481807 -0.0014465863582119522 0 0.0075668273265458745 -0.0018678016539740621 0 0.0077746031134014442 -0.0016620816470930416 0 0.0079470569305748508 -0.0015593783182179094 0 0.0077746031134014442 -0.0016620816470930416 0 0.0080040854722150251 -0.0016693110248446907 0 0.0091914333465110565 -0.00020543360024570024 0 0.0092275253252291911 -0.00012686014149576466 0 0.0090837903821022626 -0.0002866789272287068 0 0.009167991492392032 -0.00013708168576911781 0 0.0091914333465110565 -0.00020543360024570024 0 0.0092275253252291911 -0.00012686014149576466 0 0.0085623187965771334 -0.0010490008778554702 0 0.008595537828067901 -0.00094043686466195923 0 0.0079736470632491303 -0.0019374453865777799 0 0.0077746031134014442 -0.0016620816470930416 0 0.0080040854722150251 -0.0016693110248446907 0 0.0093455632222019438 2.6647394499415662e-05 0 0.0092275253252291911 -0.00012686014149576466 0 0.0091745960864099141 -0.00019947681208524077 0 0.0092275253252291911 -0.00012686014149576466 0 0.0090837903821022626 -0.0002866789272287068 0 0.0091745960864099141 -0.00019947681208524077 0 0.0090791061914021563 -0.00033436757927771924 0 0.0090837903821022626 -0.0002866789272287068 0 0.0091745960864099141 -0.00019947681208524077 0 0.0090791061914021563 -0.00033436757927771924 0 0.0093455632222019438 2.6647394499415662e-05 0 0.0091745960864099141 -0.00019947681208524077 0 0.0093455632222019438 2.6647394499415662e-05 0 0.0089770804702936167 -0.00021904915841404815 0 0.0088411123964878165 0.0002441835601483192 0 0.0089770804702936167 -0.00021904915841404815 0 0.0088411123964878165 0.0002441835601483192 0 0.008609796685859275 7.9599069587199658e-05 0 0.0090791061914021563 -0.00033436757927771924 0 0.0093455632222019438 2.6647394499415662e-05 0 0.0089770804702936167 -0.00021904915841404815 0 0.008610912199624135 -0.00035537796791056911 0 0.0089770804702936167 -0.00021904915841404815 0 0.008609796685859275 7.9599069587199658e-05 0 0.009398763496131118 3.5377990744268943e-05 0 0.0095637221484382671 0.00014937123918941814 0 0.0093455632222019438 2.6647394499415662e-05 0 0.01025524168051728 0.00011252433314697128 0 0.0097101406419260322 -0.00014348535755711095 0 0.01025524168051728 0.00011252433314697128 0 0.010240708852997306 -0.00038260746927196778 0 0.011083355620366038 -5.800353604003739e-05 0 0.01025524168051728 0.00011252433314697128 0 0.0097101406419260322 -0.00014348535755711095 0 0.010240708852997306 -0.00038260746927196778 0 0.0097101406419260322 -0.00014348535755711095 0 0.009358547279802943 -0.00014680409178339802 0 0.0096058353518441494 -0.00048465082368734353 0 0.0093455632222019438 2.6647394499415662e-05 0 0.0097101406419260322 -0.00014348535755711095 0 0.009358547279802943 -0.00014680409178339802 0 0.0093455632222019438 2.6647394499415662e-05 0 0.0092275253252291911 -0.00012686014149576466 0 0.009358547279802943 -0.00014680409178339802 0 0.0097101406419260322 -0.00014348535755711095 0 0.0096058353518441494 -0.00048465082368734353 0 0.010240708852997306 -0.00038260746927196778 0 0.0093059163331050028 -0.00039595596735003279 0 0.009358547279802943 -0.00014680409178339802 0 0.0096058353518441494 -0.00048465082368734353 0 0.0096058353518441494 -0.00048465082368734353 0 0.0099916652897443156 -0.00093881872174487156 0 0.010240708852997306 -0.00038260746927196778 0 0.0096058353518441494 -0.00048465082368734353 0 0.0095831548623892537 -0.00095310610820370924 0 0.0099916652897443156 -0.00093881872174487156 0 0.009319942491366499 -0.00076943440613954479 0 0.0096058353518441494 -0.00048465082368734353 0 0.0095831548623892537 -0.00095310610820370924 0 0.0095831548623892537 -0.00095310610820370924 0 0.0099916652897443156 -0.00093881872174487156 0 0.009742452243635338 -0.0014004791370226292 0 0.0099916652897443156 -0.00093881872174487156 0 0.009742452243635338 -0.0014004791370226292 0 0.010305518053162417 -0.0016296504052475222 0 0.015279608858641561 -0.0015368973157893733 0 0.014875915513698511 -0.0017531768544986435 0 0.0093089064310078688 -0.0012049943377801071 0 0.0095831548623892537 -0.00095310610820370924 0 0.009742452243635338 -0.0014004791370226292 0 0.0099916652897443156 -0.00093881872174487156 0 0.010544094765232544 -0.0012284365752489115 0 0.010305518053162417 -0.0016296504052475222 0 0.0099916652897443156 -0.00093881872174487156 0 0.010544094765232544 -0.0012284365752489115 0 0.010465799758518711 -0.00076981926236392554 0 0.010544094765232544 -0.0012284365752489115 0 0.010465799758518711 -0.00076981926236392554 0 0.011044935142133566 -0.0010196665414342499 0 0.010465799758518711 -0.00076981926236392554 0 0.010240708852997306 -0.00038260746927196778 0 0.011084519229879707 -0.00048938158866601708 0 0.0099916652897443156 -0.00093881872174487156 0 0.010465799758518711 -0.00076981926236392554 0 0.010240708852997306 -0.00038260746927196778 0 0.010240708852997306 -0.00038260746927196778 0 0.011083355620366038 -5.800353604003739e-05 0 0.011084519229879707 -0.00048938158866601708 0 0.0098994901553911361 6.951972564779753e-05 0 0.010546557373585896 -0.000178968840448118 0 0.011083355620366038 -5.800353604003739e-05 0 0.011084519229879707 -0.00048938158866601708 0 0.011815209240551417 -0.00040496974830369779 0 0.011084519229879707 -0.00048938158866601708 0 0.01169388796520541 -0.00051241630408809034 0 0.011815209240551417 -0.00040496974830369779 0 0.011084519229879707 -0.00048938158866601708 0 0.011044935142133566 -0.0010196665414342499 0 0.01169388796520541 -0.00051241630408809034 0 0.010465799758518711 -0.00076981926236392554 0 0.011084519229879707 -0.00048938158866601708 0 0.011044935142133566 -0.0010196665414342499 0 0.011044935142133566 -0.0010196665414342499 0 0.01169388796520541 -0.00051241630408809034 0 0.011772585524679314 -0.0013822684352367213 0 0.011789536983615418 -0.00054385599338364204 0 0.011650509607004257 -0.00054846541161946273 0 0.011044935142133566 -0.0010196665414342499 0 0.011772585524679314 -0.0013822684352367213 0 0.011030377461842805 -0.0018956538556346024 0 0.010544094765232544 -0.0012284365752489115 0 0.011044935142133566 -0.0010196665414342499 0 0.011030377461842805 -0.0018956538556346024 0 0.0123984227802608 6.3011794768338194e-07 0 0.011896800640877486 1.8489787694826099e-05 0 0.011257505836788501 -4.7235193870248093e-05 0 0.0123984227802608 6.3011794768338194e-07 0 0.011896800640877486 1.8489787694826099e-05 0 0.012326169772032164 5.036024110130957e-05 0 0.012066915129609845 3.8122350998282988e-05 0 0.011921356797285803 -5.8139372004791833e-05 0 0.012326169772032164 5.036024110130957e-05 0 0.011896800640877486 1.8489787694826099e-05 0 0.011921356797285803 -5.8139372004791833e-05 0 0.012326169772032164 5.036024110130957e-05 0 0.01169388796520541 -0.00051241630408809034 0 0.011921356797285803 -5.8139372004791833e-05 0 0.011772266946113505 -0.00019664604554492257 0 0.011772266946113505 -0.00019664604554492257 0 0.011257505836788501 -4.7235193870248093e-05 0 0.011815209240551417 -0.00040496974830369779 0 0.011896800640877486 1.8489787694826099e-05 0 0.011921356797285803 -5.8139372004791833e-05 0 0.011772266946113505 -0.00019664604554492257 0 0.01169388796520541 -0.00051241630408809034 0 0.012066915129609845 3.8122350998282988e-05 0 0.011921356797285803 -5.8139372004791833e-05 0 0.011896800640877486 1.8489787694826099e-05 0 0.011772266946113505 -0.00019664604554492257 0 0.011257505836788501 -4.7235193870248093e-05 0 0.0123984227802608 6.3011794768338194e-07 0 0.010942152763394565 -8.9332022496172806e-07 0 0.011257505836788501 -4.7235193870248093e-05 0 0.010942152763394565 -8.9332022496172806e-07 0 0.011257505836788501 -4.7235193870248093e-05 0 0.0092690905509675882 -6.3895047271418073e-05 0 0.010942152763394565 -8.9332022496172806e-07 0 0.0092690905509675882 -6.3895047271418073e-05 0 0.0094871932619411351 5.0627247911951342e-07 0 0.011129430093214675 -7.3489509794541624e-05 0 0.010546557373585896 -0.000178968840448118 0 0.01169388796520541 -0.00051241630408809034 0 0.011772266946113505 -0.00019664604554492257 0 0.011815209240551417 -0.00040496974830369779 0 0.0086806543962957994 0.0002324809674186138 0 0.0092690905509675882 -6.3895047271418073e-05 0 0.0089025015968508762 0.00017092618875688735 0 0.0092690905509675882 -6.3895047271418073e-05 0 0.0094871932619411351 5.0627247911951342e-07 0 0.0089025015968508762 0.00017092618875688735 0 0.0094871932619411351 5.0627247911951342e-07 0 0.008031691706206481 8.6484845960339937e-07 0 0.0089025015968508762 0.00017092618875688735 0 0.008031691706206481 8.6484845960339937e-07 0 0.0084400613455533607 0.00018681141505826968 0 0.0089025015968508762 0.00017092618875688735 0 0.0088411123964878165 0.0002441835601483192 0 0.0086806543962957994 0.0002324809674186138 0 0.008609796685859275 7.9599069587199658e-05 0 0.0086806543962957994 0.0002324809674186138 0 0.0084400613455533607 0.00018681141505826968 0 0.0089025015968508762 0.00017092618875688735 0 0.0086806543962957994 0.0002324809674186138 0 0.0084400613455533607 0.00018681141505826968 0 0.008609796685859275 7.9599069587199658e-05 0 0.0095637221484382671 0.00014937123918941814 0 0.0098994901553911361 6.951972564779753e-05 0 0.0084400613455533607 0.00018681141505826968 0 0.008609796685859275 7.9599069587199658e-05 0 0.0082593458808000401 -8.5385258011636656e-05 0 0.0082426675715589464 -0.00052388410994671673 0 0.008610912199624135 -0.00035537796791056911 0 0.0082593458808000401 -8.5385258011636656e-05 0 0.008610912199624135 -0.00035537796791056911 0 0.008609796685859275 7.9599069587199658e-05 0 0.0082593458808000401 -8.5385258011636656e-05 0 0.0076375697115243953 -0.00064727066866950532 0 0.0082593458808000401 -8.5385258011636656e-05 0 0.0077056059140878158 0.00010123833427119053 0 0.0076375697115243953 -0.00064727066866950532 0 0.0065794214883007568 -1.3475740211508143e-06 0 0.0077056059140878158 0.00010123833427119053 0 0.008031691706206481 8.6484845960339937e-07 0 0.0065794214883007568 -1.3475740211508143e-06 0 0.0077056059140878158 0.00010123833427119053 0 0.008031691706206481 8.6484845960339937e-07 0 0.0084400613455533607 0.00018681141505826968 0 0.0077056059140878158 0.00010123833427119053 0 0.0084400613455533607 0.00018681141505826968 0 0.0082593458808000401 -8.5385258011636656e-05 0 0.0077056059140878158 0.00010123833427119053 0 0.018722210091317793 -1.1795594980458556e-05 0 0.017860073867483523 -1.5224423558189482e-05 0 0.018150316390456517 -0.00018681066140278531 0 0.018722210091317793 -1.1795594980458556e-05 0 0.017860073867483523 -1.5224423558189482e-05 0 0.0179199988357659 1.3516394699453968e-07 0 0.017860073867483523 -1.5224423558189482e-05 0 0.0179199988357659 1.3516394699453968e-07 0 0.01656460034920439 -2.3459014945862614e-07 0 0.018722210091317793 -1.1795594980458556e-05 0 0.0179199988357659 1.3516394699453968e-07 0 0.019393948678888686 7.241914124652397e-05 0 0.0179199988357659 1.3516394699453968e-07 0 0.019393948678888686 7.241914124652397e-05 0 0.01927501626416725 1.9657549411640693e-07 0 0.018722210091317793 -1.1795594980458556e-05 0 0.019756643408428507 -9.0361028127129868e-06 0 0.019393948678888686 7.241914124652397e-05 0 0.018722210091317793 -1.1795594980458556e-05 0 0.019274041737964032 -0.00014635256673308427 0 0.019756643408428507 -9.0361028127129868e-06 0 0.020051160859938022 -0.00017264856520959445 0 0.019274041737964032 -0.00014635256673308427 0 0.019756643408428507 -9.0361028127129868e-06 0 0.019748994326428904 -0.00030737647953804062 0 0.019274041737964032 -0.00014635256673308427 0 0.019141802111643694 -0.00038693027158911877 0 0.020051160859938022 -0.00017264856520959445 0 0.019748994326428904 -0.00030737647953804062 0 0.019274041737964032 -0.00014635256673308427 0 0.018722210091317793 -1.1795594980458556e-05 0 0.019274041737964032 -0.00014635256673308427 0 0.018150316390456517 -0.00018681066140278531 0 0.019141802111643694 -0.00038693027158911877 0 0.018537450606376141 -0.00051650984115073637 0 0.018150316390456517 -0.00018681066140278531 0 0.019274041737964032 -0.00014635256673308427 0 0.019141802111643694 -0.00038693027158911877 0 0.018150316390456517 -0.00018681066140278531 0 0.019748994326428904 -0.00030737647953804062 0 0.019141802111643694 -0.00038693027158911877 0 0.019997906229421665 -0.00052021434728073712 0 0.019141802111643694 -0.00038693027158911877 0 0.019426839212267857 -0.00073560844175215114 0 0.019997906229421665 -0.00052021434728073712 0 0.019141802111643694 -0.00038693027158911877 0 0.019426839212267857 -0.00073560844175215114 0 0.018537450606376141 -0.00051650984115073637 0 0.019426839212267857 -0.00073560844175215114 0 0.018537450606376141 -0.00051650984115073637 0 0.018907921647888994 -0.0011499710291146758 0 0.019426839212267857 -0.00073560844175215114 0 0.018907921647888994 -0.0011499710291146758 0 0.019552364001763922 -0.0011317977646451843 0 0.018537450606376141 -0.00051650984115073637 0 0.017285305595244254 -0.00045612593218943387 0 0.018150316390456517 -0.00018681066140278531 0 0.018537450606376141 -0.00051650984115073637 0 0.017285305595244254 -0.00045612593218943387 0 0.018907921647888994 -0.0011499710291146758 0 0.017285305595244254 -0.00045612593218943387 0 0.018150316390456517 -0.00018681066140278531 0 0.01656460034920439 -2.3459014945862614e-07 0 0.017860073867483523 -1.5224423558189482e-05 0 0.018150316390456517 -0.00018681066140278531 0 0.01656460034920439 -2.3459014945862614e-07 0 0.017285305595244254 -0.00045612593218943387 0 0.01656460034920439 -2.3459014945862614e-07 0 0.015209452819251767 1.3388572951789443e-07 0 0.017285305595244254 -0.00045612593218943387 0 0.015209452819251767 1.3388572951789443e-07 0 0.015401957406875534 -0.0001237663093326385 0 0.017285305595244254 -0.00045612593218943387 0 0.016113609085119315 -0.00022172839851985422 0 0.015401957406875534 -0.0001237663093326385 0 0.017149458024279536 -0.00036514239269371521 0 0.017219302645415442 -0.00098175589067380138 0 0.016113609085119315 -0.00022172839851985422 0 0.015401957406875534 -0.0001237663093326385 0 0.015391114736998786 -0.00079051097677447957 0 0.015209452819251767 1.3388572951789443e-07 0 0.015401957406875534 -0.0001237663093326385 0 0.013855742523050444 -2.2203696310691209e-06 0 0.013851145745363625 -1.1563884763776037e-06 0 0.012670106190297709 -0.00026588445910861016 0 0.012326169772032164 5.036024110130957e-05 0 0.015401957406875534 -0.0001237663093326385 0 0.013855742523050444 -2.2203696310691209e-06 0 0.015391114736998786 -0.00079051097677447957 0 0.013853467361743046 -3.1239831318420551e-07 0 0.0139292223391238 -0.00043928795682882278 0 0.017219302645415442 -0.00098175589067380138 0 0.01452977767594564 -0.0015508289702245079 0 0.012670106190297709 -0.00026588445910861016 0 0.012326169772032164 5.036024110130957e-05 0 0.012211124996055192 -0.00017697733574401918 0 0.016113609085119315 -0.00022172839851985422 0 0.015391114736998786 -0.00079051097677447957 0 0.016031097695250705 -0.00098090125855640952 0 0.0139292223391238 -0.00043928795682882278 0 0.01452977767594564 -0.0015508289702245079 0 0.012066915129609845 3.8122350998282988e-05 0 0.012326169772032164 5.036024110130957e-05 0 0.012211124996055192 -0.00017697733574401918 0 0.0123984227802608 6.3011794768338194e-07 0 0.013851145745363625 -1.1563884763776037e-06 0 0.012326169772032164 5.036024110130957e-05 0 0.011650509607004257 -0.00054846541161946273 0 0.01452977767594564 -0.0015508289702245079 0 0.011772585524679314 -0.0013822684352367213 0 0.011030377461842805 -0.0018956538556346024 0 0.011875992884850875 -0.0021178841122481383 0 0.017800970660676287 -0.0017031925108471548 0 0.018023939414842295 -0.0024806767518203614 0 0.018814853456882913 -0.0019731702961964226 0 0.015142882832690274 -0.0023112607149453723 0 0.01452977767594564 -0.0015508289702245079 0 0.01907047711954906 -0.0025352139702622721 0 0.018023939414842295 -0.0024806767518203614 0 0.018814853456882913 -0.0019731702961964226 0 0.01907047711954906 -0.0025352139702622721 0 0.018814853456882913 -0.0019731702961964226 0 0.019674850666579313 -0.0020980389629519356 0 0.018814853456882913 -0.0019731702961964226 0 0.018907921647888994 -0.0011499710291146758 0 0.019497278243254357 -0.0015726012097565917 0 0.017800970660676287 -0.0017031925108471548 0 0.018814853456882913 -0.0019731702961964226 0 0.018907921647888994 -0.0011499710291146758 0 0.017285305595244254 -0.00045612593218943387 0 0.017800970660676287 -0.0017031925108471548 0 0.018907921647888994 -0.0011499710291146758 0 0.018907921647888994 -0.0011499710291146758 0 0.019552364001763922 -0.0011317977646451843 0 0.019497278243254357 -0.0015726012097565917 0 0.019552364001763922 -0.0011317977646451843 0 0.019895965636508299 -0.0012975820071529079 0 0.019945240693808014 -0.00092608276050069633 0 0.019552364001763922 -0.0011317977646451843 0 0.019895965636508299 -0.0012975820071529079 0 0.019497278243254357 -0.0015726012097565917 0 0.020157784429860617 -0.0011269862890107714 0 0.019895965636508299 -0.0012975820071529079 0 0.020220837436449385 -0.0013753545923422547 0 0.020157784429860617 -0.0011269862890107714 0 0.019895965636508299 -0.0012975820071529079 0 0.019945240693808014 -0.00092608276050069633 0 0.019895965636508299 -0.0012975820071529079 0 0.019943451777693209 -0.0016387861555874743 0 0.020220837436449385 -0.0013753545923422547 0 0.019943451777693209 -0.0016387861555874743 0 0.019674850666579313 -0.0020980389629519356 0 0.020095101767509699 -0.0018862936840296923 0 0.019943451777693209 -0.0016387861555874743 0 0.020190308743064538 -0.0016479185376831722 0 0.020220837436449385 -0.0013753545923422547 0 0.019943451777693209 -0.0016387861555874743 0 0.020095101767509699 -0.0018862936840296923 0 0.020190308743064538 -0.0016479185376831722 0 0.019943451777693209 -0.0016387861555874743 0 0.019497278243254357 -0.0015726012097565917 0 0.019674850666579313 -0.0020980389629519356 0 0.019895965636508299 -0.0012975820071529079 0 0.019943451777693209 -0.0016387861555874743 0 0.019497278243254357 -0.0015726012097565917 0 0.018814853456882913 -0.0019731702961964226 0 0.019497278243254357 -0.0015726012097565917 0 0.019674850666579313 -0.0020980389629519356 0 0.019674850666579313 -0.0020980389629519356 0 0.020095101767509699 -0.0018862936840296923 0 0.020079234466090602 -0.0021441127629139656 0 0.019674850666579313 -0.0020980389629519356 0 0.019878399634407802 -0.0023897269310900744 0 0.020079234466090602 -0.0021441127629139656 0 0.015142882832690274 -0.0023112607149453723 0 0.015078308462357505 -0.001993254419213897 0 0.010544094765232544 -0.0012284365752489115 0 0.011030377461842805 -0.0018956538556346024 0 0.010305518053162417 -0.0016296504052475222 0 0.01907047711954906 -0.0025352139702622721 0 0.019674850666579313 -0.0020980389629519356 0 0.019878399634407802 -0.0023897269310900744 0 0.020271357396779415 -0.002122328855721277 0 0.020269377643422872 -0.0020206207430651297 0 0.020318217360799761 -0.0020259098680587119 0 0.020271357396779415 -0.002122328855721277 0 0.020318217360799761 -0.0020259098680587119 0 0.020221916305628546 -0.002014304834959671 0 0.014875915513698511 -0.0017531768544986435 0 0.015078308462357505 -0.001993254419213897 0 0.020271357396779415 -0.002122328855721277 0 0.020269377643422872 -0.0020206207430651297 0 0.020079234466090602 -0.0021441127629139656 0 0.020271357396779415 -0.002122328855721277 0 0.019878399634407802 -0.0023897269310900744 0 0.020079234466090602 -0.0021441127629139656 0 0.020095101767509699 -0.0018862936840296923 0 0.020269377643422872 -0.0020206207430651297 0 0.020079234466090602 -0.0021441127629139656 0 0.020095101767509699 -0.0018862936840296923 0 0.020269377643422872 -0.0020206207430651297 0 0.020293641678427673 -0.0017955331649201639 0 0.020269377643422872 -0.0020206207430651297 0 0.020383406678087038 -0.0019007305154867596 0 0.020293641678427673 -0.0017955331649201639 0 0.020383406678087038 -0.0019007305154867596 0 0.020365020879354843 -0.0019495255129703467 0 0.020495956662984927 -0.0017613976220797942 0 0.020269377643422872 -0.0020206207430651297 0 0.020383406678087038 -0.0019007305154867596 0 0.020318217360799761 -0.0020259098680587119 0 0.020318217360799761 -0.0020259098680587119 0 0.020365020879354843 -0.0019495255129703467 0 0.020279677212127374 -0.0020353307683916798 0 0.020383406678087038 -0.0019007305154867596 0 0.020318217360799761 -0.0020259098680587119 0 0.020365020879354843 -0.0019495255129703467 0 0.020383406678087038 -0.0019007305154867596 0 0.020402466196280052 -0.0017218768638407309 0 0.020495956662984927 -0.0017613976220797942 0 0.020402466196280052 -0.0017218768638407309 0 0.020495956662984927 -0.0017613976220797942 0 0.020525045165777172 -0.0015571067979237969 0 0.020495956662984927 -0.0017613976220797942 0 0.020525045165777172 -0.0015571067979237969 0 0.020623282564622616 -0.0015935410088496614 0 0.020402466196280052 -0.0017218768638407309 0 0.020525045165777172 -0.0015571067979237969 0 0.020379069602521803 -0.0015274179079839609 0 0.020525045165777172 -0.0015571067979237969 0 0.020379069602521803 -0.0015274179079839609 0 0.020625477626619367 -0.0013393665198483706 0 0.020756305612163153 -0.0014374153947277605 0 0.020623282564622616 -0.0015935410088496614 0 0.020807834545541026 -0.0014767957607504524 0 0.020671526699731865 -0.0014426081981091265 0 0.020756305612163153 -0.0014374153947277605 0 0.020623282564622616 -0.0015935410088496614 0 0.020525045165777172 -0.0015571067979237969 0 0.020671526699731865 -0.0014426081981091265 0 0.020623282564622616 -0.0015935410088496614 0 0.020095101767509699 -0.0018862936840296923 0 0.020293641678427673 -0.0017955331649201639 0 0.020190308743064538 -0.0016479185376831722 0 0.020383406678087038 -0.0019007305154867596 0 0.020402466196280052 -0.0017218768638407309 0 0.020293641678427673 -0.0017955331649201639 0 0.020402466196280052 -0.0017218768638407309 0 0.020293641678427673 -0.0017955331649201639 0 0.020379069602521803 -0.0015274179079839609 0 0.020293641678427673 -0.0017955331649201639 0 0.020379069602521803 -0.0015274179079839609 0 0.020190308743064538 -0.0016479185376831722 0 0.020379069602521803 -0.0015274179079839609 0 0.020190308743064538 -0.0016479185376831722 0 0.020220837436449385 -0.0013753545923422547 0 0.020379069602521803 -0.0015274179079839609 0 0.020438845696005469 -0.0013114262295470373 0 0.020625477626619367 -0.0013393665198483706 0 0.020379069602521803 -0.0015274179079839609 0 0.020220837436449385 -0.0013753545923422547 0 0.020438845696005469 -0.0013114262295470373 0 0.020438845696005469 -0.0013114262295470373 0 0.020399918014872166 -0.001144336387367794 0 0.020572978670414754 -0.001171076553687371 0 0.020157784429860617 -0.0011269862890107714 0 0.020220837436449385 -0.0013753545923422547 0 0.020399918014872166 -0.001144336387367794 0 0.020220837436449385 -0.0013753545923422547 0 0.020438845696005469 -0.0013114262295470373 0 0.020399918014872166 -0.001144336387367794 0 0.020671526699731865 -0.0014426081981091265 0 0.020625477626619367 -0.0013393665198483706 0 0.020800318737577515 -0.0013196159809668426 0 0.020625477626619367 -0.0013393665198483706 0 0.02079164126275931 -0.0011537605044660431 0 0.020800318737577515 -0.0013196159809668426 0 0.020671526699731865 -0.0014426081981091265 0 0.020756305612163153 -0.0014374153947277605 0 0.020800318737577515 -0.0013196159809668426 0 0.020525045165777172 -0.0015571067979237969 0 0.020671526699731865 -0.0014426081981091265 0 0.020625477626619367 -0.0013393665198483706 0 0.020438845696005469 -0.0013114262295470373 0 0.020625477626619367 -0.0013393665198483706 0 0.020572978670414754 -0.001171076553687371 0 0.020625477626619367 -0.0013393665198483706 0 0.020572978670414754 -0.001171076553687371 0 0.02079164126275931 -0.0011537605044660431 0 0.02079164126275931 -0.0011537605044660431 0 0.02070023449067359 -0.0010227406436579753 0 0.020837164048923679 -0.00096242330907079989 0 0.020572978670414754 -0.001171076553687371 0 0.02070023449067359 -0.0010227406436579753 0 0.020561111865631553 -0.001015433090055466 0 0.020572978670414754 -0.001171076553687371 0 0.02079164126275931 -0.0011537605044660431 0 0.02070023449067359 -0.0010227406436579753 0 0.02070023449067359 -0.0010227406436579753 0 0.020837164048923679 -0.00096242330907079989 0 0.020713956692174809 -0.0008458056750476992 0 0.02070023449067359 -0.0010227406436579753 0 0.020713956692174809 -0.0008458056750476992 0 0.020561111865631553 -0.001015433090055466 0 0.020837164048923679 -0.00096242330907079989 0 0.020880594552115293 -0.00078743824700266204 0 0.020713956692174809 -0.0008458056750476992 0 0.020880594552115293 -0.00078743824700266204 0 0.020713956692174809 -0.0008458056750476992 0 0.020888402667778617 -0.0005966872412187283 0 0.020713956692174809 -0.0008458056750476992 0 0.020599106058836327 -0.00068362410641274512 0 0.020888402667778617 -0.0005966872412187283 0 0.020713956692174809 -0.0008458056750476992 0 0.020599106058836327 -0.00068362410641274512 0 0.020401816802447181 -0.00091134505394401379 0 0.020713956692174809 -0.0008458056750476992 0 0.020401816802447181 -0.00091134505394401379 0 0.020561111865631553 -0.001015433090055466 0 0.020399918014872166 -0.001144336387367794 0 0.020572978670414754 -0.001171076553687371 0 0.020561111865631553 -0.001015433090055466 0 0.020157784429860617 -0.0011269862890107714 0 0.020399918014872166 -0.001144336387367794 0 0.020401816802447181 -0.00091134505394401379 0 0.020399918014872166 -0.001144336387367794 0 0.020401816802447181 -0.00091134505394401379 0 0.020561111865631553 -0.001015433090055466 0 0.020157784429860617 -0.0011269862890107714 0 0.020401816802447181 -0.00091134505394401379 0 0.019945240693808014 -0.00092608276050069633 0 0.020401816802447181 -0.00091134505394401379 0 0.019945240693808014 -0.00092608276050069633 0 0.020292333381480933 -0.00071021978445777283 0 0.019426839212267857 -0.00073560844175215114 0 0.019945240693808014 -0.00092608276050069633 0 0.019997906229421665 -0.00052021434728073712 0 0.019426839212267857 -0.00073560844175215114 0 0.019552364001763922 -0.0011317977646451843 0 0.019945240693808014 -0.00092608276050069633 0 0.019945240693808014 -0.00092608276050069633 0 0.019997906229421665 -0.00052021434728073712 0 0.020292333381480933 -0.00071021978445777283 0 0.019997906229421665 -0.00052021434728073712 0 0.020292333381480933 -0.00071021978445777283 0 0.020651484946216731 -0.0005041080204022017 0 0.020599106058836327 -0.00068362410641274512 0 0.020292333381480933 -0.00071021978445777283 0 0.020651484946216731 -0.0005041080204022017 0 0.020599106058836327 -0.00068362410641274512 0 0.020401816802447181 -0.00091134505394401379 0 0.020292333381480933 -0.00071021978445777283 0 0.019997906229421665 -0.00052021434728073712 0 0.020651484946216731 -0.0005041080204022017 0 0.020350254101594037 -0.00034761811196700707 0 0.020051160859938022 -0.00017264856520959445 0 0.019748994326428904 -0.00030737647953804062 0 0.020350254101594037 -0.00034761811196700707 0 0.019748994326428904 -0.00030737647953804062 0 0.019997906229421665 -0.00052021434728073712 0 0.020350254101594037 -0.00034761811196700707 0 0.020051160859938022 -0.00017264856520959445 0 0.020350254101594037 -0.00034761811196700707 0 0.020800537125586941 -0.0002842705045472816 0 0.020350254101594037 -0.00034761811196700707 0 0.020817967155780121 -0.00039857002429240267 0 0.020800537125586941 -0.0002842705045472816 0 0.020651484946216731 -0.0005041080204022017 0 0.020817967155780121 -0.00039857002429240267 0 0.021089263356151768 -0.00047077720517814788 0 0.020817967155780121 -0.00039857002429240267 0 0.021168972231982913 -0.00043148626171481586 0 0.020800537125586941 -0.0002842705045472816 0 0.020651484946216731 -0.0005041080204022017 0 0.020350254101594037 -0.00034761811196700707 0 0.020817967155780121 -0.00039857002429240267 0 0.020817967155780121 -0.00039857002429240267 0 0.021089263356151768 -0.00047077720517814788 0 0.021168972231982913 -0.00043148626171481586 0 0.021089263356151768 -0.00047077720517814788 0 0.020888402667778617 -0.0005966872412187283 0 0.021009708461600676 -0.00052553146162194009 0 0.021089263356151768 -0.00047077720517814788 0 0.021009708461600676 -0.00052553146162194009 0 0.021570006886808834 -0.00053538643200560609 0 0.020888402667778617 -0.0005966872412187283 0 0.020985103348073787 -0.00068883202067133434 0 0.021009708461600676 -0.00052553146162194009 0 0.020880594552115293 -0.00078743824700266204 0 0.020888402667778617 -0.0005966872412187283 0 0.020985103348073787 -0.00068883202067133434 0 0.020651484946216731 -0.0005041080204022017 0 0.021089263356151768 -0.00047077720517814788 0 0.020888402667778617 -0.0005966872412187283 0 0.020599106058836327 -0.00068362410641274512 0 0.020651484946216731 -0.0005041080204022017 0 0.020888402667778617 -0.0005966872412187283 0 0.021111051298267056 -0.00069645081079746447 0 0.020985103348073787 -0.00068883202067133434 0 0.021044924743845814 -0.00081056706649454933 0 0.021111051298267056 -0.00069645081079746447 0 0.020985103348073787 -0.00068883202067133434 0 0.021009708461600676 -0.00052553146162194009 0 0.021754806994610586 -0.00082278756031903418 0 0.021550982420692835 -0.0006564341939397975 0 0.022311547442514779 -0.00093349424335496692 0 0.022114564808852967 -0.00082009119243354827 0 0.022224884573654003 -0.00068934837607183925 0 0.022311547442514779 -0.00093349424335496692 0 0.022388379413076375 -0.00074346971770675901 0 0.022224884573654003 -0.00068934837607183925 0 0.022388379413076375 -0.00074346971770675901 0 0.022513712197468283 -0.00085827576741585572 0 0.022530144547185483 -0.0006397207952791291 0 0.022311547442514779 -0.00093349424335496692 0 0.022388379413076375 -0.00074346971770675901 0 0.022513712197468283 -0.00085827576741585572 0 0.021848378264015377 -0.0010073324180039621 0 0.022422457687040577 -0.00093375008199955852 0 0.021247123661929612 -0.0011405349257627012 0 0.021267337051276581 -0.0011391298828709883 0 0.021258369531447906 -0.0011058397431334748 0 0.021848378264015377 -0.0010073324180039621 0 0.02163956737903161 -0.0010165388007446167 0 0.021247123661929612 -0.0011405349257627012 0 0.02123945219431677 -0.0011633338474414628 0 0.021249579796720652 -0.0011588645674356925 0 0.022311547442514779 -0.00093349424335496692 0 0.022513712197468283 -0.00085827576741585572 0 0.022496174678122507 -0.0010652920070490324 0 0.021754806994610586 -0.00082278756031903418 0 0.02163956737903161 -0.0010165388007446167 0 0.021111051298267056 -0.00069645081079746447 0 0.021183315840130976 -0.00093530746747953807 0 0.021274812211591741 -0.00093013489443768103 0 0.021111051298267056 -0.00069645081079746447 0 0.021183315840130976 -0.00093530746747953807 0 0.021114352655192615 -0.00093358133007572484 0 0.021183315840130976 -0.00093530746747953807 0 0.021274812211591741 -0.00093013489443768103 0 0.021233304105647187 -0.0010638542645495196 0 0.021183315840130976 -0.00093530746747953807 0 0.021173593512696067 -0.0010554789290271279 0 0.021114352655192615 -0.00093358133007572484 0 0.02163956737903161 -0.0010165388007446167 0 0.021173884466820066 -0.0011270759273332958 0 0.021235013902527959 -0.0010636998221615426 0 0.021233304105647187 -0.0010638542645495196 0 0.021223291335753413 -0.0011181156692019949 0 0.02123945219431677 -0.0011633338474414628 0 0.02123839215960404 -0.0011734322773022158 0 0.021249579796720652 -0.0011588645674356925 0 0.02163956737903161 -0.0010165388007446167 0 0.02139924808238685 -0.0010439450824359939 0 0.021233304105647187 -0.0010638542645495196 0 0.021217874637224639 -0.0011239339023198366 0 0.021223291335753413 -0.0011181156692019949 0 0.021233304105647187 -0.0010638542645495196 0 0.021199646917678734 -0.001120876106149958 0 0.021217874637224639 -0.0011239339023198366 0 0.021199646917678734 -0.001120876106149958 0 0.021217874637224639 -0.0011239339023198366 0 0.021200544520049738 -0.0011658069205059505 0 0.021173593512696067 -0.0010554789290271279 0 0.021106444216392406 -0.0010680992640489809 0 0.021114352655192615 -0.00093358133007572484 0 0.021183315840130976 -0.00093530746747953807 0 0.021233304105647187 -0.0010638542645495196 0 0.021173593512696067 -0.0010554789290271279 0 0.021233304105647187 -0.0010638542645495196 0 0.021199646917678734 -0.001120876106149958 0 0.021173593512696067 -0.0010554789290271279 0 0.021199646917678734 -0.001120876106149958 0 0.021173593512696067 -0.0010554789290271279 0 0.02115354480754561 -0.0011427522653976272 0 0.021173593512696067 -0.0010554789290271279 0 0.021106444216392406 -0.0010680992640489809 0 0.02115354480754561 -0.0011427522653976272 0 0.021106444216392406 -0.0010680992640489809 0 0.021100820061641087 -0.0011541748567900033 0 0.02115354480754561 -0.0011427522653976272 0 0.021106444216392406 -0.0010680992640489809 0 0.021100820061641087 -0.0011541748567900033 0 0.021037216581951804 -0.0011357238631718972 0 0.021038121160300755 -0.00098285468950553559 0 0.020942588379108271 -0.0010629999594001798 0 0.021037216581951804 -0.0011357238631718972 0 0.021106444216392406 -0.0010680992640489809 0 0.021038121160300755 -0.00098285468950553559 0 0.021037216581951804 -0.0011357238631718972 0 0.021106444216392406 -0.0010680992640489809 0 0.021038121160300755 -0.00098285468950553559 0 0.021114352655192615 -0.00093358133007572484 0 0.021111051298267056 -0.00069645081079746447 0 0.021114352655192615 -0.00093358133007572484 0 0.021044924743845814 -0.00081056706649454933 0 0.021038121160300755 -0.00098285468950553559 0 0.021114352655192615 -0.00093358133007572484 0 0.021044924743845814 -0.00081056706649454933 0 0.020880594552115293 -0.00078743824700266204 0 0.020985103348073787 -0.00068883202067133434 0 0.020959313299427913 -0.00090180560642117618 0 0.020985103348073787 -0.00068883202067133434 0 0.021044924743845814 -0.00081056706649454933 0 0.020959313299427913 -0.00090180560642117618 0 0.021038121160300755 -0.00098285468950553559 0 0.021044924743845814 -0.00081056706649454933 0 0.020959313299427913 -0.00090180560642117618 0 0.020837164048923679 -0.00096242330907079989 0 0.020880594552115293 -0.00078743824700266204 0 0.020959313299427913 -0.00090180560642117618 0 0.020837164048923679 -0.00096242330907079989 0 0.020959313299427913 -0.00090180560642117618 0 0.020942588379108271 -0.0010629999594001798 0 0.021038121160300755 -0.00098285468950553559 0 0.020959313299427913 -0.00090180560642117618 0 0.020942588379108271 -0.0010629999594001798 0 0.02079164126275931 -0.0011537605044660431 0 0.020837164048923679 -0.00096242330907079989 0 0.020942588379108271 -0.0010629999594001798 0 0.02079164126275931 -0.0011537605044660431 0 0.020934931193444035 -0.0012053883763139379 0 0.020800318737577515 -0.0013196159809668426 0 0.02079164126275931 -0.0011537605044660431 0 0.020942588379108271 -0.0010629999594001798 0 0.020934931193444035 -0.0012053883763139379 0 0.020942588379108271 -0.0010629999594001798 0 0.020934931193444035 -0.0012053883763139379 0 0.021037216581951804 -0.0011357238631718972 0 0.020934931193444035 -0.0012053883763139379 0 0.020973674054834343 -0.0012856763556228152 0 0.020906084063970324 -0.0013059940390122912 0 0.020934931193444035 -0.0012053883763139379 0 0.020973674054834343 -0.0012856763556228152 0 0.02100771020197505 -0.0012197444936910425 0 0.020973674054834343 -0.0012856763556228152 0 0.020906084063970324 -0.0013059940390122912 0 0.020935800723906221 -0.0013545424781203389 0 0.020906084063970324 -0.0013059940390122912 0 0.020800318737577515 -0.0013196159809668426 0 0.020860772447636525 -0.0013856846149616149 0 0.020934931193444035 -0.0012053883763139379 0 0.020906084063970324 -0.0013059940390122912 0 0.020800318737577515 -0.0013196159809668426 0 0.020756305612163153 -0.0014374153947277605 0 0.020800318737577515 -0.0013196159809668426 0 0.020860772447636525 -0.0013856846149616149 0 0.021100820061641087 -0.0011541748567900033 0 0.021037216581951804 -0.0011357238631718972 0 0.021071968400987302 -0.0012231349432308637 0 0.021100820061641087 -0.0011541748567900033 0 0.021071968400987302 -0.0012231349432308637 0 0.021117826896275883 -0.001213840084684451 0 0.021037216581951804 -0.0011357238631718972 0 0.02100771020197505 -0.0012197444936910425 0 0.021071968400987302 -0.0012231349432308637 0 0.020934931193444035 -0.0012053883763139379 0 0.021037216581951804 -0.0011357238631718972 0 0.02100771020197505 -0.0012197444936910425 0 0.02100771020197505 -0.0012197444936910425 0 0.021033177754369265 -0.0012838128195233661 0 0.021071968400987302 -0.0012231349432308637 0 0.020973674054834343 -0.0012856763556228152 0 0.02100771020197505 -0.0012197444936910425 0 0.021033177754369265 -0.0012838128195233661 0 0.021033177754369265 -0.0012838128195233661 0 0.021071968400987302 -0.0012231349432308637 0 0.021088336373645194 -0.0012816612747070957 0 0.021071968400987302 -0.0012231349432308637 0 0.021088336373645194 -0.0012816612747070957 0 0.021117826896275883 -0.001213840084684451 0 0.021088336373645194 -0.0012816612747070957 0 0.021053859282630004 -0.001327325545003679 0 0.021089293507118564 -0.0013272809917745916 0 0.021033177754369265 -0.0012838128195233661 0 0.021088336373645194 -0.0012816612747070957 0 0.021053859282630004 -0.001327325545003679 0 0.021053859282630004 -0.001327325545003679 0 0.020998249211979406 -0.0013468972103778223 0 0.021029791653835207 -0.0013616100070457601 0 0.021033177754369265 -0.0012838128195233661 0 0.021053859282630004 -0.001327325545003679 0 0.020998249211979406 -0.0013468972103778223 0 0.020973674054834343 -0.0012856763556228152 0 0.021033177754369265 -0.0012838128195233661 0 0.020998249211979406 -0.0013468972103778223 0 0.020998249211979406 -0.0013468972103778223 0 0.020997396532294661 -0.0013888787466396855 0 0.020966910555025767 -0.0013764048450794558 0 0.020998249211979406 -0.0013468972103778223 0 0.020997396532294661 -0.0013888787466396855 0 0.021029791653835207 -0.0013616100070457601 0 0.020997396532294661 -0.0013888787466396855 0 0.020933118221490299 -0.0014092482516974835 0 0.02105723239896537 -0.0014027166232483321 0 0.020997396532294661 -0.0013888787466396855 0 0.021045836763722691 -0.0013790575970351229 0 0.02105723239896537 -0.0014027166232483321 0 0.020997396532294661 -0.0013888787466396855 0 0.021045836763722691 -0.0013790575970351229 0 0.021029791653835207 -0.0013616100070457601 0 0.021045836763722691 -0.0013790575970351229 0 0.021070168298146213 -0.001362599015815947 0 0.021060969936980822 -0.0013804958241057745 0 0.021045836763722691 -0.0013790575970351229 0 0.021029791653835207 -0.0013616100070457601 0 0.021056395775962553 -0.0013563305042625512 0 0.021053859282630004 -0.001327325545003679 0 0.021029791653835207 -0.0013616100070457601 0 0.021056395775962553 -0.0013563305042625512 0 0.021053859282630004 -0.001327325545003679 0 0.021056395775962553 -0.0013563305042625512 0 0.021089293507118564 -0.0013272809917745916 0 0.021056395775962553 -0.0013563305042625512 0 0.021070168298146213 -0.001362599015815947 0 0.021089293507118564 -0.0013272809917745916 0 0.021045836763722691 -0.0013790575970351229 0 0.021056395775962553 -0.0013563305042625512 0 0.021070168298146213 -0.001362599015815947 0 0.021089293507118564 -0.0013272809917745916 0 0.021083286779532862 -0.001356364109080148 0 0.021099951666875338 -0.0013348386522912914 0 0.021070168298146213 -0.001362599015815947 0 0.021089293507118564 -0.0013272809917745916 0 0.021083286779532862 -0.001356364109080148 0 0.020623282564622616 -0.0015935410088496614 0 0.020807834545541026 -0.0014767957607504524 0 0.02105723239896537 -0.0014027166232483321 0 0.020495956662984927 -0.0017613976220797942 0 0.020623282564622616 -0.0015935410088496614 0 0.020964414056381254 -0.0019003652811186453 0 0.020623282564622616 -0.0015935410088496614 0 0.020964414056381254 -0.0019003652811186453 0 0.020965947228135027 -0.0018932033282742526 0 0.020448051643097976 -0.0015725240219842712 0 0.021461758922351269 -0.0015370253170178775 0 0.020807834545541026 -0.0014767957607504524 0 0.020860772447636525 -0.0013856846149616149 0 0.020933118221490299 -0.0014092482516974835 0 0.020756305612163153 -0.0014374153947277605 0 0.020807834545541026 -0.0014767957607504524 0 0.020860772447636525 -0.0013856846149616149 0 0.020906084063970324 -0.0013059940390122912 0 0.020860772447636525 -0.0013856846149616149 0 0.020935800723906221 -0.0013545424781203389 0 0.020860772447636525 -0.0013856846149616149 0 0.020935800723906221 -0.0013545424781203389 0 0.020933118221490299 -0.0014092482516974835 0 0.020973674054834343 -0.0012856763556228152 0 0.020998249211979406 -0.0013468972103778223 0 0.020935800723906221 -0.0013545424781203389 0 0.020997396532294661 -0.0013888787466396855 0 0.020966910555025767 -0.0013764048450794558 0 0.020933118221490299 -0.0014092482516974835 0 0.020935800723906221 -0.0013545424781203389 0 0.020966910555025767 -0.0013764048450794558 0 0.020933118221490299 -0.0014092482516974835 0 0.020998249211979406 -0.0013468972103778223 0 0.020935800723906221 -0.0013545424781203389 0 0.020966910555025767 -0.0013764048450794558 0 0.020807834545541026 -0.0014767957607504524 0 0.020933118221490299 -0.0014092482516974835 0 0.02105723239896537 -0.0014027166232483321 0 0.020315932574329298 -0.0017951596016868216 0 0.020929900164577412 -0.0019199657646284385 0 0.020365020879354843 -0.0019495255129703467 0 0.020495956662984927 -0.0017613976220797942 0 0.020173424565958165 -0.0021584108597418211 0 0.020365020879354843 -0.0019495255129703467 0 0.020258580705456882 -0.0020576123672632744 0 0.020173424565958165 -0.0021584108597418211 0 0.020365020879354843 -0.0019495255129703467 0 0.020279677212127374 -0.0020353307683916798 0 0.020258580705456882 -0.0020576123672632744 0 0.020318217360799761 -0.0020259098680587119 0 0.020279677212127374 -0.0020353307683916798 0 0.020221916305628546 -0.002014304834959671 0 0.020279677212127374 -0.0020353307683916798 0 0.020203291978027779 -0.0020678495111677128 0 0.020221916305628546 -0.002014304834959671 0 0.020203291978027779 -0.0020678495111677128 0 0.020258580705456882 -0.0020576123672632744 0 0.020173424565958165 -0.0021584108597418211 0 0.020279677212127374 -0.0020353307683916798 0 0.020203291978027779 -0.0020678495111677128 0 0.020258580705456882 -0.0020576123672632744 0 0.020929900164577412 -0.0019199657646284385 0 0.018425400077259107 -0.0028855138563493987 0 0.020964414056381254 -0.0019003652811186453 0 0.020965947228135027 -0.0018932033282742526 0 0.020657070220862151 -0.0018440284619197734 0 0.020173424565958165 -0.0021584108597418211 0 0.020072592114400878 -0.0020549463273867473 0 0.019734366373083199 -0.0021041809322573453 0 0.02105723239896537 -0.0014027166232483321 0 0.021060969936980822 -0.0013804958241057745 0 0.021071351154703391 -0.001372821278307141 0 0.021045836763722691 -0.0013790575970351229 0 0.02105723239896537 -0.0014027166232483321 0 0.021060969936980822 -0.0013804958241057745 0 0.02105723239896537 -0.0014027166232483321 0 0.021071351154703391 -0.001372821278307141 0 0.021087625402017932 -0.0013575737713034987 0 0.021083286779532862 -0.001356364109080148 0 0.021071351154703391 -0.001372821278307141 0 0.021087625402017932 -0.0013575737713034987 0 0.021083286779532862 -0.001356364109080148 0 0.021087625402017932 -0.0013575737713034987 0 0.021099951666875338 -0.0013348386522912914 0 0.021070168298146213 -0.001362599015815947 0 0.021083286779532862 -0.001356364109080148 0 0.021071351154703391 -0.001372821278307141 0 0.021070168298146213 -0.001362599015815947 0 0.021060969936980822 -0.0013804958241057745 0 0.021071351154703391 -0.001372821278307141 0 0.020203291978027779 -0.0020678495111677128 0 0.020173424565958165 -0.0021584108597418211 0 0.020072592114400878 -0.0020549463273867473 0 0.020072592114400878 -0.0020549463273867473 0 0.020001858181650314 -0.001953969716330866 0 0.019734366373083199 -0.0021041809322573453 0 0.020072592114400878 -0.0020549463273867473 0 0.020001858181650314 -0.001953969716330866 0 0.020221916305628546 -0.002014304834959671 0 0.020142239412372514 -0.0018668315087767384 0 0.020001858181650314 -0.001953969716330866 0 0.020221916305628546 -0.002014304834959671 0 0.020142239412372514 -0.0018668315087767384 0 0.020271357396779415 -0.002122328855721277 0 0.020221916305628546 -0.002014304834959671 0 0.020203291978027779 -0.0020678495111677128 0 0.020072592114400878 -0.0020549463273867473 0 0.020221916305628546 -0.002014304834959671 0 0.021119159384681317 -0.0012648017887035338 0 0.021135039521993512 -0.0012648243534207431 0 0.02112952369572739 -0.001208753103962184 0 0.0089337985875661708 -0.0036354758127701494 0 0.0090772089868514858 -0.0043263490057827867 0 0.009464001142097226 -0.0045084246118346615 0 0.0078296143238777548 -0.0036569496489395727 0 0.0089337985875661708 -0.0036354758127701494 0 0.0090772089868514858 -0.0043263490057827867 0 0.021119159384681317 -0.0012648017887035338 0 0.021129679845652172 -0.0012774959639452162 0 0.021126555984997762 -0.0012772848644613288 0 0.015219607125604644 -0.0025332888895147408 0 0.018425400077259107 -0.0028855138563493987 0 0.011718603144236308 -0.0019068730892158837 0 0.018425400077259107 -0.0028855138563493987 0 0.019761805246789371 -0.0017140040188546874 0 0.020001858181650314 -0.001953969716330866 0 0.019734366373083199 -0.0021041809322573453 0 0.02105723239896537 -0.0014027166232483321 0 0.021087625402017932 -0.0013575737713034987 0 0.021119271948779193 -0.0013228280856799402 0 0.018425400077259107 -0.0028855138563493987 0 0.019791833994722185 -0.0011927743563629842 0 0.021129679845652172 -0.0012774959639452162 0 0.021130003811016144 -0.0013026785052537241 0 0.021126555984997762 -0.0012772848644613288 0 0.021461758922351269 -0.0015370253170178775 0 0.018425400077259107 -0.0028855138563493987 0 0.021119271948779193 -0.0013228280856799402 0 0.021130003811016144 -0.0013026785052537241 0 0.021119270811564925 -0.001316666082032226 0 0.021087625402017932 -0.0013575737713034987 0 0.021119271948779193 -0.0013228280856799402 0 0.021119270811564925 -0.001316666082032226 0 0.021087625402017932 -0.0013575737713034987 0 0.021099951666875338 -0.0013348386522912914 0 0.021119270811564925 -0.001316666082032226 0 0.021130003811016144 -0.0013026785052537241 0 0.021119270811564925 -0.001316666082032226 0 0.021144299620317712 -0.0012825014149094832 0 0.021119270811564925 -0.001316666082032226 0 0.021144299620317712 -0.0012825014149094832 0 0.021140134941207159 -0.001283190303338088 0 0.021130003811016144 -0.0013026785052537241 0 0.021144299620317712 -0.0012825014149094832 0 0.021135039521993512 -0.0012648243534207431 0 0.021130003811016144 -0.0013026785052537241 0 0.021126555984997762 -0.0012772848644613288 0 0.021135039521993512 -0.0012648243534207431 0 0.021119159384681317 -0.0012648017887035338 0 0.021126555984997762 -0.0012772848644613288 0 0.021135039521993512 -0.0012648243534207431 0 0.021144299620317712 -0.0012825014149094832 0 0.021135039521993512 -0.0012648243534207431 0 0.021157721758530264 -0.0012562893677340609 0 0.021135039521993512 -0.0012648243534207431 0 0.021157721758530264 -0.0012562893677340609 0 0.021147225305544873 -0.0012449956377833266 0 0.021157721758530264 -0.0012562893677340609 0 0.021164355722997543 -0.0012513236082826085 0 0.021181059024016596 -0.0012272772961046834 0 0.021144299620317712 -0.0012825014149094832 0 0.021164355722997543 -0.0012513236082826085 0 0.021140134941207159 -0.001283190303338088 0 0.021144299620317712 -0.0012825014149094832 0 0.021157721758530264 -0.0012562893677340609 0 0.021164355722997543 -0.0012513236082826085 0 0.021164355722997543 -0.0012513236082826085 0 0.0211474195518308 -0.0012577120350792989 0 0.02116985966687996 -0.0012207285461605254 0 0.021164355722997543 -0.0012513236082826085 0 0.021140134941207159 -0.001283190303338088 0 0.0211474195518308 -0.0012577120350792989 0 0.021164355722997543 -0.0012513236082826085 0 0.021188132622725522 -0.0012053646194091668 0 0.02116985966687996 -0.0012207285461605254 0 0.021164355722997543 -0.0012513236082826085 0 0.021188132622725522 -0.0012053646194091668 0 0.021181059024016596 -0.0012272772961046834 0 0.021089293507118564 -0.0013272809917745916 0 0.021099951666875338 -0.0013348386522912914 0 0.021120503189904844 -0.0013033822610479336 0 0.021089293507118564 -0.0013272809917745916 0 0.021120503189904844 -0.0013033822610479336 0 0.021123577948204433 -0.0012657774716360491 0 0.021099951666875338 -0.0013348386522912914 0 0.021119270811564925 -0.001316666082032226 0 0.021120503189904844 -0.0013033822610479336 0 0.021120503189904844 -0.0013033822610479336 0 0.021140134941207159 -0.001283190303338088 0 0.0211474195518308 -0.0012577120350792989 0 0.021119270811564925 -0.001316666082032226 0 0.021120503189904844 -0.0013033822610479336 0 0.021140134941207159 -0.001283190303338088 0 0.0211474195518308 -0.0012577120350792989 0 0.021123577948204433 -0.0012657774716360491 0 0.021152641324286205 -0.0012045867180470026 0 0.021120503189904844 -0.0013033822610479336 0 0.0211474195518308 -0.0012577120350792989 0 0.021123577948204433 -0.0012657774716360491 0 0.021088336373645194 -0.0012816612747070957 0 0.021089293507118564 -0.0013272809917745916 0 0.021123577948204433 -0.0012657774716360491 0 0.021088336373645194 -0.0012816612747070957 0 0.021123577948204433 -0.0012657774716360491 0 0.021117826896275883 -0.001213840084684451 0 0.021123577948204433 -0.0012657774716360491 0 0.021117826896275883 -0.001213840084684451 0 0.021152641324286205 -0.0012045867180470026 0 0.0211474195518308 -0.0012577120350792989 0 0.021152641324286205 -0.0012045867180470026 0 0.02116985966687996 -0.0012207285461605254 0 0.021152641324286205 -0.0012045867180470026 0 0.02116985966687996 -0.0012207285461605254 0 0.021182281048995343 -0.0011795106678705346 0 0.021152641324286205 -0.0012045867180470026 0 0.02115354480754561 -0.0011427522653976272 0 0.021182281048995343 -0.0011795106678705346 0 0.021199646917678734 -0.001120876106149958 0 0.02115354480754561 -0.0011427522653976272 0 0.021182281048995343 -0.0011795106678705346 0 0.021117826896275883 -0.001213840084684451 0 0.021152641324286205 -0.0012045867180470026 0 0.02115354480754561 -0.0011427522653976272 0 0.021100820061641087 -0.0011541748567900033 0 0.021117826896275883 -0.001213840084684451 0 0.02115354480754561 -0.0011427522653976272 0 0.021188132622725522 -0.0012053646194091668 0 0.02120633680336759 -0.0011813021777427677 0 0.021181059024016596 -0.0012272772961046834 0 0.021188132622725522 -0.0012053646194091668 0 0.02116985966687996 -0.0012207285461605254 0 0.021182281048995343 -0.0011795106678705346 0 0.021188132622725522 -0.0012053646194091668 0 0.021182281048995343 -0.0011795106678705346 0 0.021200544520049738 -0.0011658069205059505 0 0.021199646917678734 -0.001120876106149958 0 0.021182281048995343 -0.0011795106678705346 0 0.021200544520049738 -0.0011658069205059505 0 0.021188132622725522 -0.0012053646194091668 0 0.021200544520049738 -0.0011658069205059505 0 0.02120633680336759 -0.0011813021777427677 0 0.021217874637224639 -0.0011239339023198366 0 0.021200544520049738 -0.0011658069205059505 0 0.02120633680336759 -0.0011813021777427677 0 0.02120633680336759 -0.0011813021777427677 0 0.021191442722063459 -0.0012137924301555073 0 0.021215896178895334 -0.0011903657476346852 0 0.02120633680336759 -0.0011813021777427677 0 0.021191442722063459 -0.0012137924301555073 0 0.021181059024016596 -0.0012272772961046834 0 0.021215896178895334 -0.0011903657476346852 0 0.021183556326696783 -0.0012180728535916205 0 0.021222835253635112 -0.0011929850499353193 0 0.021191442722063459 -0.0012137924301555073 0 0.021215896178895334 -0.0011903657476346852 0 0.021183556326696783 -0.0012180728535916205 0 0.021191442722063459 -0.0012137924301555073 0 0.021183556326696783 -0.0012180728535916205 0 0.021167280753029052 -0.0012253053559646038 0 0.021183556326696783 -0.0012180728535916205 0 0.021167280753029052 -0.0012253053559646038 0 0.021134884872740168 -0.0012210925764312359 0 0.021191442722063459 -0.0012137924301555073 0 0.021181059024016596 -0.0012272772961046834 0 0.021168977187878749 -0.0012359188145260583 0 0.021191442722063459 -0.0012137924301555073 0 0.021167280753029052 -0.0012253053559646038 0 0.021168977187878749 -0.0012359188145260583 0 0.021157721758530264 -0.0012562893677340609 0 0.021181059024016596 -0.0012272772961046834 0 0.021168977187878749 -0.0012359188145260583 0 0.021157721758530264 -0.0012562893677340609 0 0.021168977187878749 -0.0012359188145260583 0 0.021147225305544873 -0.0012449956377833266 0 0.021168977187878749 -0.0012359188145260583 0 0.021147225305544873 -0.0012449956377833266 0 0.021145441308289166 -0.0012264007553751373 0 0.021167280753029052 -0.0012253053559646038 0 0.021168977187878749 -0.0012359188145260583 0 0.021145441308289166 -0.0012264007553751373 0 0.021145441308289166 -0.0012264007553751373 0 0.02111315988058883 -0.0011949199393507777 0 0.021134884872740168 -0.0012210925764312359 0 0.021167280753029052 -0.0012253053559646038 0 0.021145441308289166 -0.0012264007553751373 0 0.021134884872740168 -0.0012210925764312359 0 0.021088482705301431 -0.0011404680288200275 0 0.02112952369572739 -0.001208753103962184 0 0.02111315988058883 -0.0011949199393507777 0 0.021145441308289166 -0.0012264007553751373 0 0.02112952369572739 -0.001208753103962184 0 0.02111315988058883 -0.0011949199393507777 0 0.010643529610497993 -0.0030033650988980486 0 0.015219607125604644 -0.0025332888895147408 0 0.015219607125604644 -0.0025332888895147408 0 0.018431911190511012 -0.0018690821085669163 0 0.014620769726514739 -0.0023724186205844409 0 0.015057050985791265 -0.002647187127633985 0 0.014632887274922931 -0.0024293106982615606 0 0.021147225305544873 -0.0012449956377833266 0 0.021145441308289166 -0.0012264007553751373 0 0.02112952369572739 -0.001208753103962184 0 0.021135039521993512 -0.0012648243534207431 0 0.021147225305544873 -0.0012449956377833266 0 0.02112952369572739 -0.001208753103962184 0 0.021066992825092556 -0.001185106815572493 0 0.021015330790821286 -0.00117792306856397 0 0.021058212655064211 -0.0012052320617520803 0 0.021066992825092556 -0.001185106815572493 0 0.021102676522654101 -0.0012076368999242321 0 0.021058212655064211 -0.0012052320617520803 0 0.021023109274576512 -0.0011354856972426359 0 0.021066992825092556 -0.001185106815572493 0 0.021015330790821286 -0.00117792306856397 0 0.021066992825092556 -0.001185106815572493 0 0.02111315988058883 -0.0011949199393507777 0 0.021102676522654101 -0.0012076368999242321 0 0.021088482705301431 -0.0011404680288200275 0 0.021066992825092556 -0.001185106815572493 0 0.02111315988058883 -0.0011949199393507777 0 0.021088482705301431 -0.0011404680288200275 0 0.021023109274576512 -0.0011354856972426359 0 0.021066992825092556 -0.001185106815572493 0 0.02111315988058883 -0.0011949199393507777 0 0.021102676522654101 -0.0012076368999242321 0 0.021134884872740168 -0.0012210925764312359 0 0.021102676522654101 -0.0012076368999242321 0 0.021134884872740168 -0.0012210925764312359 0 0.021099334026397066 -0.0012193426806906872 0 0.021134884872740168 -0.0012210925764312359 0 0.021099334026397066 -0.0012193426806906872 0 0.021141689166471325 -0.0012250812717036657 0 0.021099334026397066 -0.0012193426806906872 0 0.021073049388441963 -0.0012200191718802352 0 0.021100291065028899 -0.0012250676352119083 0 0.021099334026397066 -0.0012193426806906872 0 0.021058212655064211 -0.0012052320617520803 0 0.021073049388441963 -0.0012200191718802352 0 0.021102676522654101 -0.0012076368999242321 0 0.021099334026397066 -0.0012193426806906872 0 0.021058212655064211 -0.0012052320617520803 0 0.021058212655064211 -0.0012052320617520803 0 0.021073049388441963 -0.0012200191718802352 0 0.021029759123557642 -0.0012248289894528546 0 0.021015330790821286 -0.00117792306856397 0 0.021058212655064211 -0.0012052320617520803 0 0.021029759123557642 -0.0012248289894528546 0 0.021073049388441963 -0.0012200191718802352 0 0.021100291065028899 -0.0012250676352119083 0 0.021029759123557642 -0.0012248289894528546 0 0.021100291065028899 -0.0012250676352119083 0 0.021152159079994029 -0.0012312368657587532 0 0.021029759123557642 -0.0012248289894528546 0 0.021100291065028899 -0.0012250676352119083 0 0.021141689166471325 -0.0012250812717036657 0 0.021152159079994029 -0.0012312368657587532 0 0.021227812692834105 -0.0012149774838055467 0 0.02114944917891344 -0.0012089415216054358 0 0.021301290810655751 -0.0012121383503619619 0 0.021320167530295461 -0.0012004089112014197 0 0.0213076830788188 -0.001210915998919186 0 0.021099334026397066 -0.0012193426806906872 0 0.021100291065028899 -0.0012250676352119083 0 0.021141689166471325 -0.0012250812717036657 0 0.021141689166471325 -0.0012250812717036657 0 0.021169100375686228 -0.0012222039146376647 0 0.021152159079994029 -0.0012312368657587532 0 0.021183556326696783 -0.0012180728535916205 0 0.021134884872740168 -0.0012210925764312359 0 0.021141689166471325 -0.0012250812717036657 0 0.021183556326696783 -0.0012180728535916205 0 0.021141689166471325 -0.0012250812717036657 0 0.021169100375686228 -0.0012222039146376647 0 0.021196732213768235 -0.0012127642908437422 0 0.021152159079994029 -0.0012312368657587532 0 0.021253943137999744 -0.001186004887925491 0 0.021183556326696783 -0.0012180728535916205 0 0.021196732213768235 -0.0012127642908437422 0 0.021222835253635112 -0.0011929850499353193 0 0.021183556326696783 -0.0012180728535916205 0 0.021169100375686228 -0.0012222039146376647 0 0.021196732213768235 -0.0012127642908437422 0 0.021169100375686228 -0.0012222039146376647 0 0.021196732213768235 -0.0012127642908437422 0 0.021152159079994029 -0.0012312368657587532 0 0.021301290810655751 -0.0012121383503619619 0 0.02129000315472265 -0.0011976328392566534 0 0.0213076830788188 -0.001210915998919186 0 0.021227812692834105 -0.0012149774838055467 0 0.021245617399275121 -0.001183287689733863 0 0.021301290810655751 -0.0012121383503619619 0 0.02129000315472265 -0.0011976328392566534 0 0.021253943137999744 -0.001186004887925491 0 0.02129000315472265 -0.0011976328392566534 0 0.0212939959760522 -0.0011767918023250768 0 0.0213076830788188 -0.001210915998919186 0 0.02129000315472265 -0.0011976328392566534 0 0.0212939959760522 -0.0011767918023250768 0 0.021253943137999744 -0.001186004887925491 0 0.022254271207197935 -0.00090063383069911493 0 0.022168197648954963 -0.00092252356338707675 0 0.0212939959760522 -0.0011767918023250768 0 0.021258373621022179 -0.0011637635932228425 0 0.02129489859056349 -0.0011358568632188974 0 0.0212939959760522 -0.0011767918023250768 0 0.021258373621022179 -0.0011637635932228425 0 0.021253943137999744 -0.001186004887925491 0 0.021258373621022179 -0.0011637635932228425 0 0.021253943137999744 -0.001186004887925491 0 0.021222835253635112 -0.0011929850499353193 0 0.021196732213768235 -0.0012127642908437422 0 0.021253943137999744 -0.001186004887925491 0 0.021222835253635112 -0.0011929850499353193 0 0.021215896178895334 -0.0011903657476346852 0 0.021222835253635112 -0.0011929850499353193 0 0.021237984986870736 -0.0011736801186183437 0 0.021217874637224639 -0.0011239339023198366 0 0.02120633680336759 -0.0011813021777427677 0 0.021223291335753413 -0.0011181156692019949 0 0.021237888182778972 -0.0011890867295485032 0 0.021173884466820066 -0.0011270759273332958 0 0.021215896178895334 -0.0011903657476346852 0 0.02123839215960404 -0.0011734322773022158 0 0.021237984986870736 -0.0011736801186183437 0 0.02120633680336759 -0.0011813021777427677 0 0.021215896178895334 -0.0011903657476346852 0 0.021223291335753413 -0.0011181156692019949 0 0.02123839215960404 -0.0011734322773022158 0 0.021237984986870736 -0.0011736801186183437 0 0.021249579796720652 -0.0011588645674356925 0 0.021258373621022179 -0.0011637635932228425 0 0.021222835253635112 -0.0011929850499353193 0 0.021237984986870736 -0.0011736801186183437 0 0.021237984986870736 -0.0011736801186183437 0 0.021260445156706175 -0.0011504433002629717 0 0.021249579796720652 -0.0011588645674356925 0 0.021258373621022179 -0.0011637635932228425 0 0.021237984986870736 -0.0011736801186183437 0 0.021260445156706175 -0.0011504433002629717 0 0.021260445156706175 -0.0011504433002629717 0 0.021249579796720652 -0.0011588645674356925 0 0.021267337051276581 -0.0011391298828709883 0 0.021247123661929612 -0.0011405349257627012 0 0.021249579796720652 -0.0011588645674356925 0 0.021267337051276581 -0.0011391298828709883 0 0.021267337051276581 -0.0011391298828709883 0 0.021283036457977089 -0.0011272690897884451 0 0.021295483907415869 -0.001113552550772071 0 0.021260445156706175 -0.0011504433002629717 0 0.021267337051276581 -0.0011391298828709883 0 0.021283036457977089 -0.0011272690897884451 0 0.021283036457977089 -0.0011272690897884451 0 0.02129489859056349 -0.0011358568632188974 0 0.021273761583990688 -0.0011438386546798126 0 0.021283036457977089 -0.0011272690897884451 0 0.02129489859056349 -0.0011358568632188974 0 0.021297071064445811 -0.0011228845398719278 0 0.023181027231893563 -0.00057175068080236023 0 0.023154825501445351 -0.00046520594711829953 0 0.023248791765700456 -0.00051366977191336007 0 0.022168197648954963 -0.00092252356338707675 0 0.022772885188585692 -0.00044579173486791664 0 0.021258373621022179 -0.0011637635932228425 0 0.021260445156706175 -0.0011504433002629717 0 0.021273761583990688 -0.0011438386546798126 0 0.021258373621022179 -0.0011637635932228425 0 0.02129489859056349 -0.0011358568632188974 0 0.021273761583990688 -0.0011438386546798126 0 0.021260445156706175 -0.0011504433002629717 0 0.021283036457977089 -0.0011272690897884451 0 0.021273761583990688 -0.0011438386546798126 0 0.023457176624537845 -0.00014813455108914704 0 0.023435770048112703 -8.4921185538730588e-05 0 0.023505861994149498 -0.00011778925004660225 0 0.023457176624537845 -0.00014813455108914704 0 0.023505861994149498 -0.00011778925004660225 0 0.023527755998596515 -0.00017405239139476258 0 0.022878163879733734 -7.9717245249831493e-05 0 0.02293053666631523 -0.0003562786254408711 0 0.023186789714565021 -0.00017478366016749418 0 0.023152534187241416 -5.0008455896506113e-05 0 0.022772885188585692 -0.00044579173486791664 0 0.022772885188585692 -0.00044579173486791664 0 0.023335467519370118 -0.00052122527963882083 0 0.021283036457977089 -0.0011272690897884451 0 0.021297071064445811 -0.0011228845398719278 0 0.021289072035125582 -0.0011326343464215577 0 0.022772885188585692 -0.00044579173486791664 0 0.022351917380881808 -0.00062954519908711357 0 0.021283036457977089 -0.0011272690897884451 0 0.021295483907415869 -0.001113552550772071 0 0.021289072035125582 -0.0011326343464215577 0 0.021295483907415869 -0.001113552550772071 0 0.021356948428262062 -0.0011393501420691459 0 0.021417237111124011 -0.0011072211118634643 0 0.020860738653342602 -0.0011095891742834525 0 0.022422457687040577 -0.00093375008199955852 0 0.021267337051276581 -0.0011391298828709883 0 0.021295483907415869 -0.001113552550772071 0 0.021258369531447906 -0.0011058397431334748 0 0.021295483907415869 -0.001113552550772071 0 0.021356948428262062 -0.0011393501420691459 0 0.021334770286531596 -0.0011754561991264877 0 0.021356948428262062 -0.0011393501420691459 0 0.021334770286531596 -0.0011754561991264877 0 0.021382804588899313 -0.0011871369536004752 0 0.022351917380881808 -0.00062954519908711357 0 0.022370270714652023 -0.0006450386464293248 0 0.021295483907415869 -0.001113552550772071 0 0.021289072035125582 -0.0011326343464215577 0 0.021334770286531596 -0.0011754561991264877 0 0.023505861994149498 -0.00011778925004660225 0 0.023527755998596515 -0.00017405239139476258 0 0.023567760028650048 -0.00015581668028838907 0 0.023527755998596515 -0.00017405239139476258 0 0.023567760028650048 -0.00015581668028838907 0 0.023570909495494518 -0.00019183593909369279 0 0.022370270714652023 -0.0006450386464293248 0 0.023046712672317716 -0.00066039012770134468 0 0.023567760028650048 -0.00015581668028838907 0 0.023570909495494518 -0.00019183593909369279 0 0.023598116301772814 -0.00018208065359685295 0 0.023570909495494518 -0.00019183593909369279 0 0.023570532226981588 -0.00021097248728067848 0 0.02356821610491221 -0.00021505457961962479 0 0.023570909495494518 -0.00019183593909369279 0 0.023570532226981588 -0.00021097248728067848 0 0.023598116301772814 -0.00018208065359685295 0 0.02356821610491221 -0.00021505457961962479 0 0.023635222699035462 -0.00023388840188843051 0 0.023605072922845263 -0.00020653307487637096 0 0.023527755998596515 -0.00017405239139476258 0 0.02356821610491221 -0.00021505457961962479 0 0.023477623003812016 -0.00021077165984576256 0 0.023516386257575145 -0.00023636406091647624 0 0.023693135896515897 -0.0001039607223204299 0 0.023527755998596515 -0.00017405239139476258 0 0.023570909495494518 -0.00019183593909369279 0 0.02356821610491221 -0.00021505457961962479 0 0.023152534187241416 -5.0008455896506113e-05 0 0.023693135896515897 -0.0001039607223204299 0 0.023457176624537845 -0.00014813455108914704 0 0.023527755998596515 -0.00017405239139476258 0 0.023477623003812016 -0.00021077165984576256 0 0.022878163879733734 -7.9717245249831493e-05 0 0.022837376464596122 0.00019586638328060097 0 0.023167359708245808 0.00013209222795112471 0 0.022878163879733734 -7.9717245249831493e-05 0 0.023186789714565021 -0.00017478366016749418 0 0.023167359708245808 0.00013209222795112471 0 0.024821500160436553 0.0001903535322387961 0 0.024783211910949163 0.00013606419138184302 0 0.024707790202653936 0.00022710259614787173 0 0.023693135896515897 -0.0001039607223204299 0 0.02395925517331713 0.0002141206235491688 0 0.024783211910949163 0.00013606419138184302 0 0.024798881553548854 9.8477849277746638e-05 0 0.024787911766325287 8.3353178959393623e-05 0 0.024783211910949163 0.00013606419138184302 0 0.024798881553548854 9.8477849277746638e-05 0 0.024831514564667687 0.00010670006915186763 0 0.024821500160436553 0.0001903535322387961 0 0.024783211910949163 0.00013606419138184302 0 0.024831514564667687 0.00010670006915186763 0 0.023635222699035462 -0.00023388840188843051 0 0.023625720398862678 -0.00018175582546229186 0 0.023605072922845263 -0.00020653307487637096 0 0.023693135896515897 -0.0001039607223204299 0 0.024241194436283659 -3.9305151662117575e-05 0 0.024831514564667687 0.00010670006915186763 0 0.024805477905726268 7.5983829903996254e-05 0 0.024835002659698791 5.9324629848389471e-05 0 0.024241194436283659 -3.9305151662117575e-05 0 0.024629743702971857 4.3445699181347843e-05 0 0.023625720398862678 -0.00018175582546229186 0 0.02362541063850981 -0.00013876392732789657 0 0.023600907213526437 -0.00015996256861380622 0 0.024798881553548854 9.8477849277746638e-05 0 0.024831514564667687 0.00010670006915186763 0 0.024805477905726268 7.5983829903996254e-05 0 0.024856023153709352 5.0116633386019813e-05 0 0.024629743702971857 4.3445699181347843e-05 0 0.024856023153709352 5.0116633386019813e-05 0 0.024784551182421961 8.6542810216875632e-05 0 0.024798881553548854 9.8477849277746638e-05 0 0.024805477905726268 7.5983829903996254e-05 0 0.024787911766325287 8.3353178959393623e-05 0 0.024853648486399468 5.5758620976975953e-05 0 0.024835282690862766 4.8441600288665549e-05 0 0.024845946482224712 4.6051477209144606e-05 0 0.024853648486399468 5.5758620976975953e-05 0 0.024835282690862766 4.8441600288665549e-05 0 0.024787911766325287 8.3353178959393623e-05 0 0.024978375014272747 3.9578445167597107e-05 0 0.024968024880459957 -3.3309334742380182e-06 0 0.024851375889626406 3.4564400661781174e-05 0 0.024835282690862766 4.8441600288665549e-05 0 0.024845946482224712 4.6051477209144606e-05 0 0.024851375889626406 3.4564400661781174e-05 0 0.024942376425111708 3.8292211210586386e-05 0 0.024848546741448062 3.8256239677987432e-05 0 0.024978375014272747 3.9578445167597107e-05 0 0.024990554675037246 1.6918363193692585e-05 0 0.024968024880459957 -3.3309334742380182e-06 0 0.024978375014272747 3.9578445167597107e-05 0 0.025005642413652274 2.1633680109734004e-05 0 0.024990554675037246 1.6918363193692585e-05 0 0.024845946482224712 4.6051477209144606e-05 0 0.024863899879531269 4.7185387653849962e-05 0 0.024864139503462827 4.561023408744951e-05 0 0.024853648486399468 5.5758620976975953e-05 0 0.024845946482224712 4.6051477209144606e-05 0 0.024863899879531269 4.7185387653849962e-05 0 0.02498951294073419 9.6813849138086674e-06 0 0.024990909489806389 9.6030036506836552e-06 0 0.025000005066711954 -1.2279325670189152e-08 0 0.024942376425111708 3.8292211210586386e-05 0 0.024731541089937175 2.5174029565491433e-05 0 0.024629743702971857 4.3445699181347843e-05 0 0.024731541089937175 2.5174029565491433e-05 0 0.024731541089937175 2.5174029565491433e-05 0 0.024474666220209541 2.8265245078582782e-05 0 0.024621193486400839 -3.5998652429013907e-05 0 0.024619757132618107 -2.8506924351209532e-05 0 0.02460527199943818 -2.8087076963626241e-05 0 0.024629743702971857 4.3445699181347843e-05 0 0.024474666220209541 2.8265245078582782e-05 0 0.025005642413652274 2.1633680109734004e-05 0 0.024990554675037246 1.6918363193692585e-05 0 0.024993792647169104 2.7481634737896636e-06 0 0.024731541089937175 2.5174029565491433e-05 0 0.025000142367157471 -5.6976476583734654e-08 0 0.025005642413652274 2.1633680109734004e-05 0 0.024993792647169104 2.7481634737896636e-06 0 0.025000056539325875 1.1941051373300609e-08 0 0.024993792647169104 2.7481634737896636e-06 0 0.024999879329834454 -4.0245074770412892e-08 0 0.025000056539325875 1.1941051373300609e-08 0 0.024999879329834454 -4.0245074770412892e-08 0 0.024968024880459957 -3.3309334742380182e-06 0 0.02494462477575515 -1.8346259763476032e-05 0 0.024993792647169104 2.7481634737896636e-06 0 0.024999879329834454 -4.0245074770412892e-08 0 0.024968024880459957 -3.3309334742380182e-06 0 0.024990554675037246 1.6918363193692585e-05 0 0.024993792647169104 2.7481634737896636e-06 0 0.024968024880459957 -3.3309334742380182e-06 0 0.024797467285284758 -1.1527804934757848e-05 0 0.025041036159069101 -9.4098227687515525e-06 0 0.024955483558985948 3.9983175220789047e-06 0 0.024980184548472114 7.9295394512469848e-06 0 0.024974118221630658 7.7323891505343521e-06 0 0.024996393899558225 2.3987606306403772e-06 0 0.025002930532376684 -8.869812456261045e-06 0 0.024980184548472114 7.9295394512469848e-06 0 0.024996393899558225 2.3987606306403772e-06 0 0.024999847276582922 9.2276422638033051e-07 0 0.02499996093310701 3.7068354164460346e-08 0 0.024996393899558225 2.3987606306403772e-06 0 0.024999847276582922 9.2276422638033051e-07 0 0.025002930532376684 -8.869812456261045e-06 0 0.024996393899558225 2.3987606306403772e-06 0 0.024980184548472114 7.9295394512469848e-06 0 0.02499996093310701 3.7068354164460346e-08 0 0.024999847276582922 9.2276422638033051e-07 0 0.025000005066711954 -1.2279325670189152e-08 0 0.02499996093310701 3.7068354164460346e-08 0 0.024990909489806389 9.6030036506836552e-06 0 0.024999847276582922 9.2276422638033051e-07 0 0.025000005066711954 -1.2279325670189152e-08 0 0.024990909489806389 9.6030036506836552e-06 0 0.024999847276582922 9.2276422638033051e-07 0 0.024998357510110956 6.5013124891269226e-06 0 0.024989736345681267 2.278781718725032e-05 0 0.024797467285284758 -1.1527804934757848e-05 0 0.024474666220209541 2.8265245078582782e-05 0 0.02413472341918085 -4.1942888166836422e-05 0 0.023619510172718586 -0.00013556045083339748 0 0.023583473347933408 -0.00013459556693417096 0 0.023600907213526437 -0.00015996256861380622 0 0.024482700619174704 2.7414755797371369e-05 0 0.024487767078956481 2.4241036819806597e-05 0 0.024487609775182658 2.6450432820173798e-05 0 0.024474666220209541 2.8265245078582782e-05 0 0.024797467285284758 -1.1527804934757848e-05 0 0.02362541063850981 -0.00013876392732789657 0 0.023619510172718586 -0.00013556045083339748 0 0.023600907213526437 -0.00015996256861380622 0 0.024955483558985948 3.9983175220789047e-06 0 0.024963387034016217 7.237569335812536e-06 0 0.024974118221630658 7.7323891505343521e-06 0 0.024957457603770349 1.1324626103663849e-05 0 0.024966248180201444 7.2004691362719871e-06 0 0.024971965476605493 6.0655591630848966e-06 0 0.023694586448211884 -5.5883581903704848e-05 0 0.023660780738324731 -7.75946947577543e-05 0 0.023635090312194178 -5.3601954224684949e-05 0 0.02413472341918085 -4.1942888166836422e-05 0 0.024429453482692563 -6.1036884045524221e-05 0 0.024957457603770349 1.1324626103663849e-05 0 0.024963387034016217 7.237569335812536e-06 0 0.024966248180201444 7.2004691362719871e-06 0 0.024955483558985948 3.9983175220789047e-06 0 0.024957457603770349 1.1324626103663849e-05 0 0.024963387034016217 7.237569335812536e-06 0 0.024797467285284758 -1.1527804934757848e-05 0 0.02413472341918085 -4.1942888166836422e-05 0 0.024963387034016217 7.237569335812536e-06 0 0.024966248180201444 7.2004691362719871e-06 0 0.024974118221630658 7.7323891505343521e-06 0 0.023694586448211884 -5.5883581903704848e-05 0 0.023660780738324731 -7.75946947577543e-05 0 0.023671967030307328 -0.00010950419809545085 0 0.02413472341918085 -4.1942888166836422e-05 0 0.023587863095603994 -0.00017144228168427904 0 0.023660780738324731 -7.75946947577543e-05 0 0.023671967030307328 -0.00010950419809545085 0 0.023647229326929427 -9.3674908594298999e-05 0 0.023583473347933408 -0.00013459556693417096 0 0.023568954435342956 -0.00017721068968984063 0 0.023600907213526437 -0.00015996256861380622 0 0.023568954435342956 -0.00017721068968984063 0 0.023600907213526437 -0.00015996256861380622 0 0.023584627151596857 -0.00019189056994531786 0 0.023625720398862678 -0.00018175582546229186 0 0.023600907213526437 -0.00015996256861380622 0 0.023584627151596857 -0.00019189056994531786 0 0.023625720398862678 -0.00018175582546229186 0 0.023584627151596857 -0.00019189056994531786 0 0.023605072922845263 -0.00020653307487637096 0 0.02356821610491221 -0.00021505457961962479 0 0.023584627151596857 -0.00019189056994531786 0 0.023605072922845263 -0.00020653307487637096 0 0.023570532226981588 -0.00021097248728067848 0 0.023568954435342956 -0.00017721068968984063 0 0.023584627151596857 -0.00019189056994531786 0 0.023570532226981588 -0.00021097248728067848 0 0.02356821610491221 -0.00021505457961962479 0 0.023584627151596857 -0.00019189056994531786 0 0.023643087666653215 -0.00015668470085061195 0 0.023671967030307328 -0.00010950419809545085 0 0.023621236078604054 -0.00013409595917485403 0 0.023610262971037292 -0.00017249802830415678 0 0.023587863095603994 -0.00017144228168427904 0 0.024327575926501945 4.0468093869784293e-05 0 0.02412359555366226 -1.222927990029811e-05 0 0.024247877972673013 -0.00012399723588769481 0 0.024327575926501945 4.0468093869784293e-05 0 0.024247877972673013 -0.00012399723588769481 0 0.024353473272244432 -4.4068805445039751e-05 0 0.024444252397612137 8.0173528590488281e-05 0 0.024327575926501945 4.0468093869784293e-05 0 0.024353473272244432 -4.4068805445039751e-05 0 0.024444252397612137 8.0173528590488281e-05 0 0.024327575926501945 4.0468093869784293e-05 0 0.024420434808463214 0.00011173112186569957 0 0.024327575926501945 4.0468093869784293e-05 0 0.024311308486757128 0.00010144954650099142 0 0.02412359555366226 -1.222927990029811e-05 0 0.024327575926501945 4.0468093869784293e-05 0 0.024420434808463214 0.00011173112186569957 0 0.024311308486757128 0.00010144954650099142 0 0.024420434808463214 0.00011173112186569957 0 0.024618762585681301 6.5718529249576303e-05 0 0.024311308486757128 0.00010144954650099142 0 0.023671967030307328 -0.00010950419809545085 0 0.023621236078604054 -0.00013409595917485403 0 0.023647229326929427 -9.3674908594298999e-05 0 0.024114760224694786 5.9438015341689408e-05 0 0.024429453482692563 -6.1036884045524221e-05 0 0.024444252397612137 8.0173528590488281e-05 0 0.024420434808463214 0.00011173112186569957 0 0.024417740158910982 7.9499884283814676e-05 0 0.023621236078604054 -0.00013409595917485403 0 0.023647229326929427 -9.3674908594298999e-05 0 0.023635090312194178 -5.3601954224684949e-05 0 0.023660780738324731 -7.75946947577543e-05 0 0.023647229326929427 -9.3674908594298999e-05 0 0.023635090312194178 -5.3601954224684949e-05 0 0.024966248180201444 7.2004691362719871e-06 0 0.024970428769793739 4.1857199186980789e-06 0 0.024971965476605493 6.0655591630848966e-06 0 0.024970428769793739 4.1857199186980789e-06 0 0.024970179731859707 2.0961128926265409e-07 0 0.024971965476605493 6.0655591630848966e-06 0 0.024970428769793739 4.1857199186980789e-06 0 0.024970179731859707 2.0961128926265409e-07 0 0.024974118221630658 7.7323891505343521e-06 0 0.024966248180201444 7.2004691362719871e-06 0 0.024970428769793739 4.1857199186980789e-06 0 0.024974118221630658 7.7323891505343521e-06 0 0.024970179731859707 2.0961128926265409e-07 0 0.024871493447249329 2.6435634783449214e-05 0 0.024955522086048808 2.1968124222570687e-05 0 0.024970179731859707 2.0961128926265409e-07 0 0.024985593665728226 -9.2819022817341366e-05 0 0.024871493447249329 2.6435634783449214e-05 0 0.024600148435944453 -2.1152300008258884e-05 0 0.024429453482692563 -6.1036884045524221e-05 0 0.024429453482692563 -6.1036884045524221e-05 0 0.024741292439936273 5.2284469621363833e-05 0 0.024985593665728226 -9.2819022817341366e-05 0 0.024618762585681301 6.5718529249576303e-05 0 0.024871493447249329 2.6435634783449214e-05 0 0.024420434808463214 0.00011173112186569957 0 0.024417740158910982 7.9499884283814676e-05 0 0.024618762585681301 6.5718529249576303e-05 0 0.024618762585681301 6.5718529249576303e-05 0 0.024871493447249329 2.6435634783449214e-05 0 0.024942212059261129 3.3093038789419617e-05 0 0.024618762585681301 6.5718529249576303e-05 0 0.024999681448232988 4.9813976586583992e-08 0 0.024942212059261129 3.3093038789419617e-05 0 0.024999681448232988 4.9813976586583992e-08 0 0.024942212059261129 3.3093038789419617e-05 0 0.02499996093310701 3.7068354164460346e-08 0 0.024942212059261129 3.3093038789419617e-05 0 0.024980184548472114 7.9295394512469848e-06 0 0.02499996093310701 3.7068354164460346e-08 0 0.024970179731859707 2.0961128926265409e-07 0 0.024974118221630658 7.7323891505343521e-06 0 0.024955522086048808 2.1968124222570687e-05 0 0.024980184548472114 7.9295394512469848e-06 0 0.024974118221630658 7.7323891505343521e-06 0 0.024955522086048808 2.1968124222570687e-05 0 0.024871493447249329 2.6435634783449214e-05 0 0.024942212059261129 3.3093038789419617e-05 0 0.024955522086048808 2.1968124222570687e-05 0 0.024942212059261129 3.3093038789419617e-05 0 0.024980184548472114 7.9295394512469848e-06 0 0.024955522086048808 2.1968124222570687e-05 0 0.024998629690417842 5.2044719819971282e-07 0 0.024762517511281053 8.0695282484398177e-05 0 0.024496771044610146 0.00016560779183891683 0 0.024618762585681301 6.5718529249576303e-05 0 0.024999681448232988 4.9813976586583992e-08 0 0.024762517511281053 8.0695282484398177e-05 0 0.024999681448232988 4.9813976586583992e-08 0 0.024998629690417842 5.2044719819971282e-07 0 0.024762517511281053 8.0695282484398177e-05 0 0.024618762585681301 6.5718529249576303e-05 0 0.024360341087793082 0.00014481883880780369 0 0.024274093160050046 0.00012093714351069878 0 0.024618762585681301 6.5718529249576303e-05 0 0.024762517511281053 8.0695282484398177e-05 0 0.024360341087793082 0.00014481883880780369 0 0.024762517511281053 8.0695282484398177e-05 0 0.024360341087793082 0.00014481883880780369 0 0.024496771044610146 0.00016560779183891683 0 0.024360341087793082 0.00014481883880780369 0 0.02390799757443815 9.4069767598628645e-05 0 0.024011008060806423 0.0001466773739595665 0 0.024360341087793082 0.00014481883880780369 0 0.024274093160050046 0.00012093714351069878 0 0.02390799757443815 9.4069767598628645e-05 0 0.024618762585681301 6.5718529249576303e-05 0 0.024274093160050046 0.00012093714351069878 0 0.024311308486757128 0.00010144954650099142 0 0.024274093160050046 0.00012093714351069878 0 0.024311308486757128 0.00010144954650099142 0 0.02390799757443815 9.4069767598628645e-05 0 0.02412359555366226 -1.222927990029811e-05 0 0.02390799757443815 9.4069767598628645e-05 0 0.023808076320487915 -7.9574594595132212e-05 0 0.024311308486757128 0.00010144954650099142 0 0.02412359555366226 -1.222927990029811e-05 0 0.02390799757443815 9.4069767598628645e-05 0 0.02390799757443815 9.4069767598628645e-05 0 0.023489948693489002 -3.7004518884316848e-05 0 0.023808076320487915 -7.9574594595132212e-05 0 0.023489948693489002 -3.7004518884316848e-05 0 0.023560543507720542 -0.00033063794916213566 0 0.022961995467653672 -0.00015668259987692326 0 0.023489948693489002 -3.7004518884316848e-05 0 0.023560543507720542 -0.00033063794916213566 0 0.023808076320487915 -7.9574594595132212e-05 0 0.023560543507720542 -0.00033063794916213566 0 0.022942379157713057 -0.00046220019862370024 0 0.022961995467653672 -0.00015668259987692326 0 0.023560543507720542 -0.00033063794916213566 0 0.024021853983652315 -0.00022102096392504451 0 0.024068946386137217 -0.00056404709386545905 0 0.023560543507720542 -0.00033063794916213566 0 0.024068946386137217 -0.00056404709386545905 0 0.023756526863052074 -0.00072165311752163625 0 0.023560543507720542 -0.00033063794916213566 0 0.024021853983652315 -0.00022102096392504451 0 0.023808076320487915 -7.9574594595132212e-05 0 0.02412359555366226 -1.222927990029811e-05 0 0.024021853983652315 -0.00022102096392504451 0 0.023808076320487915 -7.9574594595132212e-05 0 0.02412359555366226 -1.222927990029811e-05 0 0.024021853983652315 -0.00022102096392504451 0 0.024247877972673013 -0.00012399723588769481 0 0.024247877972673013 -0.00012399723588769481 0 0.024353473272244432 -4.4068805445039751e-05 0 0.024387263384981282 -0.00019434230855347638 0 0.024247877972673013 -0.00012399723588769481 0 0.024387263384981282 -0.00019434230855347638 0 0.024253911752530884 -0.00033035914351872345 0 0.024387263384981282 -0.00019434230855347638 0 0.024375625590369848 -0.00036391732221526034 0 0.024253911752530884 -0.00033035914351872345 0 0.024021853983652315 -0.00022102096392504451 0 0.024247877972673013 -0.00012399723588769481 0 0.024253911752530884 -0.00033035914351872345 0 0.024114760224694786 5.9438015341689408e-05 0 0.023046712672317716 -0.00066039012770134468 0 0.023643087666653215 -0.00015668470085061195 0 0.023616198928827527 -0.00017120148547733179 0 0.023598116301772814 -0.00018208065359685295 0 0.023621236078604054 -0.00013409595917485403 0 0.023616198928827527 -0.00017120148547733179 0 0.023608217143142492 -0.00018655995350525033 0 0.024444252397612137 8.0173528590488281e-05 0 0.024387263384981282 -0.00019434230855347638 0 0.024516064232534145 -0.00037747116494514212 0 0.024444252397612137 8.0173528590488281e-05 0 0.024353473272244432 -4.4068805445039751e-05 0 0.024387263384981282 -0.00019434230855347638 0 0.023610262971037292 -0.00017249802830415678 0 0.023600400552127147 -0.0001825177027549647 0 0.023643087666653215 -0.00015668470085061195 0 0.023621236078604054 -0.00013409595917485403 0 0.023616198928827527 -0.00017120148547733179 0 0.021334770286531596 -0.0011754561991264877 0 0.021421441055557999 -0.0012202493611358411 0 0.021382804588899313 -0.0011871369536004752 0 0.023567760028650048 -0.00015581668028838907 0 0.023598116301772814 -0.00018208065359685295 0 0.023608217143142492 -0.00018655995350525033 0 0.023616198928827527 -0.00017120148547733179 0 0.023598116301772814 -0.00018208065359685295 0 0.023608217143142492 -0.00018655995350525033 0 0.024516064232534145 -0.00037747116494514212 0 0.024375625590369848 -0.00036391732221526034 0 0.02432310902672407 -0.00050242433684016677 0 0.024387263384981282 -0.00019434230855347638 0 0.024516064232534145 -0.00037747116494514212 0 0.024375625590369848 -0.00036391732221526034 0 0.024021853983652315 -0.00022102096392504451 0 0.024253911752530884 -0.00033035914351872345 0 0.024068946386137217 -0.00056404709386545905 0 0.024375625590369848 -0.00036391732221526034 0 0.024253911752530884 -0.00033035914351872345 0 0.02432310902672407 -0.00050242433684016677 0 0.024516064232534145 -0.00037747116494514212 0 0.02432310902672407 -0.00050242433684016677 0 0.024333050794569801 -0.00073611846889924594 0 0.02432310902672407 -0.00050242433684016677 0 0.024068946386137217 -0.00056404709386545905 0 0.024333050794569801 -0.00073611846889924594 0 0.024253911752530884 -0.00033035914351872345 0 0.02432310902672407 -0.00050242433684016677 0 0.024068946386137217 -0.00056404709386545905 0 0.024333050794569801 -0.00073611846889924594 0 0.024494467896771868 -0.0010931786881321966 0 0.024004336919427653 -0.001021995339828154 0 0.024068946386137217 -0.00056404709386545905 0 0.024333050794569801 -0.00073611846889924594 0 0.024004336919427653 -0.001021995339828154 0 0.024516064232534145 -0.00037747116494514212 0 0.024333050794569801 -0.00073611846889924594 0 0.024494467896771868 -0.0010931786881321966 0 0.021421441055557999 -0.0012202493611358411 0 0.021382804588899313 -0.0011871369536004752 0 0.021417237111124011 -0.0011072211118634643 0 0.021356948428262062 -0.0011393501420691459 0 0.021382804588899313 -0.0011871369536004752 0 0.021417237111124011 -0.0011072211118634643 0 0.023046712672317716 -0.00066039012770134468 0 0.022422457687040577 -0.00093375008199955852 0 0.022422457687040577 -0.00093375008199955852 0 0.023387365015100536 -0.00083199296140455919 0 0.022388379413076375 -0.00074346971770675901 0 0.022530144547185483 -0.0006397207952791291 0 0.022352230134730401 -0.00059230667886636136 0 0.022388379413076375 -0.00074346971770675901 0 0.022224884573654003 -0.00068934837607183925 0 0.022352230134730401 -0.00059230667886636136 0 0.022224884573654003 -0.00068934837607183925 0 0.022112510100051955 -0.00052821402241971034 0 0.022352230134730401 -0.00059230667886636136 0 0.022114564808852967 -0.00082009119243354827 0 0.022224884573654003 -0.00068934837607183925 0 0.022037684546424831 -0.00055963988040052398 0 0.022224884573654003 -0.00068934837607183925 0 0.022112510100051955 -0.00052821402241971034 0 0.022037684546424831 -0.00055963988040052398 0 0.023560543507720542 -0.00033063794916213566 0 0.023359078761035847 -0.00096457827294827683 0 0.022942379157713057 -0.00046220019862370024 0 0.023560543507720542 -0.00033063794916213566 0 0.023359078761035847 -0.00096457827294827683 0 0.023756526863052074 -0.00072165311752163625 0 0.023359078761035847 -0.00096457827294827683 0 0.023756526863052074 -0.00072165311752163625 0 0.024004336919427653 -0.001021995339828154 0 0.024068946386137217 -0.00056404709386545905 0 0.023756526863052074 -0.00072165311752163625 0 0.024004336919427653 -0.001021995339828154 0 0.022680006781279481 -0.00071975136708100234 0 0.023387365015100536 -0.00083199296140455919 0 0.022144447474026368 -0.0005302430916695049 0 0.02140226806054547 -0.00038459826563485341 0 0.021599086922624713 -0.00023439826017127897 0 0.022144447474026368 -0.0005302430916695049 0 0.021599086922624713 -0.00023439826017127897 0 0.022217345782229093 -0.00024042444272684348 0 0.022144447474026368 -0.0005302430916695049 0 0.021570006886808834 -0.00053538643200560609 0 0.02140226806054547 -0.00038459826563485341 0 0.023359078761035847 -0.00096457827294827683 0 0.022144447474026368 -0.0005302430916695049 0 0.022942379157713057 -0.00046220019862370024 0 0.022680006781279481 -0.00071975136708100234 0 0.022220535566255164 -0.00057074338883430446 0 0.022112510100051955 -0.00052821402241971034 0 0.022144447474026368 -0.0005302430916695049 0 0.022037684546424831 -0.00055963988040052398 0 0.022144447474026368 -0.0005302430916695049 0 0.022217345782229093 -0.00024042444272684348 0 0.022942379157713057 -0.00046220019862370024 0 0.021550982420692835 -0.0006564341939397975 0 0.02154723835538672 -0.00054344961168627985 0 0.022144447474026368 -0.0005302430916695049 0 0.022037684546424831 -0.00055963988040052398 0 0.021570006886808834 -0.00053538643200560609 0 0.022114564808852967 -0.00082009119243354827 0 0.022037684546424831 -0.00055963988040052398 0 0.021570006886808834 -0.00053538643200560609 0 0.021089263356151768 -0.00047077720517814788 0 0.021570006886808834 -0.00053538643200560609 0 0.021168972231982913 -0.00043148626171481586 0 0.021570006886808834 -0.00053538643200560609 0 0.021168972231982913 -0.00043148626171481586 0 0.02140226806054547 -0.00038459826563485341 0 0.021168972231982913 -0.00043148626171481586 0 0.02140226806054547 -0.00038459826563485341 0 0.020800537125586941 -0.0002842705045472816 0 0.02140226806054547 -0.00038459826563485341 0 0.020800537125586941 -0.0002842705045472816 0 0.021042280648197641 -0.00016064748963867128 0 0.020051160859938022 -0.00017264856520959445 0 0.020800537125586941 -0.0002842705045472816 0 0.020485334315560641 -6.1930357649733558e-05 0 0.020800537125586941 -0.0002842705045472816 0 0.021042280648197641 -0.00016064748963867128 0 0.020485334315560641 -6.1930357649733558e-05 0 0.021042280648197641 -0.00016064748963867128 0 0.021599086922624713 -0.00023439826017127897 0 0.021289080526435609 5.3956001931953691e-05 0 0.02140226806054547 -0.00038459826563485341 0 0.021042280648197641 -0.00016064748963867128 0 0.021599086922624713 -0.00023439826017127897 0 0.021599086922624713 -0.00023439826017127897 0 0.02200196364785377 -7.0748373605191645e-05 0 0.021289080526435609 5.3956001931953691e-05 0 0.021599086922624713 -0.00023439826017127897 0 0.02200196364785377 -7.0748373605191645e-05 0 0.022217345782229093 -0.00024042444272684348 0 0.021042280648197641 -0.00016064748963867128 0 0.021289080526435609 5.3956001931953691e-05 0 0.020773221088944315 5.469850788732414e-05 0 0.021367969588687252 -3.5021951531232952e-06 0 0.021652681064488942 0.00010246079649744423 0 0.021289080526435609 5.3956001931953691e-05 0 0.022307301412720599 5.0235568522393946e-05 0 0.022241391812727076 5.7368433704370252e-05 0 0.02200196364785377 -7.0748373605191645e-05 0 0.021289080526435609 5.3956001931953691e-05 0 0.022307301412720599 5.0235568522393946e-05 0 0.02200196364785377 -7.0748373605191645e-05 0 0.022307301412720599 5.0235568522393946e-05 0 0.022553357335846517 -4.3551625662203338e-05 0 0.022307301412720599 5.0235568522393946e-05 0 0.022553357335846517 -4.3551625662203338e-05 0 0.022868005378305356 4.6158055450468315e-05 0 0.022553357335846517 -4.3551625662203338e-05 0 0.023216785388370006 2.3340251767877783e-05 0 0.022868005378305356 4.6158055450468315e-05 0 0.02200196364785377 -7.0748373605191645e-05 0 0.022553357335846517 -4.3551625662203338e-05 0 0.022217345782229093 -0.00024042444272684348 0 0.022553357335846517 -4.3551625662203338e-05 0 0.022217345782229093 -0.00024042444272684348 0 0.022961995467653672 -0.00015668259987692326 0 0.022217345782229093 -0.00024042444272684348 0 0.022942379157713057 -0.00046220019862370024 0 0.022961995467653672 -0.00015668259987692326 0 0.023489948693489002 -3.7004518884316848e-05 0 0.022961995467653672 -0.00015668259987692326 0 0.023216785388370006 2.3340251767877783e-05 0 0.022553357335846517 -4.3551625662203338e-05 0 0.022961995467653672 -0.00015668259987692326 0 0.023216785388370006 2.3340251767877783e-05 0 0.02390799757443815 9.4069767598628645e-05 0 0.023489948693489002 -3.7004518884316848e-05 0 0.023216785388370006 2.3340251767877783e-05 0 0.02390799757443815 9.4069767598628645e-05 0 0.023216785388370006 2.3340251767877783e-05 0 0.02347874625255663 9.8478920278698666e-05 0 0.023216785388370006 2.3340251767877783e-05 0 0.022868005378305356 4.6158055450468315e-05 0 0.02347874625255663 9.8478920278698666e-05 0 0.022868005378305356 4.6158055450468315e-05 0 0.02347874625255663 9.8478920278698666e-05 0 0.022823693287308364 8.3938350151992113e-05 0 0.02347874625255663 9.8478920278698666e-05 0 0.023860388768599947 0.00017204137273549135 0 0.023345851670247206 0.00015466723396832997 0 0.02347874625255663 9.8478920278698666e-05 0 0.023345851670247206 0.00015466723396832997 0 0.022823693287308364 8.3938350151992113e-05 0 0.02390799757443815 9.4069767598628645e-05 0 0.02347874625255663 9.8478920278698666e-05 0 0.024011008060806423 0.0001466773739595665 0 0.02347874625255663 9.8478920278698666e-05 0 0.024011008060806423 0.0001466773739595665 0 0.023860388768599947 0.00017204137273549135 0 0.024360341087793082 0.00014481883880780369 0 0.024011008060806423 0.0001466773739595665 0 0.024496771044610146 0.00016560779183891683 0 0.023860388768599947 0.00017204137273549135 0 0.024153649604784569 0.00021744577004477982 0 0.024496771044610146 0.00016560779183891683 0 0.024011008060806423 0.0001466773739595665 0 0.023860388768599947 0.00017204137273549135 0 0.024496771044610146 0.00016560779183891683 0 0.023860388768599947 0.00017204137273549135 0 0.023345851670247206 0.00015466723396832997 0 0.023568248769060499 0.0002580639370828434 0 0.023860388768599947 0.00017204137273549135 0 0.023568248769060499 0.0002580639370828434 0 0.024153649604784569 0.00021744577004477982 0 0.024153649604784569 0.00021744577004477982 0 0.024940297258975029 7.2221694498247104e-05 0 0.023406646199952266 0.00067974777710323481 0 0.02499984372635396 2.1129135822735591e-07 0 0.024940297258975029 7.2221694498247104e-05 0 0.025006437030028823 -1.0464896258466838e-06 0 0.024765588365525927 0.00013286784906834826 0 0.024321632537656686 0.00032676847636813305 0 0.023568248769060499 0.0002580639370828434 0 0.024153649604784569 0.00021744577004477982 0 0.023406646199952266 0.00067974777710323481 0 0.024998629690417842 5.2044719819971282e-07 0 0.02499984372635396 2.1129135822735591e-07 0 0.024940297258975029 7.2221694498247104e-05 0 0.024998629690417842 5.2044719819971282e-07 0 0.024940297258975029 7.2221694498247104e-05 0 0.024496771044610146 0.00016560779183891683 0 0.024153649604784569 0.00021744577004477982 0 0.024940297258975029 7.2221694498247104e-05 0 0.024496771044610146 0.00016560779183891683 0 0.024994123798933694 -3.6228412481216352e-06 0 0.025000066703757453 -1.0519155553831517e-07 0 0.025006437030028823 -1.0464896258466838e-06 0 0.023374565411912036 9.7314481716111225e-06 0 0.024998893522222176 -3.81707080433302e-08 0 0.02499984372635396 2.1129135822735591e-07 0 0.025000066703757453 -1.0519155553831517e-07 0 0.025006437030028823 -1.0464896258466838e-06 0 0.022715181721487725 0.00057541654179151859 0 0.023406646199952266 0.00067974777710323481 0 0.023054702276778718 0.0002753636363307846 0 0.023568248769060499 0.0002580639370828434 0 0.023406646199952266 0.00067974777710323481 0 0.023054702276778718 0.0002753636363307846 0 0.023374565411912036 9.7314481716111225e-06 0 0.024321632537656686 0.00032676847636813305 0 0.023345851670247206 0.00015466723396832997 0 0.023568248769060499 0.0002580639370828434 0 0.023054702276778718 0.0002753636363307846 0 0.022715181721487725 0.00057541654179151859 0 0.023054702276778718 0.0002753636363307846 0 0.022663243125892296 0.00014202499568223553 0 0.020812990534338639 -0.00090518994551834183 0 0.020966679167615812 -0.00011465266211866969 0 0.021284249712491692 -0.00036461742846154274 0 0.023374565411912036 9.7314481716111225e-06 0 0.021635206175227566 -3.9248023290446219e-05 0 0.021635206175227566 -3.9248023290446219e-05 0 0.021652681064488942 0.00010246079649744423 0 0.022663243125892296 0.00014202499568223553 0 0.022823693287308364 8.3938350151992113e-05 0 0.022241391812727076 5.7368433704370252e-05 0 0.020966679167615812 -0.00011465266211866969 0 0.021087282788921399 0.0002389464595150911 0 0.021271432573074917 -3.6608826961736365e-05 0 0.023054702276778718 0.0002753636363307846 0 0.022663243125892296 0.00014202499568223553 0 0.022823693287308364 8.3938350151992113e-05 0 0.023345851670247206 0.00015466723396832997 0 0.023054702276778718 0.0002753636363307846 0 0.022823693287308364 8.3938350151992113e-05 0 0.022307301412720599 5.0235568522393946e-05 0 0.022823693287308364 8.3938350151992113e-05 0 0.022241391812727076 5.7368433704370252e-05 0 0.022307301412720599 5.0235568522393946e-05 0 0.022868005378305356 4.6158055450468315e-05 0 0.022823693287308364 8.3938350151992113e-05 0 0.025000618398458525 -1.6688985149156315e-07 0 0.024863624571009237 -9.8127997049633933e-06 0 0.024997585486755861 3.3218121765166572e-07 0 0.021087282788921399 0.0002389464595150911 0 0.021212804438460752 0.00015264158928564761 0 0.021271432573074917 -3.6608826961736365e-05 0 0.021212804438460752 0.00015264158928564761 0 0.021532620634334691 -0.00014027632243408258 0 0.021770762137505961 7.5059800733646978e-05 0 0.021212804438460752 0.00015264158928564761 0 0.021532620634334691 -0.00014027632243408258 0 0.021271432573074917 -3.6608826961736365e-05 0 0.021532620634334691 -0.00014027632243408258 0 0.021271432573074917 -3.6608826961736365e-05 0 0.02164967149060296 -0.00030065208643361395 0 0.020966679167615812 -0.00011465266211866969 0 0.021271432573074917 -3.6608826961736365e-05 0 0.021284249712491692 -0.00036461742846154274 0 0.020812990534338639 -0.00090518994551834183 0 0.021284249712491692 -0.00036461742846154274 0 0.021966226081867029 -0.00093416808104221241 0 0.021271432573074917 -3.6608826961736365e-05 0 0.021284249712491692 -0.00036461742846154274 0 0.02164967149060296 -0.00030065208643361395 0 0.021773248338724911 -0.00028254131125555462 0 0.022801976406766383 -9.7833984472364384e-05 0 0.02164967149060296 -0.00030065208643361395 0 0.021966226081867029 -0.00093416808104221241 0 0.023874241411531154 0.00024156104946922705 0 0.021532620634334691 -0.00014027632243408258 0 0.02164967149060296 -0.00030065208643361395 0 0.021828171946132593 -0.0004230195139566844 0 0.021284249712491692 -0.00036461742846154274 0 0.02164967149060296 -0.00030065208643361395 0 0.021966226081867029 -0.00093416808104221241 0 0.023374565411912036 9.7314481716111225e-06 0 0.023317289068670335 -0.00050959891877240873 0 0.024990412272612877 -3.1246030422073842e-05 0 0.025000618398458525 -1.6688985149156315e-07 0 0.024863624571009237 -9.8127997049633933e-06 0 0.024863624571009237 -9.8127997049633933e-06 0 0.024997585486755861 3.3218121765166572e-07 0 0.024373009860456707 -8.7226273390375762e-05 0 0.024997585486755861 3.3218121765166572e-07 0 0.024373009860456707 -8.7226273390375762e-05 0 0.023344660677604035 -6.3634980440856992e-07 0 0.021966226081867029 -0.00093416808104221241 0 0.023874241411531154 0.00024156104946922705 0 0.024373009860456707 -8.7226273390375762e-05 0 0.023317289068670335 -0.00050959891877240873 0 0.024350110736989266 -0.00012097199410762757 0 0.022801976406766383 -9.7833984472364384e-05 0 0.023340875139879768 -2.1725472804083343e-08 0 0.023874241411531154 0.00024156104946922705 0 0.024373009860456707 -8.7226273390375762e-05 0 0.023344660677604035 -6.3634980440856992e-07 0 0.021828171946132593 -0.0004230195139566844 0 0.023338386872335807 -1.449672936186805e-06 0 0.021770762137505961 7.5059800733646978e-05 0 0.021532620634334691 -0.00014027632243408258 0 0.021828171946132593 -0.0004230195139566844 0 0.021770762137505961 7.5059800733646978e-05 0 0.021212804438460752 0.00015264158928564761 0 0.021770762137505961 7.5059800733646978e-05 0 0.020929644159423399 0.00019260063418691451 0 0.023338386872335807 -1.449672936186805e-06 0 0.021770762137505961 7.5059800733646978e-05 0 0.021985691603884101 7.8173427616702367e-07 0 0.021770762137505961 7.5059800733646978e-05 0 0.021985691603884101 7.8173427616702367e-07 0 0.020929644159423399 0.00019260063418691451 0 0.021985691603884101 7.8173427616702367e-07 0 0.020630152805411361 1.7810375157452372e-07 0 0.020929644159423399 0.00019260063418691451 0 0.020630152805411361 1.7810375157452372e-07 0 0.020929644159423399 0.00019260063418691451 0 0.020105067351699289 0.0001030005226720599 0 0.020929644159423399 0.00019260063418691451 0 0.020325353051668223 0.0001211433994383922 0 0.020105067351699289 0.0001030005226720599 0 0.021212804438460752 0.00015264158928564761 0 0.020929644159423399 0.00019260063418691451 0 0.020882699941127601 0.00020328286484475066 0 0.021087282788921399 0.0002389464595150911 0 0.021212804438460752 0.00015264158928564761 0 0.020882699941127601 0.00020328286484475066 0 0.021289080526435609 5.3956001931953691e-05 0 0.021087282788921399 0.0002389464595150911 0 0.020882699941127601 0.00020328286484475066 0 0.021289080526435609 5.3956001931953691e-05 0 0.020882699941127601 0.00020328286484475066 0 0.020773221088944315 5.469850788732414e-05 0 0.020929644159423399 0.00019260063418691451 0 0.020882699941127601 0.00020328286484475066 0 0.020325353051668223 0.0001211433994383922 0 0.020882699941127601 0.00020328286484475066 0 0.020773221088944315 5.469850788732414e-05 0 0.020325353051668223 0.0001211433994383922 0 0.020773221088944315 5.469850788732414e-05 0 0.020325353051668223 0.0001211433994383922 0 0.020485334315560641 -6.1930357649733558e-05 0 0.021042280648197641 -0.00016064748963867128 0 0.020773221088944315 5.469850788732414e-05 0 0.020485334315560641 -6.1930357649733558e-05 0 0.020051160859938022 -0.00017264856520959445 0 0.020485334315560641 -6.1930357649733558e-05 0 0.019756643408428507 -9.0361028127129868e-06 0 0.020325353051668223 0.0001211433994383922 0 0.019756643408428507 -9.0361028127129868e-06 0 0.019393948678888686 7.241914124652397e-05 0 0.020325353051668223 0.0001211433994383922 0 0.020485334315560641 -6.1930357649733558e-05 0 0.019756643408428507 -9.0361028127129868e-06 0 0.019393948678888686 7.241914124652397e-05 0 0.01927501626416725 1.9657549411640693e-07 0 0.020105067351699289 0.0001030005226720599 0 0.020630152805411361 1.7810375157452372e-07 0 0.01927501626416725 1.9657549411640693e-07 0 0.020105067351699289 0.0001030005226720599 0 0.020325353051668223 0.0001211433994383922 0 0.019393948678888686 7.241914124652397e-05 0 0.020105067351699289 0.0001030005226720599 0 0.023477101735342881 -0.00046330112654304791 0 0.023853177431308319 -0.00069997002133948395 0 0.024273478373285345 -0.00052826349808027186 0 0.024340014664066517 -0.00069476693060104759 0 0.024327993839880512 -0.00069044376188405259 0 0.02272594644765364 -0.00042440674329616507 0 0.023260047587109031 -0.00015477006105833976 0 0.023389773418712425 -0.00073770019685127355 0 0.02272594644765364 -0.00042440674329616507 0 0.023260047587109031 -0.00015477006105833976 0 0.022505280996049648 0.00022081651405216532 0 0.023260047587109031 -0.00015477006105833976 0 0.023827447322296538 -0.00025031852871102702 0 0.023728859767584196 -0.00057224237040600788 0 0.023260047587109031 -0.00015477006105833976 0 0.023827447322296538 -0.00025031852871102702 0 0.023603136934546295 0.00032723183339049576 0 0.023235968595083298 -0.00085497310145190284 0 0.02334641713647809 -0.0009115200010331333 0 0.023356460399225634 -0.00084541067251017515 0 0.023235968595083298 -0.00085497310145190284 0 0.023324978617179117 -0.00077793906398210028 0 0.023356460399225634 -0.00084541067251017515 0 0.02334641713647809 -0.0009115200010331333 0 0.02329575145416796 -0.001033614673763286 0 0.023374965563739178 -0.0010226620377927786 0 0.023827447322296538 -0.00025031852871102702 0 0.023728859767584196 -0.00057224237040600788 0 0.024040552164576796 -0.00072284159263369971 0 0.023534995112306993 -0.00055135293005943297 0 0.023655486307599238 -0.00091105037256097746 0 0.023235968595083298 -0.00085497310145190284 0 0.02334641713647809 -0.0009115200010331333 0 0.02329575145416796 -0.001033614673763286 0 0.023260047587109031 -0.00015477006105833976 0 0.023728859767584196 -0.00057224237040600788 0 0.023389773418712425 -0.00073770019685127355 0 0.024088285148874278 -0.00079383192484933096 0 0.024293165201240398 -0.00071424235228815982 0 0.024340014664066517 -0.00069476693060104759 0 0.023728859767584196 -0.00057224237040600788 0 0.024088285148874278 -0.00079383192484933096 0 0.023389773418712425 -0.00073770019685127355 0 0.024043908026740491 -0.00077885454670781069 0 0.023853177431308319 -0.00069997002133948395 0 0.024040552164576796 -0.00072284159263369971 0 0.024088285148874278 -0.00079383192484933096 0 0.024092724135700124 -0.00073969437407025019 0 0.023655486307599238 -0.00091105037256097746 0 0.023843183152591752 -0.00075719431778163563 0 0.023728859767584196 -0.00057224237040600788 0 0.024040552164576796 -0.00072284159263369971 0 0.024088285148874278 -0.00079383192484933096 0 0.02329575145416796 -0.001033614673763286 0 0.023339253073196307 -0.0011609093392841634 0 0.023374965563739178 -0.0010226620377927786 0 0.024088285148874278 -0.00079383192484933096 0 0.024165413515764976 -0.00071248764046750546 0 0.024092724135700124 -0.00073969437407025019 0 0.024165413515764976 -0.00071248764046750546 0 0.024092724135700124 -0.00073969437407025019 0 0.024201630679607563 -0.00063899197394714894 0 0.023843183152591752 -0.00075719431778163563 0 0.02387690150630338 -0.00061417198903035864 0 0.024092988844246706 -0.00053764611921450472 0 0.023996314124719403 -0.00051013928703398691 0 0.02410678247910028 -0.00044800164113951313 0 0.024293165201240398 -0.00071424235228815982 0 0.024274026004630411 -0.00065906387693520673 0 0.024396599101559967 -0.00068701838931542827 0 0.024088285148874278 -0.00079383192484933096 0 0.024165413515764976 -0.00071248764046750546 0 0.024293165201240398 -0.00071424235228815982 0 0.024165413515764976 -0.00071248764046750546 0 0.024293165201240398 -0.00071424235228815982 0 0.024274026004630411 -0.00065906387693520673 0 0.024165413515764976 -0.00071248764046750546 0 0.024274026004630411 -0.00065906387693520673 0 0.024201630679607563 -0.00063899197394714894 0 0.024293165201240398 -0.00071424235228815982 0 0.024396599101559967 -0.00068701838931542827 0 0.024327993839880512 -0.00069044376188405259 0 0.024293165201240398 -0.00071424235228815982 0 0.024340014664066517 -0.00069476693060104759 0 0.024327993839880512 -0.00069044376188405259 0 0.024273478373285345 -0.00052826349808027186 0 0.024327993839880512 -0.00069044376188405259 0 0.024200541780841842 -0.00067000507119105858 0 0.024396599101559967 -0.00068701838931542827 0 0.024327993839880512 -0.00069044376188405259 0 0.02425342944914613 -0.00077684323504778065 0 0.024327993839880512 -0.00069044376188405259 0 0.024200541780841842 -0.00067000507119105858 0 0.02425342944914613 -0.00077684323504778065 0 0.024161544644826151 -0.00073625054831476895 0 0.024200541780841842 -0.00067000507119105858 0 0.02425342944914613 -0.00077684323504778065 0 0.024161544644826151 -0.00073625054831476895 0 0.024065742816221536 -0.0007003857477911171 0 0.024200541780841842 -0.00067000507119105858 0 0.024161544644826151 -0.00073625054831476895 0 0.024065742816221536 -0.0007003857477911171 0 0.024123105648692075 -0.00081530206363749573 0 0.024065742816221536 -0.0007003857477911171 0 0.024200541780841842 -0.00067000507119105858 0 0.024071621099557895 -0.00054179137466746938 0 0.023905440184486416 -0.00080990868770112058 0 0.023840988283994079 -0.00062027238205835885 0 0.024071621099557895 -0.00054179137466746938 0 0.023900451982736354 -0.00082771786246196844 0 0.024101695790215774 -0.00050991365486245134 0 0.02373220509828106 -0.00087597499563646364 0 0.023701925217700801 -0.00097483013532255046 0 0.023550184231583889 -0.00086621642898324623 0 0.02373220509828106 -0.00087597499563646364 0 0.023715177403812442 -0.00071935340187621226 0 0.023550184231583889 -0.00086621642898324623 0 0.023900451982736354 -0.00082771786246196844 0 0.024377379243201974 -0.00066688210846820874 0 0.023905440184486416 -0.00080990868770112058 0 0.02373220509828106 -0.00087597499563646364 0 0.023715177403812442 -0.00071935340187621226 0 0.023905440184486416 -0.00080990868770112058 0 0.02373220509828106 -0.00087597499563646364 0 0.023790015390904428 -0.0010372882938461186 0 0.023905440184486416 -0.00080990868770112058 0 0.023715177403812442 -0.00071935340187621226 0 0.023840988283994079 -0.00062027238205835885 0 0.023715177403812442 -0.00071935340187621226 0 0.023550184231583889 -0.00086621642898324623 0 0.023571167814118634 -0.00061377522929992345 0 0.023699471891436501 -0.00049976648224631418 0 0.023588806547864671 -0.00032669788264094301 0 0.023571167814118634 -0.00061377522929992345 0 0.023715177403812442 -0.00071935340187621226 0 0.023699471891436501 -0.00049976648224631418 0 0.023571167814118634 -0.00061377522929992345 0 0.023699471891436501 -0.00049976648224631418 0 0.023840988283994079 -0.00062027238205835885 0 0.023880633520212288 -0.00040460440196050972 0 0.023715177403812442 -0.00071935340187621226 0 0.023699471891436501 -0.00049976648224631418 0 0.023840988283994079 -0.00062027238205835885 0 0.023699471891436501 -0.00049976648224631418 0 0.023880633520212288 -0.00040460440196050972 0 0.023717712840867676 -0.00032775648583033241 0 0.023699471891436501 -0.00049976648224631418 0 0.023717712840867676 -0.00032775648583033241 0 0.023588806547864671 -0.00032669788264094301 0 0.021579053123687346 0.00036967431090257762 0 0.021214061471455131 0.00052307059792126474 0 0.021579053123687346 0.00036967431090257762 0 0.023057045871827532 -0.00034557380376655077 0 0.020323316574040694 0.0010686247607776772 0 0.020333510486887921 0.0011051898676373677 0 0.020248834623064416 0.0010207384520422777 0 0.024273478373285345 -0.00052826349808027186 0 0.024200541780841842 -0.00067000507119105858 0 0.024071621099557895 -0.00054179137466746938 0 0.023840988283994079 -0.00062027238205835885 0 0.023880633520212288 -0.00040460440196050972 0 0.024071621099557895 -0.00054179137466746938 0 0.023880633520212288 -0.00040460440196050972 0 0.024071621099557895 -0.00054179137466746938 0 0.024091854778104362 -0.00033557609939860548 0 0.023477101735342881 -0.00046330112654304791 0 0.023200043608993151 -0.00021411266414500513 0 0.024273478373285345 -0.00052826349808027186 0 0.024071621099557895 -0.00054179137466746938 0 0.024091854778104362 -0.00033557609939860548 0 0.02272594644765364 -0.00042440674329616507 0 0.022131869402051991 -5.1820512477005949e-05 0 0.022505280996049648 0.00022081651405216532 0 0.022131869402051991 -5.1820512477005949e-05 0 0.021956316058313118 0.00047107279223845838 0 0.022505280996049648 0.00022081651405216532 0 0.023200043608993151 -0.00021411266414500513 0 0.022232029693778407 5.7279044419231868e-05 0 0.022131869402051991 -5.1820512477005949e-05 0 0.021956316058313118 0.00047107279223845838 0 0.021614562869178035 0.00031680200790261013 0 0.023880633520212288 -0.00040460440196050972 0 0.024091854778104362 -0.00033557609939860548 0 0.023842537642321443 -0.00015119231044937982 0 0.021687410120512184 0.00034067114211296004 0 0.021141114469255012 9.7424491158791949e-05 0 0.021176757424486912 0.0007175405569442363 0 0.021687410120512184 0.00034067114211296004 0 0.022259835123284215 0.0006116712930446358 0 0.021626255969883577 0.0011633279220804023 0 0.021730821659822645 0.00035083322080772767 0 0.022232029693778407 5.7279044419231868e-05 0 0.021730821659822645 0.00035083322080772767 0 0.02223216754252275 0.00059285748476899623 0 0.021956316058313118 0.00047107279223845838 0 0.022259835123284215 0.0006116712930446358 0 0.022505280996049648 0.00022081651405216532 0 0.018322683544561041 0.00036778782408964712 0 0.019734540112035608 0.00013731383237344314 0 0.017476495047062036 0.0002265704411071859 0 0.017374176478357779 -0.0001316227820370748 0 0.017064964277002954 0.00040030213608999578 0 0.021579053123687346 0.00036967431090257762 0 0.019734540112035608 0.00013731383237344314 0 0.023717712840867676 -0.00032775648583033241 0 0.023600952432143944 -0.00025749805047302121 0 0.023692018859045857 -0.00021698760455282393 0 0.019734540112035608 0.00013731383237344314 0 0.021143290426946522 5.1694357138558944e-05 0 0.023717712840867676 -0.00032775648583033241 0 0.023588806547864671 -0.00032669788264094301 0 0.023600952432143944 -0.00025749805047302121 0 0.019512120767504144 0.00039036691431682495 0 0.019465598948012554 -2.8652524813282302e-05 0 0.019819563500956133 0.00012361535547048024 0 0.018322683544561041 0.00036778782408964712 0 0.021143290426946522 5.1694357138558944e-05 0 0.023717712840867676 -0.00032775648583033241 0 0.023692018859045857 -0.00021698760455282393 0 0.023842537642321443 -0.00015119231044937982 0 0.023880633520212288 -0.00040460440196050972 0 0.023717712840867676 -0.00032775648583033241 0 0.023842537642321443 -0.00015119231044937982 0 0.021143290426946522 5.1694357138558944e-05 0 0.022232029693778407 5.7279044419231868e-05 0 0.020007870861835784 -0.00041309853487094022 0 0.0213227165183318 0.00015571088977016365 0 0.019783249238889612 0.0012642524268541904 0 0.021141114469255012 9.7424491158791949e-05 0 0.021176757424486912 0.0007175405569442363 0 0.020548107872981523 0.00051870534389427704 0 0.022232029693778407 5.7279044419231868e-05 0 0.018284281337069268 0.00094555684268163103 0 0.017512305386369678 0.00083107973851441962 0 0.016890970091021404 0.00082968806066452318 0 0.01629641097942354 0.0016830175431218322 0 0.019316327206952727 0.0001920059436126112 0 0.020007870861835784 -0.00041309853487094022 0 0.019783249238889612 0.0012642524268541904 0 0.017223253341346528 0.00016029607564936607 0 0.017512305386369678 0.00083107973851441962 0 0.017267395563570133 0.00040950964444236521 0 0.018322683544561041 0.00036778782408964712 0 0.018284281337069268 0.00094555684268163103 0 0.017222633711431356 0.00016042792040524831 0 0.016890970091021404 0.00082968806066452318 0 0.017267395563570133 0.00040950964444236521 0 0.017512305386369678 0.00083107973851441962 0 0.016890970091021404 0.00082968806066452318 0 0.017267395563570133 0.00040950964444236521 0 0.018322683544561041 0.00036778782408964712 0 0.018145050300148683 0.00028835539304964124 0 0.016043093225578679 0.0016477934746021315 0 0.015755398630844516 0.0022670031677280546 0 0.015342359034364983 0.0021543259468427833 0 0.018284281337069268 0.00094555684268163103 0 0.018502990190407961 0.0018812190630802907 0 0.016043093225578679 0.0016477934746021315 0 0.015755398630844516 0.0022670031677280546 0 0.016242073504821257 0.0024407032467270253 0 0.018284281337069268 0.00094555684268163103 0 0.01554555453538942 0.0020396064546413361 0 0.021176757424486912 0.0007175405569442363 0 0.020788479836152483 0.0013428832162958077 0 0.021626255969883577 0.0011633279220804023 0 0.021176757424486912 0.0007175405569442363 0 0.020548107872981523 0.00051870534389427704 0 0.020788479836152483 0.0013428832162958077 0 0.018820012573211309 0.002844693030490827 0 0.018502990190407961 0.0018812190630802907 0 0.015947425769777441 0.0029776962631989129 0 0.016420846370127806 0.0031960476832965188 0 0.016242073504821257 0.0024407032467270253 0 0.021007493407272627 0.0021615563987995318 0 0.020788479836152483 0.0013428832162958077 0 0.021498658936134112 0.0017519574465614013 0 0.015947425769777441 0.0029776962631989129 0 0.016242073504821257 0.0024407032467270253 0 0.015725823526839371 0.0026282777381228667 0 0.015755398630844516 0.0022670031677280546 0 0.016242073504821257 0.0024407032467270253 0 0.015725823526839371 0.0026282777381228667 0 0.015947425769777441 0.0029776962631989129 0 0.015725823526839371 0.0026282777381228667 0 0.015523733847009114 0.0030003499406119458 0 0.015755398630844516 0.0022670031677280546 0 0.015725823526839371 0.0026282777381228667 0 0.015476993171621009 0.0024845213652237796 0 0.022259835123284215 0.0006116712930446358 0 0.02219687361917182 0.0011090353580456729 0 0.021626255969883577 0.0011633279220804023 0 0.022259835123284215 0.0006116712930446358 0 0.02219687361917182 0.0011090353580456729 0 0.022635286844279959 0.0010219712040742488 0 0.021687410120512184 0.00034067114211296004 0 0.021176757424486912 0.0007175405569442363 0 0.021626255969883577 0.0011633279220804023 0 0.021626255969883577 0.0011633279220804023 0 0.021498658936134112 0.0017519574465614013 0 0.022244874931573427 0.0016814328052672971 0 0.020788479836152483 0.0013428832162958077 0 0.021626255969883577 0.0011633279220804023 0 0.021498658936134112 0.0017519574465614013 0 0.02219687361917182 0.0011090353580456729 0 0.021626255969883577 0.0011633279220804023 0 0.022244874931573427 0.0016814328052672971 0 0.02219687361917182 0.0011090353580456729 0 0.022244874931573427 0.0016814328052672971 0 0.022635286844279959 0.0010219712040742488 0 0.022133039466591557 0.0016140867193157112 0 0.022609766616758769 0.0010477053357777831 0 0.022599691273372458 0.0014836992054647463 0 0.022964796345554442 0.0011448956002506341 0 0.022635286844279959 0.0010219712040742488 0 0.022145424397973571 0.0014302851125464692 0 0.022599691273372458 0.0014836992054647463 0 0.022635286844279959 0.0010219712040742488 0 0.023188907368948384 0.0015508594869210949 0 0.022964796345554442 0.0011448956002506341 0 0.023388148030984841 0.00092100285797819237 0 0.022599691273372458 0.0014836992054647463 0 0.023188907368948384 0.0015508594869210949 0 0.022964796345554442 0.0011448956002506341 0 0.022964796345554442 0.0011448956002506341 0 0.02303681682868915 0.00074735077301689705 0 0.023388148030984841 0.00092100285797819237 0 0.022964796345554442 0.0011448956002506341 0 0.022635286844279959 0.0010219712040742488 0 0.02303681682868915 0.00074735077301689705 0 0.022635286844279959 0.0010219712040742488 0 0.022675050336473858 0.00060446571548616651 0 0.02303681682868915 0.00074735077301689705 0 0.022675050336473858 0.00060446571548616651 0 0.023001417620149824 0.0003730784633966238 0 0.022505280996049648 0.00022081651405216532 0 0.022259835123284215 0.0006116712930446358 0 0.022675050336473858 0.00060446571548616651 0 0.022505280996049648 0.00022081651405216532 0 0.022259835123284215 0.0006116712930446358 0 0.022635286844279959 0.0010219712040742488 0 0.022675050336473858 0.00060446571548616651 0 0.022675050336473858 0.00060446571548616651 0 0.02303681682868915 0.00074735077301689705 0 0.023001417620149824 0.0003730784633966238 0 0.02303681682868915 0.00074735077301689705 0 0.023001417620149824 0.0003730784633966238 0 0.023603136934546295 0.00032723183339049576 0 0.023260047587109031 -0.00015477006105833976 0 0.023001417620149824 0.0003730784633966238 0 0.022505280996049648 0.00022081651405216532 0 0.023260047587109031 -0.00015477006105833976 0 0.023001417620149824 0.0003730784633966238 0 0.023603136934546295 0.00032723183339049576 0 0.023279367761038654 -0.00070851017560697848 0 0.023190637813584387 -0.00070464943784007941 0 0.023324978617179117 -0.00077793906398210028 0 0.023235968595083298 -0.00085497310145190284 0 0.023190637813584387 -0.00070464943784007941 0 0.023324978617179117 -0.00077793906398210028 0 0.023534995112306993 -0.00055135293005943297 0 0.023391599979614385 -0.0001847183621303028 0 0.023391599979614385 -0.0001847183621303028 0 0.023323538827582393 0.00010971883798668954 0 0.023190637813584387 -0.00070464943784007941 0 0.023219941587158073 -0.0006379931669990886 0 0.023154685119691178 -0.00062126671696994444 0 0.02303681682868915 0.00074735077301689705 0 0.023603136934546295 0.00032723183339049576 0 0.023388148030984841 0.00092100285797819237 0 0.023279367761038654 -0.00070851017560697848 0 0.023190637813584387 -0.00070464943784007941 0 0.023254051985590177 -0.00066247216608930333 0 0.023190637813584387 -0.00070464943784007941 0 0.023254051985590177 -0.00066247216608930333 0 0.023219941587158073 -0.0006379931669990886 0 0.023279367761038654 -0.00070851017560697848 0 0.023254051985590177 -0.00066247216608930333 0 0.023284293238378002 -0.00069522442984045775 0 0.022708040470963094 -0.00059768378478012739 0 0.022866329798748111 -0.00060058141086321215 0 0.023254051985590177 -0.00066247216608930333 0 0.023219941587158073 -0.0006379931669990886 0 0.023266170274687813 -0.00067237174973849042 0 0.023219941587158073 -0.0006379931669990886 0 0.023215349428855534 -0.00056344915994726034 0 0.023266170274687813 -0.00067237174973849042 0 0.022153962274489351 -0.00042949391298518173 0 0.022397067892693166 -0.00036943906377801482 0 0.022507506183189332 -0.00058812998280257311 0 0.023219941587158073 -0.0006379931669990886 0 0.023154685119691178 -0.00062126671696994444 0 0.023215349428855534 -0.00056344915994726034 0 0.022710848581532692 0.00067624091879129081 0 0.022708040470963094 -0.00059768378478012739 0 0.022216808018039755 -0.00023163512638189779 0 0.021859354082828082 -0.0002506073710815409 0 0.022153962274489351 -0.00042949391298518173 0 0.023104891571520174 -0.00047208333041223418 0 0.023154685119691178 -0.00062126671696994444 0 0.023215349428855534 -0.00056344915994726034 0 0.022710848581532692 0.00067624091879129081 0 0.023323538827582393 0.00010971883798668954 0 0.022489462709184466 -0.00019430999069508718 0 0.022216808018039755 -0.00023163512638189779 0 0.022397067892693166 -0.00036943906377801482 0 0.022216808018039755 -0.00023163512638189779 0 0.022153962274489351 -0.00042949391298518173 0 0.022397067892693166 -0.00036943906377801482 0 0.022489462709184466 -0.00019430999069508718 0 0.022639616553885692 -0.00038152349555233532 0 0.022740842202085922 -0.00026461264280741478 0 0.022489462709184466 -0.00019430999069508718 0 0.022639616553885692 -0.00038152349555233532 0 0.022397067892693166 -0.00036943906377801482 0 0.022866329798748111 -0.00060058141086321215 0 0.022992555129590708 -0.0006477970977083337 0 0.022507506183189332 -0.00058812998280257311 0 0.022821978918449875 -0.00052559759725471047 0 0.02302116345814105 -0.00064730355657843732 0 0.022639616553885692 -0.00038152349555233532 0 0.022397067892693166 -0.00036943906377801482 0 0.022507506183189332 -0.00058812998280257311 0 0.022639616553885692 -0.00038152349555233532 0 0.022507506183189332 -0.00058812998280257311 0 0.022821978918449875 -0.00052559759725471047 0 0.022821978918449875 -0.00052559759725471047 0 0.023001867291121553 -0.00054170976130273236 0 0.02302116345814105 -0.00064730355657843732 0 0.022639616553885692 -0.00038152349555233532 0 0.022821978918449875 -0.00052559759725471047 0 0.022819960559642336 -0.00041604374811542833 0 0.022821978918449875 -0.00052559759725471047 0 0.022819960559642336 -0.00041604374811542833 0 0.023001867291121553 -0.00054170976130273236 0 0.022819960559642336 -0.00041604374811542833 0 0.022740842202085922 -0.00026461264280741478 0 0.022908455166589625 -0.00033445379975423313 0 0.022639616553885692 -0.00038152349555233532 0 0.022819960559642336 -0.00041604374811542833 0 0.022740842202085922 -0.00026461264280741478 0 0.022875363068729414 -0.00017052794572761212 0 0.022740842202085922 -0.00026461264280741478 0 0.022908455166589625 -0.00033445379975423313 0 0.022875363068729414 -0.00017052794572761212 0 0.022908455166589625 -0.00033445379975423313 0 0.023025594785666185 -0.00029651578728917251 0 0.022908455166589625 -0.00033445379975423313 0 0.023025594785666185 -0.00029651578728917251 0 0.023035670926579946 -0.00043678800380328561 0 0.023025594785666185 -0.00029651578728917251 0 0.023136368198042902 -0.0004177343782831907 0 0.023148697003108953 -0.00026617351771568242 0 0.023025594785666185 -0.00029651578728917251 0 0.023136368198042902 -0.0004177343782831907 0 0.023035670926579946 -0.00043678800380328561 0 0.023136368198042902 -0.0004177343782831907 0 0.023105045408193848 -0.00051998152947898505 0 0.023035670926579946 -0.00043678800380328561 0 0.023136368198042902 -0.0004177343782831907 0 0.023105045408193848 -0.00051998152947898505 0 0.023179352012315361 -0.00052563139310957607 0 0.022908455166589625 -0.00033445379975423313 0 0.023035670926579946 -0.00043678800380328561 0 0.023001867291121553 -0.00054170976130273236 0 0.022819960559642336 -0.00041604374811542833 0 0.022908455166589625 -0.00033445379975423313 0 0.023001867291121553 -0.00054170976130273236 0 0.023105045408193848 -0.00051998152947898505 0 0.023035670926579946 -0.00043678800380328561 0 0.023001867291121553 -0.00054170976130273236 0 0.023001867291121553 -0.00054170976130273236 0 0.023109245080330333 -0.00057709196844171458 0 0.023114403282988086 -0.00061713222740503333 0 0.023105045408193848 -0.00051998152947898505 0 0.023001867291121553 -0.00054170976130273236 0 0.023109245080330333 -0.00057709196844171458 0 0.023109245080330333 -0.00057709196844171458 0 0.023114403282988086 -0.00061713222740503333 0 0.023167114290891088 -0.00060817275951449029 0 0.023179352012315361 -0.00052563139310957607 0 0.023169018017302683 -0.00057579658395884293 0 0.023229698312866854 -0.00058661437420310671 0 0.023105045408193848 -0.00051998152947898505 0 0.023179352012315361 -0.00052563139310957607 0 0.023169018017302683 -0.00057579658395884293 0 0.023105045408193848 -0.00051998152947898505 0 0.023109245080330333 -0.00057709196844171458 0 0.023169018017302683 -0.00057579658395884293 0 0.023109245080330333 -0.00057709196844171458 0 0.023169018017302683 -0.00057579658395884293 0 0.023167114290891088 -0.00060817275951449029 0 0.023169018017302683 -0.00057579658395884293 0 0.023211811404112749 -0.00060693555880850084 0 0.023167114290891088 -0.00060817275951449029 0 0.023169018017302683 -0.00057579658395884293 0 0.023211811404112749 -0.00060693555880850084 0 0.023229698312866854 -0.00058661437420310671 0 0.023211811404112749 -0.00060693555880850084 0 0.023229698312866854 -0.00058661437420310671 0 0.02325988830204026 -0.00062122573450273434 0 0.023211811404112749 -0.00060693555880850084 0 0.023233576278758317 -0.00062137526486643149 0 0.023167114290891088 -0.00060817275951449029 0 0.023211811404112749 -0.00060693555880850084 0 0.023233576278758317 -0.00062137526486643149 0 0.02325988830204026 -0.00062122573450273434 0 0.023114403282988086 -0.00061713222740503333 0 0.023189750857299921 -0.00061511312178812074 0 0.023141176126306885 -0.00060470455825506356 0 0.023114403282988086 -0.00061713222740503333 0 0.023167114290891088 -0.00060817275951449029 0 0.023189750857299921 -0.00061511312178812074 0 0.023233576278758317 -0.00062137526486643149 0 0.023167114290891088 -0.00060817275951449029 0 0.023189750857299921 -0.00061511312178812074 0 0.023189750857299921 -0.00061511312178812074 0 0.023141176126306885 -0.00060470455825506356 0 0.023208369676001241 -0.00060406151941282474 0 0.023141176126306885 -0.00060470455825506356 0 0.023151521184348087 -0.00060270418126061797 0 0.023174498404489458 -0.00059621830714450116 0 0.023141176126306885 -0.00060470455825506356 0 0.023174498404489458 -0.00059621830714450116 0 0.023208369676001241 -0.00060406151941282474 0 0.023151521184348087 -0.00060270418126061797 0 0.023174498404489458 -0.00059621830714450116 0 0.023182915662046152 -0.0005886171622887529 0 0.023174498404489458 -0.00059621830714450116 0 0.023182915662046152 -0.0005886171622887529 0 0.023208369676001241 -0.00060406151941282474 0 0.023318599158376124 -0.00070121960809477939 0 0.023229834953389879 -0.00064913520217837388 0 0.023437017536724877 -0.00079446103704602846 0 0.023284293238378002 -0.00069522442984045775 0 0.023215784811649386 -0.00063786438919562097 0 0.023151521184348087 -0.00060270418126061797 0 0.023182915662046152 -0.0005886171622887529 0 0.023215784811649386 -0.00063786438919562097 0 0.023279367761038654 -0.00070851017560697848 0 0.023324978617179117 -0.00077793906398210028 0 0.023326010262385236 -0.00073836897283339705 0 0.023437017536724877 -0.00079446103704602846 0 0.023324978617179117 -0.00077793906398210028 0 0.023326010262385236 -0.00073836897283339705 0 0.023437017536724877 -0.00079446103704602846 0 0.023326010262385236 -0.00073836897283339705 0 0.023284293238378002 -0.00069522442984045775 0 0.023279367761038654 -0.00070851017560697848 0 0.023326010262385236 -0.00073836897283339705 0 0.023284293238378002 -0.00069522442984045775 0 0.023266170274687813 -0.00067237174973849042 0 0.023215784811649386 -0.00063786438919562097 0 0.02302116345814105 -0.00064730355657843732 0 0.023254051985590177 -0.00066247216608930333 0 0.023284293238378002 -0.00069522442984045775 0 0.023215784811649386 -0.00063786438919562097 0 0.023254051985590177 -0.00066247216608930333 0 0.023266170274687813 -0.00067237174973849042 0 0.023215784811649386 -0.00063786438919562097 0 0.023001867291121553 -0.00054170976130273236 0 0.023114403282988086 -0.00061713222740503333 0 0.02302116345814105 -0.00064730355657843732 0 0.023114403282988086 -0.00061713222740503333 0 0.023141176126306885 -0.00060470455825506356 0 0.02302116345814105 -0.00064730355657843732 0 0.023141176126306885 -0.00060470455825506356 0 0.023151521184348087 -0.00060270418126061797 0 0.02302116345814105 -0.00064730355657843732 0 0.023151521184348087 -0.00060270418126061797 0 0.023215784811649386 -0.00063786438919562097 0 0.02302116345814105 -0.00064730355657843732 0 0.021267014274782444 -0.001115090842627401 0 0.022319166593255443 -0.00089915517715052256 0 0.02131988863147774 -0.0011738525349604323 0 0.021318451778784199 -0.0012003508929940494 0 0.021320167530295461 -0.0012004089112014197 0 0.021267014274782444 -0.001115090842627401 0 0.02114944917891344 -0.0012089415216054358 0 0.020890371744101705 -0.0011293887484306253 0 0.021015330790821286 -0.00117792306856397 0 0.021029759123557642 -0.0012248289894528546 0 0.020890371744101705 -0.0011293887484306253 0 0.021023109274576512 -0.0011354856972426359 0 0.021015330790821286 -0.00117792306856397 0 0.022837517818697247 -0.00051940248129090521 0 0.022985440285356321 -0.00053912787757781253 0 0.022979454581949464 -0.00066164061707897506 0 0.022985440285356321 -0.00053912787757781253 0 0.023085749440163807 -0.000679510483651046 0 0.022979454581949464 -0.00066164061707897506 0 0.023759148753008358 -6.3881773981286499e-05 0 0.023107248897656394 -0.00059360368727680258 0 0.023085749440163807 -0.000679510483651046 0 0.022979454581949464 -0.00066164061707897506 0 0.023123249014394689 -0.00072138402273950889 0 0.023390518225264615 -0.0004395246673700409 0 0.023271108290744212 -0.0003882526640740939 0 0.02327884608189559 -0.00052824472505193091 0 0.023243598612171106 -0.00023732969830032755 0 0.023373288164365031 -0.00019181974250083962 0 0.023271108290744212 -0.0003882526640740939 0 0.023373288164365031 -0.00019181974250083962 0 0.023390518225264615 -0.0004395246673700409 0 0.023271108290744212 -0.0003882526640740939 0 0.023136368198042902 -0.0004177343782831907 0 0.023271108290744212 -0.0003882526640740939 0 0.023148697003108953 -0.00026617351771568242 0 0.023243598612171106 -0.00023732969830032755 0 0.023271108290744212 -0.0003882526640740939 0 0.023148697003108953 -0.00026617351771568242 0 0.023136368198042902 -0.0004177343782831907 0 0.023271108290744212 -0.0003882526640740939 0 0.023220818580286257 -0.00046742256938116857 0 0.023271108290744212 -0.0003882526640740939 0 0.023220818580286257 -0.00046742256938116857 0 0.02327884608189559 -0.00052824472505193091 0 0.023179352012315361 -0.00052563139310957607 0 0.023220818580286257 -0.00046742256938116857 0 0.02327884608189559 -0.00052824472505193091 0 0.023136368198042902 -0.0004177343782831907 0 0.023179352012315361 -0.00052563139310957607 0 0.023220818580286257 -0.00046742256938116857 0 0.023179352012315361 -0.00052563139310957607 0 0.023229698312866854 -0.00058661437420310671 0 0.02327884608189559 -0.00052824472505193091 0 0.023229698312866854 -0.00058661437420310671 0 0.023284013183255521 -0.00061260333485282546 0 0.02327884608189559 -0.00052824472505193091 0 0.023229698312866854 -0.00058661437420310671 0 0.02325988830204026 -0.00062122573450273434 0 0.023284013183255521 -0.00061260333485282546 0 0.02325988830204026 -0.00062122573450273434 0 0.023284013183255521 -0.00061260333485282546 0 0.023301859435204169 -0.00063454102373580366 0 0.023284013183255521 -0.00061260333485282546 0 0.023359392549022868 -0.00060354058711704808 0 0.023310418203602815 -0.00064704421584688674 0 0.023284013183255521 -0.00061260333485282546 0 0.023310418203602815 -0.00064704421584688674 0 0.023301859435204169 -0.00063454102373580366 0 0.023284013183255521 -0.00061260333485282546 0 0.02327884608189559 -0.00052824472505193091 0 0.023359392549022868 -0.00060354058711704808 0 0.023390518225264615 -0.0004395246673700409 0 0.02327884608189559 -0.00052824472505193091 0 0.023359392549022868 -0.00060354058711704808 0 0.023107248897656394 -0.00059360368727680258 0 0.023246753032179771 -0.00063897791153796934 0 0.023359392549022868 -0.00060354058711704808 0 0.023263861134339758 -0.0006667616429448228 0 0.023310418203602815 -0.00064704421584688674 0 0.023246753032179771 -0.00063897791153796934 0 0.023256673903043763 -0.00065995440312403419 0 0.023123249014394689 -0.00072138402273950889 0 0.023158602427287924 -0.00072142496600708836 0 0.023263861134339758 -0.0006667616429448228 0 0.023085749440163807 -0.000679510483651046 0 0.023123249014394689 -0.00072138402273950889 0 0.023158602427287924 -0.00072142496600708836 0 0.022319166593255443 -0.00089915517715052256 0 0.022217057639733209 -0.00097859084138882612 0 0.021318451778784199 -0.0012003508929940494 0 0.021320167530295461 -0.0012004089112014197 0 0.0213076830788188 -0.001210915998919186 0 0.023196090810050553 -0.00065373195213708126 0 0.023263861134339758 -0.0006667616429448228 0 0.02325437744896177 -0.00061083767299857574 0 0.023196090810050553 -0.00065373195213708126 0 0.023158602427287924 -0.00072142496600708836 0 0.023263861134339758 -0.0006667616429448228 0 0.022254271207197935 -0.00090063383069911493 0 0.022217057639733209 -0.00097859084138882612 0 0.023263861134339758 -0.0006667616429448228 0 0.02331835086408934 -0.0006316381943156312 0 0.023310418203602815 -0.00064704421584688674 0 0.023263861134339758 -0.0006667616429448228 0 0.02331835086408934 -0.0006316381943156312 0 0.02325437744896177 -0.00061083767299857574 0 0.02331835086408934 -0.0006316381943156312 0 0.023327315766021352 -0.0006344305076282868 0 0.023370352145876003 -0.00060518904509689986 0 0.02331835086408934 -0.0006316381943156312 0 0.023310418203602815 -0.00064704421584688674 0 0.023327315766021352 -0.0006344305076282868 0 0.023310418203602815 -0.00064704421584688674 0 0.023327315766021352 -0.0006344305076282868 0 0.023301859435204169 -0.00063454102373580366 0 0.023327315766021352 -0.0006344305076282868 0 0.023301859435204169 -0.00063454102373580366 0 0.02332775303948751 -0.00062750206320970326 0 0.02325988830204026 -0.00062122573450273434 0 0.023301859435204169 -0.00063454102373580366 0 0.023292393796467931 -0.00063000954864715912 0 0.023301859435204169 -0.00063454102373580366 0 0.02332775303948751 -0.00062750206320970326 0 0.023292393796467931 -0.00063000954864715912 0 0.02332775303948751 -0.00062750206320970326 0 0.023370352145876003 -0.00060518904509689986 0 0.023354683682043291 -0.00061237339418601818 0 0.02332775303948751 -0.00062750206320970326 0 0.023292393796467931 -0.00063000954864715912 0 0.023354683682043291 -0.00061237339418601818 0 0.023327315766021352 -0.0006344305076282868 0 0.02332775303948751 -0.00062750206320970326 0 0.023370352145876003 -0.00060518904509689986 0 0.023401085901023008 -0.00057061260755543388 0 0.023370352145876003 -0.00060518904509689986 0 0.023354683682043291 -0.00061237339418601818 0 0.023401085901023008 -0.00057061260755543388 0 0.02348165732365242 -0.00052567721699087048 0 0.023370352145876003 -0.00060518904509689986 0 0.02348165732365242 -0.00052567721699087048 0 0.023415018988538525 -0.00053693599499507428 0 0.023415722108822281 -0.00052192274072057935 0 0.023401085901023008 -0.00057061260755543388 0 0.02348165732365242 -0.00052567721699087048 0 0.023415018988538525 -0.00053693599499507428 0 0.02348165732365242 -0.00052567721699087048 0 0.023351725732771833 -0.00058640843402478439 0 0.023428296416170263 -0.00051683451200622689 0 0.02348165732365242 -0.00052567721699087048 0 0.023428296416170263 -0.00051683451200622689 0 0.023624015063636785 -0.00048812799331999449 0 0.02348165732365242 -0.00052567721699087048 0 0.023370352145876003 -0.00060518904509689986 0 0.023351725732771833 -0.00058640843402478439 0 0.02331835086408934 -0.0006316381943156312 0 0.023370352145876003 -0.00060518904509689986 0 0.023351725732771833 -0.00058640843402478439 0 0.023351725732771833 -0.00058640843402478439 0 0.023248791765700456 -0.00051366977191336007 0 0.02325437744896177 -0.00061083767299857574 0 0.02331835086408934 -0.0006316381943156312 0 0.023351725732771833 -0.00058640843402478439 0 0.02325437744896177 -0.00061083767299857574 0 0.023351725732771833 -0.00058640843402478439 0 0.023428296416170263 -0.00051683451200622689 0 0.023248791765700456 -0.00051366977191336007 0 0.023196090810050553 -0.00065373195213708126 0 0.023181027231893563 -0.00057175068080236023 0 0.02325437744896177 -0.00061083767299857574 0 0.023181027231893563 -0.00057175068080236023 0 0.023248791765700456 -0.00051366977191336007 0 0.02325437744896177 -0.00061083767299857574 0 0.023350272217428889 -0.00063081676000618491 0 0.023349307723265589 -0.00064254821576837414 0 0.023276664596236701 -0.00061983552233082562 0 0.023350272217428889 -0.00063081676000618491 0 0.023276664596236701 -0.00061983552233082562 0 0.02330668413625692 -0.00062671401677446409 0 0.023350272217428889 -0.00063081676000618491 0 0.023349307723265589 -0.00064254821576837414 0 0.023422980822012874 -0.00062717254286835656 0 0.023500585345415947 -0.00081410046939186674 0 0.023562067343737007 -0.00095296702471582041 0 0.02334641713647809 -0.0009115200010331333 0 0.023466423886733718 -0.00082815511094434097 0 0.023374965563739178 -0.0010226620377927786 0 0.023674641389191328 -0.00090341571726352307 0 0.023466423886733718 -0.00082815511094434097 0 0.023789256659709584 -0.00088068365157671332 0 0.023318599158376124 -0.00070121960809477939 0 0.023507628951275821 -0.00075839079861523477 0 0.023437017536724877 -0.00079446103704602846 0 0.023674641389191328 -0.00090341571726352307 0 0.023466423886733718 -0.00082815511094434097 0 0.02334641713647809 -0.0009115200010331333 0 0.023356460399225634 -0.00084541067251017515 0 0.023466423886733718 -0.00082815511094434097 0 0.023324978617179117 -0.00077793906398210028 0 0.023356460399225634 -0.00084541067251017515 0 0.023466423886733718 -0.00082815511094434097 0 0.023437017536724877 -0.00079446103704602846 0 0.023324978617179117 -0.00077793906398210028 0 0.023466423886733718 -0.00082815511094434097 0 0.023182915662046152 -0.0005886171622887529 0 0.023349307723265589 -0.00064254821576837414 0 0.023276664596236701 -0.00061983552233082562 0 0.023182915662046152 -0.0005886171622887529 0 0.023276664596236701 -0.00061983552233082562 0 0.023208369676001241 -0.00060406151941282474 0 0.023276664596236701 -0.00061983552233082562 0 0.023208369676001241 -0.00060406151941282474 0 0.023243455296335213 -0.00061708366659001988 0 0.023189750857299921 -0.00061511312178812074 0 0.023208369676001241 -0.00060406151941282474 0 0.023243455296335213 -0.00061708366659001988 0 0.023189750857299921 -0.00061511312178812074 0 0.023243455296335213 -0.00061708366659001988 0 0.023270549032449621 -0.00062499943128917147 0 0.023233576278758317 -0.00062137526486643149 0 0.023189750857299921 -0.00061511312178812074 0 0.023270549032449621 -0.00062499943128917147 0 0.023270549032449621 -0.00062499943128917147 0 0.023320611382689763 -0.00062436117603037163 0 0.02330668413625692 -0.00062671401677446409 0 0.023276664596236701 -0.00061983552233082562 0 0.023243455296335213 -0.00061708366659001988 0 0.02330668413625692 -0.00062671401677446409 0 0.023243455296335213 -0.00061708366659001988 0 0.023270549032449621 -0.00062499943128917147 0 0.02330668413625692 -0.00062671401677446409 0 0.023233576278758317 -0.00062137526486643149 0 0.02325988830204026 -0.00062122573450273434 0 0.023292393796467931 -0.00063000954864715912 0 0.023233576278758317 -0.00062137526486643149 0 0.023270549032449621 -0.00062499943128917147 0 0.023292393796467931 -0.00063000954864715912 0 0.023270549032449621 -0.00062499943128917147 0 0.023292393796467931 -0.00063000954864715912 0 0.023320611382689763 -0.00062436117603037163 0 0.023320611382689763 -0.00062436117603037163 0 0.023354683682043291 -0.00061237339418601818 0 0.023363661832691632 -0.0006205009739326992 0 0.023292393796467931 -0.00063000954864715912 0 0.023320611382689763 -0.00062436117603037163 0 0.023354683682043291 -0.00061237339418601818 0 0.023320611382689763 -0.00062436117603037163 0 0.02330668413625692 -0.00062671401677446409 0 0.023363661832691632 -0.0006205009739326992 0 0.023350272217428889 -0.00063081676000618491 0 0.02330668413625692 -0.00062671401677446409 0 0.023363661832691632 -0.0006205009739326992 0 0.023363661832691632 -0.0006205009739326992 0 0.0234079555214694 -0.00059974901254652719 0 0.023422980822012874 -0.00062717254286835656 0 0.023350272217428889 -0.00063081676000618491 0 0.023363661832691632 -0.0006205009739326992 0 0.023422980822012874 -0.00062717254286835656 0 0.023363661832691632 -0.0006205009739326992 0 0.0234079555214694 -0.00059974901254652719 0 0.023389624141246183 -0.00058555889645447231 0 0.0234079555214694 -0.00059974901254652719 0 0.023389624141246183 -0.00058555889645447231 0 0.023414025950259959 -0.00055723057672204526 0 0.0234079555214694 -0.00059974901254652719 0 0.023474895793161334 -0.00058269717111187485 0 0.023422980822012874 -0.00062717254286835656 0 0.023354683682043291 -0.00061237339418601818 0 0.023363661832691632 -0.0006205009739326992 0 0.023389624141246183 -0.00058555889645447231 0 0.023401085901023008 -0.00057061260755543388 0 0.023354683682043291 -0.00061237339418601818 0 0.023389624141246183 -0.00058555889645447231 0 0.023401085901023008 -0.00057061260755543388 0 0.023389624141246183 -0.00058555889645447231 0 0.023415018988538525 -0.00053693599499507428 0 0.023418498306001609 -0.00051338127736005662 0 0.023415018988538525 -0.00053693599499507428 0 0.023414025950259959 -0.00055723057672204526 0 0.023389624141246183 -0.00058555889645447231 0 0.023415018988538525 -0.00053693599499507428 0 0.023414025950259959 -0.00055723057672204526 0 0.023474895793161334 -0.00058269717111187485 0 0.023414025950259959 -0.00055723057672204526 0 0.023482829074643434 -0.00039491162217241657 0 0.023418498306001609 -0.00051338127736005662 0 0.023414025950259959 -0.00055723057672204526 0 0.023482829074643434 -0.00039491162217241657 0 0.0234079555214694 -0.00059974901254652719 0 0.023474895793161334 -0.00058269717111187485 0 0.023414025950259959 -0.00055723057672204526 0 0.023474895793161334 -0.00058269717111187485 0 0.023626776644395449 -0.00059190428625956453 0 0.023482829074643434 -0.00039491162217241657 0 0.023474895793161334 -0.00058269717111187485 0 0.023626776644395449 -0.00059190428625956453 0 0.023422980822012874 -0.00062717254286835656 0 0.023507628951275821 -0.00075839079861523477 0 0.023604152594579011 -0.00059045479222346144 0 0.023349307723265589 -0.00064254821576837414 0 0.023626776644395449 -0.00059190428625956453 0 0.023422980822012874 -0.00062717254286835656 0 0.023843183152591752 -0.00075719431778163563 0 0.023562067343737007 -0.00095296702471582041 0 0.023674641389191328 -0.00090341571726352307 0 0.023789256659709584 -0.00088068365157671332 0 0.023837594278687986 -0.00068689885267095806 0 0.024092988844246706 -0.00053764611921450472 0 0.023789256659709584 -0.00088068365157671332 0 0.023837594278687986 -0.00068689885267095806 0 0.023674641389191328 -0.00090341571726352307 0 0.023626776644395449 -0.00059190428625956453 0 0.023837594278687986 -0.00068689885267095806 0 0.023626776644395449 -0.00059190428625956453 0 0.023893265309051604 -0.00053378804769856276 0 0.024072886934519665 -0.00033868725879309107 0 0.023626776644395449 -0.00059190428625956453 0 0.023837594278687986 -0.00068689885267095806 0 0.023893265309051604 -0.00053378804769856276 0 0.023837594278687986 -0.00068689885267095806 0 0.023893265309051604 -0.00053378804769856276 0 0.023996314124719403 -0.00051013928703398691 0 0.023893265309051604 -0.00053378804769856276 0 0.023996314124719403 -0.00051013928703398691 0 0.024072886934519665 -0.00033868725879309107 0 0.024092988844246706 -0.00053764611921450472 0 0.023837594278687986 -0.00068689885267095806 0 0.023996314124719403 -0.00051013928703398691 0 0.023996314124719403 -0.00051013928703398691 0 0.024072886934519665 -0.00033868725879309107 0 0.02410678247910028 -0.00044800164113951313 0 0.024072886934519665 -0.00033868725879309107 0 0.024220782726698312 -0.00033957687646898893 0 0.024210560145189304 -0.00034945080642024494 0 0.024220782726698312 -0.00033957687646898893 0 0.024210560145189304 -0.00034945080642024494 0 0.024262529687373528 -0.00033026945661490816 0 0.024243106457669403 -0.00033660562847048146 0 0.024210560145189304 -0.00034945080642024494 0 0.024260063444936763 -0.00033304474375435525 0 0.024210560145189304 -0.00034945080642024494 0 0.024266883053544845 -0.00031177208862487093 0 0.024260063444936763 -0.00033304474375435525 0 0.024243106457669403 -0.00033660562847048146 0 0.024260063444936763 -0.00033304474375435525 0 0.024251729823503734 -0.00031652431013839201 0 0.024243106457669403 -0.00033660562847048146 0 0.024210560145189304 -0.00034945080642024494 0 0.024262529687373528 -0.00033026945661490816 0 0.024072886934519665 -0.00033868725879309107 0 0.024210560145189304 -0.00034945080642024494 0 0.024266883053544845 -0.00031177208862487093 0 0.023626776644395449 -0.00059190428625956453 0 0.024072886934519665 -0.00033868725879309107 0 0.023482829074643434 -0.00039491162217241657 0 0.024063035646691652 -0.0003395919509277244 0 0.023888761229682788 -0.00036301766877182447 0 0.023888761229682788 -0.00036301766877182447 0 0.02384234683746406 -0.00045661933616466757 0 0.023418498306001609 -0.00051338127736005662 0 0.023482829074643434 -0.00039491162217241657 0 0.023415722108822281 -0.00052192274072057935 0 0.024266883053544845 -0.00031177208862487093 0 0.024296353129635719 -0.00040890323631815267 0 0.024276071470465056 -0.00032928589842130812 0 0.023418498306001609 -0.00051338127736005662 0 0.023415018988538525 -0.00053693599499507428 0 0.023415722108822281 -0.00052192274072057935 0 0.024296353129635719 -0.00040890323631815267 0 0.024276071470465056 -0.00032928589842130812 0 0.024205316282723544 -0.00027893277268986778 0 0.024650381572291467 2.5162392990784348e-05 0 0.024205316282723544 -0.00027893277268986778 0 0.02425299702234843 5.9376646469262991e-05 0 0.024444454947636154 -0.00014157258518596256 0 0.02423275355066944 -0.00027777943312579112 0 0.024276071470465056 -0.00032928589842130812 0 0.024260108530762839 -0.00031671548252176714 0 0.024205316282723544 -0.00027893277268986778 0 0.024266883053544845 -0.00031177208862487093 0 0.024276071470465056 -0.00032928589842130812 0 0.024260063444936763 -0.00033304474375435525 0 0.024276071470465056 -0.00032928589842130812 0 0.024260063444936763 -0.00033304474375435525 0 0.024260108530762839 -0.00031671548252176714 0 0.024260063444936763 -0.00033304474375435525 0 0.024260108530762839 -0.00031671548252176714 0 0.024251729823503734 -0.00031652431013839201 0 0.024444454947636154 -0.00014157258518596256 0 0.024539413827490621 -5.9292279167933386e-05 0 0.024260108530762839 -0.00031671548252176714 0 0.024242939163398099 -0.00025746648003199026 0 0.024251729823503734 -0.00031652431013839201 0 0.024650381572291467 2.5162392990784348e-05 0 0.02446505516045638 0.00013689779682787728 0 0.02425299702234843 5.9376646469262991e-05 0 0.02446505516045638 0.00013689779682787728 0 0.024735384487983188 0.00015038427748703564 0 0.024451800465921981 0.00018628803631526278 0 0.024650381572291467 2.5162392990784348e-05 0 0.02446505516045638 0.00013689779682787728 0 0.024735384487983188 0.00015038427748703564 0 0.024738336447495346 0.00013835664059264603 0 0.024699069122545547 0.0001371449452654852 0 0.024650381572291467 2.5162392990784348e-05 0 0.024735384487983188 0.00015038427748703564 0 0.024825643764988494 0.00013362007356567272 0 0.024735384487983188 0.00015038427748703564 0 0.024825643764988494 0.00013362007356567272 0 0.024826984017323812 0.00012119145880861744 0 0.024242939163398099 -0.00025746648003199026 0 0.024306571158643112 -0.00028444777700041958 0 0.024384631016903236 -0.00011297833497153041 0 0.024242939163398099 -0.00025746648003199026 0 0.024306571158643112 -0.00028444777700041958 0 0.024251729823503734 -0.00031652431013839201 0 0.024413555270212384 -0.00023949029147256112 0 0.024306571158643112 -0.00028444777700041958 0 0.024324351725738182 -0.00031576493791527865 0 0.024413555270212384 -0.00023949029147256112 0 0.024306571158643112 -0.00028444777700041958 0 0.024384631016903236 -0.00011297833497153041 0 0.024220782726698312 -0.00033957687646898893 0 0.024324351725738182 -0.00031576493791527865 0 0.024262529687373528 -0.00033026945661490816 0 0.024306571158643112 -0.00028444777700041958 0 0.024324351725738182 -0.00031576493791527865 0 0.024262529687373528 -0.00033026945661490816 0 0.024243106457669403 -0.00033660562847048146 0 0.024262529687373528 -0.00033026945661490816 0 0.024251729823503734 -0.00031652431013839201 0 0.024306571158643112 -0.00028444777700041958 0 0.024262529687373528 -0.00033026945661490816 0 0.024251729823503734 -0.00031652431013839201 0 0.02293053666631523 -0.0003562786254408711 0 0.023248791765700456 -0.00051366977191336007 0 0.023186789714565021 -0.00017478366016749418 0 0.023248791765700456 -0.00051366977191336007 0 0.023186789714565021 -0.00017478366016749418 0 0.023438696352598706 -0.00033425940235570528 0 0.023428296416170263 -0.00051683451200622689 0 0.023248791765700456 -0.00051366977191336007 0 0.023438696352598706 -0.00033425940235570528 0 0.023186789714565021 -0.00017478366016749418 0 0.023438696352598706 -0.00033425940235570528 0 0.023515281737449687 0.00011129425711694263 0 0.023438696352598706 -0.00033425940235570528 0 0.023787847078006942 -0.00018081036240034183 0 0.023624015063636785 -0.00048812799331999449 0 0.023438696352598706 -0.00033425940235570528 0 0.023787847078006942 -0.00018081036240034183 0 0.023515281737449687 0.00011129425711694263 0 0.023428296416170263 -0.00051683451200622689 0 0.023438696352598706 -0.00033425940235570528 0 0.023624015063636785 -0.00048812799331999449 0 0.02348165732365242 -0.00052567721699087048 0 0.023415722108822281 -0.00052192274072057935 0 0.023624015063636785 -0.00048812799331999449 0 0.02384234683746406 -0.00045661933616466757 0 0.023633437583817373 -0.00048545897914839737 0 0.024296353129635719 -0.00040890323631815267 0 0.023624015063636785 -0.00048812799331999449 0 0.024205316282723544 -0.00027893277268986778 0 0.023787847078006942 -0.00018081036240034183 0 0.023624015063636785 -0.00048812799331999449 0 0.024205316282723544 -0.00027893277268986778 0 0.023787847078006942 -0.00018081036240034183 0 0.024205316282723544 -0.00027893277268986778 0 0.02425299702234843 5.9376646469262991e-05 0 0.02446505516045638 0.00013689779682787728 0 0.02425299702234843 5.9376646469262991e-05 0 0.024437823454620401 0.00015688451653072481 0 0.02446505516045638 0.00013689779682787728 0 0.024437823454620401 0.00015688451653072481 0 0.024451800465921981 0.00018628803631526278 0 0.024437823454620401 0.00015688451653072481 0 0.024516493565203148 0.00022633917487287938 0 0.024600633322416056 0.00014525503550757648 0 0.024258560974442837 7.0556755646029005e-05 0 0.024028740297318441 0.00015426896420214737 0 0.02425299702234843 5.9376646469262991e-05 0 0.024437823454620401 0.00015688451653072481 0 0.024516493565203148 0.00022633917487287938 0 0.023787847078006942 -0.00018081036240034183 0 0.02425299702234843 5.9376646469262991e-05 0 0.023515281737449687 0.00011129425711694263 0 0.024028740297318441 0.00015426896420214737 0 0.02395925517331713 0.0002141206235491688 0 0.024516493565203148 0.00022633917487287938 0 0.024707790202653936 0.00022710259614787173 0 0.024600633322416056 0.00014525503550757648 0 0.024707790202653936 0.00022710259614787173 0 0.024718046507994966 0.00013190564557939724 0 0.024600633322416056 0.00014525503550757648 0 0.024783211910949163 0.00013606419138184302 0 0.024707790202653936 0.00022710259614787173 0 0.024718046507994966 0.00013190564557939724 0 0.023186789714565021 -0.00017478366016749418 0 0.023515281737449687 0.00011129425711694263 0 0.023167359708245808 0.00013209222795112471 0 0.024835282690862766 4.8441600288665549e-05 0 0.024787911766325287 8.3353178959393623e-05 0 0.024851375889626406 3.4564400661781174e-05 0 0.024787911766325287 8.3353178959393623e-05 0 0.024694300978402528 8.3959897925239371e-05 0 0.024851375889626406 3.4564400661781174e-05 0 0.024787911766325287 8.3353178959393623e-05 0 0.024718046507994966 0.00013190564557939724 0 0.024694300978402528 8.3959897925239371e-05 0 0.024783211910949163 0.00013606419138184302 0 0.024787911766325287 8.3353178959393623e-05 0 0.024718046507994966 0.00013190564557939724 0 0.024600633322416056 0.00014525503550757648 0 0.024694300978402528 8.3959897925239371e-05 0 0.024509156332382955 8.1823052650142471e-05 0 0.024718046507994966 0.00013190564557939724 0 0.024600633322416056 0.00014525503550757648 0 0.024694300978402528 8.3959897925239371e-05 0 0.024694300978402528 8.3959897925239371e-05 0 0.024677549287808086 -1.5864642479929257e-06 0 0.024851375889626406 3.4564400661781174e-05 0 0.024694300978402528 8.3959897925239371e-05 0 0.024509156332382955 8.1823052650142471e-05 0 0.024677549287808086 -1.5864642479929257e-06 0 0.024749981884013058 6.6438110616868872e-05 0 0.02483638613508261 7.273262131475262e-06 0 0.024437823454620401 0.00015688451653072481 0 0.024600633322416056 0.00014525503550757648 0 0.024509156332382955 8.1823052650142471e-05 0 0.024437823454620401 0.00015688451653072481 0 0.024509156332382955 8.1823052650142471e-05 0 0.024451800465921981 0.00018628803631526278 0 0.024749981884013058 6.6438110616868872e-05 0 0.024699069122545547 0.0001371449452654852 0 0.024991240546221136 4.5242043452909604e-05 0 0.024924828010785178 0.00010104743016183874 0 0.024964827610712819 1.7525540037587405e-05 0 0.024991240546221136 4.5242043452909604e-05 0 0.024992488960995242 9.648027953293756e-06 0 0.024964827610712819 1.7525540037587405e-05 0 0.025000009636290395 -1.2921015447096068e-08 0 0.024992488960995242 9.648027953293756e-06 0 0.024964827610712819 1.7525540037587405e-05 0 0.025000009636290395 -1.2921015447096068e-08 0 0.025001733640448966 1.2062704742328629e-07 0 0.024992488960995242 9.648027953293756e-06 0 0.025000009636290395 -1.2921015447096068e-08 0 0.025001733640448966 1.2062704742328629e-07 0 0.024999953446448814 2.0937690708827596e-08 0 0.024991240546221136 4.5242043452909604e-05 0 0.024992488960995242 9.648027953293756e-06 0 0.024997586946752692 -1.5512081785446529e-06 0 0.025001733640448966 1.2062704742328629e-07 0 0.024992488960995242 9.648027953293756e-06 0 0.024997586946752692 -1.5512081785446529e-06 0 0.025001733640448966 1.2062704742328629e-07 0 0.024997586946752692 -1.5512081785446529e-06 0 0.02494462477575515 -1.8346259763476032e-05 0 0.02483638613508261 7.273262131475262e-06 0 0.024922960122832582 -1.6768368743123637e-05 0 0.025001733640448966 1.2062704742328629e-07 0 0.024999953446448814 2.0937690708827596e-08 0 0.02494462477575515 -1.8346259763476032e-05 0 0.024999879329834454 -4.0245074770412892e-08 0 0.024999953446448814 2.0937690708827596e-08 0 0.02494462477575515 -1.8346259763476032e-05 0 0.024968024880459957 -3.3309334742380182e-06 0 0.02494462477575515 -1.8346259763476032e-05 0 0.024851375889626406 3.4564400661781174e-05 0 0.024677549287808086 -1.5864642479929257e-06 0 0.02494462477575515 -1.8346259763476032e-05 0 0.024851375889626406 3.4564400661781174e-05 0 0.024839402972162229 0.00010460015553270341 0 0.024890939918332432 5.9979383561904334e-05 0 0.024909682706137182 2.2812467984162694e-05 0 0.024839402972162229 0.00010460015553270341 0 0.024909682706137182 2.2812467984162694e-05 0 0.024758519546429936 1.7537619063013585e-05 0 0.024617169071905906 -1.1790077285731077e-05 0 0.024732113604925027 1.7916487342065902e-05 0 0.024413555270212384 -0.00023949029147256112 0 0.024384631016903236 -0.00011297833497153041 0 0.024605072867552123 -0.00013075910887759646 0 0.024825643764988494 0.00013362007356567272 0 0.024839402972162229 0.00010460015553270341 0 0.024826984017323812 0.00012119145880861744 0 0.024539413827490621 -5.9292279167933386e-05 0 0.024617169071905906 -1.1790077285731077e-05 0 0.024839402972162229 0.00010460015553270341 0 0.024826984017323812 0.00012119145880861744 0 0.024890939918332432 5.9979383561904334e-05 0 0.024826984017323812 0.00012119145880861744 0 0.024924828010785178 0.00010104743016183874 0 0.024890939918332432 5.9979383561904334e-05 0 0.024735384487983188 0.00015038427748703564 0 0.024826984017323812 0.00012119145880861744 0 0.024924828010785178 0.00010104743016183874 0 0.024924828010785178 0.00010104743016183874 0 0.024890939918332432 5.9979383561904334e-05 0 0.024964827610712819 1.7525540037587405e-05 0 0.024890939918332432 5.9979383561904334e-05 0 0.024950801232320206 1.3370886475581003e-05 0 0.024909682706137182 2.2812467984162694e-05 0 0.024890939918332432 5.9979383561904334e-05 0 0.024950801232320206 1.3370886475581003e-05 0 0.024964827610712819 1.7525540037587405e-05 0 0.025000009636290395 -1.2921015447096068e-08 0 0.024964827610712819 1.7525540037587405e-05 0 0.024999935952747077 1.2236555330600104e-08 0 0.024950801232320206 1.3370886475581003e-05 0 0.024964827610712819 1.7525540037587405e-05 0 0.024999935952747077 1.2236555330600104e-08 0 0.024950801232320206 1.3370886475581003e-05 0 0.024999935952747077 1.2236555330600104e-08 0 0.024999892112936458 -1.8279167470625873e-08 0 0.024950801232320206 1.3370886475581003e-05 0 0.024999892112936458 -1.8279167470625873e-08 0 0.024909682706137182 2.2812467984162694e-05 0 0.024909682706137182 2.2812467984162694e-05 0 0.02490128471461301 9.7942785979020047e-07 0 0.024758519546429936 1.7537619063013585e-05 0 0.024999892112936458 -1.8279167470625873e-08 0 0.02490128471461301 9.7942785979020047e-07 0 0.024999814335474834 4.4957442221916988e-09 0 0.024999892112936458 -1.8279167470625873e-08 0 0.024909682706137182 2.2812467984162694e-05 0 0.02490128471461301 9.7942785979020047e-07 0 0.02490128471461301 9.7942785979020047e-07 0 0.024999814335474834 4.4957442221916988e-09 0 0.024878404372266728 4.322449035341015e-06 0 0.024999814335474834 4.4957442221916988e-09 0 0.024878404372266728 4.322449035341015e-06 0 0.024999863793358119 1.5476897040792869e-08 0 0.02490128471461301 9.7942785979020047e-07 0 0.024878404372266728 4.322449035341015e-06 0 0.024758519546429936 1.7537619063013585e-05 0 0.024954938791667446 -2.2681937290628377e-06 0 0.024999863793358119 1.5476897040792869e-08 0 0.024999942401334001 -2.1410494566978183e-09 0 0.024878404372266728 4.322449035341015e-06 0 0.024954938791667446 -2.2681937290628377e-06 0 0.024999863793358119 1.5476897040792869e-08 0 0.024878404372266728 4.322449035341015e-06 0 0.024954938791667446 -2.2681937290628377e-06 0 0.02490511682992429 -3.6806561909084007e-05 0 0.024954938791667446 -2.2681937290628377e-06 0 0.02490511682992429 -3.6806561909084007e-05 0 0.024970590283784996 -1.7084921035023285e-05 0 0.024878404372266728 4.322449035341015e-06 0 0.02490511682992429 -3.6806561909084007e-05 0 0.024772629746382172 -5.5168553804834427e-05 0 0.02490511682992429 -3.6806561909084007e-05 0 0.024861856943977717 -0.00012214695678586286 0 0.024772629746382172 -5.5168553804834427e-05 0 0.024861856943977717 -0.00012214695678586286 0 0.024772629746382172 -5.5168553804834427e-05 0 0.024655562332493327 -0.00018284214668681613 0 0.024758519546429936 1.7537619063013585e-05 0 0.024772629746382172 -5.5168553804834427e-05 0 0.024605072867552123 -0.00013075910887759646 0 0.024878404372266728 4.322449035341015e-06 0 0.024758519546429936 1.7537619063013585e-05 0 0.024772629746382172 -5.5168553804834427e-05 0 0.024772629746382172 -5.5168553804834427e-05 0 0.024605072867552123 -0.00013075910887759646 0 0.024655562332493327 -0.00018284214668681613 0 0.024384631016903236 -0.00011297833497153041 0 0.024758519546429936 1.7537619063013585e-05 0 0.024605072867552123 -0.00013075910887759646 0 0.024413555270212384 -0.00023949029147256112 0 0.024605072867552123 -0.00013075910887759646 0 0.024479416845971012 -0.00025782455497769979 0 0.024413555270212384 -0.00023949029147256112 0 0.024324351725738182 -0.00031576493791527865 0 0.024479416845971012 -0.00025782455497769979 0 0.024324351725738182 -0.00031576493791527865 0 0.024479416845971012 -0.00025782455497769979 0 0.024343391219521004 -0.00034409432630797069 0 0.024220782726698312 -0.00033957687646898893 0 0.024324351725738182 -0.00031576493791527865 0 0.024343391219521004 -0.00034409432630797069 0 0.024343391219521004 -0.00034409432630797069 0 0.024525666877878122 -0.00029783223077796872 0 0.024435633293872924 -0.00044918198900103894 0 0.024479416845971012 -0.00025782455497769979 0 0.024343391219521004 -0.00034409432630797069 0 0.024525666877878122 -0.00029783223077796872 0 0.024479416845971012 -0.00025782455497769979 0 0.024655562332493327 -0.00018284214668681613 0 0.024525666877878122 -0.00029783223077796872 0 0.024605072867552123 -0.00013075910887759646 0 0.024479416845971012 -0.00025782455497769979 0 0.024655562332493327 -0.00018284214668681613 0 0.024655562332493327 -0.00018284214668681613 0 0.024609249196400396 -0.00027901398029144252 0 0.024525666877878122 -0.00029783223077796872 0 0.02464936620348018 -0.00018511638837812399 0 0.024714916169464991 -0.00025576813191332474 0 0.024861856943977717 -0.00012214695678586286 0 0.024655562332493327 -0.00018284214668681613 0 0.024823655733969326 -0.00024332983572938798 0 0.024861856943977717 -0.00012214695678586286 0 0.024823655733969326 -0.00024332983572938798 0 0.024910172295453992 -0.00019096024483171943 0 0.024609249196400396 -0.00027901398029144252 0 0.024598874977945304 -0.00041921364913590804 0 0.02476341010769377 -0.00037297773467803616 0 0.024714916169464991 -0.00025576813191332474 0 0.024827877945843908 -0.00034031023420852006 0 0.024609249196400396 -0.00027901398029144252 0 0.024525666877878122 -0.00029783223077796872 0 0.024598874977945304 -0.00041921364913590804 0 0.024525666877878122 -0.00029783223077796872 0 0.024435633293872924 -0.00044918198900103894 0 0.024598874977945304 -0.00041921364913590804 0 0.024401637464914489 -0.00069154483775579062 0 0.024448537489504821 -0.00068961843146248935 0 0.024598874977945304 -0.00041921364913590804 0 0.024671091696881031 -0.00060741551049617532 0 0.024724511854205444 -0.00047617414447837045 0 0.024396599101559967 -0.00068701838931542827 0 0.024598874977945304 -0.00041921364913590804 0 0.024671091696881031 -0.00060741551049617532 0 0.024396599101559967 -0.00068701838931542827 0 0.024435633293872924 -0.00044918198900103894 0 0.024309431082623401 -0.00053477092994860917 0 0.024396599101559967 -0.00068701838931542827 0 0.024435633293872924 -0.00044918198900103894 0 0.024598874977945304 -0.00041921364913590804 0 0.024274026004630411 -0.00065906387693520673 0 0.024396599101559967 -0.00068701838931542827 0 0.024309431082623401 -0.00053477092994860917 0 0.024274026004630411 -0.00065906387693520673 0 0.024309431082623401 -0.00053477092994860917 0 0.024201630679607563 -0.00063899197394714894 0 0.023843183152591752 -0.00075719431778163563 0 0.024222814615813427 -0.00040129518552689547 0 0.024104243673325788 -0.00048751565006359274 0 0.02410678247910028 -0.00044800164113951313 0 0.024214886318338832 -0.00034148924888313014 0 0.024092724135700124 -0.00073969437407025019 0 0.024201630679607563 -0.00063899197394714894 0 0.024174424828290023 -0.00053010079176454979 0 0.024072886934519665 -0.00033868725879309107 0 0.02410678247910028 -0.00044800164113951313 0 0.024214886318338832 -0.00034148924888313014 0 0.024072886934519665 -0.00033868725879309107 0 0.024220782726698312 -0.00033957687646898893 0 0.024214886318338832 -0.00034148924888313014 0 0.024309431082623401 -0.00053477092994860917 0 0.024201630679607563 -0.00063899197394714894 0 0.024174424828290023 -0.00053010079176454979 0 0.024301827361727858 -0.00035946304064242559 0 0.024222814615813427 -0.00040129518552689547 0 0.024220782726698312 -0.00033957687646898893 0 0.024343391219521004 -0.00034409432630797069 0 0.024214886318338832 -0.00034148924888313014 0 0.024343391219521004 -0.00034409432630797069 0 0.024309431082623401 -0.00053477092994860917 0 0.024174424828290023 -0.00053010079176454979 0 0.024343391219521004 -0.00034409432630797069 0 0.024435633293872924 -0.00044918198900103894 0 0.024309431082623401 -0.00053477092994860917 0 0.024985540778509636 -0.00034365502100780167 0 0.025036566645073578 -0.00041934651287675497 0 0.025061399542931607 -0.00024575422390336486 0 0.024985540778509636 -0.00034365502100780167 0 0.025036566645073578 -0.00041934651287675497 0 0.02496116673443162 -0.00044607319445803784 0 0.024826899214201399 -0.0003406873681029322 0 0.024806997638369944 -0.00023841317552632043 0 0.024873596768333985 -0.00027037524733267609 0 0.024377379243201974 -0.00066688210846820874 0 0.02501059023431253 -0.00017008342831445364 0 0.024826899214201399 -0.0003406873681029322 0 0.024742108969408167 -0.00036263110183549347 0 0.024806997638369944 -0.00023841317552632043 0 0.023653704248708291 -0.0010638259711563322 0 0.023701925217700801 -0.00097483013532255046 0 0.023550184231583889 -0.00086621642898324623 0 0.02373220509828106 -0.00087597499563646364 0 0.023701925217700801 -0.00097483013532255046 0 0.023790015390904428 -0.0010372882938461186 0 0.023653704248708291 -0.0010638259711563322 0 0.023701925217700801 -0.00097483013532255046 0 0.023790015390904428 -0.0010372882938461186 0 0.024262402344787569 -0.00069069188348091571 0 0.024377379243201974 -0.00066688210846820874 0 0.025036566645073578 -0.00041934651287675497 0 0.02496116673443162 -0.00044607319445803784 0 0.02485608762665192 -0.00050997687996446955 0 0.024377379243201974 -0.00066688210846820874 0 0.024517591196205481 -0.00065604455629474979 0 0.024065742816221536 -0.0007003857477911171 0 0.024019582005830372 -0.0008372538833771834 0 0.024123105648692075 -0.00081530206363749573 0 0.024671091696881031 -0.00060741551049617532 0 0.02485608762665192 -0.00050997687996446955 0 0.024724511854205444 -0.00047617414447837045 0 0.024448537489504821 -0.00068961843146248935 0 0.024517591196205481 -0.00065604455629474979 0 0.024161544644826151 -0.00073625054831476895 0 0.02425342944914613 -0.00077684323504778065 0 0.024123105648692075 -0.00081530206363749573 0 0.02485608762665192 -0.00050997687996446955 0 0.02476341010769377 -0.00037297773467803616 0 0.024724511854205444 -0.00047617414447837045 0 0.024598874977945304 -0.00041921364913590804 0 0.02476341010769377 -0.00037297773467803616 0 0.024724511854205444 -0.00047617414447837045 0 0.024959634026897052 -0.00044261070397157994 0 0.024827877945843908 -0.00034031023420852006 0 0.024985540778509636 -0.00034365502100780167 0 0.024881544356006594 -0.00029564693274966954 0 0.024978717380887645 -0.00027821539083354208 0 0.024985540778509636 -0.00034365502100780167 0 0.02496116673443162 -0.00044607319445803784 0 0.024881544356006594 -0.00029564693274966954 0 0.02496116673443162 -0.00044607319445803784 0 0.02485608762665192 -0.00050997687996446955 0 0.02476341010769377 -0.00037297773467803616 0 0.024881544356006594 -0.00029564693274966954 0 0.024938374960253178 -0.00023252161941839707 0 0.024978717380887645 -0.00027821539083354208 0 0.024938374960253178 -0.00023252161941839707 0 0.024986166486294037 -0.00016834184893033802 0 0.024978717380887645 -0.00027821539083354208 0 0.024881544356006594 -0.00029564693274966954 0 0.024938374960253178 -0.00023252161941839707 0 0.024910172295453992 -0.00019096024483171943 0 0.024823655733969326 -0.00024332983572938798 0 0.024881544356006594 -0.00029564693274966954 0 0.024910172295453992 -0.00019096024483171943 0 0.024938374960253178 -0.00023252161941839707 0 0.024910172295453992 -0.00019096024483171943 0 0.024986166486294037 -0.00016834184893033802 0 0.024910172295453992 -0.00019096024483171943 0 0.024986166486294037 -0.00016834184893033802 0 0.024956949179979263 -7.8902277399800177e-05 0 0.024986166486294037 -0.00016834184893033802 0 0.024978717380887645 -0.00027821539083354208 0 0.025061399542931607 -0.00024575422390336486 0 0.024985540778509636 -0.00034365502100780167 0 0.024978717380887645 -0.00027821539083354208 0 0.025061399542931607 -0.00024575422390336486 0 0.024806997638369944 -0.00023841317552632043 0 0.024918720210254933 -0.00016546273941797093 0 0.024888131130055197 -0.00012316400312280189 0 0.024986166486294037 -0.00016834184893033802 0 0.025061399542931607 -0.00024575422390336486 0 0.025050889638162849 -0.00012474154367174412 0 0.02501059023431253 -0.00017008342831445364 0 0.024954474341262956 -0.00014909711280278361 0 0.02500608877935593 -8.3990656586101434e-05 0 0.024998241117011596 -4.9973966784369158e-05 0 0.025050889638162849 -0.00012474154367174412 0 0.024986166486294037 -0.00016834184893033802 0 0.02500608877935593 -8.3990656586101434e-05 0 0.025050889638162849 -0.00012474154367174412 0 0.024986166486294037 -0.00016834184893033802 0 0.02500608877935593 -8.3990656586101434e-05 0 0.024956949179979263 -7.8902277399800177e-05 0 0.02500608877935593 -8.3990656586101434e-05 0 0.024956949179979263 -7.8902277399800177e-05 0 0.024999368004808897 -3.471528862425142e-05 0 0.02500608877935593 -8.3990656586101434e-05 0 0.024999368004808897 -3.471528862425142e-05 0 0.024998241117011596 -4.9973966784369158e-05 0 0.024956949179979263 -7.8902277399800177e-05 0 0.024970590283784996 -1.7084921035023285e-05 0 0.024999368004808897 -3.471528862425142e-05 0 0.024861856943977717 -0.00012214695678586286 0 0.024910172295453992 -0.00019096024483171943 0 0.024956949179979263 -7.8902277399800177e-05 0 0.02490511682992429 -3.6806561909084007e-05 0 0.024861856943977717 -0.00012214695678586286 0 0.024956949179979263 -7.8902277399800177e-05 0 0.02490511682992429 -3.6806561909084007e-05 0 0.024956949179979263 -7.8902277399800177e-05 0 0.024970590283784996 -1.7084921035023285e-05 0 0.024970590283784996 -1.7084921035023285e-05 0 0.024999980081886433 -2.6183667152952281e-09 0 0.024999368004808897 -3.471528862425142e-05 0 0.024954938791667446 -2.2681937290628377e-06 0 0.024970590283784996 -1.7084921035023285e-05 0 0.024999942401334001 -2.1410494566978183e-09 0 0.024970590283784996 -1.7084921035023285e-05 0 0.024999980081886433 -2.6183667152952281e-09 0 0.024999942401334001 -2.1410494566978183e-09 0 0.024999980081886433 -2.6183667152952281e-09 0 0.024999368004808897 -3.471528862425142e-05 0 0.025000004003104717 -2.1360142134738295e-08 0 0.024999368004808897 -3.471528862425142e-05 0 0.025000004003104717 -2.1360142134738295e-08 0 0.025000231070104011 -2.0105587472750379e-05 0 0.025000004003104717 -2.1360142134738295e-08 0 0.025000231070104011 -2.0105587472750379e-05 0 0.025000006429223967 -9.772824326404182e-09 0 0.024999368004808897 -3.471528862425142e-05 0 0.025000231070104011 -2.0105587472750379e-05 0 0.024998241117011596 -4.9973966784369158e-05 0 0.025000231070104011 -2.0105587472750379e-05 0 0.025008557071491019 -1.554469587136304e-05 0 0.024998241117011596 -4.9973966784369158e-05 0 0.025008557071491019 -1.554469587136304e-05 0 0.025023894444575381 -3.6317987670474728e-05 0 0.024998241117011596 -4.9973966784369158e-05 0 0.025000231070104011 -2.0105587472750379e-05 0 0.025008557071491019 -1.554469587136304e-05 0 0.025000006429223967 -9.772824326404182e-09 0 0.025008557071491019 -1.554469587136304e-05 0 0.025004274403626164 -2.7969400976730968e-06 0 0.02500576156462888 -2.9694264512479145e-06 0 0.025000006429223967 -9.772824326404182e-09 0 0.025004274403626164 -2.7969400976730968e-06 0 0.025000032045924696 -7.1905136797139432e-09 0 0.025008557071491019 -1.554469587136304e-05 0 0.025000006429223967 -9.772824326404182e-09 0 0.025004274403626164 -2.7969400976730968e-06 0 0.024117848676399701 0.00025694916525248002 0 0.024139201968012856 0.00020472650802896242 0 0.024288121705704158 0.0003144699580591432 0 0.025000002709172263 -1.3298347660902799e-09 0 0.024999278796067798 1.7558805287151839e-07 0 0.024999336524435544 1.2268713870425864e-06 0 0.024999529343857341 1.0457704686361275e-07 0 0.02470975578112215 3.1566743907320017e-05 0 0.025004274403626164 -2.7969400976730968e-06 0 0.025000032045924696 -7.1905136797139432e-09 0 0.02500312520761646 -2.134896279701075e-06 0 0.024763425909302667 2.3692854966759735e-05 0 0.02470975578112215 3.1566743907320017e-05 0 0.024117848676399701 0.00025694916525248002 0 0.024139201968012856 0.00020472650802896242 0 0.024187490711167773 0.00024465669151247266 0 0.02470975578112215 3.1566743907320017e-05 0 0.024556172560117249 0.00010252078768243878 0 0.025008557071491019 -1.554469587136304e-05 0 0.02500576156462888 -2.9694264512479145e-06 0 0.025023894444575381 -3.6317987670474728e-05 0 0.024556172560117249 0.00010252078768243878 0 0.024838763905003215 0.00027335658162951808 0 0.024139201968012856 0.00020472650802896242 0 0.024187490711167773 0.00024465669151247266 0 0.024053578700735299 0.0003848607459161252 0 0.024187490711167773 0.00024465669151247266 0 0.024053578700735299 0.0003848607459161252 0 0.024259749151758939 0.00047107137914152323 0 0.024053578700735299 0.0003848607459161252 0 0.024259749151758939 0.00047107137914152323 0 0.024123808483296226 0.00059350871538634204 0 0.025020429662780792 -9.5603733261976907e-05 0 0.024963431416185382 -0.00011291744432856964 0 0.024998241117011596 -4.9973966784369158e-05 0 0.024998647042647114 -5.2600184481224342e-05 0 0.024954474341262956 -0.00014909711280278361 0 0.024963431416185382 -0.00011291744432856964 0 0.024998241117011596 -4.9973966784369158e-05 0 0.024888131130055197 -0.00012316400312280189 0 0.025023894444575381 -3.6317987670474728e-05 0 0.025020429662780792 -9.5603733261976907e-05 0 0.024998241117011596 -4.9973966784369158e-05 0 0.024759420462746866 9.5070541742502931e-05 0 0.024642595989470873 0.00026349932903811109 0 0.024853661412074034 -7.4481517039217031e-06 0 0.024689356061321409 0.00013495548099232352 0 0.024537355255023208 0.00016916428707832717 0 0.024808458792205532 4.0428550540379357e-05 0 0.024825805933094285 0.0001202926589410087 0 0.024843198546580302 1.863044292855305e-05 0 0.024759420462746866 9.5070541742502931e-05 0 0.024808458792205532 4.0428550540379357e-05 0 0.024794521054038746 5.0772839431521893e-05 0 0.024759420462746866 9.5070541742502931e-05 0 0.024689356061321409 0.00013495548099232352 0 0.024808458792205532 4.0428550540379357e-05 0 0.024759420462746866 9.5070541742502931e-05 0 0.024689356061321409 0.00013495548099232352 0 0.024642595989470873 0.00026349932903811109 0 0.02494844399730636 -1.9514567574466694e-05 0 0.024980858233461405 -1.2488423171097864e-05 0 0.025010926467384762 7.5268804622281733e-06 0 0.02494844399730636 -1.9514567574466694e-05 0 0.025010926467384762 7.5268804622281733e-06 0 0.024853661412074034 -7.4481517039217031e-06 0 0.024980858233461405 -1.2488423171097864e-05 0 0.025000050231627054 -8.5532154530277033e-09 0 0.024999720684195335 -4.2141380001204939e-08 0 0.02494844399730636 -1.9514567574466694e-05 0 0.024980858233461405 -1.2488423171097864e-05 0 0.024999720684195335 -4.2141380001204939e-08 0 0.024980858233461405 -1.2488423171097864e-05 0 0.025010926467384762 7.5268804622281733e-06 0 0.025000050231627054 -8.5532154530277033e-09 0 0.025010926467384762 7.5268804622281733e-06 0 0.025000050231627054 -8.5532154530277033e-09 0 0.024999336524435544 1.2268713870425864e-06 0 0.024642595989470873 0.00026349932903811109 0 0.024537355255023208 0.00016916428707832717 0 0.024431236243244545 0.00020438648844186975 0 0.024689356061321409 0.00013495548099232352 0 0.024642595989470873 0.00026349932903811109 0 0.024537355255023208 0.00016916428707832717 0 0.024329318487791674 0.00018508573384447169 0 0.024431236243244545 0.00020438648844186975 0 0.024385384943609794 0.00011028755423002015 0 0.024537355255023208 0.00016916428707832717 0 0.024431236243244545 0.00020438648844186975 0 0.024385384943609794 0.00011028755423002015 0 0.024329318487791674 0.00018508573384447169 0 0.024431236243244545 0.00020438648844186975 0 0.024288121705704158 0.0003144699580591432 0 0.024825805933094285 0.0001202926589410087 0 0.02461374212853619 0.00017249094218317384 0 0.025000050231627054 -8.5532154530277033e-09 0 0.024999336524435544 1.2268713870425864e-06 0 0.024999984028348281 5.075191787541649e-09 0 0.024642595989470873 0.00026349932903811109 0 0.024431236243244545 0.00020438648844186975 0 0.024288121705704158 0.0003144699580591432 0 0.025000002709172263 -1.3298347660902799e-09 0 0.024999336524435544 1.2268713870425864e-06 0 0.024999984028348281 5.075191787541649e-09 0 0.02470975578112215 3.1566743907320017e-05 0 0.02461374212853619 0.00017249094218317384 0 0.024139201968012856 0.00020472650802896242 0 0.024329318487791674 0.00018508573384447169 0 0.024288121705704158 0.0003144699580591432 0 0.024139201968012856 0.00020472650802896242 0 0.024329318487791674 0.00018508573384447169 0 0.024404391929494645 0.0001569033618297563 0 0.024139201968012856 0.00020472650802896242 0 0.024053578700735299 0.0003848607459161252 0 0.023871563989833124 0.00029875472974779884 0 0.024132648326245839 0.00021445206082010615 0 0.024125141063548974 0.00024464385583008655 0 0.024053578700735299 0.0003848607459161252 0 0.023826477056525516 0.00046601506916841363 0 0.023924112594550313 0.00060624361906792606 0 0.024053578700735299 0.0003848607459161252 0 0.023826477056525516 0.00046601506916841363 0 0.023871563989833124 0.00029875472974779884 0 0.024125141063548974 0.00024464385583008655 0 0.023948210493085216 0.00047603907632864191 0 0.023826477056525516 0.00046601506916841363 0 0.023871563989833124 0.00029875472974779884 0 0.023626430476104472 0.00044702550878072841 0 0.024329318487791674 0.00018508573384447169 0 0.024404391929494645 0.0001569033618297563 0 0.024385384943609794 0.00011028755423002015 0 0.024404391929494645 0.0001569033618297563 0 0.024385384943609794 0.00011028755423002015 0 0.024289505665674303 0.00049110229094437763 0 0.024388624894335902 0.00010910710727571131 0 0.024369077009956289 0.0001482346034599172 0 0.024385384943609794 0.00011028755423002015 0 0.024289505665674303 0.00049110229094437763 0 0.023944775107931488 0.00022724995069141939 0 0.024537355255023208 0.00016916428707832717 0 0.024385384943609794 0.00011028755423002015 0 0.024808458792205532 4.0428550540379357e-05 0 0.023972234305981048 0.00054619992067533722 0 0.023944775107931488 0.00022724995069141939 0 0.023715840143119036 0.00050086895000960193 0 0.024289505665674303 0.00049110229094437763 0 0.023972234305981048 0.00054619992067533722 0 0.023944775107931488 0.00022724995069141939 0 0.023698839474565553 0.00072248605250790465 0 0.023489422922200864 0.0011521044661999039 0 0.023347359264121514 0.00084253746578166744 0 0.023392671940459835 0.00063326490107838815 0 0.023175274016326471 0.00083544881457053226 0 0.023347359264121514 0.00084253746578166744 0 0.023392671940459835 0.00063326490107838815 0 0.023458702700250338 0.00075426436198142871 0 0.023347359264121514 0.00084253746578166744 0 0.023458702700250338 0.00075426436198142871 0 0.023442495772303833 0.00084409813273859209 0 0.023972234305981048 0.00054619992067533722 0 0.024008933643457821 0.00085151666448870112 0 0.023700252496391037 0.00076760500520570694 0 0.023948210493085216 0.00047603907632864191 0 0.023698839474565553 0.00072248605250790465 0 0.024289505665674303 0.00049110229094437763 0 0.023972234305981048 0.00054619992067533722 0 0.024008933643457821 0.00085151666448870112 0 0.023626430476104472 0.00044702550878072841 0 0.023392671940459835 0.00063326490107838815 0 0.023649275692981489 0.00065393737558410206 0 0.023392671940459835 0.00063326490107838815 0 0.023458702700250338 0.00075426436198142871 0 0.023649275692981489 0.00065393737558410206 0 0.023458702700250338 0.00075426436198142871 0 0.023556304257377324 0.00081634440223991118 0 0.023649275692981489 0.00065393737558410206 0 0.023458702700250338 0.00075426436198142871 0 0.023442495772303833 0.00084409813273859209 0 0.023556304257377324 0.00081634440223991118 0 0.023556304257377324 0.00081634440223991118 0 0.023649275692981489 0.00065393737558410206 0 0.023749045032726474 0.00088279027007850182 0 0.023649275692981489 0.00065393737558410206 0 0.023924112594550313 0.00060624361906792606 0 0.023749045032726474 0.00088279027007850182 0 0.023826477056525516 0.00046601506916841363 0 0.023649275692981489 0.00065393737558410206 0 0.023924112594550313 0.00060624361906792606 0 0.023826477056525516 0.00046601506916841363 0 0.023626430476104472 0.00044702550878072841 0 0.023649275692981489 0.00065393737558410206 0 0.023924112594550313 0.00060624361906792606 0 0.023749045032726474 0.00088279027007850182 0 0.024052783454853739 0.00079515104306007744 0 0.021729851446658375 0.0004795641282310365 0 0.021631861604242918 0.00050000461289159963 0 0.019562568827410535 0.00035704088062667785 0 0.019383115466334869 0.00012840552020450699 0 0.019756414117250449 5.5750284670572223e-05 0 0.019562568827410535 0.00035704088062667785 0 0.019328893022918438 0.00038727342854953504 0 0.019383115466334869 0.00012840552020450699 0 0.019328893022918438 0.00038727342854953504 0 0.019383115466334869 0.00012840552020450699 0 0.019141023627082188 0.00026925338331605241 0 0.019383115466334869 0.00012840552020450699 0 0.019141023627082188 0.00026925338331605241 0 0.019023469223881762 0.00020438041473890773 0 0.023556304257377324 0.00081634440223991118 0 0.023749045032726474 0.00088279027007850182 0 0.023408319318368846 0.0009640229900647352 0 0.021729851446658375 0.0004795641282310365 0 0.020730380503656564 0.00061345126743013662 0 0.023442495772303833 0.00084409813273859209 0 0.023556304257377324 0.00081634440223991118 0 0.023408319318368846 0.0009640229900647352 0 0.018909538003004957 -6.6572256045050532e-06 0 0.020730380503656564 0.00061345126743013662 0 0.019141023627082188 0.00026925338331605241 0 0.018944525054327518 0.00041381286453307111 0 0.01900165523323363 0.00018985669485043909 0 0.019328893022918438 0.00038727342854953504 0 0.019141023627082188 0.00026925338331605241 0 0.019117000562859834 0.00045324544178056863 0 0.019141023627082188 0.00026925338331605241 0 0.019117000562859834 0.00045324544178056863 0 0.018944525054327518 0.00041381286453307111 0 0.018944525054327518 0.00041381286453307111 0 0.01900165523323363 0.00018985669485043909 0 0.018762919990284798 0.00023448373444735551 0 0.018944525054327518 0.00041381286453307111 0 0.018757819088280742 0.00053260608028185465 0 0.018762919990284798 0.00023448373444735551 0 0.022879152825374525 0.0011499722813802216 0 0.021747528763676239 0.0012316410108861951 0 0.020730380503656564 0.00061345126743013662 0 0.021747528763676239 0.0012316410108861951 0 0.021427905294737867 0.00094331333301420474 0 0.021785602887888778 0.0011395530796110857 0 0.022044152957709208 0.00082999487184576715 0 0.023347359264121514 0.00084253746578166744 0 0.023408319318368846 0.0009640229900647352 0 0.023293968420174775 0.00090146458027156391 0 0.020730380503656564 0.00061345126743013662 0 0.022879152825374525 0.0011499722813802216 0 0.023347359264121514 0.00084253746578166744 0 0.023442495772303833 0.00084409813273859209 0 0.023408319318368846 0.0009640229900647352 0 0.023179151086842046 0.00087318066782695811 0 0.022879152825374525 0.0011499722813802216 0 0.023347359264121514 0.00084253746578166744 0 0.023298109334401067 0.00090253611642066543 0 0.023175274016326471 0.00083544881457053226 0 0.024947863747740703 -0.00019231476895049279 0 0.024988703611461608 -0.00023050562331690871 0 0.024973966436645775 -0.00015194142327473509 0 0.023295845958081565 -1.4879657406063273e-05 0 0.025355574438280199 -0.00032504200831265335 0 0.024947863747740703 -0.00019231476895049279 0 0.024988703611461608 -0.00023050562331690871 0 0.024912151128551524 -0.00022438471624929433 0 0.020141034588269411 -1.7373397455443714e-05 0 0.019960240635406429 0.00012670084910655337 0 0.020083193494430069 0.00011635070442969041 0 0.024889796345571643 -0.00024290849722083052 0 0.024906961816529304 -0.00023898919913146446 0 0.0248852109021649 -0.00022959252218952925 0 0.024889796345571643 -0.00024290849722083052 0 0.024906961816529304 -0.00023898919913146446 0 0.024912151128551524 -0.00022438471624929433 0 0.024906961816529304 -0.00023898919913146446 0 0.024912151128551524 -0.00022438471624929433 0 0.024873596768333985 -0.00027037524733267609 0 0.024806997638369944 -0.00023841317552632043 0 0.024912151128551524 -0.00022438471624929433 0 0.024873596768333985 -0.00027037524733267609 0 0.024806997638369944 -0.00023841317552632043 0 0.024912151128551524 -0.00022438471624929433 0 0.024918720210254933 -0.00016546273941797093 0 0.024947863747740703 -0.00019231476895049279 0 0.024912151128551524 -0.00022438471624929433 0 0.024918720210254933 -0.00016546273941797093 0 0.024947863747740703 -0.00019231476895049279 0 0.024918720210254933 -0.00016546273941797093 0 0.024973966436645775 -0.00015194142327473509 0 0.024963431416185382 -0.00011291744432856964 0 0.024918720210254933 -0.00016546273941797093 0 0.024888131130055197 -0.00012316400312280189 0 0.024963431416185382 -0.00011291744432856964 0 0.024918720210254933 -0.00016546273941797093 0 0.024973966436645775 -0.00015194142327473509 0 0.025020429662780792 -9.5603733261976907e-05 0 0.024963431416185382 -0.00011291744432856964 0 0.024973966436645775 -0.00015194142327473509 0 0.025020429662780792 -9.5603733261976907e-05 0 0.024988703611461608 -0.00023050562331690871 0 0.024973966436645775 -0.00015194142327473509 0 0.024838763905003215 0.00027335658162951808 0 0.023295845958081565 -1.4879657406063273e-05 0 0.024259749151758939 0.00047107137914152323 0 0.024320816512262571 0.00072074093113207779 0 0.024123808483296226 0.00059350871538634204 0 0.024053578700735299 0.0003848607459161252 0 0.023924112594550313 0.00060624361906792606 0 0.024123808483296226 0.00059350871538634204 0 0.023924112594550313 0.00060624361906792606 0 0.024123808483296226 0.00059350871538634204 0 0.024052783454853739 0.00079515104306007744 0 0.024320816512262571 0.00072074093113207779 0 0.024123808483296226 0.00059350871538634204 0 0.024052783454853739 0.00079515104306007744 0 0.020141034588269411 -1.7373397455443714e-05 0 0.019756414117250449 5.5750284670572223e-05 0 0.019960240635406429 0.00012670084910655337 0 0.023295845958081565 -1.4879657406063273e-05 0 0.021631861604242918 0.00050000461289159963 0 0.019960240635406429 0.00012670084910655337 0 0.020066052122296955 0.00017931874282956664 0 0.020083193494430069 0.00011635070442969041 0 0.019960240635406429 0.00012670084910655337 0 0.019826471120160075 0.00031756538178963443 0 0.020053011225476269 0.00029209129062741489 0 0.019756414117250449 5.5750284670572223e-05 0 0.019960240635406429 0.00012670084910655337 0 0.019826471120160075 0.00031756538178963443 0 0.019960240635406429 0.00012670084910655337 0 0.020053011225476269 0.00029209129062741489 0 0.020066052122296955 0.00017931874282956664 0 0.019562568827410535 0.00035704088062667785 0 0.019756414117250449 5.5750284670572223e-05 0 0.019826471120160075 0.00031756538178963443 0 0.019562568827410535 0.00035704088062667785 0 0.019826471120160075 0.00031756538178963443 0 0.019724766754014179 0.00052995655326511194 0 0.019826471120160075 0.00031756538178963443 0 0.019948793543458222 0.0005258881704344005 0 0.019724766754014179 0.00052995655326511194 0 0.019826471120160075 0.00031756538178963443 0 0.020053011225476269 0.00029209129062741489 0 0.019948793543458222 0.0005258881704344005 0 0.020053011225476269 0.00029209129062741489 0 0.020242250132434431 0.00053722567220021607 0 0.019948793543458222 0.0005258881704344005 0 0.020053011225476269 0.00029209129062741489 0 0.020178385491848961 0.00018468779757098357 0 0.020242250132434431 0.00053722567220021607 0 0.022307384937937613 -2.5624466217577716e-06 0 0.021044713651389223 0.00020358761166751785 0 0.020053011225476269 0.00029209129062741489 0 0.020066052122296955 0.00017931874282956664 0 0.020178385491848961 0.00018468779757098357 0 0.023295845958081565 -1.4879657406063273e-05 0 0.022307384937937613 -2.5624466217577716e-06 0 0.020141034588269411 -1.7373397455443714e-05 0 0.020178385491848961 0.00018468779757098357 0 0.020083193494430069 0.00011635070442969041 0 0.020066052122296955 0.00017931874282956664 0 0.020178385491848961 0.00018468779757098357 0 0.020083193494430069 0.00011635070442969041 0 0.024262402344787569 -0.00069069188348091571 0 0.023888689450238382 -0.0005052127491332036 0 0.024826899214201399 -0.0003406873681029322 0 0.024873596768333985 -0.00027037524733267609 0 0.024901451636941158 -0.00031665524230450496 0 0.024906961816529304 -0.00023898919913146446 0 0.0248852109021649 -0.00022959252218952925 0 0.024889670691232782 -0.00023040016818373052 0 0.024844726177038236 -0.00011319419018490548 0 0.023888689450238382 -0.0005052127491332036 0 0.024906961816529304 -0.00023898919913146446 0 0.024873596768333985 -0.00027037524733267609 0 0.024901451636941158 -0.00031665524230450496 0 0.022307384937937613 -2.5624466217577716e-06 0 0.023888689450238382 -0.0005052127491332036 0 0.022191686469579034 -0.00013610675831231552 0 0.022169745582462409 -6.7692857364939435e-05 0 0.022188129323774352 -6.3501718030419004e-05 0 0.023888689450238382 -0.0005052127491332036 0 0.022708714528445129 -0.00049259747974481505 0 0.023653704248708291 -0.0010638259711563322 0 0.0235221622790843 -0.0010891229472354924 0 0.023550184231583889 -0.00086621642898324623 0 0.02216928299991933 -0.00014043402707818192 0 0.022191686469579034 -0.00013610675831231552 0 0.022169745582462409 -6.7692857364939435e-05 0 0.022169745582462409 -6.7692857364939435e-05 0 0.022188129323774352 -6.3501718030419004e-05 0 0.022165980541312944 4.5358720241712965e-05 0 0.020242250132434431 0.00053722567220021607 0 0.020094039384622234 0.00075426665241643313 0 0.019948793543458222 0.0005258881704344005 0 0.020242250132434431 0.00053722567220021607 0 0.020094039384622234 0.00075426665241643313 0 0.020302450487629294 0.00088400637588037251 0 0.021044713651389223 0.00020358761166751785 0 0.021214061471455131 0.00052307059792126474 0 0.022708714528445129 -0.00049259747974481505 0 0.023057045871827532 -0.00034557380376655077 0 0.022188129323774352 -6.3501718030419004e-05 0 0.022165980541312944 4.5358720241712965e-05 0 0.02217829313702872 4.8634105772571415e-05 0 0.020094039384622234 0.00075426665241643313 0 0.020302450487629294 0.00088400637588037251 0 0.020152438006814159 0.00090047082662421841 0 0.022152492960234298 0.00020041430790342603 0 0.022165980541312944 4.5358720241712965e-05 0 0.02217829313702872 4.8634105772571415e-05 0 0.020302450487629294 0.00088400637588037251 0 0.020226791410883575 0.00093786512361314421 0 0.020248834623064416 0.0010207384520422777 0 0.020302450487629294 0.00088400637588037251 0 0.020226791410883575 0.00093786512361314421 0 0.020152438006814159 0.00090047082662421841 0 0.020094039384622234 0.00075426665241643313 0 0.020152438006814159 0.00090047082662421841 0 0.019993982180815335 0.00092116574650379242 0 0.020226791410883575 0.00093786512361314421 0 0.020110291636980537 0.001029478207798973 0 0.020092165301898363 0.0011912670514914274 0 0.020152438006814159 0.00090047082662421841 0 0.019993982180815335 0.00092116574650379242 0 0.020110291636980537 0.001029478207798973 0 0.019993982180815335 0.00092116574650379242 0 0.019990693708799228 0.0010592117625922684 0 0.020110291636980537 0.001029478207798973 0 0.020226791410883575 0.00093786512361314421 0 0.020152438006814159 0.00090047082662421841 0 0.020110291636980537 0.001029478207798973 0 0.020110291636980537 0.001029478207798973 0 0.020060074642608325 0.0011070672950446953 0 0.020092165301898363 0.0011912670514914274 0 0.020374716716609644 0.00087549848808747923 0 0.018697798047233139 0.00071317278211474567 0 0.019990693708799228 0.0010592117625922684 0 0.020110291636980537 0.001029478207798973 0 0.020060074642608325 0.0011070672950446953 0 0.019990693708799228 0.0010592117625922684 0 0.02004767646174524 0.0011727064489283608 0 0.019919117878349095 0.0011433560373541821 0 0.019990693708799228 0.0010592117625922684 0 0.020060074642608325 0.0011070672950446953 0 0.02004767646174524 0.0011727064489283608 0 0.020060074642608325 0.0011070672950446953 0 0.02004767646174524 0.0011727064489283608 0 0.020092165301898363 0.0011912670514914274 0 0.02004767646174524 0.0011727064489283608 0 0.020099322995943997 0.0011942632624402998 0 0.019865883179564576 0.0012505054671773617 0 0.019157994037959047 0.00089999427257053655 0 0.018697798047233139 0.00071317278211474567 0 0.020226791410883575 0.00093786512361314421 0 0.020153512040266146 0.0010346120047930482 0 0.020248834623064416 0.0010207384520422777 0 0.020333510486887921 0.0011051898676373677 0 0.020153512040266146 0.0010346120047930482 0 0.020248834623064416 0.0010207384520422777 0 0.020323316574040694 0.0010686247607776772 0 0.020302450487629294 0.00088400637588037251 0 0.020248834623064416 0.0010207384520422777 0 0.019734540112035608 0.00013731383237344314 0 0.018697798047233139 0.00071317278211474567 0 0.019666155213309246 0.0012798191906388682 0 0.019631201691107984 0.00092463718476856543 0 0.019413621289081154 0.0010290354684621185 0 0.019801587514398603 0.0011595783642418282 0 0.019711815095109705 0.0011401384677858846 0 0.019666155213309246 0.0012798191906388682 0 0.019795590011863935 0.0010488129113479384 0 0.019631201691107984 0.00092463718476856543 0 0.019515401499744039 0.0013121642961068404 0 0.019865883179564576 0.0012505054671773617 0 0.019795590011863935 0.0010488129113479384 0 0.02004767646174524 0.0011727064489283608 0 0.019865883179564576 0.0012505054671773617 0 0.019919117878349095 0.0011433560373541821 0 0.019990693708799228 0.0010592117625922684 0 0.019919117878349095 0.0011433560373541821 0 0.019795590011863935 0.0010488129113479384 0 0.019865883179564576 0.0012505054671773617 0 0.019919117878349095 0.0011433560373541821 0 0.019795590011863935 0.0010488129113479384 0 0.019993982180815335 0.00092116574650379242 0 0.019795590011863935 0.0010488129113479384 0 0.019801837835092703 0.00076434886926155204 0 0.019993982180815335 0.00092116574650379242 0 0.019990693708799228 0.0010592117625922684 0 0.019795590011863935 0.0010488129113479384 0 0.019795590011863935 0.0010488129113479384 0 0.019631201691107984 0.00092463718476856543 0 0.019801837835092703 0.00076434886926155204 0 0.019631201691107984 0.00092463718476856543 0 0.019801837835092703 0.00076434886926155204 0 0.019485215278890362 0.0006867944198427308 0 0.020094039384622234 0.00075426665241643313 0 0.019801837835092703 0.00076434886926155204 0 0.019948793543458222 0.0005258881704344005 0 0.020094039384622234 0.00075426665241643313 0 0.019993982180815335 0.00092116574650379242 0 0.019801837835092703 0.00076434886926155204 0 0.019801837835092703 0.00076434886926155204 0 0.019948793543458222 0.0005258881704344005 0 0.019724766754014179 0.00052995655326511194 0 0.019801837835092703 0.00076434886926155204 0 0.019724766754014179 0.00052995655326511194 0 0.019485215278890362 0.0006867944198427308 0 0.019562568827410535 0.00035704088062667785 0 0.019328893022918438 0.00038727342854953504 0 0.019505612753506173 0.00070595641448808468 0 0.019562568827410535 0.00035704088062667785 0 0.019724766754014179 0.00052995655326511194 0 0.019485215278890362 0.0006867944198427308 0 0.019556012720885575 0.00037720494899075839 0 0.019496238440230795 0.00069213218360500829 0 0.019328893022918438 0.00038727342854953504 0 0.019213158814219655 0.00060336175575658455 0 0.019505612753506173 0.00070595641448808468 0 0.019328893022918438 0.00038727342854953504 0 0.019117000562859834 0.00045324544178056863 0 0.019213158814219655 0.00060336175575658455 0 0.019505612753506173 0.00070595641448808468 0 0.019165651712537951 0.00088542425747159916 0 0.019436330090564623 0.0010622166598893347 0 0.019213158814219655 0.00060336175575658455 0 0.019505612753506173 0.00070595641448808468 0 0.019165651712537951 0.00088542425747159916 0 0.019496238440230795 0.00069213218360500829 0 0.01942454739849532 0.0010506049031778102 0 0.018944525054327518 0.00041381286453307111 0 0.018954626137887599 0.00065597757482322545 0 0.018757819088280742 0.00053260608028185465 0 0.018954626137887599 0.00065597757482322545 0 0.018709056663451219 0.00074279187774315769 0 0.018757819088280742 0.00053260608028185465 0 0.019117000562859834 0.00045324544178056863 0 0.018944525054327518 0.00041381286453307111 0 0.018954626137887599 0.00065597757482322545 0 0.019117000562859834 0.00045324544178056863 0 0.019213158814219655 0.00060336175575658455 0 0.018954626137887599 0.00065597757482322545 0 0.018954626137887599 0.00065597757482322545 0 0.019165651712537951 0.00088542425747159916 0 0.018822126617794345 0.00095240580649239264 0 0.019213158814219655 0.00060336175575658455 0 0.018954626137887599 0.00065597757482322545 0 0.019165651712537951 0.00088542425747159916 0 0.018954626137887599 0.00065597757482322545 0 0.018822126617794345 0.00095240580649239264 0 0.018709056663451219 0.00074279187774315769 0 0.018822126617794345 0.00095240580649239264 0 0.018828811431592127 0.0011572225233969298 0 0.018617986009627788 0.0011828744172189321 0 0.018822126617794345 0.00095240580649239264 0 0.019003733621820278 0.0011016944991940269 0 0.018828811431592127 0.0011572225233969298 0 0.019165651712537951 0.00088542425747159916 0 0.018822126617794345 0.00095240580649239264 0 0.019003733621820278 0.0011016944991940269 0 0.019165651712537951 0.00088542425747159916 0 0.019003733621820278 0.0011016944991940269 0 0.019224251514173767 0.0011288297496170969 0 0.019003733621820278 0.0011016944991940269 0 0.019077338458260446 0.0012542961106922434 0 0.019224251514173767 0.0011288297496170969 0 0.019077338458260446 0.0012542961106922434 0 0.01890928897078813 0.0012734023902238095 0 0.018964666725968346 0.0013726388933908377 0 0.019003733621820278 0.0011016944991940269 0 0.019077338458260446 0.0012542961106922434 0 0.01890928897078813 0.0012734023902238095 0 0.019003733621820278 0.0011016944991940269 0 0.01890928897078813 0.0012734023902238095 0 0.018828811431592127 0.0011572225233969298 0 0.01890928897078813 0.0012734023902238095 0 0.018760748407082119 0.0013130118984431352 0 0.018824502079133838 0.0013834377800010813 0 0.01890928897078813 0.0012734023902238095 0 0.018760748407082119 0.0013130118984431352 0 0.018828811431592127 0.0011572225233969298 0 0.019631201691107984 0.00092463718476856543 0 0.019485215278890362 0.0006867944198427308 0 0.019413621289081154 0.0010290354684621185 0 0.019165651712537951 0.00088542425747159916 0 0.019436330090564623 0.0010622166598893347 0 0.019224251514173767 0.0011288297496170969 0 0.019224251514173767 0.0011288297496170969 0 0.01936062668405154 0.0014009920096195191 0 0.019199651310185521 0.0013204586451166771 0 0.019436330090564623 0.0010622166598893347 0 0.019224251514173767 0.0011288297496170969 0 0.01936062668405154 0.0014009920096195191 0 0.019077338458260446 0.0012542961106922434 0 0.019224251514173767 0.0011288297496170969 0 0.019199651310185521 0.0013204586451166771 0 0.019666155213309246 0.0012798191906388682 0 0.019413621289081154 0.0010290354684621185 0 0.01936062668405154 0.0014009920096195191 0 0.01942454739849532 0.0010506049031778102 0 0.019366390525166571 0.0013793567303720708 0 0.019666155213309246 0.0012798191906388682 0 0.01936062668405154 0.0014009920096195191 0 0.019503637860730609 0.0015141922725193505 0 0.01936062668405154 0.0014009920096195191 0 0.019168728312606353 0.0015214408185862988 0 0.019503637860730609 0.0015141922725193505 0 0.018694983230100649 0.0015616667364434554 0 0.017189959370950116 0.0014351676273381834 0 0.019199651310185521 0.0013204586451166771 0 0.019207577503161464 0.0014128668411261438 0 0.019094482397393388 0.0014080554872579732 0 0.01936062668405154 0.0014009920096195191 0 0.019199651310185521 0.0013204586451166771 0 0.019207577503161464 0.0014128668411261438 0 0.019207577503161464 0.0014128668411261438 0 0.019168728312606353 0.0015214408185862988 0 0.019094482397393388 0.0014080554872579732 0 0.01936062668405154 0.0014009920096195191 0 0.019207577503161464 0.0014128668411261438 0 0.019168728312606353 0.0015214408185862988 0 0.01490021548655821 0.001838754657606222 0 0.014954364714667472 0.0017787382868081902 0 0.014806088189479198 0.001745414902869802 0 0.017829561350666916 0.0015816940285298732 0 0.017847865637085646 0.001453834806613632 0 0.016688507682365683 0.001399826246311267 0 0.01490021548655821 0.001838754657606222 0 0.014751519304352999 0.001830077323132415 0 0.014806088189479198 0.001745414902869802 0 0.016492383576147823 0.0016514034465779969 0 0.015236516169592118 0.001563678464192212 0 0.017829561350666916 0.0015816940285298732 0 0.016592695650000943 0.0015358021499840193 0 0.016688507682365683 0.001399826246311267 0 0.01340441067768631 0.0014406701336027474 0 0.01320264431183653 0.0011268050173433946 0 0.012819254631099061 0.0016888863079177615 0 0.015236516169592118 0.001563678464192212 0 0.013204334932621603 0.0018490256525287763 0 0.013329342245580392 0.0010159463545636421 0 0.013255999400211485 0.001124649019413724 0 0.013771685466988214 0.0011340708363995215 0 0.017189959370950116 0.0014351676273381834 0 0.015236516169592118 0.001563678464192212 0 0.017829561350666916 0.0015816940285298732 0 0.018766689032307219 0.0015300119730624533 0 0.018745864913463809 0.0014716502271786976 0 0.018766689032307219 0.0015300119730624533 0 0.018745864913463809 0.0014716502271786976 0 0.018674060940407404 0.0014918021564134811 0 0.018766689032307219 0.0015300119730624533 0 0.018727247440926399 0.0014272416957496648 0 0.018824502079133838 0.0013834377800010813 0 0.018766689032307219 0.0015300119730624533 0 0.018727247440926399 0.0014272416957496648 0 0.018674060940407404 0.0014918021564134811 0 0.018760748407082119 0.0013130118984431352 0 0.018727247440926399 0.0014272416957496648 0 0.018824502079133838 0.0013834377800010813 0 0.018766689032307219 0.0015300119730624533 0 0.018824502079133838 0.0013834377800010813 0 0.018964666725968346 0.0013726388933908377 0 0.01890928897078813 0.0012734023902238095 0 0.018824502079133838 0.0013834377800010813 0 0.018964666725968346 0.0013726388933908377 0 0.018766689032307219 0.0015300119730624533 0 0.018964666725968346 0.0013726388933908377 0 0.019094482397393388 0.0014080554872579732 0 0.019168728312606353 0.0015214408185862988 0 0.018766689032307219 0.0015300119730624533 0 0.019094482397393388 0.0014080554872579732 0 0.018694983230100649 0.0015616667364434554 0 0.018662532707138024 0.0015309356532810584 0 0.019077338458260446 0.0012542961106922434 0 0.018964666725968346 0.0013726388933908377 0 0.019094482397393388 0.0014080554872579732 0 0.019077338458260446 0.0012542961106922434 0 0.019199651310185521 0.0013204586451166771 0 0.019094482397393388 0.0014080554872579732 0 0.016492383576147823 0.0016514034465779969 0 0.016791214490778174 0.0016678295418735025 0 0.01490021548655821 0.001838754657606222 0 0.014954364714667472 0.0017787382868081902 0 0.015041627735622658 0.0018476173672260629 0 0.017829561350666916 0.0015816940285298732 0 0.017847865637085646 0.001453834806613632 0 0.018745864913463809 0.0014716502271786976 0 0.014954364714667472 0.0017787382868081902 0 0.015041627735622658 0.0018476173672260629 0 0.015087789029597447 0.0018179598265773082 0 0.013501622741177418 0.0020986677384951498 0 0.013485716498540122 0.0021805075222584886 0 0.011813101148975873 0.0024888402415176297 0 0.011810185582185865 0.0025200321189376988 0 0.011806255965162873 0.002529275225715168 0 0.011922203381551604 0.0023593331372220036 0 0.011813101148975873 0.0024888402415176297 0 0.011806255965162873 0.002529275225715168 0 0.011922203381551604 0.0023593331372220036 0 0.011813101148975873 0.0024888402415176297 0 0.012114208934441182 0.0023633680875609657 0 0.011813101148975873 0.0024888402415176297 0 0.011799357862078799 0.0026231903685253518 0 0.01179553287743073 0.0025459257799863026 0 0.011813101148975873 0.0024888402415176297 0 0.011799357862078799 0.0026231903685253518 0 0.012114208934441182 0.0023633680875609657 0 0.011813101148975873 0.0024888402415176297 0 0.011810185582185865 0.0025200321189376988 0 0.01179553287743073 0.0025459257799863026 0 0.012819254631099061 0.0016888863079177615 0 0.013590108160380168 0.001861814315259304 0 0.013428383836787286 0.0016356963938809518 0 0.013204334932621603 0.0018490256525287763 0 0.013316820471936634 0.0017993132418848373 0 0.012905312601697347 0.0022288691617380909 0 0.012526640127436154 0.0016793073672347958 0 0.013590108160380168 0.001861814315259304 0 0.01340441067768631 0.0014406701336027474 0 0.012819254631099061 0.0016888863079177615 0 0.013428383836787286 0.0016356963938809518 0 0.012905312601697347 0.0022288691617380909 0 0.012526640127436154 0.0016793073672347958 0 0.012114208934441182 0.0023633680875609657 0 0.011922203381551604 0.0023593331372220036 0 0.012164586808345115 0.0022978174136955771 0 0.012114208934441182 0.0023633680875609657 0 0.013501622741177418 0.0020986677384951498 0 0.013204334932621603 0.0018490256525287763 0 0.013204334932621603 0.0018490256525287763 0 0.012071791084318301 0.0024792103107439535 0 0.011799357862078799 0.0026231903685253518 0 0.012527352845863829 0.0026389716793449253 0 0.012665875498672038 0.0031473232186393636 0 0.011799357862078799 0.0026231903685253518 0 0.012114208934441182 0.0023633680875609657 0 0.012527352845863829 0.0026389716793449253 0 0.012905312601697347 0.0022288691617380909 0 0.012114208934441182 0.0023633680875609657 0 0.012527352845863829 0.0026389716793449253 0 0.012527352845863829 0.0026389716793449253 0 0.013165203765234241 0.0027909876966712879 0 0.012665875498672038 0.0031473232186393636 0 0.012905312601697347 0.0022288691617380909 0 0.013165203765234241 0.0027909876966712879 0 0.013590108160380168 0.001861814315259304 0 0.012905312601697347 0.0022288691617380909 0 0.012527352845863829 0.0026389716793449253 0 0.013165203765234241 0.0027909876966712879 0 0.013165203765234241 0.0027909876966712879 0 0.013748378582233831 0.002811126190473866 0 0.013486976286858219 0.0030650028338892231 0 0.013165203765234241 0.0027909876966712879 0 0.013879378836980647 0.0022919118036405883 0 0.013865836136338412 0.0015659598761360019 0 0.013165203765234241 0.0027909876966712879 0 0.013748378582233831 0.002811126190473866 0 0.013879378836980647 0.0022919118036405883 0 0.013288198644470169 0.0026662069071727761 0 0.013611941573622459 0.0018147426011926957 0 0.013748378582233831 0.002811126190473866 0 0.013879378836980647 0.0022919118036405883 0 0.014191713962909965 0.0026998968999784683 0 0.013879378836980647 0.0022919118036405883 0 0.014190579336823463 0.002237377369906951 0 0.014191713962909965 0.0026998968999784683 0 0.013879378836980647 0.0022919118036405883 0 0.014168126927409638 0.0019439478673673445 0 0.014190579336823463 0.002237377369906951 0 0.013165203765234241 0.0027909876966712879 0 0.013857928850610875 0.0018715567107767655 0 0.013590108160380168 0.001861814315259304 0 0.013879378836980647 0.0022919118036405883 0 0.013865836136338412 0.0015659598761360019 0 0.014168126927409638 0.0019439478673673445 0 0.013857928850610875 0.0018715567107767655 0 0.013590108160380168 0.001861814315259304 0 0.013768064001113618 0.0014973202731760405 0 0.013590108160380168 0.001861814315259304 0 0.013428383836787286 0.0016356963938809518 0 0.013768064001113618 0.0014973202731760405 0 0.014694160508967833 0.0011219819532622211 0 0.014875665601626942 0.0015745475418188814 0 0.014418484193034636 0.0016473612733412363 0 0.014694160508967833 0.0011219819532622211 0 0.014875665601626942 0.0015745475418188814 0 0.015364416873358379 0.0010105294166261609 0 0.013865836136338412 0.0015659598761360019 0 0.014694160508967833 0.0011219819532622211 0 0.014418484193034636 0.0016473612733412363 0 0.013865836136338412 0.0015659598761360019 0 0.014418484193034636 0.0016473612733412363 0 0.014168126927409638 0.0019439478673673445 0 0.014875665601626942 0.0015745475418188814 0 0.014418484193034636 0.0016473612733412363 0 0.014531023362991981 0.002005698967889298 0 0.014418484193034636 0.0016473612733412363 0 0.014168126927409638 0.0019439478673673445 0 0.014531023362991981 0.002005698967889298 0 0.014875665601626942 0.0015745475418188814 0 0.014531023362991981 0.002005698967889298 0 0.015361427072997225 0.0019050758948720324 0 0.014191713962909965 0.0026998968999784683 0 0.015140083862940171 0.0024783005839740481 0 0.015141313377257241 0.00191088471790598 0 0.014191713962909965 0.0026998968999784683 0 0.015140083862940171 0.0024783005839740481 0 0.01402563191216104 0.0031765909303745491 0 0.014957469739079047 0.0025373046623315639 0 0.014068777165974397 0.003150834655758889 0 0.014531023362991981 0.002005698967889298 0 0.014191713962909965 0.0026998968999784683 0 0.015361427072997225 0.0019050758948720324 0 0.01427581336331348 0.0026535834601580893 0 0.015262288264623065 0.0018940538448734947 0 0.014531023362991981 0.002005698967889298 0 0.014190579336823463 0.002237377369906951 0 0.014191713962909965 0.0026998968999784683 0 0.014168126927409638 0.0019439478673673445 0 0.014531023362991981 0.002005698967889298 0 0.014190579336823463 0.002237377369906951 0 0.014758500887856661 0.0029438640849424793 0 0.014676850051425508 0.002657486945654671 0 0.014490450811487872 0.0031208907401863509 0 0.014957469739079047 0.0025373046623315639 0 0.01554555453538942 0.0020396064546413361 0 0.014676850051425508 0.002657486945654671 0 0.015158828454412472 0.0026361524455546293 0 0.015342359034364983 0.0021543259468427833 0 0.014758500887856661 0.0029438640849424793 0 0.014931558413649081 0.0028594577853824042 0 0.014676850051425508 0.002657486945654671 0 0.014931558413649081 0.0028594577853824042 0 0.014676850051425508 0.002657486945654671 0 0.015158828454412472 0.0026361524455546293 0 0.015405199554813637 0.0027317015598489788 0 0.015193474821379232 0.0029357358633564984 0 0.015523733847009114 0.0030003499406119458 0 0.015725823526839371 0.0026282777381228667 0 0.015405199554813637 0.0027317015598489788 0 0.015523733847009114 0.0030003499406119458 0 0.015405199554813637 0.0027317015598489788 0 0.015193474821379232 0.0029357358633564984 0 0.015158828454412472 0.0026361524455546293 0 0.014931558413649081 0.0028594577853824042 0 0.015193474821379232 0.0029357358633564984 0 0.015158828454412472 0.0026361524455546293 0 0.015158828454412472 0.0026361524455546293 0 0.015476993171621009 0.0024845213652237796 0 0.015342359034364983 0.0021543259468427833 0 0.015405199554813637 0.0027317015598489788 0 0.015158828454412472 0.0026361524455546293 0 0.015476993171621009 0.0024845213652237796 0 0.015725823526839371 0.0026282777381228667 0 0.015405199554813637 0.0027317015598489788 0 0.015476993171621009 0.0024845213652237796 0 0.01629641097942354 0.0016830175431218322 0 0.015141313377257241 0.00191088471790598 0 0.016156601668486766 0.0010537143858921035 0 0.015755398630844516 0.0022670031677280546 0 0.015476993171621009 0.0024845213652237796 0 0.015342359034364983 0.0021543259468427833 0 0.016890970091021404 0.00082968806066452318 0 0.01629641097942354 0.0016830175431218322 0 0.016156601668486766 0.0010537143858921035 0 0.015262288264623065 0.0018940538448734947 0 0.016210835734552075 0.001044125160401467 0 0.015140083862940171 0.0024783005839740481 0 0.01629641097942354 0.0016830175431218322 0 0.015141313377257241 0.00191088471790598 0 0.015361427072997225 0.0019050758948720324 0 0.015364416873358379 0.0010105294166261609 0 0.016540724352088199 0.00095743859479284466 0 0.014875665601626942 0.0015745475418188814 0 0.015361427072997225 0.0019050758948720324 0 0.015364416873358379 0.0010105294166261609 0 0.015956351863134141 0.00023991014746914573 0 0.015364416873358379 0.0010105294166261609 0 0.01474677159690106 0.00017951179835721696 0 0.015956351863134141 0.00023991014746914573 0 0.015364416873358379 0.0010105294166261609 0 0.016540724352088199 0.00095743859479284466 0 0.016011681154596481 0.00030424119214914503 0 0.016262443540346515 0.00062226748883229335 0 0.017476495047062036 0.0002265704411071859 0 0.016540724352088199 0.00095743859479284466 0 0.017064964277002954 0.00040030213608999578 0 0.017222633711431356 0.00016042792040524831 0 0.016890970091021404 0.00082968806066452318 0 0.016156601668486766 0.0010537143858921035 0 0.015956351863134141 0.00023991014746914573 0 0.016540724352088199 0.00095743859479284466 0 0.017064964277002954 0.00040030213608999578 0 0.018322683544561041 0.00036778782408964712 0 0.016210835734552075 0.001044125160401467 0 0.016011681154596481 0.00030424119214914503 0 0.017027060664919436 0.00038004117433316961 0 0.017374176478357779 -0.0001316227820370748 0 0.016422926276471971 0.00037477824569352296 0 0.017064964277002954 0.00040030213608999578 0 0.017374176478357779 -0.0001316227820370748 0 0.016348381650068394 -0.00053751340334778344 0 0.016422926276471971 0.00037477824569352296 0 0.016348381650068394 -0.00053751340334778344 0 0.016422926276471971 0.00037477824569352296 0 0.0157765048420874 0.00035209650172875607 0 0.018697798047233139 0.00071317278211474567 0 0.016262443540346515 0.00062226748883229335 0 0.020099322995943997 0.0011942632624402998 0 0.019865883179564576 0.0012505054671773617 0 0.019813332468916176 0.0016314386101748091 0 0.019515401499744039 0.0013121642961068404 0 0.019865883179564576 0.0012505054671773617 0 0.019813332468916176 0.0016314386101748091 0 0.019801587514398603 0.0011595783642418282 0 0.017189959370950116 0.0014351676273381834 0 0.019515401499744039 0.0013121642961068404 0 0.019263829534180953 0.0016209557899990506 0 0.019813332468916176 0.0016314386101748091 0 0.013329342245580392 0.0010159463545636421 0 0.013771685466988214 0.0011340708363995215 0 0.014400873400271954 0.0010352624603029428 0 0.013857928850610875 0.0018715567107767655 0 0.013768064001113618 0.0014973202731760405 0 0.014400873400271954 0.0010352624603029428 0 0.013771685466988214 0.0011340708363995215 0 0.013768064001113618 0.0014973202731760405 0 0.014400873400271954 0.0010352624603029428 0 0.017189959370950116 0.0014351676273381834 0 0.016262443540346515 0.00062226748883229335 0 0.015236516169592118 0.001563678464192212 0 0.013149632221710866 0.0011693061198441163 0 0.01340441067768631 0.0014406701336027474 0 0.01320264431183653 0.0011268050173433946 0 0.013771685466988214 0.0011340708363995215 0 0.01340441067768631 0.0014406701336027474 0 0.013771685466988214 0.0011340708363995215 0 0.013768064001113618 0.0014973202731760405 0 0.01340441067768631 0.0014406701336027474 0 0.013428383836787286 0.0016356963938809518 0 0.013768064001113618 0.0014973202731760405 0 0.013611941573622459 0.0018147426011926957 0 0.016262443540346515 0.00062226748883229335 0 0.013865836136338412 0.0015659598761360019 0 0.014694160508967833 0.0011219819532622211 0 0.01474677159690106 0.00017951179835721696 0 0.014694160508967833 0.0011219819532622211 0 0.015364416873358379 0.0010105294166261609 0 0.01474677159690106 0.00017951179835721696 0 0.016405926042426928 0.0027173585010777683 0 0.012120348644225487 0.0033569506706186384 0 0.012771652026405764 0.003277066661175105 0 0.013398061661812805 0.0027562374269068648 0 0.012692037018431279 0.0025491012154395636 0 0.012334574452514464 0.0027669557901101958 0 0.012771652026405764 0.003277066661175105 0 0.012081324758283853 0.0029826036891087105 0 0.012334574452514464 0.0027669557901101958 0 0.012771652026405764 0.003277066661175105 0 0.012692037018431279 0.0025491012154395636 0 0.017536363384238272 0.0015291529517158654 0 0.017941989930763635 0.0015900289506451531 0 0.017875480725830978 0.0011578375540075383 0 0.016405926042426928 0.0027173585010777683 0 0.014680466701508764 0.0021645188230216285 0 0.012752450605434007 0.003650944627201556 0 0.013626636876652731 0.0038473544012950396 0 0.013398061661812805 0.0027562374269068648 0 0.016405926042426928 0.0027173585010777683 0 0.017691206951832926 0.003749584926659584 0 0.021882134628174572 0.0035602207680466959 0 0.021377712898899656 0.0034760804664218607 0 0.021738807322654305 0.0031214485802188528 0 0.01454517564152418 0.0040432882074306169 0 0.014198579079229404 0.0032421964716146446 0 0.014868905170085222 0.0034546368366118389 0 0.013626636876652731 0.0038473544012950396 0 0.01454517564152418 0.0040432882074306169 0 0.014198579079229404 0.0032421964716146446 0 0.017691206951832926 0.003749584926659584 0 0.017727158321267093 0.003755174129304309 0 0.014198579079229404 0.0032421964716146446 0 0.014288933386984115 0.0024836009714888281 0 0.01485474468677956 0.002761115329206277 0 0.014198579079229404 0.0032421964716146446 0 0.013398061661812805 0.0027562374269068648 0 0.014288933386984115 0.0024836009714888281 0 0.013626636876652731 0.0038473544012950396 0 0.014198579079229404 0.0032421964716146446 0 0.013398061661812805 0.0027562374269068648 0 0.013398061661812805 0.0027562374269068648 0 0.013763166861432745 0.0021922650546387242 0 0.014288933386984115 0.0024836009714888281 0 0.013398061661812805 0.0027562374269068648 0 0.013763166861432745 0.0021922650546387242 0 0.013105027945816123 0.0020931391218151057 0 0.013763166861432745 0.0021922650546387242 0 0.014288933386984115 0.0024836009714888281 0 0.014250667731485438 0.0019453529728444613 0 0.014288933386984115 0.0024836009714888281 0 0.014250667731485438 0.0019453529728444613 0 0.014812036423355114 0.0021364525383319923 0 0.014250667731485438 0.0019453529728444613 0 0.014812036423355114 0.0021364525383319923 0 0.014690023252587973 0.0017094579070192322 0 0.014250667731485438 0.0019453529728444613 0 0.013695192360635525 0.0016572064479509986 0 0.014316943647584757 0.0015361359013768246 0 0.014690023252587973 0.0017094579070192322 0 0.014654668250197475 0.0013501517682514 0 0.014316943647584757 0.0015361359013768246 0 0.014250667731485438 0.0019453529728444613 0 0.014690023252587973 0.0017094579070192322 0 0.014316943647584757 0.0015361359013768246 0 0.013763166861432745 0.0021922650546387242 0 0.013695192360635525 0.0016572064479509986 0 0.013105027945816123 0.0020931391218151057 0 0.013763166861432745 0.0021922650546387242 0 0.014250667731485438 0.0019453529728444613 0 0.013695192360635525 0.0016572064479509986 0 0.013695192360635525 0.0016572064479509986 0 0.013105027945816123 0.0020931391218151057 0 0.012687716434013559 0.0014601984642946251 0 0.013105027945816123 0.0020931391218151057 0 0.01252061946096869 0.0019678887542181204 0 0.012687716434013559 0.0014601984642946251 0 0.013105027945816123 0.0020931391218151057 0 0.012692037018431279 0.0025491012154395636 0 0.01252061946096869 0.0019678887542181204 0 0.013398061661812805 0.0027562374269068648 0 0.013105027945816123 0.0020931391218151057 0 0.012692037018431279 0.0025491012154395636 0 0.012692037018431279 0.0025491012154395636 0 0.01252061946096869 0.0019678887542181204 0 0.012174204703247902 0.0022703803711517519 0 0.012334574452514464 0.0027669557901101958 0 0.012692037018431279 0.0025491012154395636 0 0.012174204703247902 0.0022703803711517519 0 0.01252061946096869 0.0019678887542181204 0 0.012174204703247902 0.0022703803711517519 0 0.011965844055403891 0.0014798460326850792 0 0.011537719663349381 0.0020049003316539196 0 0.012174204703247902 0.0022703803711517519 0 0.011965844055403891 0.0014798460326850792 0 0.011682926819434676 0.0022011017071813582 0 0.011996552596550679 0.002694584235786824 0 0.011926083474219917 0.0025206639550865201 0 0.011905271762817225 0.0026188081349258659 0 0.012003212165981377 0.0026947583120011517 0 0.011926083474219917 0.0025206639550865201 0 0.011905271762817225 0.0026188081349258659 0 0.01184044068226266 0.0025629108095926055 0 0.011537719663349381 0.0020049003316539196 0 0.012174204703247902 0.0022703803711517519 0 0.012003212165981377 0.0026947583120011517 0 0.012334574452514464 0.0027669557901101958 0 0.012174204703247902 0.0022703803711517519 0 0.012003212165981377 0.0026947583120011517 0 0.011926083474219917 0.0025206639550865201 0 0.011858693578513976 0.0025041348838888895 0 0.01184044068226266 0.0025629108095926055 0 0.011926083474219917 0.0025206639550865201 0 0.011858693578513976 0.0025041348838888895 0 0.011882091137644744 0.0024471906024662467 0 0.011810185582185865 0.0025200321189376988 0 0.011858693578513976 0.0025041348838888895 0 0.01184044068226266 0.0025629108095926055 0 0.011905271762817225 0.0026188081349258659 0 0.01184044068226266 0.0025629108095926055 0 0.011859978265820812 0.0026990873281162136 0 0.011810185582185865 0.0025200321189376988 0 0.01184044068226266 0.0025629108095926055 0 0.011806255965162873 0.002529275225715168 0 0.016791214490778174 0.0016678295418735025 0 0.01710873998723177 0.0016798485802680524 0 0.015041627735622658 0.0018476173672260629 0 0.015087789029597447 0.0018179598265773082 0 0.015158421782302041 0.0018632113243103111 0 0.015158421782302041 0.0018632113243103111 0 0.015199340740159306 0.0018597086489802322 0 0.015262760989647184 0.0018865589381880708 0 0.015087789029597447 0.0018179598265773082 0 0.015158421782302041 0.0018632113243103111 0 0.015199340740159306 0.0018597086489802322 0 0.013485716498540122 0.0021805075222584886 0 0.013343276698685303 0.0022205287590501997 0 0.01184044068226266 0.0025629108095926055 0 0.011806255965162873 0.002529275225715168 0 0.011859978265820812 0.0026990873281162136 0 0.01710873998723177 0.0016798485802680524 0 0.015374244343556201 0.0020607355140013018 0 0.018496756213238551 0.0015777391505264681 0 0.018625359357051896 0.0014028008471019364 0 0.018460038235316133 0.0013323669702346018 0 0.018496756213238551 0.0015777391505264681 0 0.018296694581623408 0.0014455844923204301 0 0.018460038235316133 0.0013323669702346018 0 0.018296694581623408 0.0014455844923204301 0 0.018289319315634142 0.0012889714113143113 0 0.018460038235316133 0.0013323669702346018 0 0.018745864913463809 0.0014716502271786976 0 0.018496756213238551 0.0015777391505264681 0 0.018674060940407404 0.0014918021564134811 0 0.018496756213238551 0.0015777391505264681 0 0.018625359357051896 0.0014028008471019364 0 0.018674060940407404 0.0014918021564134811 0 0.018760748407082119 0.0013130118984431352 0 0.018727247440926399 0.0014272416957496648 0 0.018625359357051896 0.0014028008471019364 0 0.018727247440926399 0.0014272416957496648 0 0.018625359357051896 0.0014028008471019364 0 0.018674060940407404 0.0014918021564134811 0 0.012003212165981377 0.0026947583120011517 0 0.011955827431943924 0.0028293980430254754 0 0.012081324758283853 0.0029826036891087105 0 0.012334574452514464 0.0027669557901101958 0 0.012003212165981377 0.0026947583120011517 0 0.012081324758283853 0.0029826036891087105 0 0.011905271762817225 0.0026188081349258659 0 0.011859978265820812 0.0026990873281162136 0 0.012003212165981377 0.0026947583120011517 0 0.011859978265820812 0.0026990873281162136 0 0.012003212165981377 0.0026947583120011517 0 0.011955827431943924 0.0028293980430254754 0 0.013343276698685303 0.0022205287590501997 0 0.015374244343556201 0.0020607355140013018 0 0.018096645454789503 0.0016103574201339053 0 0.018296694581623408 0.0014455844923204301 0 0.018115975672995974 0.001371536404744332 0 0.018496756213238551 0.0015777391505264681 0 0.018096645454789503 0.0016103574201339053 0 0.018296694581623408 0.0014455844923204301 0 0.018296694581623408 0.0014455844923204301 0 0.018115975672995974 0.001371536404744332 0 0.018289319315634142 0.0012889714113143113 0 0.018115975672995974 0.001371536404744332 0 0.017941989930763635 0.0015900289506451531 0 0.017875480725830978 0.0011578375540075383 0 0.018096645454789503 0.0016103574201339053 0 0.018115975672995974 0.001371536404744332 0 0.017941989930763635 0.0015900289506451531 0 0.015374244343556201 0.0020607355140013018 0 0.014680466701508764 0.0021645188230216285 0 0.018115975672995974 0.001371536404744332 0 0.017875480725830978 0.0011578375540075383 0 0.018178724697631245 0.0011331350746132335 0 0.018115975672995974 0.001371536404744332 0 0.018178724697631245 0.0011331350746132335 0 0.018289319315634142 0.0012889714113143113 0 0.018178724697631245 0.0011331350746132335 0 0.018289319315634142 0.0012889714113143113 0 0.018409538384358839 0.0011002426699589837 0 0.018178724697631245 0.0011331350746132335 0 0.018409538384358839 0.0011002426699589837 0 0.01819258373095603 0.00083765563251717338 0 0.017875480725830978 0.0011578375540075383 0 0.018178724697631245 0.0011331350746132335 0 0.01819258373095603 0.00083765563251717338 0 0.020707150906670281 0.0019071268661968227 0 0.020383544528903817 0.0017180442270459922 0 0.022358503851274917 0.0030071000930330274 0 0.022772874270571401 0.0024720419327626969 0 0.022113510951358842 0.0025549988261516464 0 0.018625359357051896 0.0014028008471019364 0 0.018617986009627788 0.0011828744172189321 0 0.018460038235316133 0.0013323669702346018 0 0.018760748407082119 0.0013130118984431352 0 0.018828811431592127 0.0011572225233969298 0 0.018617986009627788 0.0011828744172189321 0 0.018760748407082119 0.0013130118984431352 0 0.018625359357051896 0.0014028008471019364 0 0.018617986009627788 0.0011828744172189321 0 0.018617986009627788 0.0011828744172189321 0 0.018460038235316133 0.0013323669702346018 0 0.018409538384358839 0.0011002426699589837 0 0.018289319315634142 0.0012889714113143113 0 0.018460038235316133 0.0013323669702346018 0 0.018409538384358839 0.0011002426699589837 0 0.018617986009627788 0.0011828744172189321 0 0.018409538384358839 0.0011002426699589837 0 0.018511502144937277 0.00088769379179912122 0 0.018409538384358839 0.0011002426699589837 0 0.018511502144937277 0.00088769379179912122 0 0.01819258373095603 0.00083765563251717338 0 0.018822126617794345 0.00095240580649239264 0 0.018617986009627788 0.0011828744172189321 0 0.018511502144937277 0.00088769379179912122 0 0.018822126617794345 0.00095240580649239264 0 0.018709056663451219 0.00074279187774315769 0 0.018511502144937277 0.00088769379179912122 0 0.018709056663451219 0.00074279187774315769 0 0.018511502144937277 0.00088769379179912122 0 0.018482163681288237 0.00053495749580230109 0 0.018511502144937277 0.00088769379179912122 0 0.018482163681288237 0.00053495749580230109 0 0.01819258373095603 0.00083765563251717338 0 0.018709056663451219 0.00074279187774315769 0 0.018482163681288237 0.00053495749580230109 0 0.018757819088280742 0.00053260608028185465 0 0.022772874270571401 0.0024720419327626969 0 0.022502882165136535 0.00207399259947099 0 0.022113510951358842 0.0025549988261516464 0 0.022772874270571401 0.0024720419327626969 0 0.02283107446970185 0.0020056898288938773 0 0.022502882165136535 0.00207399259947099 0 0.023093211033576158 0.0019962886034188476 0 0.022772874270571401 0.0024720419327626969 0 0.02283107446970185 0.0020056898288938773 0 0.020696847755227822 0.0012258726667829863 0 0.020383544528903817 0.0017180442270459922 0 0.02283107446970185 0.0020056898288938773 0 0.022502882165136535 0.00207399259947099 0 0.022764908802228267 0.0017279242479651508 0 0.022502882165136535 0.00207399259947099 0 0.022091097892286832 0.0020466805687079231 0 0.022113510951358842 0.0025549988261516464 0 0.022502882165136535 0.00207399259947099 0 0.022091097892286832 0.0020466805687079231 0 0.022344946784872123 0.0017223261898255343 0 0.022091097892286832 0.0020466805687079231 0 0.021682508933489487 0.0022534494340476227 0 0.021801584493174903 0.0018880459285707132 0 0.021682508933489487 0.0022534494340476227 0 0.022113510951358842 0.0025549988261516464 0 0.021604379897994963 0.0027153194846051905 0 0.022091097892286832 0.0020466805687079231 0 0.021682508933489487 0.0022534494340476227 0 0.022113510951358842 0.0025549988261516464 0 0.022358503851274917 0.0030071000930330274 0 0.022113510951358842 0.0025549988261516464 0 0.021738807322654305 0.0031214485802188528 0 0.022113510951358842 0.0025549988261516464 0 0.021604379897994963 0.0027153194846051905 0 0.021738807322654305 0.0031214485802188528 0 0.021882134628174572 0.0035602207680466959 0 0.022358503851274917 0.0030071000930330274 0 0.021738807322654305 0.0031214485802188528 0 0.016405926042426928 0.0027173585010777683 0 0.020707150906670281 0.0019071268661968227 0 0.020846894304306404 0.0034011678842154132 0 0.02120065867688304 0.0029728851917067861 0 0.020707284098142424 0.0029617101090901052 0 0.021377712898899656 0.0034760804664218607 0 0.020846894304306404 0.0034011678842154132 0 0.02120065867688304 0.0029728851917067861 0 0.021377712898899656 0.0034760804664218607 0 0.021738807322654305 0.0031214485802188528 0 0.02120065867688304 0.0029728851917067861 0 0.021604379897994963 0.0027153194846051905 0 0.02120065867688304 0.0029728851917067861 0 0.02131407136644593 0.0025210402715652685 0 0.021604379897994963 0.0027153194846051905 0 0.021738807322654305 0.0031214485802188528 0 0.02120065867688304 0.0029728851917067861 0 0.02120065867688304 0.0029728851917067861 0 0.020867991691379584 0.0025582320157013713 0 0.020707284098142424 0.0029617101090901052 0 0.02120065867688304 0.0029728851917067861 0 0.020867991691379584 0.0025582320157013713 0 0.02131407136644593 0.0025210402715652685 0 0.020867991691379584 0.0025582320157013713 0 0.02129223277316563 0.0021203380904616133 0 0.020529177267534698 0.0020395074622545253 0 0.020867991691379584 0.0025582320157013713 0 0.02131407136644593 0.0025210402715652685 0 0.02129223277316563 0.0021203380904616133 0 0.021682508933489487 0.0022534494340476227 0 0.021604379897994963 0.0027153194846051905 0 0.02131407136644593 0.0025210402715652685 0 0.021682508933489487 0.0022534494340476227 0 0.02131407136644593 0.0025210402715652685 0 0.02129223277316563 0.0021203380904616133 0 0.021682508933489487 0.0022534494340476227 0 0.021524659279994449 0.0019675324805674401 0 0.02129223277316563 0.0021203380904616133 0 0.021682508933489487 0.0022534494340476227 0 0.021524659279994449 0.0019675324805674401 0 0.021801584493174903 0.0018880459285707132 0 0.021524659279994449 0.0019675324805674401 0 0.02129223277316563 0.0021203380904616133 0 0.021321276772399932 0.0018556803408737845 0 0.02129223277316563 0.0021203380904616133 0 0.021057824119482833 0.0020207881093451175 0 0.020872355175513994 0.0021467142260874514 0 0.02124338273187875 0.0021117170081601986 0 0.020709208325795939 0.0020965470359268572 0 0.02129223277316563 0.0021203380904616133 0 0.021057824119482833 0.0020207881093451175 0 0.021321276772399932 0.0018556803408737845 0 0.021321276772399932 0.0018556803408737845 0 0.02132251654457358 0.0015670204255436662 0 0.020994241209039394 0.0016790804697865032 0 0.02132251654457358 0.0015670204255436662 0 0.020994241209039394 0.0016790804697865032 0 0.021088362038116648 0.0013877708838787269 0 0.02132251654457358 0.0015670204255436662 0 0.021417728973000108 0.0012892977826607184 0 0.021088362038116648 0.0013877708838787269 0 0.021619612068075732 0.0014620855871798847 0 0.021769604360512812 0.0012329987306889888 0 0.021417728973000108 0.0012892977826607184 0 0.02132251654457358 0.0015670204255436662 0 0.021619612068075732 0.0014620855871798847 0 0.021417728973000108 0.0012892977826607184 0 0.02132251654457358 0.0015670204255436662 0 0.021619612068075732 0.0014620855871798847 0 0.021571390058205464 0.0017185671158697928 0 0.021619612068075732 0.0014620855871798847 0 0.021571390058205464 0.0017185671158697928 0 0.021857029438055096 0.0015712082680391234 0 0.021321276772399932 0.0018556803408737845 0 0.02132251654457358 0.0015670204255436662 0 0.021571390058205464 0.0017185671158697928 0 0.021524659279994449 0.0019675324805674401 0 0.021321276772399932 0.0018556803408737845 0 0.021571390058205464 0.0017185671158697928 0 0.021524659279994449 0.0019675324805674401 0 0.021571390058205464 0.0017185671158697928 0 0.021801584493174903 0.0018880459285707132 0 0.021571390058205464 0.0017185671158697928 0 0.021801584493174903 0.0018880459285707132 0 0.021857029438055096 0.0015712082680391234 0 0.022091097892286832 0.0020466805687079231 0 0.021801584493174903 0.0018880459285707132 0 0.022046911379091077 0.0017196585688334033 0 0.021801584493174903 0.0018880459285707132 0 0.022046911379091077 0.0017196585688334033 0 0.021857029438055096 0.0015712082680391234 0 0.022091097892286832 0.0020466805687079231 0 0.022046911379091077 0.0017196585688334033 0 0.022344946784872123 0.0017223261898255343 0 0.022046911379091077 0.0017196585688334033 0 0.022344946784872123 0.0017223261898255343 0 0.022141717078725556 0.0013784818639634344 0 0.022344946784872123 0.0017223261898255343 0 0.022141717078725556 0.0013784818639634344 0 0.022425520024806661 0.0014438304087236213 0 0.022141717078725556 0.0013784818639634344 0 0.022367591854311166 0.0012046696477500921 0 0.022425520024806661 0.0014438304087236213 0 0.022141717078725556 0.0013784818639634344 0 0.021857029438055096 0.0015712082680391234 0 0.021769604360512812 0.0012329987306889888 0 0.022046911379091077 0.0017196585688334033 0 0.022141717078725556 0.0013784818639634344 0 0.021857029438055096 0.0015712082680391234 0 0.021619612068075732 0.0014620855871798847 0 0.021857029438055096 0.0015712082680391234 0 0.021769604360512812 0.0012329987306889888 0 0.022141717078725556 0.0013784818639634344 0 0.021769604360512812 0.0012329987306889888 0 0.022156156964174296 0.001016688990348005 0 0.021769604360512812 0.0012329987306889888 0 0.022156156964174296 0.001016688990348005 0 0.021731057747881925 0.00087644051932079376 0 0.022141717078725556 0.0013784818639634344 0 0.022367591854311166 0.0012046696477500921 0 0.022156156964174296 0.001016688990348005 0 0.022367591854311166 0.0012046696477500921 0 0.022156156964174296 0.001016688990348005 0 0.022594300419274193 0.0010221266834653793 0 0.022156156964174296 0.001016688990348005 0 0.022426250079811715 0.00078846062617922354 0 0.022594300419274193 0.0010221266834653793 0 0.022156156964174296 0.001016688990348005 0 0.022426250079811715 0.00078846062617922354 0 0.022119408165818956 0.00069473883533004274 0 0.022119408165818956 0.00069473883533004274 0 0.021731057747881925 0.00087644051932079376 0 0.021734111736488822 0.00056996675013959723 0 0.022156156964174296 0.001016688990348005 0 0.022119408165818956 0.00069473883533004274 0 0.021731057747881925 0.00087644051932079376 0 0.022694477405061426 0.00045033110639278938 0 0.023104984158425133 0.00028367763198581007 0 0.021731057747881925 0.00087644051932079376 0 0.021219590310336895 0.00081404877282682103 0 0.021734111736488822 0.00056996675013959723 0 0.021731057747881925 0.00087644051932079376 0 0.021219590310336895 0.00081404877282682103 0 0.021465795474726695 0.0010142404692870387 0 0.024893263673074168 -0.0001437413423758733 0 0.024900521976656442 3.4768637923905482e-05 0 0.024939822126299083 -9.0232534591770157e-05 0 0.02271327256075828 0.00030884139244070376 0 0.022795574645150984 0.00026915777801864925 0 0.022794084713606718 0.00037029378392651653 0 0.022694477405061426 0.00045033110639278938 0 0.023347945657322431 0.00021209713145499697 0 0.021210527897044282 0.00081684898796150688 0 0.021255299858726321 0.001060157062892926 0 0.0211266235294587 0.00085914294064415276 0 0.022694477405061426 0.00045033110639278938 0 0.022004438028547721 0.00075730816156815972 0 0.022694477405061426 0.00045033110639278938 0 0.021254117389073166 0.00075034467742657871 0 0.021210527897044282 0.00081684898796150688 0 0.021255299858726321 0.001060157062892926 0 0.021465795474726695 0.0010142404692870387 0 0.021255299858726321 0.001060157062892926 0 0.021417728973000108 0.0012892977826607184 0 0.021465795474726695 0.0010142404692870387 0 0.021255299858726321 0.001060157062892926 0 0.021417728973000108 0.0012892977826607184 0 0.021088362038116648 0.0013877708838787269 0 0.021255299858726321 0.001060157062892926 0 0.021088362038116648 0.0013877708838787269 0 0.0211266235294587 0.00085914294064415276 0 0.021769604360512812 0.0012329987306889888 0 0.021417728973000108 0.0012892977826607184 0 0.021465795474726695 0.0010142404692870387 0 0.021769604360512812 0.0012329987306889888 0 0.021731057747881925 0.00087644051932079376 0 0.021465795474726695 0.0010142404692870387 0 0.021747528763676239 0.0012316410108861951 0 0.023414710109771187 0.0016302494051164205 0 0.023295760343794127 0.0014383769135574394 0 0.023458848179098914 0.0015458627028594114 0 0.023155169331724883 0.0016305982027876485 0 0.022879152825374525 0.0011499722813802216 0 0.023489422922200864 0.0011521044661999039 0 0.023561246159633637 0.0014112373549982522 0 0.023432644061169065 0.001430685652299635 0 0.023458848179098914 0.0015458627028594114 0 0.023561246159633637 0.0014112373549982522 0 0.023432644061169065 0.001430685652299635 0 0.023412262858991756 0.0013285925904147104 0 0.023432644061169065 0.001430685652299635 0 0.023295760343794127 0.0014383769135574394 0 0.023412262858991756 0.0013285925904147104 0 0.023292275296117011 0.0014096060687902631 0 0.023489422922200864 0.0011521044661999039 0 0.023432644061169065 0.001430685652299635 0 0.023295760343794127 0.0014383769135574394 0 0.023458848179098914 0.0015458627028594114 0 0.018482163681288237 0.00053495749580230109 0 0.018757819088280742 0.00053260608028185465 0 0.018762919990284798 0.00023448373444735551 0 0.020696847755227822 0.0012258726667829863 0 0.021747528763676239 0.0012316410108861951 0 0.023093211033576158 0.0019962886034188476 0 0.02283107446970185 0.0020056898288938773 0 0.023073651328954354 0.0016889710499235382 0 0.023093211033576158 0.0019962886034188476 0 0.023348378907551873 0.0016257814652835736 0 0.023073651328954354 0.0016889710499235382 0 0.023295760343794127 0.0014383769135574394 0 0.023155169331724883 0.0016305982027876485 0 0.02299011168321434 0.0014196172334831822 0 0.023155169331724883 0.0016305982027876485 0 0.02299011168321434 0.0014196172334831822 0 0.022764908802228267 0.0017279242479651508 0 0.02299011168321434 0.0014196172334831822 0 0.022764908802228267 0.0017279242479651508 0 0.022699207458582116 0.0012846392214442338 0 0.02283107446970185 0.0020056898288938773 0 0.023073651328954354 0.0016889710499235382 0 0.022764908802228267 0.0017279242479651508 0 0.023414710109771187 0.0016302494051164205 0 0.022681164459127361 0.0017414015024276874 0 0.022344946784872123 0.0017223261898255343 0 0.022764908802228267 0.0017279242479651508 0 0.022425520024806661 0.0014438304087236213 0 0.022502882165136535 0.00207399259947099 0 0.022344946784872123 0.0017223261898255343 0 0.022764908802228267 0.0017279242479651508 0 0.022764908802228267 0.0017279242479651508 0 0.022425520024806661 0.0014438304087236213 0 0.022699207458582116 0.0012846392214442338 0 0.022367591854311166 0.0012046696477500921 0 0.022699207458582116 0.0012846392214442338 0 0.022594300419274193 0.0010221266834653793 0 0.022367591854311166 0.0012046696477500921 0 0.022425520024806661 0.0014438304087236213 0 0.022699207458582116 0.0012846392214442338 0 0.022594300419274193 0.0010221266834653793 0 0.022707068176497716 0.00077464682657138397 0 0.023011915048856302 0.0010499366699429072 0 0.022426250079811715 0.00078846062617922354 0 0.022594300419274193 0.0010221266834653793 0 0.022707068176497716 0.00077464682657138397 0 0.022710263861206715 0.00077442417479827884 0 0.023153656279285405 0.0010203818952763527 0 0.022707068176497716 0.00077464682657138397 0 0.023272638784300321 0.00096789777327961287 0 0.023234638895055996 0.00063301764138975504 0 0.022699207458582116 0.0012846392214442338 0 0.022594300419274193 0.0010221266834653793 0 0.023011915048856302 0.0010499366699429072 0 0.02299011168321434 0.0014196172334831822 0 0.022699207458582116 0.0012846392214442338 0 0.023011915048856302 0.0010499366699429072 0 0.023295760343794127 0.0014383769135574394 0 0.02299011168321434 0.0014196172334831822 0 0.023011915048856302 0.0010499366699429072 0 0.023153656279285405 0.0010203818952763527 0 0.023489422922200864 0.0011521044661999039 0 0.023295760343794127 0.0014383769135574394 0 0.023011915048856302 0.0010499366699429072 0 0.023437776601054734 0.0013018520117971306 0 0.023272638784300321 0.00096789777327961287 0 0.023700252496391037 0.00076760500520570694 0 0.023473584949739491 0.00061172686348607609 0 0.023272638784300321 0.00096789777327961287 0 0.023473584949739491 0.00061172686348607609 0 0.023234638895055996 0.00063301764138975504 0 0.024008933643457821 0.00085151666448870112 0 0.023700252496391037 0.00076760500520570694 0 0.023701575293028358 0.0011690223736455058 0 0.023272638784300321 0.00096789777327961287 0 0.023700252496391037 0.00076760500520570694 0 0.023701575293028358 0.0011690223736455058 0 0.024808458792205532 4.0428550540379357e-05 0 0.024727092742475146 0.00010989503281897856 0 0.024794521054038746 5.0772839431521893e-05 0 0.024369077009956289 0.0001482346034599172 0 0.023992707700487979 0.00035740379529479888 0 0.024808458792205532 4.0428550540379357e-05 0 0.024727092742475146 0.00010989503281897856 0 0.02460654139726887 0.00036968315224950694 0 0.023944775107931488 0.00022724995069141939 0 0.023715840143119036 0.00050086895000960193 0 0.023439637387345266 0.00037157131477113197 0 0.023972234305981048 0.00054619992067533722 0 0.023700252496391037 0.00076760500520570694 0 0.023715840143119036 0.00050086895000960193 0 0.023700252496391037 0.00076760500520570694 0 0.023715840143119036 0.00050086895000960193 0 0.023473584949739491 0.00061172686348607609 0 0.023715840143119036 0.00050086895000960193 0 0.023473584949739491 0.00061172686348607609 0 0.023439637387345266 0.00037157131477113197 0 0.023473584949739491 0.00061172686348607609 0 0.023439637387345266 0.00037157131477113197 0 0.023234638895055996 0.00063301764138975504 0 0.024727092742475146 0.00010989503281897856 0 0.02460654139726887 0.00036968315224950694 0 0.024464196822248058 2.8874599170783076e-05 0 0.02460654139726887 0.00036968315224950694 0 0.024464196822248058 2.8874599170783076e-05 0 0.024083972185873149 5.0386553795172441e-05 0 0.024083972185873149 5.0386553795172441e-05 0 0.022965436983794812 0.00054564955043507365 0 0.022987958943356777 5.6024962180134888e-05 0 0.024464196822248058 2.8874599170783076e-05 0 0.023802386405566804 -0.00010206775616644598 0 0.024083972185873149 5.0386553795172441e-05 0 0.023802386405566804 -0.00010206775616644598 0 0.024083972185873149 5.0386553795172441e-05 0 0.023620613333892915 0.00012177656818196519 0 0.02460654139726887 0.00036968315224950694 0 0.024083972185873149 5.0386553795172441e-05 0 0.022965436983794812 0.00054564955043507365 0 0.024007958639372932 2.9425025981977268e-05 0 0.023235607052221673 0.00012203017494017176 0 0.023439637387345266 0.00037157131477113197 0 0.023234638895055996 0.00063301764138975504 0 0.022965436983794812 0.00054564955043507365 0 0.023992707700487979 0.00035740379529479888 0 0.023038040296931312 0.00054448616813238242 0 0.022965436983794812 0.00054564955043507365 0 0.022682789539635241 0.00036196621306748778 0 0.022987958943356777 5.6024962180134888e-05 0 0.022707068176497716 0.00077464682657138397 0 0.023234638895055996 0.00063301764138975504 0 0.022965436983794812 0.00054564955043507365 0 0.022426250079811715 0.00078846062617922354 0 0.022707068176497716 0.00077464682657138397 0 0.022675549662736896 0.0005833432497584901 0 0.022707068176497716 0.00077464682657138397 0 0.022965436983794812 0.00054564955043507365 0 0.022675549662736896 0.0005833432497584901 0 0.022675549662736896 0.0005833432497584901 0 0.022682789539635241 0.00036196621306748778 0 0.022473328972532985 0.00038724875352858055 0 0.022965436983794812 0.00054564955043507365 0 0.022675549662736896 0.0005833432497584901 0 0.022682789539635241 0.00036196621306748778 0 0.023802386405566804 -0.00010206775616644598 0 0.023620613333892915 0.00012177656818196519 0 0.023158702128977873 0.00021225997190994837 0 0.023235607052221673 0.00012203017494017176 0 0.023268825687325974 0.00017096529603567593 0 0.024085603866332187 -2.6070313277353213e-05 0 0.023268825687325974 0.00017096529603567593 0 0.024241040224401329 1.1091106801963033e-05 0 0.02407541424157306 -3.2877639918072063e-06 0 0.023843014614585128 0.00019301026098240517 0 0.022682789539635241 0.00036196621306748778 0 0.022987958943356777 5.6024962180134888e-05 0 0.022343855872886946 0.00021346367987076618 0 0.024995121887979699 -2.2150012992747709e-05 0 0.024997583269475793 -1.5732521520215903e-05 0 0.024998485409303432 -1.4284411513974424e-05 0 0.024995121887979699 -2.2150012992747709e-05 0 0.024997583269475793 -1.5732521520215903e-05 0 0.024999291342498779 -1.5652554343920548e-05 0 0.024998485409303432 -1.4284411513974424e-05 0 0.024999994705690802 2.4420317579802699e-09 0 0.024999999031782027 -1.7227831353801929e-08 0 0.024997583269475793 -1.5732521520215903e-05 0 0.024998485409303432 -1.4284411513974424e-05 0 0.024999999031782027 -1.7227831353801929e-08 0 0.024998485409303432 -1.4284411513974424e-05 0 0.024999994705690802 2.4420317579802699e-09 0 0.024989776627389299 -1.8419663986266876e-05 0 0.024999994705690802 2.4420317579802699e-09 0 0.024989776627389299 -1.8419663986266876e-05 0 0.024957498365615862 -1.6334116567296061e-05 0 0.024085603866332187 -2.6070313277353213e-05 0 0.024620866048320141 -9.8693268998148231e-05 0 0.024995121887979699 -2.2150012992747709e-05 0 0.024998485409303432 -1.4284411513974424e-05 0 0.024988133420916707 -4.5750064299955633e-05 0 0.024241040224401329 1.1091106801963033e-05 0 0.02407541424157306 -3.2877639918072063e-06 0 0.024418002370440194 -9.6680198986416241e-05 0 0.024998485409303432 -1.4284411513974424e-05 0 0.024989776627389299 -1.8419663986266876e-05 0 0.024988133420916707 -4.5750064299955633e-05 0 0.024504762869811108 -1.2998834096997513e-05 0 0.024702854925498129 -6.2261623064268845e-05 0 0.024989776627389299 -1.8419663986266876e-05 0 0.024988133420916707 -4.5750064299955633e-05 0 0.024957498365615862 -1.6334116567296061e-05 0 0.024241040224401329 1.1091106801963033e-05 0 0.024418002370440194 -9.6680198986416241e-05 0 0.024708203786287714 -7.8806329231052608e-05 0 0.024702854925498129 -6.2261623064268845e-05 0 0.024816957126693327 -6.8871024295444574e-05 0 0.024988133420916707 -4.5750064299955633e-05 0 0.024957498365615862 -1.6334116567296061e-05 0 0.024850446645181306 -6.5174662991575766e-05 0 0.024464196822248058 2.8874599170783076e-05 0 0.023802386405566804 -0.00010206775616644598 0 0.024708203786287714 -7.8806329231052608e-05 0 0.024418002370440194 -9.6680198986416241e-05 0 0.024708203786287714 -7.8806329231052608e-05 0 0.024850446645181306 -6.5174662991575766e-05 0 0.024727092742475146 0.00010989503281897856 0 0.024464196822248058 2.8874599170783076e-05 0 0.024746451929089398 5.2788952309797633e-06 0 0.024464196822248058 2.8874599170783076e-05 0 0.024708203786287714 -7.8806329231052608e-05 0 0.024746451929089398 5.2788952309797633e-06 0 0.024708203786287714 -7.8806329231052608e-05 0 0.024788469692473867 -4.0963016167346386e-05 0 0.024746451929089398 5.2788952309797633e-06 0 0.024708203786287714 -7.8806329231052608e-05 0 0.024850446645181306 -6.5174662991575766e-05 0 0.024788469692473867 -4.0963016167346386e-05 0 0.024999994705690802 2.4420317579802699e-09 0 0.024957498365615862 -1.6334116567296061e-05 0 0.024999720684195335 -4.2141380001204939e-08 0 0.024957498365615862 -1.6334116567296061e-05 0 0.024999720684195335 -4.2141380001204939e-08 0 0.024850446645181306 -6.5174662991575766e-05 0 0.024919278841712977 -2.910550317039305e-05 0 0.024853661412074034 -7.4481517039217031e-06 0 0.024850446645181306 -6.5174662991575766e-05 0 0.024999720684195335 -4.2141380001204939e-08 0 0.024919278841712977 -2.910550317039305e-05 0 0.024850446645181306 -6.5174662991575766e-05 0 0.02494844399730636 -1.9514567574466694e-05 0 0.024999720684195335 -4.2141380001204939e-08 0 0.024919278841712977 -2.910550317039305e-05 0 0.02494844399730636 -1.9514567574466694e-05 0 0.024919278841712977 -2.910550317039305e-05 0 0.024853661412074034 -7.4481517039217031e-06 0 0.024759420462746866 9.5070541742502931e-05 0 0.024853661412074034 -7.4481517039217031e-06 0 0.024794521054038746 5.0772839431521893e-05 0 0.024853661412074034 -7.4481517039217031e-06 0 0.024850446645181306 -6.5174662991575766e-05 0 0.024788469692473867 -4.0963016167346386e-05 0 0.024853661412074034 -7.4481517039217031e-06 0 0.024788469692473867 -4.0963016167346386e-05 0 0.024746451929089398 5.2788952309797633e-06 0 0.024853661412074034 -7.4481517039217031e-06 0 0.024746451929089398 5.2788952309797633e-06 0 0.024794521054038746 5.0772839431521893e-05 0 0.024727092742475146 0.00010989503281897856 0 0.024746451929089398 5.2788952309797633e-06 0 0.024794521054038746 5.0772839431521893e-05 0 0.024962250973328562 5.6191201514904262e-05 0 0.024941235130790874 5.6188038971408123e-05 0 0.024972595083944688 6.8440853081815558e-05 0 0.024972166988500698 5.5206650479571025e-05 0 0.024962250973328562 5.6191201514904262e-05 0 0.024972595083944688 6.8440853081815558e-05 0 0.024972166988500698 5.5206650479571025e-05 0 0.024962250973328562 5.6191201514904262e-05 0 0.024972723130259125 3.8245364088595736e-05 0 0.024972166988500698 5.5206650479571025e-05 0 0.02498344966779175 4.5216208247664178e-05 0 0.024972723130259125 3.8245364088595736e-05 0 0.024962250973328562 5.6191201514904262e-05 0 0.024941235130790874 5.6188038971408123e-05 0 0.024972723130259125 3.8245364088595736e-05 0 0.02495028178807045 4.9050745379255564e-05 0 0.024941235130790874 5.6188038971408123e-05 0 0.024972723130259125 3.8245364088595736e-05 0 0.02495028178807045 4.9050745379255564e-05 0 0.024930620942543166 8.3784810528482841e-05 0 0.024951031223491384 2.5237481543278403e-05 0 0.025060207900072955 -3.5974656297581153e-05 0 0.024953671010481796 2.4008718630906411e-05 0 0.02495028178807045 4.9050745379255564e-05 0 0.024928675667537863 6.3570015796309806e-05 0 0.024930620942543166 8.3784810528482841e-05 0 0.02495028178807045 4.9050745379255564e-05 0 0.024928675667537863 6.3570015796309806e-05 0 0.024941235130790874 5.6188038971408123e-05 0 0.025060207900072955 -3.5974656297581153e-05 0 0.023347945657322431 0.00021209713145499697 0 0.024893263673074168 -0.0001437413423758733 0 0.024900521976656442 3.4768637923905482e-05 0 0.024500735678826917 -9.8377571279947352e-06 0 0.024930620942543166 8.3784810528482841e-05 0 0.024900521976656442 3.4768637923905482e-05 0 0.024939822126299083 -9.0232534591770157e-05 0 0.024928675667537863 6.3570015796309806e-05 0 0.024941235130790874 5.6188038971408123e-05 0 0.024900521976656442 3.4768637923905482e-05 0 0.024928675667537863 6.3570015796309806e-05 0 0.024930620942543166 8.3784810528482841e-05 0 0.024900521976656442 3.4768637923905482e-05 0 0.024900521976656442 3.4768637923905482e-05 0 0.024500735678826917 -9.8377571279947352e-06 0 0.024493232371914055 0.00014231583390074171 0 0.024812921367806707 5.7241109853860563e-05 0 0.024928819616959742 7.8943754087362479e-05 0 0.024941235130790874 5.6188038971408123e-05 0 0.024900521976656442 3.4768637923905482e-05 0 0.024972595083944688 6.8440853081815558e-05 0 0.022119408165818956 0.00069473883533004274 0 0.021734111736488822 0.00056996675013959723 0 0.022297800564289337 0.00029043764608899616 0 0.024928819616959742 7.8943754087362479e-05 0 0.023581192961323875 0.00014463918850541777 0 0.024500735678826917 -9.8377571279947352e-06 0 0.024493232371914055 0.00014231583390074171 0 0.023990841696847558 0.00022768945269640062 0 0.023104984158425133 0.00028367763198581007 0 0.023581192961323875 0.00014463918850541777 0 0.022119408165818956 0.00069473883533004274 0 0.022407164719550631 0.0005579651671026285 0 0.022297800564289337 0.00029043764608899616 0 0.022426250079811715 0.00078846062617922354 0 0.022675549662736896 0.0005833432497584901 0 0.022407164719550631 0.0005579651671026285 0 0.022426250079811715 0.00078846062617922354 0 0.022119408165818956 0.00069473883533004274 0 0.022407164719550631 0.0005579651671026285 0 0.022657074132901089 0.00029754190876769539 0 0.023581192961323875 0.00014463918850541777 0 0.022682789539635241 0.00036196621306748778 0 0.022473328972532985 0.00038724875352858055 0 0.022343855872886946 0.00021346367987076618 0 0.022407164719550631 0.0005579651671026285 0 0.022473328972532985 0.00038724875352858055 0 0.022246067051771637 0.00023639218926962621 0 0.022675549662736896 0.0005833432497584901 0 0.022407164719550631 0.0005579651671026285 0 0.022473328972532985 0.00038724875352858055 0 0.024995121887979699 -2.2150012992747709e-05 0 0.024998383436426019 -1.8453357766436415e-05 0 0.024999291342498779 -1.5652554343920548e-05 0 0.024504762869811108 -1.2998834096997513e-05 0 0.024573888463658024 0.00017324274156172326 0 0.02407541424157306 -3.2877639918072063e-06 0 0.023843014614585128 0.00019301026098240517 0 0.023759273498763809 0.00012220142366799663 0 0.022473328972532985 0.00038724875352858055 0 0.022343855872886946 0.00021346367987076618 0 0.022246067051771637 0.00023639218926962621 0 0.023581192961323875 0.00014463918850541777 0 0.024573888463658024 0.00017324274156172326 0 0.023268825687325974 0.00017096529603567593 0 0.023581192961323875 0.00014463918850541777 0 0.023843014614585128 0.00019301026098240517 0 0.02379159177363991 0.00020302407145930649 0 0.023759273498763809 0.00012220142366799663 0 0.02500104280499281 5.5244177616517497e-05 0 0.02498344966779175 4.5216208247664178e-05 0 0.024996813528445027 2.293024309581735e-05 0 0.024972595083944688 6.8440853081815558e-05 0 0.024965056236440582 6.0984719253572761e-05 0 0.02497288892574491 6.4572404132541848e-05 0 0.024972166988500698 5.5206650479571025e-05 0 0.024972595083944688 6.8440853081815558e-05 0 0.02497288892574491 6.4572404132541848e-05 0 0.024972166988500698 5.5206650479571025e-05 0 0.02497288892574491 6.4572404132541848e-05 0 0.02498344966779175 4.5216208247664178e-05 0 0.024573888463658024 0.00017324274156172326 0 0.025075956605494984 1.5491466950267262e-05 0 0.024965056236440582 6.0984719253572761e-05 0 0.024965489636915483 6.3887138090983316e-05 0 0.02497288892574491 6.4572404132541848e-05 0 0.02500104280499281 5.5244177616517497e-05 0 0.02497288892574491 6.4572404132541848e-05 0 0.02498344966779175 4.5216208247664178e-05 0 0.024573888463658024 0.00017324274156172326 0 0.025028988491723622 -2.4425224575412218e-06 0 0.02498344966779175 4.5216208247664178e-05 0 0.024996813528445027 2.293024309581735e-05 0 0.024972723130259125 3.8245364088595736e-05 0 0.024998383436426019 -1.8453357766436415e-05 0 0.025002994471892269 -1.0424129923197457e-05 0 0.024999291342498779 -1.5652554343920548e-05 0 0.024997583269475793 -1.5732521520215903e-05 0 0.024999291342498779 -1.5652554343920548e-05 0 0.024999999031782027 -1.7227831353801929e-08 0 0.025002994471892269 -1.0424129923197457e-05 0 0.024999291342498779 -1.5652554343920548e-05 0 0.024999999031782027 -1.7227831353801929e-08 0 0.025002994471892269 -1.0424129923197457e-05 0 0.024999999031782027 -1.7227831353801929e-08 0 0.025000012761017987 9.9363559758786351e-10 0 0.025028988491723622 -2.4425224575412218e-06 0 0.02499998911112981 -3.1021034135579068e-09 0 0.024996813528445027 2.293024309581735e-05 0 0.025000000321680607 6.6324589780106171e-09 0 0.024988327371302934 1.4155344108613719e-05 0 0.025000000321680607 6.6324589780106171e-09 0 0.024999982411849028 6.4043095137094897e-09 0 0.024988327371302934 1.4155344108613719e-05 0 0.024999982411849028 6.4043095137094897e-09 0 0.024988327371302934 1.4155344108613719e-05 0 0.024980301604834623 1.1731969403310571e-05 0 0.024988327371302934 1.4155344108613719e-05 0 0.024972723130259125 3.8245364088595736e-05 0 0.024980301604834623 1.1731969403310571e-05 0 0.024996813528445027 2.293024309581735e-05 0 0.024988327371302934 1.4155344108613719e-05 0 0.024972723130259125 3.8245364088595736e-05 0 0.02495028178807045 4.9050745379255564e-05 0 0.024972723130259125 3.8245364088595736e-05 0 0.024980301604834623 1.1731969403310571e-05 0 0.02495028178807045 4.9050745379255564e-05 0 0.024951031223491384 2.5237481543278403e-05 0 0.024980301604834623 1.1731969403310571e-05 0 0.024951031223491384 2.5237481543278403e-05 0 0.024999949510910412 -3.9562476462680646e-10 0 0.024980301604834623 1.1731969403310571e-05 0 0.024999982411849028 6.4043095137094897e-09 0 0.024999949510910412 -3.9562476462680646e-10 0 0.024980301604834623 1.1731969403310571e-05 0 0.024953671010481796 2.4008718630906411e-05 0 0.024999984874208233 -1.2358959043093786e-08 0 0.024999960359066008 -3.8256455773283271e-09 0 0.024984384120040046 -3.4449804668372829e-06 0 0.024999997709758394 3.8124715525067876e-09 0 0.02497106096429234 -7.1311032607926066e-06 0 0.024999960359066008 -3.8256455773283271e-09 0 0.024984384120040046 -3.4449804668372829e-06 0 0.024999997709758394 3.8124715525067876e-09 0 0.024980373592448996 -4.2171961640253323e-06 0 0.024999911132064748 -2.5305555328731272e-08 0 0.024984384120040046 -3.4449804668372829e-06 0 0.024999997709758394 3.8124715525067876e-09 0 0.024980373592448996 -4.2171961640253323e-06 0 0.02551374148505002 -0.00013478744497788181 0 0.022357663427299567 -0.00024659148472934948 0 0.024980373592448996 -4.2171961640253323e-06 0 0.02496498105168108 -1.2845434477821604e-05 0 0.024955644019192522 -1.8452417222863712e-05 0 0.024984384120040046 -3.4449804668372829e-06 0 0.024980373592448996 -4.2171961640253323e-06 0 0.02496498105168108 -1.2845434477821604e-05 0 0.02497106096429234 -7.1311032607926066e-06 0 0.024984384120040046 -3.4449804668372829e-06 0 0.02496498105168108 -1.2845434477821604e-05 0 0.024946639828008158 -1.9051409868118562e-05 0 0.02497106096429234 -7.1311032607926066e-06 0 0.02496498105168108 -1.2845434477821604e-05 0 0.024946639828008158 -1.9051409868118562e-05 0 0.02496498105168108 -1.2845434477821604e-05 0 0.024949505818842199 -2.5175557941931438e-05 0 0.02496498105168108 -1.2845434477821604e-05 0 0.024949505818842199 -2.5175557941931438e-05 0 0.024955644019192522 -1.8452417222863712e-05 0 0.023247117451660616 -2.9000591993294019e-05 0 0.022357663427299567 -0.00024659148472934948 0 0.024946639828008158 -1.9051409868118562e-05 0 0.024949505818842199 -2.5175557941931438e-05 0 0.024926958062389107 -3.4728899446513584e-05 0 0.023247117451660616 -2.9000591993294019e-05 0 0.023347945657322431 0.00021209713145499697 0 0.018990386679507018 0.00025671039387500341 0 0.018658465134075316 0.00011337611137376818 0 0.018554242866818137 0.00038607528536765983 0 0.018990386679507018 0.00025671039387500341 0 0.018904839777715655 -0.00016673168425803908 0 0.018658465134075316 0.00011337611137376818 0 0.018990386679507018 0.00025671039387500341 0 0.019261021744748471 -0.00019494770996131638 0 0.018904839777715655 -0.00016673168425803908 0 0.019420355346374936 0.000312178883404987 0 0.022357663427299567 -0.00024659148472934948 0 0.02136857021063859 -8.6885300750604941e-05 0 0.020411867841664027 0.00022183241171800554 0 0.020773747126116682 -0.00054473358768851931 0 0.022357663427299567 -0.00024659148472934948 0 0.023102780727129388 -8.7273881279601435e-05 0 0.019261021744748471 -0.00019494770996131638 0 0.018904839777715655 -0.00016673168425803908 0 0.018848595027079279 -0.00052519211502229741 0 0.018904839777715655 -0.00016673168425803908 0 0.018568636398861828 -0.00018773583822875736 0 0.018658465134075316 0.00011337611137376818 0 0.023102780727129388 -8.7273881279601435e-05 0 0.021024019138605746 8.9152782774885942e-05 0 0.018904839777715655 -0.00016673168425803908 0 0.018848595027079279 -0.00052519211502229741 0 0.018568636398861828 -0.00018773583822875736 0 0.023102780727129388 -8.7273881279601435e-05 0 0.025253510203326886 0.00058299107526192434 0 0.024980373592448996 -4.2171961640253323e-06 0 0.02494814434105409 9.5376341486932657e-06 0 0.024942555913117521 -6.2306882004274466e-07 0 0.024980373592448996 -4.2171961640253323e-06 0 0.024942555913117521 -6.2306882004274466e-07 0 0.024999911132064748 -2.5305555328731272e-08 0 0.025000270170434689 1.5648968120862962e-07 0 0.024999780919984137 -1.3640592327834683e-07 0 0.025046865382439696 0.00017174169078135616 0 0.023102780727129388 -8.7273881279601435e-05 0 0.02500181429667394 -7.4456052135139848e-07 0 0.025039596700101335 0.00015652414868472765 0 0.025000270170434689 1.5648968120862962e-07 0 0.025046865382439696 0.00017174169078135616 0 0.024999780919984137 -1.3640592327834683e-07 0 0.025046865382439696 0.00017174169078135616 0 0.025046219417665296 0.00032881286685488556 0 0.024999780919984137 -1.3640592327834683e-07 0 0.025046219417665296 0.00032881286685488556 0 0.02500124557754782 1.2829506147929533e-06 0 0.025046219417665296 0.00032881286685488556 0 0.025022739123141235 0.00056042830799997022 0 0.02505265086100893 0.00040017587141568436 0 0.02514777638426333 0.00028689558214262405 0 0.025059153834679593 0.00030253354391523009 0 0.02505265086100893 0.00040017587141568436 0 0.025046865382439696 0.00017174169078135616 0 0.025046219417665296 0.00032881286685488556 0 0.025059153834679593 0.00030253354391523009 0 0.025046219417665296 0.00032881286685488556 0 0.025059153834679593 0.00030253354391523009 0 0.02505265086100893 0.00040017587141568436 0 0.02514777638426333 0.00028689558214262405 0 0.025046865382439696 0.00017174169078135616 0 0.025059153834679593 0.00030253354391523009 0 0.02499558105527272 -2.7990777261865085e-06 0 0.024957102493829434 0.00042868400397488095 0 0.024430681141325739 0.0013748608482114131 0 0.025046219417665296 0.00032881286685488556 0 0.024957102493829434 0.00042868400397488095 0 0.02500124557754782 1.2829506147929533e-06 0 0.02499558105527272 -2.7990777261865085e-06 0 0.024957102493829434 0.00042868400397488095 0 0.02500124557754782 1.2829506147929533e-06 0 0.025046219417665296 0.00032881286685488556 0 0.024957102493829434 0.00042868400397488095 0 0.025022739123141235 0.00056042830799997022 0 0.024957102493829434 0.00042868400397488095 0 0.024430681141325739 0.0013748608482114131 0 0.025022739123141235 0.00056042830799997022 0 0.021294490566205828 0.0009373914988022239 0 0.021717899410038072 0.00057427597120010272 0 0.018395883965992801 0.00068064376525959699 0 0.018302468682061462 0.00032844081764076249 0 0.018176348304808063 0.00040285783887968708 0 0.018302468682061462 0.00032844081764076249 0 0.018176348304808063 0.00040285783887968708 0 0.018154026872424338 0.00026342856490515869 0 0.018302468682061462 0.00032844081764076249 0 0.018154026872424338 0.00026342856490515869 0 0.017872882196599802 0.00026691575972225559 0 0.018302468682061462 0.00032844081764076249 0 0.017872882196599802 0.00026691575972225559 0 0.018146974670777125 0.0002397198704789569 0 0.021717899410038072 0.00057427597120010272 0 0.021024019138605746 8.9152782774885942e-05 0 0.018176348304808063 0.00040285783887968708 0 0.018185781713385477 0.00030338437606834554 0 0.018198819173304428 0.00029736868742379627 0 0.018176348304808063 0.00040285783887968708 0 0.018154026872424338 0.00026342856490515869 0 0.018198819173304428 0.00029736868742379627 0 0.018154026872424338 0.00026342856490515869 0 0.018255210557615278 0.00024739589229952775 0 0.01813635701079537 0.00035750743145116339 0 0.018154026872424338 0.00026342856490515869 0 0.018198819173304428 0.00029736868742379627 0 0.018255210557615278 0.00024739589229952775 0 0.018185781713385477 0.00030338437606834554 0 0.018198819173304428 0.00029736868742379627 0 0.018255210557615278 0.00024739589229952775 0 0.018255210557615278 0.00024739589229952775 0 0.018658465134075316 0.00011337611137376818 0 0.018554242866818137 0.00038607528536765983 0 0.021024019138605746 8.9152782774885942e-05 0 0.017582908378746698 0.00050971487989986898 0 0.018568636398861828 -0.00018773583822875736 0 0.018255210557615278 0.00024739589229952775 0 0.018658465134075316 0.00011337611137376818 0 0.018255210557615278 0.00024739589229952775 0 0.018554242866818137 0.00038607528536765983 0 0.01836073626919681 0.00054604213775665412 0 0.018255210557615278 0.00024739589229952775 0 0.01836073626919681 0.00054604213775665412 0 0.01813635701079537 0.00035750743145116339 0 0.01836073626919681 0.00054604213775665412 0 0.01813635701079537 0.00035750743145116339 0 0.018043592597862829 0.0006417522385014755 0 0.01836073626919681 0.00054604213775665412 0 0.018571870762344452 0.00089422827364688895 0 0.018736925314148403 0.00060058526971781389 0 0.018554242866818137 0.00038607528536765983 0 0.01836073626919681 0.00054604213775665412 0 0.018736925314148403 0.00060058526971781389 0 0.018154026872424338 0.00026342856490515869 0 0.017872882196599802 0.00026691575972225559 0 0.01813635701079537 0.00035750743145116339 0 0.017798283616866785 0.00025681215183584965 0 0.017645304658569106 0.00029532182781502782 0 0.017872882196599802 0.00026691575972225559 0 0.01813635701079537 0.00035750743145116339 0 0.018043592597862829 0.0006417522385014755 0 0.017872882196599802 0.00026691575972225559 0 0.017579715637097423 -4.9040777974796887e-05 0 0.017829651081347382 -1.9498848629655468e-05 0 0.017872882196599802 0.00026691575972225559 0 0.017147406453788958 -8.8728771682517008e-05 0 0.017579715637097423 -4.9040777974796887e-05 0 0.01712730043690042 -0.00039893241691203133 0 0.017204736199566598 -0.0005500001931584926 0 0.017488748723214903 -0.00030762936911488847 0 0.017579715637097423 -4.9040777974796887e-05 0 0.01712730043690042 -0.00039893241691203133 0 0.017488748723214903 -0.00030762936911488847 0 0.017147406453788958 -8.8728771682517008e-05 0 0.01712730043690042 -0.00039893241691203133 0 0.016835786279590304 -0.00045986439916378686 0 0.017645304658569106 0.00029532182781502782 0 0.017381221981649032 7.4832731100751788e-05 0 0.017147406453788958 -8.8728771682517008e-05 0 0.017579715637097423 -4.9040777974796887e-05 0 0.01712730043690042 -0.00039893241691203133 0 0.01712730043690042 -0.00039893241691203133 0 0.016959177482391383 -0.0006153236280822045 0 0.017204736199566598 -0.0005500001931584926 0 0.01712730043690042 -0.00039893241691203133 0 0.016959177482391383 -0.0006153236280822045 0 0.016835786279590304 -0.00045986439916378686 0 0.016959177482391383 -0.0006153236280822045 0 0.017204736199566598 -0.0005500001931584926 0 0.017047972051740481 -0.00067991286402151153 0 0.01836073626919681 0.00054604213775665412 0 0.018043592597862829 0.0006417522385014755 0 0.0182313192851342 0.00092867915223862868 0 0.01836073626919681 0.00054604213775665412 0 0.018571870762344452 0.00089422827364688895 0 0.0182313192851342 0.00092867915223862868 0 0.016959177482391383 -0.0006153236280822045 0 0.016835786279590304 -0.00045986439916378686 0 0.016839565106662759 -0.00067050120122313158 0 0.017381221981649032 7.4832731100751788e-05 0 0.018494516809529536 0.00089552483972718446 0 0.016835786279590304 -0.00045986439916378686 0 0.016712707241478945 -0.0006817020053841551 0 0.016839565106662759 -0.00067050120122313158 0 0.019776803114513936 0.0015673829712224536 0 0.019830806975517912 0.001802157867793389 0 0.019560068650014448 0.001998458313198094 0 0.01920141536887264 0.0013548587840803833 0 0.018494516809529536 0.00089552483972718446 0 0.018571870762344452 0.00089422827364688895 0 0.0182313192851342 0.00092867915223862868 0 0.018425085385678587 0.0012010138591268674 0 0.019830806975517912 0.001802157867793389 0 0.019967373962278608 0.0018524772053894875 0 0.020023817297404448 0.0016382006740194798 0 0.019830806975517912 0.001802157867793389 0 0.019967373962278608 0.0018524772053894875 0 0.019841196379721645 0.0019463935110277126 0 0.019967373962278608 0.0018524772053894875 0 0.020184845259992881 0.0018062002784148511 0 0.02021096530988966 0.0020694680943377035 0 0.019967373962278608 0.0018524772053894875 0 0.020023817297404448 0.0016382006740194798 0 0.020184845259992881 0.0018062002784148511 0 0.020023817297404448 0.0016382006740194798 0 0.020282257107848155 0.0016512486271607039 0 0.020184845259992881 0.0018062002784148511 0 0.019776803114513936 0.0015673829712224536 0 0.019830806975517912 0.001802157867793389 0 0.020023817297404448 0.0016382006740194798 0 0.019776803114513936 0.0015673829712224536 0 0.019947303242872218 0.0013960357637862043 0 0.020065805612051169 0.00097618751145348243 0 0.019947303242872218 0.0013960357637862043 0 0.020198726987875143 0.0014701824136117245 0 0.02032828525629481 0.0012301609885141593 0 0.019988417840302392 0.0013896392728351334 0 0.020467598838745001 0.0011942979845867814 0 0.01920141536887264 0.0013548587840803833 0 0.019444247352950191 0.00073585664372966279 0 0.019776803114513936 0.0015673829712224536 0 0.020023817297404448 0.0016382006740194798 0 0.019947303242872218 0.0013960357637862043 0 0.020023817297404448 0.0016382006740194798 0 0.020198726987875143 0.0014701824136117245 0 0.020282257107848155 0.0016512486271607039 0 0.020023817297404448 0.0016382006740194798 0 0.019947303242872218 0.0013960357637862043 0 0.020198726987875143 0.0014701824136117245 0 0.020458721397577345 0.001430810552675034 0 0.020198726987875143 0.0014701824136117245 0 0.02032828525629481 0.0012301609885141593 0 0.020458721397577345 0.001430810552675034 0 0.020198726987875143 0.0014701824136117245 0 0.020282257107848155 0.0016512486271607039 0 0.020458721397577345 0.001430810552675034 0 0.020282257107848155 0.0016512486271607039 0 0.020511885803008011 0.0016454739057962433 0 0.020282257107848155 0.0016512486271607039 0 0.020436447151722312 0.0018268342530611721 0 0.020511885803008011 0.0016454739057962433 0 0.020184845259992881 0.0018062002784148511 0 0.020436447151722312 0.0018268342530611721 0 0.02021096530988966 0.0020694680943377035 0 0.020282257107848155 0.0016512486271607039 0 0.020184845259992881 0.0018062002784148511 0 0.020436447151722312 0.0018268342530611721 0 0.020436447151722312 0.0018268342530611721 0 0.020687815477983533 0.0017474823351354041 0 0.020802398005997428 0.0019522483846111547 0 0.020436447151722312 0.0018268342530611721 0 0.020687815477983533 0.0017474823351354041 0 0.020511885803008011 0.0016454739057962433 0 0.020687815477983533 0.0017474823351354041 0 0.020511885803008011 0.0016454739057962433 0 0.02073862955089819 0.0015114955012703608 0 0.021294220560659455 0.0018589755925281536 0 0.020768569300723811 0.0019454888288004495 0 0.021321276772399932 0.0018556803408737845 0 0.020994241209039394 0.0016790804697865032 0 0.020802398005997428 0.0019522483846111547 0 0.020687815477983533 0.0017474823351354041 0 0.020994241209039394 0.0016790804697865032 0 0.02073862955089819 0.0015114955012703608 0 0.020687815477983533 0.0017474823351354041 0 0.020994241209039394 0.0016790804697865032 0 0.020802398005997428 0.0019522483846111547 0 0.020994241209039394 0.0016790804697865032 0 0.021088362038116648 0.0013877708838787269 0 0.02073862955089819 0.0015114955012703608 0 0.021088362038116648 0.0013877708838787269 0 0.02073862955089819 0.0015114955012703608 0 0.020717527863079864 0.0010455403997925148 0 0.020458721397577345 0.001430810552675034 0 0.02073862955089819 0.0015114955012703608 0 0.020717527863079864 0.0010455403997925148 0 0.020458721397577345 0.001430810552675034 0 0.020511885803008011 0.0016454739057962433 0 0.02073862955089819 0.0015114955012703608 0 0.020920686452521705 0.00097701363642136102 0 0.020467598838745001 0.0011942979845867814 0 0.021278726376178815 0.00087525549944287759 0 0.020862297321008569 0.00060427371001311504 0 0.020586906536881087 0.0011753406488645426 0 0.020458721397577345 0.001430810552675034 0 0.020717527863079864 0.0010455403997925148 0 0.02032828525629481 0.0012301609885141593 0 0.021088362038116648 0.0013877708838787269 0 0.020717527863079864 0.0010455403997925148 0 0.021117801730839058 0.00085207229850856883 0 0.020884789180584475 0.0014080661451590156 0 0.022004438028547721 0.00075730816156815972 0 0.02136857021063859 -8.6885300750604941e-05 0 0.021495343372766141 0.0004476392087865686 0 0.02197491513566048 0.00037516879362005438 0 0.020920686452521705 0.00097701363642136102 0 0.022004438028547721 0.00075730816156815972 0 0.021278726376178815 0.00087525549944287759 0 0.02196817515057585 0.00055283973133029478 0 0.021495343372766141 0.0004476392087865686 0 0.02196817515057585 0.00055283973133029478 0 0.021495343372766141 0.0004476392087865686 0 0.02197491513566048 0.00037516879362005438 0 0.022004438028547721 0.00075730816156815972 0 0.023347945657322431 0.00021209713145499697 0 0.021278726376178815 0.00087525549944287759 0 0.021495343372766141 0.0004476392087865686 0 0.020862297321008569 0.00060427371001311504 0 0.02136857021063859 -8.6885300750604941e-05 0 0.021495343372766141 0.0004476392087865686 0 0.020862297321008569 0.00060427371001311504 0 0.020411867841664027 0.00022183241171800554 0 0.020862297321008569 0.00060427371001311504 0 0.020065805612051169 0.00097618751145348243 0 0.02136857021063859 -8.6885300750604941e-05 0 0.020411867841664027 0.00022183241171800554 0 0.020862297321008569 0.00060427371001311504 0 0.018990386679507018 0.00025671039387500341 0 0.018554242866818137 0.00038607528536765983 0 0.018736925314148403 0.00060058526971781389 0 0.019420355346374936 0.000312178883404987 0 0.019444247352950191 0.00073585664372966279 0 0.019947303242872218 0.0013960357637862043 0 0.020065805612051169 0.00097618751145348243 0 0.020586906536881087 0.0011753406488645426 0 0.020862297321008569 0.00060427371001311504 0 0.020065805612051169 0.00097618751145348243 0 0.020586906536881087 0.0011753406488645426 0 0.021890292919661093 1.1907592765747684e-06 0 0.023660403230338672 -7.8398714425398419e-07 0 0.02426801206045652 -8.0394840034133647e-05 0 0.021887025339916013 2.9446524388769701e-07 0 0.021944675456809407 0.00051456460078029358 0 0.021890292919661093 1.1907592765747684e-06 0 0.02328978805530765 0.00029114058351535567 0 0.023660403230338672 -7.8398714425398419e-07 0 0.019837522766673193 0.00072965948128314118 0 0.020461867549173902 0.00095065320406883288 0 0.019681854403149308 0.0013152498532825634 0 0.019837522766673193 0.00072965948128314118 0 0.020461867549173902 0.00095065320406883288 0 0.019953150905019978 0.00030062656923043435 0 0.02328978805530765 0.00029114058351535567 0 0.023773410433647939 8.4005663488737794e-05 0 0.024125416805442074 0.0002243478812570511 0 0.021944675456809407 0.00051456460078029358 0 0.021491492900078232 0.00059786869998438219 0 0.023773410433647939 8.4005663488737794e-05 0 0.023660403230338672 -7.8398714425398419e-07 0 0.024072115915045326 -1.7824520122551281e-05 0 0.02328978805530765 0.00029114058351535567 0 0.023773410433647939 8.4005663488737794e-05 0 0.023660403230338672 -7.8398714425398419e-07 0 0.023660403230338672 -7.8398714425398419e-07 0 0.024072115915045326 -1.7824520122551281e-05 0 0.024264306228351507 -9.7215470364211823e-05 0 0.022907772275925831 0.00045575336863407746 0 0.021491492900078232 0.00059786869998438219 0 0.023773410433647939 8.4005663488737794e-05 0 0.024072115915045326 -1.7824520122551281e-05 0 0.024125416805442074 0.0002243478812570511 0 0.021890292919661093 1.1907592765747684e-06 0 0.02426801206045652 -8.0394840034133647e-05 0 0.024998925577286869 -6.6789079527646558e-07 0 0.02426801206045652 -8.0394840034133647e-05 0 0.024998925577286869 -6.6789079527646558e-07 0 0.024998676306796044 1.6811233347134531e-07 0 0.024998676306796044 1.6811233347134531e-07 0 0.024264306228351507 -9.7215470364211823e-05 0 0.024315201484393194 -0.00010616934263238697 0 0.02426801206045652 -8.0394840034133647e-05 0 0.024998676306796044 1.6811233347134531e-07 0 0.024264306228351507 -9.7215470364211823e-05 0 0.024072115915045326 -1.7824520122551281e-05 0 0.024264306228351507 -9.7215470364211823e-05 0 0.024315201484393194 -0.00010616934263238697 0 0.023660403230338672 -7.8398714425398419e-07 0 0.02426801206045652 -8.0394840034133647e-05 0 0.024264306228351507 -9.7215470364211823e-05 0 0.024888953279307364 1.916403468606755e-06 0 0.021676509539659855 0.00034635772912412598 0 0.02497161889988905 9.9332320218684316e-06 0 0.024972582100747986 1.1476490862197621e-05 0 0.024942103019834568 2.4657953967642367e-05 0 0.024999976683506103 8.4670682395772243e-10 0 0.02497161889988905 9.9332320218684316e-06 0 0.024999951130982283 1.0427079473605415e-08 0 0.024863103744022487 -6.6842828118313934e-05 0 0.024888953279307364 1.916403468606755e-06 0 0.024999951130982283 1.0427079473605415e-08 0 0.024972582100747986 1.1476490862197621e-05 0 0.024983067140005873 8.3467888863684339e-06 0 0.02497161889988905 9.9332320218684316e-06 0 0.024999951130982283 1.0427079473605415e-08 0 0.024972582100747986 1.1476490862197621e-05 0 0.024972582100747986 1.1476490862197621e-05 0 0.024942103019834568 2.4657953967642367e-05 0 0.024963388045282489 1.9775899635234058e-05 0 0.021676509539659855 0.00034635772912412598 0 0.021849871045308094 0.00026131526341094478 0 0.018784023176516666 0.0005001623201644368 0 0.018610843999291537 0.00044305488162996279 0 0.018661046796295884 0.00054246708798755597 0 0.024072115915045326 -1.7824520122551281e-05 0 0.024315201484393194 -0.00010616934263238697 0 0.024227225477766876 1.7343594085649761e-05 0 0.024072115915045326 -1.7824520122551281e-05 0 0.024227225477766876 1.7343594085649761e-05 0 0.024092179230613384 7.7286841408601977e-05 0 0.021676509539659855 0.00034635772912412598 0 0.021491492900078232 0.00059786869998438219 0 0.018599001701991136 0.00064488223341715761 0 0.018840316924382115 0.00079671076538344191 0 0.018617134009751006 0.00032171565667711962 0 0.019837522766673193 0.00072965948128314118 0 0.019681854403149308 0.0013152498532825634 0 0.019305668741649629 0.00039485818359945058 0 0.018599001701991136 0.00064488223341715761 0 0.018384997586774803 0.0004794381755049818 0 0.018617134009751006 0.00032171565667711962 0 0.018577350824792102 0.00092379774779670484 0 0.018599001701991136 0.00064488223341715761 0 0.018840316924382115 0.00079671076538344191 0 0.021491492900078232 0.00059786869998438219 0 0.018714321913488714 0.00038007297526739339 0 0.018577350824792102 0.00092379774779670484 0 0.018599001701991136 0.00064488223341715761 0 0.018384997586774803 0.0004794381755049818 0 0.018784023176516666 0.0005001623201644368 0 0.018706423763118808 0.00034294033232197611 0 0.018610843999291537 0.00044305488162996279 0 0.018706423763118808 0.00034294033232197611 0 0.018610843999291537 0.00044305488162996279 0 0.018522032956899488 0.00027143274791901741 0 0.021676509539659855 0.00034635772912412598 0 0.018272904184762316 0.00036205074615851409 0 0.018610843999291537 0.00044305488162996279 0 0.018447243532776995 0.00030808578991002957 0 0.018522032956899488 0.00027143274791901741 0 0.018610843999291537 0.00044305488162996279 0 0.018617913225139358 0.00051071302322058148 0 0.018447243532776995 0.00030808578991002957 0 0.018617913225139358 0.00051071302322058148 0 0.01833418208822753 0.00029164451359534337 0 0.018447243532776995 0.00030808578991002957 0 0.018617913225139358 0.00051071302322058148 0 0.018741511013956935 0.00056835772030831247 0 0.018661046796295884 0.00054246708798755597 0 0.018617913225139358 0.00051071302322058148 0 0.018741511013956935 0.00056835772030831247 0 0.018968189660036851 0.000565189860892495 0 0.018610843999291537 0.00044305488162996279 0 0.018617913225139358 0.00051071302322058148 0 0.018661046796295884 0.00054246708798755597 0 0.024999951130982283 1.0427079473605415e-08 0 0.024983067140005873 8.3467888863684339e-06 0 0.024999961502329162 9.6174321626072655e-09 0 0.024963388045282489 1.9775899635234058e-05 0 0.024983067140005873 8.3467888863684339e-06 0 0.024977509266247339 1.2857055330203285e-05 0 0.024972582100747986 1.1476490862197621e-05 0 0.024963388045282489 1.9775899635234058e-05 0 0.024983067140005873 8.3467888863684339e-06 0 0.021849871045308094 0.00026131526341094478 0 0.021838077284381804 0.00029289458249156039 0 0.024983067140005873 8.3467888863684339e-06 0 0.024977509266247339 1.2857055330203285e-05 0 0.024999961502329162 9.6174321626072655e-09 0 0.018741511013956935 0.00056835772030831247 0 0.018661046796295884 0.00054246708798755597 0 0.018660903033939923 0.00053656300154538968 0 0.018741511013956935 0.00056835772030831247 0 0.018660903033939923 0.00053656300154538968 0 0.019135963156371404 0.00064169529022575192 0 0.018660903033939923 0.00053656300154538968 0 0.019135963156371404 0.00064169529022575192 0 0.019969644277827246 0.00063200917926928453 0 0.018741511013956935 0.00056835772030831247 0 0.019135963156371404 0.00064169529022575192 0 0.018968189660036851 0.000565189860892495 0 0.019135963156371404 0.00064169529022575192 0 0.019329873634559281 0.00060675379920535741 0 0.018968189660036851 0.000565189860892495 0 0.019329873634559281 0.00060675379920535741 0 0.019027310718731288 0.00053250650862925284 0 0.018968189660036851 0.000565189860892495 0 0.019329873634559281 0.00060675379920535741 0 0.019969644277827246 0.00063200917926928453 0 0.019027310718731288 0.00053250650862925284 0 0.019135963156371404 0.00064169529022575192 0 0.019329873634559281 0.00060675379920535741 0 0.019969644277827246 0.00063200917926928453 0 0.021838077284381804 0.00029289458249156039 0 0.022731860850873926 0.00020744275342631221 0 0.024977509266247339 1.2857055330203285e-05 0 0.024999961502329162 9.6174321626072655e-09 0 0.024992565301773163 4.7994305308799213e-06 0 0.018660903033939923 0.00053656300154538968 0 0.020508250684552254 0.00026010038054061072 0 0.019969644277827246 0.00063200917926928453 0 0.025000001170399241 -1.6576456643788202e-09 0 0.024999961502329162 9.6174321626072655e-09 0 0.024992565301773163 4.7994305308799213e-06 0 0.02499558105527272 -2.7990777261865085e-06 0 0.024430681141325739 0.0013748608482114131 0 0.020508250684552254 0.00026010038054061072 0 0.024999102411972434 1.485791578786193e-09 0 0.022731860850873926 0.00020744275342631221 0 0.018395883965992801 0.00068064376525959699 0 0.019969644277827246 0.00063200917926928453 0 0.019027310718731288 0.00053250650862925284 0 0.024430681141325739 0.0013748608482114131 0 0.020508250684552254 0.00026010038054061072 0 0.019969644277827246 0.00063200917926928453 0 0.021294490566205828 0.0009373914988022239 0 0.020021854349005618 0.00065103526187875404 0 0.018302468682061462 0.00032844081764076249 0 0.019027310718731288 0.00053250650862925284 0 0.018589491627357194 0.00041384404281981461 0 0.018395883965992801 0.00068064376525959699 0 0.018302468682061462 0.00032844081764076249 0 0.019027310718731288 0.00053250650862925284 0 0.018617913225139358 0.00051071302322058148 0 0.018968189660036851 0.000565189860892495 0 0.018589491627357194 0.00041384404281981461 0 0.019027310718731288 0.00053250650862925284 0 0.018968189660036851 0.000565189860892495 0 0.018589491627357194 0.00041384404281981461 0 0.018617913225139358 0.00051071302322058148 0 0.018589491627357194 0.00041384404281981461 0 0.01833418208822753 0.00029164451359534337 0 0.018589491627357194 0.00041384404281981461 0 0.018146974670777125 0.0002397198704789569 0 0.01833418208822753 0.00029164451359534337 0 0.018302468682061462 0.00032844081764076249 0 0.018589491627357194 0.00041384404281981461 0 0.018146974670777125 0.0002397198704789569 0 0.017872882196599802 0.00026691575972225559 0 0.018146974670777125 0.0002397198704789569 0 0.017829651081347382 -1.9498848629655468e-05 0 0.018146974670777125 0.0002397198704789569 0 0.01833418208822753 0.00029164451359534337 0 0.018081491468509507 5.5860893606255091e-05 0 0.018146974670777125 0.0002397198704789569 0 0.018081491468509507 5.5860893606255091e-05 0 0.017829651081347382 -1.9498848629655468e-05 0 0.018081491468509507 5.5860893606255091e-05 0 0.017829651081347382 -1.9498848629655468e-05 0 0.017865187467320378 -0.00016367244935745751 0 0.017579715637097423 -4.9040777974796887e-05 0 0.017829651081347382 -1.9498848629655468e-05 0 0.017488748723214903 -0.00030762936911488847 0 0.017829651081347382 -1.9498848629655468e-05 0 0.017488748723214903 -0.00030762936911488847 0 0.017614887119873298 -0.00033270846850871091 0 0.017204736199566598 -0.0005500001931584926 0 0.017488748723214903 -0.00030762936911488847 0 0.01738388025953613 -0.00057348417409907194 0 0.017488748723214903 -0.00030762936911488847 0 0.01738388025953613 -0.00057348417409907194 0 0.017614887119873298 -0.00033270846850871091 0 0.017204736199566598 -0.0005500001931584926 0 0.01738388025953613 -0.00057348417409907194 0 0.017152147553724031 -0.00075025608589634714 0 0.01738388025953613 -0.00057348417409907194 0 0.017614887119873298 -0.00033270846850871091 0 0.017539816732661292 -0.00056114052002472306 0 0.01738388025953613 -0.00057348417409907194 0 0.017539816732661292 -0.00056114052002472306 0 0.017300932567028002 -0.00073606762709118223 0 0.017614887119873298 -0.00033270846850871091 0 0.017803107276141924 -0.00032979277493223912 0 0.017539816732661292 -0.00056114052002472306 0 0.017829651081347382 -1.9498848629655468e-05 0 0.017614887119873298 -0.00033270846850871091 0 0.017865187467320378 -0.00016367244935745751 0 0.017614887119873298 -0.00033270846850871091 0 0.017865187467320378 -0.00016367244935745751 0 0.017803107276141924 -0.00032979277493223912 0 0.017865187467320378 -0.00016367244935745751 0 0.017803107276141924 -0.00032979277493223912 0 0.018151991237262174 -4.048095897890485e-05 0 0.017803107276141924 -0.00032979277493223912 0 0.017539816732661292 -0.00056114052002472306 0 0.017646431942483366 -0.0005890221195351844 0 0.017803107276141924 -0.00032979277493223912 0 0.017896419551295936 -0.00044400450254033965 0 0.018083660100409661 -0.00025750252533413519 0 0.017803107276141924 -0.00032979277493223912 0 0.017646431942483366 -0.0005890221195351844 0 0.017896419551295936 -0.00044400450254033965 0 0.017896419551295936 -0.00044400450254033965 0 0.018083660100409661 -0.00025750252533413519 0 0.018168475457069917 -0.00038591544845603936 0 0.018127334060831418 -0.00023490530498427548 0 0.01837644414176794 9.2936047083530657e-05 0 0.017803107276141924 -0.00032979277493223912 0 0.018083660100409661 -0.00025750252533413519 0 0.018151991237262174 -4.048095897890485e-05 0 0.018151991237262174 -4.048095897890485e-05 0 0.018360569492181632 0.00015315173636645362 0 0.018511364425691727 5.8578006131173315e-05 0 0.018083660100409661 -0.00025750252533413519 0 0.018151991237262174 -4.048095897890485e-05 0 0.018511364425691727 5.8578006131173315e-05 0 0.018081491468509507 5.5860893606255091e-05 0 0.017865187467320378 -0.00016367244935745751 0 0.018151991237262174 -4.048095897890485e-05 0 0.018081491468509507 5.5860893606255091e-05 0 0.018151991237262174 -4.048095897890485e-05 0 0.0182732187859403 0.00016752218221594551 0 0.018151991237262174 -4.048095897890485e-05 0 0.0182732187859403 0.00016752218221594551 0 0.018360569492181632 0.00015315173636645362 0 0.01833418208822753 0.00029164451359534337 0 0.018081491468509507 5.5860893606255091e-05 0 0.0182732187859403 0.00016752218221594551 0 0.01833418208822753 0.00029164451359534337 0 0.0182732187859403 0.00016752218221594551 0 0.018447243532776995 0.00030808578991002957 0 0.018522032956899488 0.00027143274791901741 0 0.018360569492181632 0.00015315173636645362 0 0.018511364425691727 5.8578006131173315e-05 0 0.018447243532776995 0.00030808578991002957 0 0.018522032956899488 0.00027143274791901741 0 0.018360569492181632 0.00015315173636645362 0 0.0182732187859403 0.00016752218221594551 0 0.018447243532776995 0.00030808578991002957 0 0.018360569492181632 0.00015315173636645362 0 0.018272904184762316 0.00036205074615851409 0 0.01837644414176794 9.2936047083530657e-05 0 0.018384997586774803 0.0004794381755049818 0 0.018617134009751006 0.00032171565667711962 0 0.018207759031086464 6.8202813277742943e-05 0 0.018706423763118808 0.00034294033232197611 0 0.018522032956899488 0.00027143274791901741 0 0.018511364425691727 5.8578006131173315e-05 0 0.019305668741649629 0.00039485818359945058 0 0.019377007219542178 9.5772953127387417e-05 0 0.019953150905019978 0.00030062656923043435 0 0.018714321913488714 0.00038007297526739339 0 0.018618171908616445 -5.6842277661926589e-05 0 0.019305668741649629 0.00039485818359945058 0 0.019377007219542178 9.5772953127387417e-05 0 0.018841988562290586 4.0144512593315141e-06 0 0.019377007219542178 9.5772953127387417e-05 0 0.018841988562290586 4.0144512593315141e-06 0 0.01919541964892011 -0.00010481689938482305 0 0.018617134009751006 0.00032171565667711962 0 0.018388838599147812 -9.4861829252060206e-05 0 0.018207759031086464 6.8202813277742943e-05 0 0.018841988562290586 4.0144512593315141e-06 0 0.018168475457069917 -0.00038591544845603936 0 0.018718016807956411 -0.00023466308754885787 0 0.018083660100409661 -0.00025750252533413519 0 0.018388838599147812 -9.4861829252060206e-05 0 0.018207759031086464 6.8202813277742943e-05 0 0.018083660100409661 -0.00025750252533413519 0 0.018388838599147812 -9.4861829252060206e-05 0 0.018168475457069917 -0.00038591544845603936 0 0.018618171908616445 -5.6842277661926589e-05 0 0.018226754217097171 -0.00040292240579562052 0 0.018168475457069917 -0.00038591544845603936 0 0.018335402967763925 -0.00051680457005926492 0 0.018718016807956411 -0.00023466308754885787 0 0.017896419551295936 -0.00044400450254033965 0 0.018168475457069917 -0.00038591544845603936 0 0.01772641430429182 -0.0007387091401765321 0 0.018335402967763925 -0.00051680457005926492 0 0.018950722367975233 -0.00029507748571802188 0 0.018718016807956411 -0.00023466308754885787 0 0.018335402967763925 -0.00051680457005926492 0 0.018950722367975233 -0.00029507748571802188 0 0.018676708563854998 -0.00050140088431652966 0 0.018950722367975233 -0.00029507748571802188 0 0.018718016807956411 -0.00023466308754885787 0 0.01919541964892011 -0.00010481689938482305 0 0.018841988562290586 4.0144512593315141e-06 0 0.018718016807956411 -0.00023466308754885787 0 0.01919541964892011 -0.00010481689938482305 0 0.019505421742721431 -0.00015315022428334462 0 0.020008884325739031 -8.6252275596768009e-05 0 0.01968642622195883 -3.509778242240507e-05 0 0.018950722367975233 -0.00029507748571802188 0 0.01919541964892011 -0.00010481689938482305 0 0.019505421742721431 -0.00015315022428334462 0 0.01919541964892011 -0.00010481689938482305 0 0.019505421742721431 -0.00015315022428334462 0 0.01968642622195883 -3.509778242240507e-05 0 0.018950722367975233 -0.00029507748571802188 0 0.019505421742721431 -0.00015315022428334462 0 0.01917581017969501 -0.00026324520610098356 0 0.018950722367975233 -0.00029507748571802188 0 0.01917581017969501 -0.00026324520610098356 0 0.018676708563854998 -0.00050140088431652966 0 0.019505421742721431 -0.00015315022428334462 0 0.01917581017969501 -0.00026324520610098356 0 0.019643955449298079 -4.0274256663313443e-07 0 0.01917581017969501 -0.00026324520610098356 0 0.019643955449298079 -4.0274256663313443e-07 0 0.018525088230368431 -4.1629006233302345e-08 0 0.019505421742721431 -0.00015315022428334462 0 0.019643955449298079 -4.0274256663313443e-07 0 0.020008884325739031 -8.6252275596768009e-05 0 0.019643955449298079 -4.0274256663313443e-07 0 0.020008884325739031 -8.6252275596768009e-05 0 0.020765766699732843 -7.3086377692565238e-07 0 0.020008884325739031 -8.6252275596768009e-05 0 0.01968642622195883 -3.509778242240507e-05 0 0.020675614015688064 1.4704110043995501e-05 0 0.020008884325739031 -8.6252275596768009e-05 0 0.020765766699732843 -7.3086377692565238e-07 0 0.020675614015688064 1.4704110043995501e-05 0 0.019377007219542178 9.5772953127387417e-05 0 0.01968642622195883 -3.509778242240507e-05 0 0.019953150905019978 0.00030062656923043435 0 0.01968642622195883 -3.509778242240507e-05 0 0.019953150905019978 0.00030062656923043435 0 0.020675614015688064 1.4704110043995501e-05 0 0.019377007219542178 9.5772953127387417e-05 0 0.01919541964892011 -0.00010481689938482305 0 0.01968642622195883 -3.509778242240507e-05 0 0.020461867549173902 0.00095065320406883288 0 0.019953150905019978 0.00030062656923043435 0 0.020675614015688064 1.4704110043995501e-05 0 0.019837522766673193 0.00072965948128314118 0 0.019305668741649629 0.00039485818359945058 0 0.019953150905019978 0.00030062656923043435 0 0.021884600520193358 2.3880876395347825e-06 0 0.020461867549173902 0.00095065320406883288 0 0.020675614015688064 1.4704110043995501e-05 0 0.021884600520193358 2.3880876395347825e-06 0 0.020765766699732843 -7.3086377692565238e-07 0 0.020675614015688064 1.4704110043995501e-05 0 0.016255706895973176 -4.9055865038138407e-05 0 0.015654992594488597 -1.0499926040040256e-07 0 0.017089204802474313 -2.2835095658496424e-07 0 0.014356382680543438 -0.0025558364529457266 0 0.015128003447733143 -0.0028946699518536795 0 0.014920315451459238 -0.0018059284951701616 0 0.017358134750890174 -0.00097194458809368343 0 0.016386684413686514 -0.0024410348058578929 0 0.014356382680543438 -0.0025558364529457266 0 0.014447810398682764 -0.0036188649384307808 0 0.015128003447733143 -0.0028946699518536795 0 0.015101826013751108 -0.0015387362018725894 0 0.017358134750890174 -0.00097194458809368343 0 0.016255706895973176 -4.9055865038138407e-05 0 0.017089204802474313 -2.2835095658496424e-07 0 0.017236502322132568 4.28232887080265e-05 0 0.017089204802474313 -2.2835095658496424e-07 0 0.017236502322132568 4.28232887080265e-05 0 0.018521940964896923 4.8010050627814095e-07 0 0.017358134750890174 -0.00097194458809368343 0 0.018524269135593397 1.5125509245273123e-06 0 0.019416669818716085 6.436252596703195e-05 0 0.017358134750890174 -0.00097194458809368343 0 0.01917581017969501 -0.00026324520610098356 0 0.019131519051652963 0.00065945547035707716 0 0.018525088230368431 -4.1629006233302345e-08 0 0.01917581017969501 -0.00026324520610098356 0 0.018999381874286164 -0.0010024974261946488 0 0.018665608193531372 -0.00073436032677167036 0 0.01917581017969501 -0.00026324520610098356 0 0.018665608193531372 -0.00073436032677167036 0 0.018676708563854998 -0.00050140088431652966 0 0.018999381874286164 -0.0010024974261946488 0 0.018265361606427184 -0.001029623433291757 0 0.018009328887226391 -0.0015364506384511294 0 0.018999381874286164 -0.0010024974261946488 0 0.018665608193531372 -0.00073436032677167036 0 0.018265361606427184 -0.001029623433291757 0 0.018265361606427184 -0.001029623433291757 0 0.01759953908140293 -0.0010749691945939593 0 0.018009328887226391 -0.0015364506384511294 0 0.018265361606427184 -0.001029623433291757 0 0.018131425744792252 -0.00080575401635263279 0 0.01759953908140293 -0.0010749691945939593 0 0.018665608193531372 -0.00073436032677167036 0 0.018265361606427184 -0.001029623433291757 0 0.018131425744792252 -0.00080575401635263279 0 0.018665608193531372 -0.00073436032677167036 0 0.018131425744792252 -0.00080575401635263279 0 0.018676708563854998 -0.00050140088431652966 0 0.018335402967763925 -0.00051680457005926492 0 0.018131425744792252 -0.00080575401635263279 0 0.018676708563854998 -0.00050140088431652966 0 0.018168475457069917 -0.00038591544845603936 0 0.018335402967763925 -0.00051680457005926492 0 0.01772641430429182 -0.0007387091401765321 0 0.018335402967763925 -0.00051680457005926492 0 0.018131425744792252 -0.00080575401635263279 0 0.01772641430429182 -0.0007387091401765321 0 0.01772641430429182 -0.0007387091401765321 0 0.01759953908140293 -0.0010749691945939593 0 0.017211736787789512 -0.0011317980938690333 0 0.018131425744792252 -0.00080575401635263279 0 0.01772641430429182 -0.0007387091401765321 0 0.01759953908140293 -0.0010749691945939593 0 0.01759953908140293 -0.0010749691945939593 0 0.01701470282278331 -0.001437236691010133 0 0.017211736787789512 -0.0011317980938690333 0 0.01759953908140293 -0.0010749691945939593 0 0.01701470282278331 -0.001437236691010133 0 0.018009328887226391 -0.0015364506384511294 0 0.01701470282278331 -0.001437236691010133 0 0.018009328887226391 -0.0015364506384511294 0 0.016231224205600588 -0.001844436326049284 0 0.016386684413686514 -0.0024410348058578929 0 0.016427843799818601 -0.0017455550524034778 0 0.015128003447733143 -0.0028946699518536795 0 0.016231224205600588 -0.001844436326049284 0 0.014920315451459238 -0.0018059284951701616 0 0.01701470282278331 -0.001437236691010133 0 0.016231224205600588 -0.001844436326049284 0 0.016664072105227832 -0.00146295238668224 0 0.016231224205600588 -0.001844436326049284 0 0.016664072105227832 -0.00146295238668224 0 0.016348753526987711 -0.0014123803232446786 0 0.016664072105227832 -0.00146295238668224 0 0.016910187032782298 -0.0012327598312141198 0 0.016579053350992776 -0.0013018144343300267 0 0.016664072105227832 -0.00146295238668224 0 0.016579053350992776 -0.0013018144343300267 0 0.016348753526987711 -0.0014123803232446786 0 0.016910187032782298 -0.0012327598312141198 0 0.016891569437543094 -0.0011396011124181846 0 0.016579053350992776 -0.0013018144343300267 0 0.016664072105227832 -0.00146295238668224 0 0.016910187032782298 -0.0012327598312141198 0 0.017211736787789512 -0.0011317980938690333 0 0.01701470282278331 -0.001437236691010133 0 0.016664072105227832 -0.00146295238668224 0 0.017211736787789512 -0.0011317980938690333 0 0.016910187032782298 -0.0012327598312141198 0 0.017211736787789512 -0.0011317980938690333 0 0.017257372480899775 -0.00090403340031817482 0 0.01772641430429182 -0.0007387091401765321 0 0.017211736787789512 -0.0011317980938690333 0 0.017257372480899775 -0.00090403340031817482 0 0.017646431942483366 -0.0005890221195351844 0 0.01772641430429182 -0.0007387091401765321 0 0.017257372480899775 -0.00090403340031817482 0 0.017646431942483366 -0.0005890221195351844 0 0.017896419551295936 -0.00044400450254033965 0 0.01772641430429182 -0.0007387091401765321 0 0.017539816732661292 -0.00056114052002472306 0 0.017646431942483366 -0.0005890221195351844 0 0.017257372480899775 -0.00090403340031817482 0 0.017539816732661292 -0.00056114052002472306 0 0.017257372480899775 -0.00090403340031817482 0 0.017300932567028002 -0.00073606762709118223 0 0.016910187032782298 -0.0012327598312141198 0 0.017257372480899775 -0.00090403340031817482 0 0.016891569437543094 -0.0011396011124181846 0 0.017257372480899775 -0.00090403340031817482 0 0.016995501388354272 -0.00096373817708040569 0 0.016891569437543094 -0.0011396011124181846 0 0.017257372480899775 -0.00090403340031817482 0 0.016995501388354272 -0.00096373817708040569 0 0.017300932567028002 -0.00073606762709118223 0 0.01738388025953613 -0.00057348417409907194 0 0.017300932567028002 -0.00073606762709118223 0 0.017152147553724031 -0.00075025608589634714 0 0.016995501388354272 -0.00096373817708040569 0 0.017300932567028002 -0.00073606762709118223 0 0.017152147553724031 -0.00075025608589634714 0 0.017152147553724031 -0.00075025608589634714 0 0.016965839325008621 -0.00088608984477291054 0 0.017042255295418467 -0.00075679311647654929 0 0.016995501388354272 -0.00096373817708040569 0 0.016965839325008621 -0.00088608984477291054 0 0.016787330607456297 -0.0010106945143703498 0 0.016995501388354272 -0.00096373817708040569 0 0.017152147553724031 -0.00075025608589634714 0 0.016965839325008621 -0.00088608984477291054 0 0.016995501388354272 -0.00096373817708040569 0 0.016734893383861457 -0.001147895008180237 0 0.016787330607456297 -0.0010106945143703498 0 0.016734893383861457 -0.001147895008180237 0 0.016787330607456297 -0.0010106945143703498 0 0.016640646704923889 -0.0011145956117142135 0 0.016734893383861457 -0.001147895008180237 0 0.016891569437543094 -0.0011396011124181846 0 0.016579053350992776 -0.0013018144343300267 0 0.016995501388354272 -0.00096373817708040569 0 0.016734893383861457 -0.001147895008180237 0 0.016891569437543094 -0.0011396011124181846 0 0.016734893383861457 -0.001147895008180237 0 0.016579053350992776 -0.0013018144343300267 0 0.016509631311261232 -0.0011686004363304369 0 0.016734893383861457 -0.001147895008180237 0 0.016509631311261232 -0.0011686004363304369 0 0.016640646704923889 -0.0011145956117142135 0 0.016509631311261232 -0.0011686004363304369 0 0.016381645906901533 -0.0012231003662159495 0 0.016291821366756422 -0.0010236366489857662 0 0.016579053350992776 -0.0013018144343300267 0 0.016509631311261232 -0.0011686004363304369 0 0.016381645906901533 -0.0012231003662159495 0 0.016381645906901533 -0.0012231003662159495 0 0.016291821366756422 -0.0010236366489857662 0 0.016116223017551948 -0.0011909372779422048 0 0.016509631311261232 -0.0011686004363304369 0 0.016291821366756422 -0.0010236366489857662 0 0.016460215363173089 -0.0010241212279382035 0 0.016291821366756422 -0.0010236366489857662 0 0.016151953647776652 -0.00069652230252753675 0 0.016362806243019709 -0.00081467047836908434 0 0.016151953647776652 -0.00069652230252753675 0 0.015890543923000627 -0.0008865728850766093 0 0.015766429199831327 -0.00054188698196353901 0 0.016291821366756422 -0.0010236366489857662 0 0.016151953647776652 -0.00069652230252753675 0 0.015890543923000627 -0.0008865728850766093 0 0.016291821366756422 -0.0010236366489857662 0 0.015890543923000627 -0.0008865728850766093 0 0.016116223017551948 -0.0011909372779422048 0 0.015890543923000627 -0.0008865728850766093 0 0.015560303637344706 -0.001032402295163668 0 0.016116223017551948 -0.0011909372779422048 0 0.015890543923000627 -0.0008865728850766093 0 0.015115792349385274 -0.00063448088144383761 0 0.015766429199831327 -0.00054188698196353901 0 0.015890543923000627 -0.0008865728850766093 0 0.015560303637344706 -0.001032402295163668 0 0.015115792349385274 -0.00063448088144383761 0 0.015560303637344706 -0.001032402295163668 0 0.014914500124561844 -0.00090849890649565218 0 0.015115792349385274 -0.00063448088144383761 0 0.015560303637344706 -0.001032402295163668 0 0.015935751098207239 -0.0013674153274208531 0 0.016116223017551948 -0.0011909372779422048 0 0.015935751098207239 -0.0013674153274208531 0 0.016116223017551948 -0.0011909372779422048 0 0.016348753526987711 -0.0014123803232446786 0 0.016579053350992776 -0.0013018144343300267 0 0.016381645906901533 -0.0012231003662159495 0 0.016348753526987711 -0.0014123803232446786 0 0.016381645906901533 -0.0012231003662159495 0 0.016116223017551948 -0.0011909372779422048 0 0.016348753526987711 -0.0014123803232446786 0 0.016231224205600588 -0.001844436326049284 0 0.015935751098207239 -0.0013674153274208531 0 0.016348753526987711 -0.0014123803232446786 0 0.016231224205600588 -0.001844436326049284 0 0.015935751098207239 -0.0013674153274208531 0 0.01511381222831097 -0.0012201387940186689 0 0.016231224205600588 -0.001844436326049284 0 0.01511381222831097 -0.0012201387940186689 0 0.014920315451459238 -0.0018059284951701616 0 0.01511381222831097 -0.0012201387940186689 0 0.014506349096341214 -0.0010144657443961599 0 0.014456876811762122 -0.0012837446014079597 0 0.01511381222831097 -0.0012201387940186689 0 0.014456876811762122 -0.0012837446014079597 0 0.014920315451459238 -0.0018059284951701616 0 0.015560303637344706 -0.001032402295163668 0 0.015935751098207239 -0.0013674153274208531 0 0.01511381222831097 -0.0012201387940186689 0 0.015560303637344706 -0.001032402295163668 0 0.01511381222831097 -0.0012201387940186689 0 0.014914500124561844 -0.00090849890649565218 0 0.014914500124561844 -0.00090849890649565218 0 0.01449986296095831 -0.00063198804908757276 0 0.015115792349385274 -0.00063448088144383761 0 0.01449986296095831 -0.00063198804908757276 0 0.014224776882991886 -0.00068786604176159459 0 0.013720387142783494 -0.00032674246688980897 0 0.014914500124561844 -0.00090849890649565218 0 0.01449986296095831 -0.00063198804908757276 0 0.014224776882991886 -0.00068786604176159459 0 0.014914500124561844 -0.00090849890649565218 0 0.014224776882991886 -0.00068786604176159459 0 0.014506349096341214 -0.0010144657443961599 0 0.01511381222831097 -0.0012201387940186689 0 0.014914500124561844 -0.00090849890649565218 0 0.014506349096341214 -0.0010144657443961599 0 0.014224776882991886 -0.00068786604176159459 0 0.014506349096341214 -0.0010144657443961599 0 0.013806387371821742 -0.0010199370744804919 0 0.014506349096341214 -0.0010144657443961599 0 0.013806387371821742 -0.0010199370744804919 0 0.014456876811762122 -0.0012837446014079597 0 0.013806387371821742 -0.0010199370744804919 0 0.0128069094641463 -0.00018862099078571402 0 0.013720387142783494 -0.00032674246688980897 0 0.014224776882991886 -0.00068786604176159459 0 0.013806387371821742 -0.0010199370744804919 0 0.013720387142783494 -0.00032674246688980897 0 0.012786851082698543 -1.0437007848946027e-06 0 0.013595808104116381 -3.3156235140074098e-05 0 0.0128069094641463 -0.00018862099078571402 0 0.013681192259168681 -0.00054319605894471946 0 0.012958118402353308 -0.0001829075764001101 0 0.012786851082698543 -1.0437007848946027e-06 0 0.013595808104116381 -3.3156235140074098e-05 0 0.014220957821564533 2.0836504365244049e-07 0 0.013595808104116381 -3.3156235140074098e-05 0 0.014220957821564533 2.0836504365244049e-07 0 0.014936755478504045 -6.7525293465101896e-06 0 0.013681192259168681 -0.00054319605894471946 0 0.014611993557416185 -0.00078816176611724387 0 0.013806387371821742 -0.0010199370744804919 0 0.014456876811762122 -0.0012837446014079597 0 0.014260640908086012 -0.0015238660597640119 0 0.014456876811762122 -0.0012837446014079597 0 0.014920315451459238 -0.0018059284951701616 0 0.014260640908086012 -0.0015238660597640119 0 0.014356382680543438 -0.0025558364529457266 0 0.014920315451459238 -0.0018059284951701616 0 0.014260640908086012 -0.0015238660597640119 0 0.015654992594488597 -1.0499926040040256e-07 0 0.014220957821564533 2.0836504365244049e-07 0 0.014936755478504045 -6.7525293465101896e-06 0 0.015101826013751108 -0.0015387362018725894 0 0.014611993557416185 -0.00078816176611724387 0 0.016255706895973176 -4.9055865038138407e-05 0 0.015654992594488597 -1.0499926040040256e-07 0 0.014936755478504045 -6.7525293465101896e-06 0 0.017465400602716525 0.0021402733280289181 0 0.017528884224319332 0.0021925265451274815 0 0.017412902857799145 0.0022014158653386505 0 0.017465400602716525 0.0021402733280289181 0 0.017528884224319332 0.0021925265451274815 0 0.017560835986248587 0.0021310694302699436 0 0.017528884224319332 0.0021925265451274815 0 0.017560835986248587 0.0021310694302699436 0 0.017657426988784409 0.0021811291420704253 0 0.017525929095000684 0.0020769990901833122 0 0.017617697763316929 0.0020864643872964164 0 0.017578149283970893 0.0019838821628794666 0 0.017560835986248587 0.0021310694302699436 0 0.017525929095000684 0.0020769990901833122 0 0.017617697763316929 0.0020864643872964164 0 0.017525929095000684 0.0020769990901833122 0 0.017466298661800148 0.0020711809774917899 0 0.017504372028290114 0.0020366285317351073 0 0.017465400602716525 0.0021402733280289181 0 0.017560835986248587 0.0021310694302699436 0 0.017525929095000684 0.0020769990901833122 0 0.017465400602716525 0.0021402733280289181 0 0.017525929095000684 0.0020769990901833122 0 0.017466298661800148 0.0020711809774917899 0 0.017398455332908638 0.0020842088757486517 0 0.017388642889802009 0.0020830720805746373 0 0.017412902857799145 0.0022014158653386505 0 0.017482797793195996 0.0031671844436655444 0 0.017557498978216551 0.0032578509890387338 0 0.017465400602716525 0.0021402733280289181 0 0.017466298661800148 0.0020711809774917899 0 0.017398455332908638 0.0020842088757486517 0 0.017727158321267093 0.003755174129304309 0 0.017557498978216551 0.0032578509890387338 0 0.020846894304306404 0.0034011678842154132 0 0.020280024361382539 0.0033067974008469487 0 0.020707284098142424 0.0029617101090901052 0 0.020867991691379584 0.0025582320157013713 0 0.020707284098142424 0.0029617101090901052 0 0.020318171686585697 0.0025609066420387719 0 0.020280024361382539 0.0033067974008469487 0 0.020707284098142424 0.0029617101090901052 0 0.020318171686585697 0.0025609066420387719 0 0.017557498978216551 0.0032578509890387338 0 0.019440271158528317 0.0021981357284501543 0 0.017465400602716525 0.0021402733280289181 0 0.017398455332908638 0.0020842088757486517 0 0.017412902857799145 0.0022014158653386505 0 0.020220043436167026 0.0023127832415854787 0 0.020529177267534698 0.0020395074622545253 0 0.019695698440826265 0.0020095466725497833 0 0.020209575128191038 0.0026176188409000492 0 0.020220043436167026 0.0023127832415854787 0 0.019695698440826265 0.0020095466725497833 0 0.019440271158528317 0.0021981357284501543 0 0.019828599041845096 0.0023998676700864086 0 0.020867991691379584 0.0025582320157013713 0 0.020220043436167026 0.0023127832415854787 0 0.020529177267534698 0.0020395074622545253 0 0.021117771550027226 0.0025853044342335684 0 0.019440271158528317 0.0021981357284501543 0 0.020867991691379584 0.0025582320157013713 0 0.020211129353073752 0.0025914377817842405 0 0.020220043436167026 0.0023127832415854787 0 0.021057824119482833 0.0020207881093451175 0 0.021321276772399932 0.0018556803408737845 0 0.020723080422279598 0.0019373241303518045 0 0.021057824119482833 0.0020207881093451175 0 0.020872355175513994 0.0021467142260874514 0 0.020723080422279598 0.0019373241303518045 0 0.020709208325795939 0.0020965470359268572 0 0.02000233238939722 0.0020818074195380768 0 0.020872355175513994 0.0021467142260874514 0 0.020723080422279598 0.0019373241303518045 0 0.020380183446523568 0.0021662986448289421 0 0.020768569300723811 0.0019454888288004495 0 0.020164022365717366 0.0020566530025046539 0 0.020723080422279598 0.0019373241303518045 0 0.020380183446523568 0.0021662986448289421 0 0.020131469356083412 0.0020446756743862787 0 0.02000233238939722 0.0020818074195380768 0 0.019523711824431744 0.0021794681463087246 0 0.020380183446523568 0.0021662986448289421 0 0.020131469356083412 0.0020446756743862787 0 0.019913338116160272 0.0021820139963446509 0 0.020436447151722312 0.0018268342530611721 0 0.020802398005997428 0.0019522483846111547 0 0.02021096530988966 0.0020694680943377035 0 0.019133624937462616 0.002640928505307262 0 0.019695698440826265 0.0020095466725497833 0 0.018830402497725052 0.0020101463795837368 0 0.018246228744764174 0.0025189729365587923 0 0.019440271158528317 0.0021981357284501543 0 0.019133624937462616 0.002640928505307262 0 0.020209575128191038 0.0026176188409000492 0 0.019695698440826265 0.0020095466725497833 0 0.019133624937462616 0.002640928505307262 0 0.018830402497725052 0.0020101463795837368 0 0.01840587756959677 0.0022451923387365067 0 0.019967373962278608 0.0018524772053894875 0 0.02021096530988966 0.0020694680943377035 0 0.019841196379721645 0.0019463935110277126 0 0.02021096530988966 0.0020694680943377035 0 0.019841196379721645 0.0019463935110277126 0 0.01962522776837727 0.00210133982400547 0 0.020164022365717366 0.0020566530025046539 0 0.019604269480501285 0.0021494102152083421 0 0.020131469356083412 0.0020446756743862787 0 0.019913338116160272 0.0021820139963446509 0 0.019574483507393062 0.0021532728457859776 0 0.019523711824431744 0.0021794681463087246 0 0.017982348277903869 0.0012129181096299005 0 0.019841196379721645 0.0019463935110277126 0 0.01962522776837727 0.00210133982400547 0 0.019560068650014448 0.001998458313198094 0 0.02021096530988966 0.0020694680943377035 0 0.019574483507393062 0.0021532728457859776 0 0.01962522776837727 0.00210133982400547 0 0.019913338116160272 0.0021820139963446509 0 0.019574483507393062 0.0021532728457859776 0 0.01945975281435168 0.0022057376370948562 0 0.019830806975517912 0.001802157867793389 0 0.019841196379721645 0.0019463935110277126 0 0.019560068650014448 0.001998458313198094 0 0.019574483507393062 0.0021532728457859776 0 0.019544529815056961 0.0019935090221052491 0 0.01945975281435168 0.0022057376370948562 0 0.018494516809529536 0.00089552483972718446 0 0.017982348277903869 0.0012129181096299005 0 0.019574483507393062 0.0021532728457859776 0 0.01962522776837727 0.00210133982400547 0 0.019544529815056961 0.0019935090221052491 0 0.019246052626730504 0.0018441777285389323 0 0.018494516809529536 0.00089552483972718446 0 0.017982348277903869 0.0012129181096299005 0 0.016766663863793347 -0.00048221224512275639 0 0.016712707241478945 -0.0006817020053841551 0 0.016839565106662759 -0.00067050120122313158 0 0.016763994638670329 -0.00078094820770877678 0 0.016875807468700561 -0.00073810938819340096 0 0.016763994638670329 -0.00078094820770877678 0 0.016924408546864257 -0.00079214234587095646 0 0.016839565106662759 -0.00067050120122313158 0 0.016875807468700561 -0.00073810938819340096 0 0.016917440659251982 -0.00069741261235860925 0 0.016839565106662759 -0.00067050120122313158 0 0.016875807468700561 -0.00073810938819340096 0 0.016763994638670329 -0.00078094820770877678 0 0.017369304523879723 0.00028170616439354132 0 0.017058747701476595 0.00028485200595369689 0 0.017224882795504402 0.00059492407991054827 0 0.017058747701476595 0.00028485200595369689 0 0.017159110442715734 0.00059659553889426613 0 0.017224882795504402 0.00059492407991054827 0 0.017982348277903869 0.0012129181096299005 0 0.01722379744301324 0.00095725427120651465 0 0.017971091613136706 0.0020213922899166947 0 0.01797159557301365 0.0024529141686905594 0 0.017685827595867835 0.0026555933893097844 0 0.017971091613136706 0.0020213922899166947 0 0.01797159557301365 0.0024529141686905594 0 0.018120465513246236 0.0022774478997165683 0 0.01797159557301365 0.0024529141686905594 0 0.018049221838474107 0.0026396554108726396 0 0.017685827595867835 0.0026555933893097844 0 0.017845531809362079 0.0023855233640685935 0 0.017608920693460137 0.0019196950241811117 0 0.01840587756959677 0.0022451923387365067 0 0.018120465513246236 0.0022774478997165683 0 0.01805371973103076 0.0026568053003279274 0 0.01797159557301365 0.0024529141686905594 0 0.018120465513246236 0.0022774478997165683 0 0.01805371973103076 0.0026568053003279274 0 0.019133624937462616 0.002640928505307262 0 0.01840587756959677 0.0022451923387365067 0 0.01805371973103076 0.0026568053003279274 0 0.018830402497725052 0.0020101463795837368 0 0.017971091613136706 0.0020213922899166947 0 0.01840587756959677 0.0022451923387365067 0 0.017971091613136706 0.0020213922899166947 0 0.01840587756959677 0.0022451923387365067 0 0.018120465513246236 0.0022774478997165683 0 0.017204736199566598 -0.0005500001931584926 0 0.017152147553724031 -0.00075025608589634714 0 0.017042255295418467 -0.00075679311647654929 0 0.017204736199566598 -0.0005500001931584926 0 0.017042255295418467 -0.00075679311647654929 0 0.017047972051740481 -0.00067991286402151153 0 0.016965839325008621 -0.00088608984477291054 0 0.017042255295418467 -0.00075679311647654929 0 0.016928326705379693 -0.0008361543291011248 0 0.017042255295418467 -0.00075679311647654929 0 0.017047972051740481 -0.00067991286402151153 0 0.016957716554814223 -0.00076822245131634589 0 0.017042255295418467 -0.00075679311647654929 0 0.016957716554814223 -0.00076822245131634589 0 0.016928326705379693 -0.0008361543291011248 0 0.016957716554814223 -0.00076822245131634589 0 0.016926740517875318 -0.00077617402429216856 0 0.016928326705379693 -0.0008361543291011248 0 0.016957716554814223 -0.00076822245131634589 0 0.016934841647651102 -0.00075324776585756581 0 0.016926740517875318 -0.00077617402429216856 0 0.016957716554814223 -0.00076822245131634589 0 0.016960591563249711 -0.00070816526102873288 0 0.016934841647651102 -0.00075324776585756581 0 0.016959177482391383 -0.0006153236280822045 0 0.017047972051740481 -0.00067991286402151153 0 0.016960591563249711 -0.00070816526102873288 0 0.017047972051740481 -0.00067991286402151153 0 0.016957716554814223 -0.00076822245131634589 0 0.016960591563249711 -0.00070816526102873288 0 0.016959177482391383 -0.0006153236280822045 0 0.016839565106662759 -0.00067050120122313158 0 0.016917440659251982 -0.00069741261235860925 0 0.016959177482391383 -0.0006153236280822045 0 0.016960591563249711 -0.00070816526102873288 0 0.016917440659251982 -0.00069741261235860925 0 0.016960591563249711 -0.00070816526102873288 0 0.016917440659251982 -0.00069741261235860925 0 0.016934841647651102 -0.00075324776585756581 0 0.016875807468700561 -0.00073810938819340096 0 0.016917440659251982 -0.00069741261235860925 0 0.016934841647651102 -0.00075324776585756581 0 0.016780588974889443 -0.00064122115748352945 0 0.016766663863793347 -0.00048221224512275639 0 0.016875807468700561 -0.00073810938819340096 0 0.016934841647651102 -0.00075324776585756581 0 0.016924408546864257 -0.00079214234587095646 0 0.016838389426844045 -0.00091838047640651309 0 0.016787330607456297 -0.0010106945143703498 0 0.016831607568451611 -0.00090895641899348904 0 0.016809498005782346 -0.00086852455570416635 0 0.016838389426844045 -0.00091838047640651309 0 0.016831607568451611 -0.00090895641899348904 0 0.016766663863793347 -0.00048221224512275639 0 0.016919963608396534 -3.4075849851709061e-06 0 0.016766663863793347 -0.00048221224512275639 0 0.016957359588767575 -0.00076745367377335642 0 0.016809498005782346 -0.00086852455570416635 0 0.016838389426844045 -0.00091838047640651309 0 0.016928326705379693 -0.0008361543291011248 0 0.016838389426844045 -0.00091838047640651309 0 0.016928326705379693 -0.0008361543291011248 0 0.016787330607456297 -0.0010106945143703498 0 0.016965839325008621 -0.00088608984477291054 0 0.016928326705379693 -0.0008361543291011248 0 0.016787330607456297 -0.0010106945143703498 0 0.016787330607456297 -0.0010106945143703498 0 0.01661796133753865 -0.0010668852046592358 0 0.016640646704923889 -0.0011145956117142135 0 0.016787330607456297 -0.0010106945143703498 0 0.01661796133753865 -0.0010668852046592358 0 0.016522215845800419 -0.001002752607070735 0 0.016689699976789728 -0.0012652651385980354 0 0.016919963608396534 -3.4075849851709061e-06 0 0.01661796133753865 -0.0010668852046592358 0 0.016575517216386077 -0.0010709197124884652 0 0.016582882829580009 -0.0010898630934332528 0 0.01661796133753865 -0.0010668852046592358 0 0.016555465779828235 -0.0010492584306967217 0 0.016522215845800419 -0.001002752607070735 0 0.01661796133753865 -0.0010668852046592358 0 0.016555465779828235 -0.0010492584306967217 0 0.016575517216386077 -0.0010709197124884652 0 0.016555465779828235 -0.0010492584306967217 0 0.016575517216386077 -0.0010709197124884652 0 0.016557578436317055 -0.0010611647342196539 0 0.016575517216386077 -0.0010709197124884652 0 0.016557578436317055 -0.0010611647342196539 0 0.016568451858205234 -0.0010727259275833114 0 0.016568451858205234 -0.0010727259275833114 0 0.016570129364614303 -0.0010770099840783092 0 0.016582882829580009 -0.0010898630934332528 0 0.016575517216386077 -0.0010709197124884652 0 0.016568451858205234 -0.0010727259275833114 0 0.016582882829580009 -0.0010898630934332528 0 0.016568451858205234 -0.0010727259275833114 0 0.016570129364614303 -0.0010770099840783092 0 0.016568859525347656 -0.0010710747316521536 0 0.016570129364614303 -0.0010770099840783092 0 0.016562684288916756 -0.0010791991873395875 0 0.016582882829580009 -0.0010898630934332528 0 0.016570129364614303 -0.0010770099840783092 0 0.016562684288916756 -0.0010791991873395875 0 0.016576739922914172 -0.0010668838119477849 0 0.016562684288916756 -0.0010791991873395875 0 0.016582882829580009 -0.0010898630934332528 0 0.016555605944872664 -0.0010999218795386034 0 0.01661796133753865 -0.0010668852046592358 0 0.016582882829580009 -0.0010898630934332528 0 0.016640646704923889 -0.0011145956117142135 0 0.016509631311261232 -0.0011686004363304369 0 0.016555605944872664 -0.0010999218795386034 0 0.016640646704923889 -0.0011145956117142135 0 0.016582882829580009 -0.0010898630934332528 0 0.016555605944872664 -0.0010999218795386034 0 0.016640646704923889 -0.0011145956117142135 0 0.018246228744764174 0.0025189729365587923 0 0.017608920693460137 0.0019196950241811117 0 0.017560835986248587 0.0021310694302699436 0 0.017657426988784409 0.0021811291420704253 0 0.017617697763316929 0.0020864643872964164 0 0.016929421877449384 0.00088662415806824504 0 0.016944909351781497 0.00067482228413761778 0 0.016822170087452706 0.00060465993686717608 0 0.017608920693460137 0.0019196950241811117 0 0.017191112272566821 0.0012859109498880744 0 0.016929421877449384 0.00088662415806824504 0 0.017067181788463576 0.00087932630152788268 0 0.017034562465492377 0.00083171385567066072 0 0.017608920693460137 0.0019196950241811117 0 0.01722379744301324 0.00095725427120651465 0 0.016929421877449384 0.00088662415806824504 0 0.017002013225216692 0.00079275919300030322 0 0.016944909351781497 0.00067482228413761778 0 0.016929421877449384 0.00088662415806824504 0 0.017034562465492377 0.00083171385567066072 0 0.017002013225216692 0.00079275919300030322 0 0.01726905630587627 0.00049041949300972785 0 0.017137021368978114 0.00049674407488842914 0 0.017214785658653368 0.00032139783351499028 0 0.016919963608396534 -3.4075849851709061e-06 0 0.01722379744301324 0.00095725427120651465 0 0.017067181788463576 0.00087932630152788268 0 0.017034562465492377 0.00083171385567066072 0 0.017096227200254444 0.00081231685015392913 0 0.01722379744301324 0.00095725427120651465 0 0.016992573627171197 0.00010809094437981876 0 0.017034562465492377 0.00083171385567066072 0 0.017096227200254444 0.00081231685015392913 0 0.017037190624545406 0.00078573704738183457 0 0.016555465779828235 -0.0010492584306967217 0 0.016522215845800419 -0.001002752607070735 0 0.016531671644836404 -0.0010479079032195207 0 0.016919963608396534 -3.4075849851709061e-06 0 0.016992573627171197 0.00010809094437981876 0 0.016557578436317055 -0.0010611647342196539 0 0.016531671644836404 -0.0010479079032195207 0 0.016558898555908808 -0.0010605331038367489 0 0.017096227200254444 0.00081231685015392913 0 0.017037190624545406 0.00078573704738183457 0 0.017015973309920086 0.00070628857390630303 0 0.016555465779828235 -0.0010492584306967217 0 0.016557578436317055 -0.0010611647342196539 0 0.016531671644836404 -0.0010479079032195207 0 0.017002013225216692 0.00079275919300030322 0 0.017015973309920086 0.00070628857390630303 0 0.016944909351781497 0.00067482228413761778 0 0.017037190624545406 0.00078573704738183457 0 0.017002013225216692 0.00079275919300030322 0 0.017015973309920086 0.00070628857390630303 0 0.017034562465492377 0.00083171385567066072 0 0.017037190624545406 0.00078573704738183457 0 0.017002013225216692 0.00079275919300030322 0 0.016558898555908808 -0.0010605331038367489 0 0.016578304954235464 -0.0010705385214249893 0 0.016617963520923627 -0.0010716097639686694 0 0.017015973309920086 0.00070628857390630303 0 0.016944909351781497 0.00067482228413761778 0 0.016976105787712987 0.00046032509157944605 0 0.017096227200254444 0.00081231685015392913 0 0.017015973309920086 0.00070628857390630303 0 0.016976105787712987 0.00046032509157944605 0 0.016531671644836404 -0.0010479079032195207 0 0.016558898555908808 -0.0010605331038367489 0 0.016617963520923627 -0.0010716097639686694 0 0.016944909351781497 0.00067482228413761778 0 0.016905028813232706 0.00053828959572692391 0 0.016976105787712987 0.00046032509157944605 0 0.016992573627171197 0.00010809094437981876 0 0.01676500051477307 -0.00035338772448468636 0 0.016558898555908808 -0.0010605331038367489 0 0.016568859525347656 -0.0010710747316521536 0 0.016578304954235464 -0.0010705385214249893 0 0.016557578436317055 -0.0010611647342196539 0 0.016568451858205234 -0.0010727259275833114 0 0.016558898555908808 -0.0010605331038367489 0 0.016568451858205234 -0.0010727259275833114 0 0.016558898555908808 -0.0010605331038367489 0 0.016568859525347656 -0.0010710747316521536 0 0.016570129364614303 -0.0010770099840783092 0 0.016568859525347656 -0.0010710747316521536 0 0.016578304954235464 -0.0010705385214249893 0 0.016578304954235464 -0.0010705385214249893 0 0.016576739922914172 -0.0010668838119477849 0 0.016617963520923627 -0.0010716097639686694 0 0.016570129364614303 -0.0010770099840783092 0 0.016578304954235464 -0.0010705385214249893 0 0.016576739922914172 -0.0010668838119477849 0 0.016944909351781497 0.00067482228413761778 0 0.016905028813232706 0.00053828959572692391 0 0.016822170087452706 0.00060465993686717608 0 0.016905028813232706 0.00053828959572692391 0 0.016822170087452706 0.00060465993686717608 0 0.016748441920268597 0.00040999124035845375 0 0.016905028813232706 0.00053828959572692391 0 0.016976105787712987 0.00046032509157944605 0 0.016641952339965359 0.00029841651469567933 0 0.016976105787712987 0.00046032509157944605 0 0.016823852394339863 5.5470405996532552e-05 0 0.016641952339965359 0.00029841651469567933 0 0.017191112272566821 0.0012859109498880744 0 0.017016771922698737 0.001108538011324019 0 0.016709190613387475 0.00028240153540430509 0 0.017016771922698737 0.001108538011324019 0 0.016576739922914172 -0.0010668838119477849 0 0.016577156213049192 -0.0010315838515877771 0 0.016540030051897702 -0.0010337908680999794 0 0.016576739922914172 -0.0010668838119477849 0 0.016617963520923627 -0.0010716097639686694 0 0.016577156213049192 -0.0010315838515877771 0 0.016617963520923627 -0.0010716097639686694 0 0.016577156213049192 -0.0010315838515877771 0 0.016586190605315927 -0.00094091743290766804 0 0.016577156213049192 -0.0010315838515877771 0 0.016586190605315927 -0.00094091743290766804 0 0.016540030051897702 -0.0010337908680999794 0 0.016617963520923627 -0.0010716097639686694 0 0.016586190605315927 -0.00094091743290766804 0 0.016708097069379587 -0.00079833707815300163 0 0.016586190605315927 -0.00094091743290766804 0 0.016494874593379706 -0.00089711421210014308 0 0.016554068545149871 -0.00077091287751231597 0 0.016586190605315927 -0.00094091743290766804 0 0.016708097069379587 -0.00079833707815300163 0 0.016554068545149871 -0.00077091287751231597 0 0.01676500051477307 -0.00035338772448468636 0 0.016760549739757945 -0.00035384944342182128 0 0.016509631311261232 -0.0011686004363304369 0 0.016555605944872664 -0.0010999218795386034 0 0.016460215363173089 -0.0010241212279382035 0 0.016555605944872664 -0.0010999218795386034 0 0.016540030051897702 -0.0010337908680999794 0 0.016460215363173089 -0.0010241212279382035 0 0.016562684288916756 -0.0010791991873395875 0 0.016555605944872664 -0.0010999218795386034 0 0.016540030051897702 -0.0010337908680999794 0 0.016562684288916756 -0.0010791991873395875 0 0.016576739922914172 -0.0010668838119477849 0 0.016540030051897702 -0.0010337908680999794 0 0.016540030051897702 -0.0010337908680999794 0 0.016494874593379706 -0.00089711421210014308 0 0.016460215363173089 -0.0010241212279382035 0 0.016586190605315927 -0.00094091743290766804 0 0.016540030051897702 -0.0010337908680999794 0 0.016494874593379706 -0.00089711421210014308 0 0.016494874593379706 -0.00089711421210014308 0 0.016460215363173089 -0.0010241212279382035 0 0.016362806243019709 -0.00081467047836908434 0 0.016291821366756422 -0.0010236366489857662 0 0.016460215363173089 -0.0010241212279382035 0 0.016362806243019709 -0.00081467047836908434 0 0.016362806243019709 -0.00081467047836908434 0 0.016456707164083904 -0.00064932642937050203 0 0.016304848082609114 -0.00051228453080397966 0 0.016494874593379706 -0.00089711421210014308 0 0.016362806243019709 -0.00081467047836908434 0 0.016456707164083904 -0.00064932642937050203 0 0.016494874593379706 -0.00089711421210014308 0 0.016456707164083904 -0.00064932642937050203 0 0.016554068545149871 -0.00077091287751231597 0 0.016456707164083904 -0.00064932642937050203 0 0.016304848082609114 -0.00051228453080397966 0 0.016464322706746162 -0.00036669965168914721 0 0.016151953647776652 -0.00069652230252753675 0 0.016362806243019709 -0.00081467047836908434 0 0.016304848082609114 -0.00051228453080397966 0 0.016151953647776652 -0.00069652230252753675 0 0.016304848082609114 -0.00051228453080397966 0 0.0161176852635194 -0.00028880633650713901 0 0.016760549739757945 -0.00035384944342182128 0 0.016679699880277801 -0.00029413257191593844 0 0.016823852394339863 5.5470405996532552e-05 0 0.016663364151281505 -0.00026860822886014155 0 0.016580649938545401 -0.00013434482609424005 0 0.016708097069379587 -0.00079833707815300163 0 0.016570138988950586 -0.00052365962511512925 0 0.016663364151281505 -0.00026860822886014155 0 0.016456707164083904 -0.00064932642937050203 0 0.016570138988950586 -0.00052365962511512925 0 0.016554068545149871 -0.00077091287751231597 0 0.016708097069379587 -0.00079833707815300163 0 0.016570138988950586 -0.00052365962511512925 0 0.016554068545149871 -0.00077091287751231597 0 0.016456707164083904 -0.00064932642937050203 0 0.016570138988950586 -0.00052365962511512925 0 0.016464322706746162 -0.00036669965168914721 0 0.016570138988950586 -0.00052365962511512925 0 0.016464322706746162 -0.00036669965168914721 0 0.016663364151281505 -0.00026860822886014155 0 0.016510643436252786 -0.000137597864906582 0 0.016580649938545401 -0.00013434482609424005 0 0.01656507331843491 -0.00017326694724385222 0 0.016663364151281505 -0.00026860822886014155 0 0.016580649938545401 -0.00013434482609424005 0 0.01656507331843491 -0.00017326694724385222 0 0.016578352843036499 0.00056076777794021116 0 0.016200896386358108 0.0002885948378761325 0 0.015957944300933932 0.00061706664107908651 0 0.016578352843036499 0.00056076777794021116 0 0.016200896386358108 0.0002885948378761325 0 0.01638540623181229 -6.2477305734816646e-05 0 0.016537834110388713 0.00021536261751779214 0 0.01639806116208645 -6.062690780493278e-05 0 0.016578352843036499 0.00056076777794021116 0 0.016495881240877776 0.0011062490021119711 0 0.015957944300933932 0.00061706664107908651 0 0.016578352843036499 0.00056076777794021116 0 0.016784822249595027 0.0010673351811529047 0 0.016495881240877776 0.0011062490021119711 0 0.016510643436252786 -0.000137597864906582 0 0.016580649938545401 -0.00013434482609424005 0 0.016538707916395858 6.8806686964572521e-06 0 0.016537834110388713 0.00021536261751779214 0 0.016639825862952113 0.00049865423292719225 0 0.016823852394339863 5.5470405996532552e-05 0 0.016580649938545401 -0.00013434482609424005 0 0.016538707916395858 6.8806686964572521e-06 0 0.016639825862952113 0.00049865423292719225 0 0.017016771922698737 0.001108538011324019 0 0.017122063459017105 0.0015855976976251462 0 0.017016771922698737 0.001108538011324019 0 0.016784822249595027 0.0010673351811529047 0 0.016495881240877776 0.0011062490021119711 0 0.016990719264627321 0.0015446151320878043 0 0.016823852394339863 5.5470405996532552e-05 0 0.016538707916395858 6.8806686964572521e-06 0 0.016641952339965359 0.00029841651469567933 0 0.01747649523046375 0.0018860496310039549 0 0.017448359752219807 0.0020128556425119491 0 0.017578149283970893 0.0019838821628794666 0 0.017448359752219807 0.0020128556425119491 0 0.017504372028290114 0.0020366285317351073 0 0.017578149283970893 0.0019838821628794666 0 0.017466298661800148 0.0020711809774917899 0 0.017448359752219807 0.0020128556425119491 0 0.017504372028290114 0.0020366285317351073 0 0.017525929095000684 0.0020769990901833122 0 0.017504372028290114 0.0020366285317351073 0 0.017578149283970893 0.0019838821628794666 0 0.01454517564152418 0.0040432882074306169 0 0.015456876489575872 0.0042146156764073005 0 0.014868905170085222 0.0034546368366118389 0 0.015456876489575872 0.0042146156764073005 0 0.014868905170085222 0.0034546368366118389 0 0.0154630052581421 0.0031355306009684968 0 0.017557498978216551 0.0032578509890387338 0 0.01630692769808257 0.0026029049251569936 0 0.017383567038033048 0.0020827115900275729 0 0.017448359752219807 0.0020128556425119491 0 0.017356238805515258 0.001937675610063315 0 0.017466298661800148 0.0020711809774917899 0 0.017398455332908638 0.0020842088757486517 0 0.017448359752219807 0.0020128556425119491 0 0.017398455332908638 0.0020842088757486517 0 0.017383567038033048 0.0020827115900275729 0 0.017448359752219807 0.0020128556425119491 0 0.01747649523046375 0.0018860496310039549 0 0.017448359752219807 0.0020128556425119491 0 0.017356238805515258 0.001937675610063315 0 0.014198579079229404 0.0032421964716146446 0 0.014868905170085222 0.0034546368366118389 0 0.01485474468677956 0.002761115329206277 0 0.014868905170085222 0.0034546368366118389 0 0.0154630052581421 0.0031355306009684968 0 0.01485474468677956 0.002761115329206277 0 0.01485474468677956 0.002761115329206277 0 0.015545143227264574 0.0020631693169839648 0 0.014812036423355114 0.0021364525383319923 0 0.0154630052581421 0.0031355306009684968 0 0.01485474468677956 0.002761115329206277 0 0.015545143227264574 0.0020631693169839648 0 0.014288933386984115 0.0024836009714888281 0 0.01485474468677956 0.002761115329206277 0 0.014812036423355114 0.0021364525383319923 0 0.01630692769808257 0.0026029049251569936 0 0.0162119254011482 0.0014906533649139129 0 0.01747649523046375 0.0018860496310039549 0 0.017356238805515258 0.001937675610063315 0 0.017342052092623621 0.0017677667953746054 0 0.017122063459017105 0.0015855976976251462 0 0.0162119254011482 0.0014906533649139129 0 0.015691397402225596 0.0021966482845445423 0 0.015384559447244289 0.0019075164250479974 0 0.015856706050654139 -8.9151306174110317e-05 0 0.0162119254011482 0.0014906533649139129 0 0.015954048043048185 0.0015532314583569223 0 0.014812036423355114 0.0021364525383319923 0 0.01507155633194651 0.0018711715973497996 0 0.014690023252587973 0.0017094579070192322 0 0.015545143227264574 0.0020631693169839648 0 0.015384559447244289 0.0019075164250479974 0 0.01507155633194651 0.0018711715973497996 0 0.015545143227264574 0.0020631693169839648 0 0.014812036423355114 0.0021364525383319923 0 0.01507155633194651 0.0018711715973497996 0 0.015384559447244289 0.0019075164250479974 0 0.01507155633194651 0.0018711715973497996 0 0.015015050444542592 0.0014679328505037335 0 0.015015050444542592 0.0014679328505037335 0 0.014690023252587973 0.0017094579070192322 0 0.014654668250197475 0.0013501517682514 0 0.01507155633194651 0.0018711715973497996 0 0.015015050444542592 0.0014679328505037335 0 0.014690023252587973 0.0017094579070192322 0 0.015015050444542592 0.0014679328505037335 0 0.014889763919334555 0.00024447129748745715 0 0.015856706050654139 -8.9151306174110317e-05 0 0.015015050444542592 0.0014679328505037335 0 0.014654668250197475 0.0013501517682514 0 0.014797577778850459 0.0010698107316903281 0 0.015002535055926535 0.0013911451961188582 0 0.014864000699021203 0.00063725978090950345 0 0.014654668250197475 0.0013501517682514 0 0.014797577778850459 0.0010698107316903281 0 0.014230703662341146 0.0011044481851600599 0 0.0162119254011482 0.0014906533649139129 0 0.015748313986236172 -7.6321038091629924e-05 0 0.016200896386358108 0.0002885948378761325 0 0.015856706050654139 -8.9151306174110317e-05 0 0.01638540623181229 -6.2477305734816646e-05 0 0.015384559447244289 0.0019075164250479974 0 0.015015050444542592 0.0014679328505037335 0 0.015856706050654139 -8.9151306174110317e-05 0 0.016200896386358108 0.0002885948378761325 0 0.015957944300933932 0.00061706664107908651 0 0.015856706050654139 -8.9151306174110317e-05 0 0.015856706050654139 -8.9151306174110317e-05 0 0.016331784383178082 -0.00040786270167446722 0 0.01638540623181229 -6.2477305734816646e-05 0 0.015856706050654139 -8.9151306174110317e-05 0 0.014844668704207814 -0.00070205824875974997 0 0.016331784383178082 -0.00040786270167446722 0 0.015743823239812098 0.00019735990991278984 0 0.015771266324877516 0.00019123428180872309 0 0.015775130228002018 0.00021559374548774457 0 0.015135383808847394 0.00019960189673129367 0 0.016068873140372444 -0.00015909006927454809 0 0.014889763919334555 0.00024447129748745715 0 0.015856706050654139 -8.9151306174110317e-05 0 0.014844668704207814 -0.00070205824875974997 0 0.014797577778850459 0.0010698107316903281 0 0.014672133712797322 0.00052408906398266448 0 0.014230703662341146 0.0011044481851600599 0 0.014864000699021203 0.00063725978090950345 0 0.015135383808847394 0.00019960189673129367 0 0.015743823239812098 0.00019735990991278984 0 0.01575719952184412 0.00018486942111214938 0 0.015752820179301141 0.00018571081178876176 0 0.015135383808847394 0.00019960189673129367 0 0.015388720345486781 -0.00032439692654279059 0 0.015743823239812098 0.00019735990991278984 0 0.015760364780140246 0.00018756615270157107 0 0.01575719952184412 0.00018486942111214938 0 0.015743823239812098 0.00019735990991278984 0 0.015771266324877516 0.00019123428180872309 0 0.015760364780140246 0.00018756615270157107 0 0.015771266324877516 0.00019123428180872309 0 0.015766405531205768 0.0001763228411764162 0 0.015790650566011182 0.00016892299160237978 0 0.015771266324877516 0.00019123428180872309 0 0.015760364780140246 0.00018756615270157107 0 0.015766405531205768 0.0001763228411764162 0 0.015760364780140246 0.00018756615270157107 0 0.015766405531205768 0.0001763228411764162 0 0.01575719952184412 0.00018486942111214938 0 0.015766405531205768 0.0001763228411764162 0 0.01575719952184412 0.00018486942111214938 0 0.015758025869136466 0.00019433828353333731 0 0.01575719952184412 0.00018486942111214938 0 0.015758025869136466 0.00019433828353333731 0 0.015752820179301141 0.00018571081178876176 0 0.015758025869136466 0.00019433828353333731 0 0.015751990755323055 0.00020552152896365821 0 0.015752820179301141 0.00018571081178876176 0 0.015883690421113556 0.00014265771248336124 0 0.015790650566011182 0.00016892299160237978 0 0.015783391680166934 0.00012206277576774019 0 0.015790650566011182 0.00016892299160237978 0 0.015777087843655925 0.00016217798841630757 0 0.015783391680166934 0.00012206277576774019 0 0.015766405531205768 0.0001763228411764162 0 0.015790650566011182 0.00016892299160237978 0 0.015777087843655925 0.00016217798841630757 0 0.015771266324877516 0.00019123428180872309 0 0.015790650566011182 0.00016892299160237978 0 0.015775130228002018 0.00021559374548774457 0 0.015790650566011182 0.00016892299160237978 0 0.015855985800961481 0.00017717796734583572 0 0.015775130228002018 0.00021559374548774457 0 0.015883690421113556 0.00014265771248336124 0 0.015790650566011182 0.00016892299160237978 0 0.015855985800961481 0.00017717796734583572 0 0.016265914168444886 1.1086909106930654e-05 0 0.016068873140372444 -0.00015909006927454809 0 0.015855985800961481 0.00017717796734583572 0 0.015927634421493097 0.00023358436881960109 0 0.015775130228002018 0.00021559374548774457 0 0.016651479181218905 -0.00020576680158947575 0 0.016331784383178082 -0.00040786270167446722 0 0.01638540623181229 -6.2477305734816646e-05 0 0.016510643436252786 -0.000137597864906582 0 0.01638540623181229 -6.2477305734816646e-05 0 0.01656507331843491 -0.00017326694724385222 0 0.016651479181218905 -0.00020576680158947575 0 0.01638540623181229 -6.2477305734816646e-05 0 0.01656507331843491 -0.00017326694724385222 0 0.016651479181218905 -0.00020576680158947575 0 0.01656507331843491 -0.00017326694724385222 0 0.016591516044814021 -0.00023123771991894853 0 0.016464322706746162 -0.00036669965168914721 0 0.016663364151281505 -0.00026860822886014155 0 0.016591516044814021 -0.00023123771991894853 0 0.016663364151281505 -0.00026860822886014155 0 0.01656507331843491 -0.00017326694724385222 0 0.016591516044814021 -0.00023123771991894853 0 0.016464322706746162 -0.00036669965168914721 0 0.016591516044814021 -0.00023123771991894853 0 0.016288065338592266 -1.5780978725633468e-05 0 0.016651479181218905 -0.00020576680158947575 0 0.016591516044814021 -0.00023123771991894853 0 0.016288065338592266 -1.5780978725633468e-05 0 0.015927634421493097 0.00023358436881960109 0 0.016288065338592266 -1.5780978725633468e-05 0 0.016045232672431155 0.00012407721283475088 0 0.016265914168444886 1.1086909106930654e-05 0 0.016268246639325433 -1.2299760431202802e-05 0 0.016304848082609114 -0.00051228453080397966 0 0.016265879743657619 -0.00023878513739570201 0 0.0161176852635194 -0.00028880633650713901 0 0.016464322706746162 -0.00036669965168914721 0 0.016288065338592266 -1.5780978725633468e-05 0 0.016265879743657619 -0.00023878513739570201 0 0.016304848082609114 -0.00051228453080397966 0 0.016464322706746162 -0.00036669965168914721 0 0.016265879743657619 -0.00023878513739570201 0 0.016288065338592266 -1.5780978725633468e-05 0 0.016265879743657619 -0.00023878513739570201 0 0.016162549551497825 -2.4799534423099349e-05 0 0.016288065338592266 -1.5780978725633468e-05 0 0.016162549551497825 -2.4799534423099349e-05 0 0.016160115770557901 9.3579897833611338e-05 0 0.016265879743657619 -0.00023878513739570201 0 0.016162549551497825 -2.4799534423099349e-05 0 0.0161176852635194 -0.00028880633650713901 0 0.016148200765050441 -2.633405970014667e-05 0 0.015876326740827187 2.659583368060642e-05 0 0.016162549551497825 -2.4799534423099349e-05 0 0.0161176852635194 -0.00028880633650713901 0 0.016041937936968662 4.1760928075589693e-06 0 0.016162549551497825 -2.4799534423099349e-05 0 0.01598613862003085 0.00027351973970078067 0 0.015806511203421372 0.00026339754323323277 0 0.016162549551497825 -2.4799534423099349e-05 0 0.015717352954440243 2.9888847059940808e-05 0 0.015806511203421372 0.00026339754323323277 0 0.016162549551497825 -2.4799534423099349e-05 0 0.016103761100084289 0.00016359881373265194 0 0.016160115770557901 9.3579897833611338e-05 0 0.016162549551497825 -2.4799534423099349e-05 0 0.016103761100084289 0.00016359881373265194 0 0.01598613862003085 0.00027351973970078067 0 0.016103761100084289 0.00016359881373265194 0 0.016057947834157933 0.00025165336220154291 0 0.016056902420479531 0.00017042341282587511 0 0.016057947834157933 0.00025165336220154291 0 0.01598613862003085 0.00027351973970078067 0 0.015983737532704521 0.00035287104132899328 0 0.016057947834157933 0.00025165336220154291 0 0.015983737532704521 0.00035287104132899328 0 0.016043069154982319 0.00027782825889878391 0 0.016103761100084289 0.00016359881373265194 0 0.016057947834157933 0.00025165336220154291 0 0.01598613862003085 0.00027351973970078067 0 0.01598613862003085 0.00027351973970078067 0 0.015857580865149958 0.00041478797483481873 0 0.015983737532704521 0.00035287104132899328 0 0.01598613862003085 0.00027351973970078067 0 0.015857580865149958 0.00041478797483481873 0 0.015806511203421372 0.00026339754323323277 0 0.015883690421113556 0.00014265771248336124 0 0.015855985800961481 0.00017717796734583572 0 0.016045232672431155 0.00012407721283475088 0 0.015855985800961481 0.00017717796734583572 0 0.015927634421493097 0.00023358436881960109 0 0.016045232672431155 0.00012407721283475088 0 0.016288065338592266 -1.5780978725633468e-05 0 0.016045232672431155 0.00012407721283475088 0 0.016160115770557901 9.3579897833611338e-05 0 0.016045232672431155 0.00012407721283475088 0 0.016160115770557901 9.3579897833611338e-05 0 0.016056902420479531 0.00017042341282587511 0 0.016103761100084289 0.00016359881373265194 0 0.016160115770557901 9.3579897833611338e-05 0 0.016056902420479531 0.00017042341282587511 0 0.016057947834157933 0.00025165336220154291 0 0.016056902420479531 0.00017042341282587511 0 0.015932404551983945 0.00019263182202996587 0 0.016056902420479531 0.00017042341282587511 0 0.015901828243312165 0.0001572554551938651 0 0.015932404551983945 0.00019263182202996587 0 0.016045232672431155 0.00012407721283475088 0 0.016056902420479531 0.00017042341282587511 0 0.015901828243312165 0.0001572554551938651 0 0.015883690421113556 0.00014265771248336124 0 0.016045232672431155 0.00012407721283475088 0 0.015901828243312165 0.0001572554551938651 0 0.015883690421113556 0.00014265771248336124 0 0.015901828243312165 0.0001572554551938651 0 0.015783391680166934 0.00012206277576774019 0 0.015901828243312165 0.0001572554551938651 0 0.015690399490999866 6.0557282415041754e-05 0 0.015932404551983945 0.00019263182202996587 0 0.015901828243312165 0.0001572554551938651 0 0.015690399490999866 6.0557282415041754e-05 0 0.015783391680166934 0.00012206277576774019 0 0.015690399490999866 6.0557282415041754e-05 0 0.015932404551983945 0.00019263182202996587 0 0.016074263235771904 0.00025812171999069005 0 0.015690399490999866 6.0557282415041754e-05 0 0.015058742218899017 0.00012851062723669409 0 0.01462746112455288 -0.00031398373670265834 0 0.015657820207931421 4.182871648697696e-05 0 0.01532542792489551 -5.3325471034027443e-06 0 0.015058742218899017 0.00012851062723669409 0 0.015408530781016748 0.00038082303286626513 0 0.014689006938751066 0.00050164759890802401 0 0.015690399490999866 6.0557282415041754e-05 0 0.015058742218899017 0.00012851062723669409 0 0.015408530781016748 0.00038082303286626513 0 0.015690399490999866 6.0557282415041754e-05 0 0.015408530781016748 0.00038082303286626513 0 0.015768303407103765 0.00021204808140681285 0 0.015857580865149958 0.00041478797483481873 0 0.015983737532704521 0.00035287104132899328 0 0.015775466307994285 0.00065407609649012163 0 0.01462746112455288 -0.00031398373670265834 0 0.01450206822409587 -3.7084721477680333e-05 0 0.013358227289281399 -0.0003540860236770526 0 0.01532542792489551 -5.3325471034027443e-06 0 0.014549349509028127 0.00014468716111923954 0 0.015983737532704521 0.00035287104132899328 0 0.016074263235771904 0.00025812171999069005 0 0.015775466307994285 0.00065407609649012163 0 0.015983737532704521 0.00035287104132899328 0 0.016043069154982319 0.00027782825889878391 0 0.016074263235771904 0.00025812171999069005 0 0.016043069154982319 0.00027782825889878391 0 0.01602932401373906 0.00024846802330624491 0 0.016074263235771904 0.00025812171999069005 0 0.016057947834157933 0.00025165336220154291 0 0.015932404551983945 0.00019263182202996587 0 0.01602932401373906 0.00024846802330624491 0 0.015932404551983945 0.00019263182202996587 0 0.01602932401373906 0.00024846802330624491 0 0.016074263235771904 0.00025812171999069005 0 0.016057947834157933 0.00025165336220154291 0 0.016043069154982319 0.00027782825889878391 0 0.01602932401373906 0.00024846802330624491 0 0.015058742218899017 0.00012851062723669409 0 0.01450206822409587 -3.7084721477680333e-05 0 0.014689006938751066 0.00050164759890802401 0 0.01450206822409587 -3.7084721477680333e-05 0 0.013974964210395619 0.00044312358138349334 0 0.014689006938751066 0.00050164759890802401 0 0.015058742218899017 0.00012851062723669409 0 0.01462746112455288 -0.00031398373670265834 0 0.01450206822409587 -3.7084721477680333e-05 0 0.01450206822409587 -3.7084721477680333e-05 0 0.013974964210395619 0.00044312358138349334 0 0.01334297146051908 -4.5839796741357661e-06 0 0.01450206822409587 -3.7084721477680333e-05 0 0.013358227289281399 -0.0003540860236770526 0 0.01341175397773893 0.00016818339096403922 0 0.014424629587179832 -3.3041098902954014e-05 0 0.013388644119672471 8.6438058033020231e-05 0 0.013974964210395619 0.00044312358138349334 0 0.014689006938751066 0.00050164759890802401 0 0.013772268025334045 0.0011621886647061436 0 0.013974964210395619 0.00044312358138349334 0 0.013772268025334045 0.0011621886647061436 0 0.013280558022745874 0.00066665622006929672 0 0.014689006938751066 0.00050164759890802401 0 0.013772268025334045 0.0011621886647061436 0 0.01490410224939606 0.00096525475899012858 0 0.0061384029737131703 -0.00021423576760310208 0 0.0056597741408004124 0.00015300919780226633 0 0.0060830464548717912 0.0002728622003653277 0 0.0096130092931674353 0.00052373701229258387 0 0.010502305693247409 0.00036850983861807401 0 0.0054342817433765608 -0.00011959484284383184 0 0.0061384029737131703 -0.00021423576760310208 0 0.0056597741408004124 0.00015300919780226633 0 0.0054342817433765608 -0.00011959484284383184 0 0.0052508227343101947 2.5032144964529784e-05 0 0.0056597741408004124 0.00015300919780226633 0 0.015408530781016748 0.00038082303286626513 0 0.015554766176674778 0.00061202075590336368 0 0.015768303407103765 0.00021204808140681285 0 0.015408530781016748 0.00038082303286626513 0 0.014689006938751066 0.00050164759890802401 0 0.01490410224939606 0.00096525475899012858 0 0.015408530781016748 0.00038082303286626513 0 0.01490410224939606 0.00096525475899012858 0 0.015554766176674778 0.00061202075590336368 0 0.010502305693247409 0.00036850983861807401 0 0.011270266702982019 0.00017882531833261371 0 0.0061384029737131703 -0.00021423576760310208 0 0.0063417821042161373 0.00014903303494325621 0 0.0067004634600890756 7.1398462934246489e-05 0 0.0061384029737131703 -0.00021423576760310208 0 0.0063417821042161373 0.00014903303494325621 0 0.0060830464548717912 0.0002728622003653277 0 0.0069883172037369838 -0.00027653462407990314 0 0.0067004634600890756 7.1398462934246489e-05 0 0.0071030643476112099 0.00027652366100221085 0 0.0061384029737131703 -0.00021423576760310208 0 0.0069883172037369838 -0.00027653462407990314 0 0.0067004634600890756 7.1398462934246489e-05 0 0.0069883172037369838 -0.00027653462407990314 0 0.0079049221705559322 -0.00024328220660029798 0 0.0071030643476112099 0.00027652366100221085 0 0.011270266702982019 0.00017882531833261371 0 0.011738838385549153 7.1699168416876019e-05 0 0.015554766176674778 0.00061202075590336368 0 0.015732126114345088 0.00039294766139386377 0 0.015768303407103765 0.00021204808140681285 0 0.015732126114345088 0.00039294766139386377 0 0.015764129873584266 0.00024688023630052466 0 0.015768303407103765 0.00021204808140681285 0 0.011738838385549153 7.1699168416876019e-05 0 0.012512245318969802 9.8247314440986659e-05 0 0.0079049221705559322 -0.00024328220660029798 0 0.0087099896999991069 -0.00017667236259283841 0 0.0083639867693262107 0.00026092018015396498 0 0.01572792362381625 0.00026712056132471482 0 0.015740730143006053 0.00024136322171170826 0 0.015711552843012837 0.0002399067424658424 0 0.01572792362381625 0.00026712056132471482 0 0.015764129873584266 0.00024688023630052466 0 0.015740730143006053 0.00024136322171170826 0 0.015732126114345088 0.00039294766139386377 0 0.01572792362381625 0.00026712056132471482 0 0.015764129873584266 0.00024688023630052466 0 0.015764129873584266 0.00024688023630052466 0 0.015756695164283109 0.00021894762280593778 0 0.015767348385172259 0.00019551494408817906 0 0.015764129873584266 0.00024688023630052466 0 0.015740730143006053 0.00024136322171170826 0 0.015756695164283109 0.00021894762280593778 0 0.015740730143006053 0.00024136322171170826 0 0.015756695164283109 0.00021894762280593778 0 0.01574526284070113 0.00022082233364592271 0 0.015756695164283109 0.00021894762280593778 0 0.015751990755323055 0.00020552152896365821 0 0.01574526284070113 0.00022082233364592271 0 0.015756695164283109 0.00021894762280593778 0 0.015758025869136466 0.00019433828353333731 0 0.015751990755323055 0.00020552152896365821 0 0.015766405531205768 0.0001763228411764162 0 0.015767348385172259 0.00019551494408817906 0 0.015777087843655925 0.00016217798841630757 0 0.015766405531205768 0.0001763228411764162 0 0.015758025869136466 0.00019433828353333731 0 0.015767348385172259 0.00019551494408817906 0 0.015756695164283109 0.00021894762280593778 0 0.015758025869136466 0.00019433828353333731 0 0.015767348385172259 0.00019551494408817906 0 0.015767348385172259 0.00019551494408817906 0 0.015777087843655925 0.00016217798841630757 0 0.015768303407103765 0.00021204808140681285 0 0.015777087843655925 0.00016217798841630757 0 0.015783391680166934 0.00012206277576774019 0 0.015768303407103765 0.00021204808140681285 0 0.015690399490999866 6.0557282415041754e-05 0 0.015783391680166934 0.00012206277576774019 0 0.015768303407103765 0.00021204808140681285 0 0.015764129873584266 0.00024688023630052466 0 0.015767348385172259 0.00019551494408817906 0 0.015768303407103765 0.00021204808140681285 0 0.010903844264827083 0.00024368894921414177 0 0.01218847132854398 0.0015241502903900767 0 0.009198011800621058 2.9033728941383232e-06 0 0.010903844264827083 0.00024368894921414177 0 0.01027497280556058 -4.2213852189793632e-07 0 0.009198011800621058 2.9033728941383232e-06 0 0.010903844264827083 0.00024368894921414177 0 0.012181341503862722 0.00042851632731053608 0 0.01218847132854398 0.0015241502903900767 0 0.010903844264827083 0.00024368894921414177 0 0.012181341503862722 0.00042851632731053608 0 0.011438111410871468 -8.9043976874847596e-05 0 0.012181341503862722 0.00042851632731053608 0 0.011438111410871468 -8.9043976874847596e-05 0 0.01301093114636058 0.00012589499903873578 0 0.011438111410871468 -8.9043976874847596e-05 0 0.01196961633494399 -0.00067300768019238862 0 0.01301093114636058 0.00012589499903873578 0 0.010903844264827083 0.00024368894921414177 0 0.011438111410871468 -8.9043976874847596e-05 0 0.01027497280556058 -4.2213852189793632e-07 0 0.011438111410871468 -8.9043976874847596e-05 0 0.01027497280556058 -4.2213852189793632e-07 0 0.011350888364925893 -1.1907190944840621e-06 0 0.011438111410871468 -8.9043976874847596e-05 0 0.011350888364925893 -1.1907190944840621e-06 0 0.01196961633494399 -0.00067300768019238862 0 0.011354945842195504 1.4941317248057906e-06 0 0.0128069094641463 -0.00018862099078571402 0 0.013472720338113975 0.00023043471073397689 0 0.011353112807151202 -8.0427830997554834e-08 0 0.012755856248625835 -0.00023354787077097607 0 0.012786851082698543 -1.0437007848946027e-06 0 0.011354945842195504 1.4941317248057906e-06 0 0.0128069094641463 -0.00018862099078571402 0 0.0128069094641463 -0.00018862099078571402 0 0.013720387142783494 -0.00032674246688980897 0 0.013472720338113975 0.00023043471073397689 0 0.012755856248625835 -0.00023354787077097607 0 0.013886293698230554 -0.00045042108138735367 0 0.01196961633494399 -0.00067300768019238862 0 0.01406275406407813 -0.0004923323692043721 0 0.01301093114636058 0.00012589499903873578 0 0.013720387142783494 -0.00032674246688980897 0 0.013472720338113975 0.00023043471073397689 0 0.01406275406407813 -0.0004923323692043721 0 0.01449986296095831 -0.00063198804908757276 0 0.013720387142783494 -0.00032674246688980897 0 0.01406275406407813 -0.0004923323692043721 0 0.01449986296095831 -0.00063198804908757276 0 0.01406275406407813 -0.0004923323692043721 0 0.015115792349385274 -0.00063448088144383761 0 0.01406275406407813 -0.0004923323692043721 0 0.014330074056094291 0.00035537719378204194 0 0.015101852803947543 -0.00023162479960763904 0 0.01406275406407813 -0.0004923323692043721 0 0.01301093114636058 0.00012589499903873578 0 0.014330074056094291 0.00035537719378204194 0 0.01301093114636058 0.00012589499903873578 0 0.013277354875328299 0.00073653833412254096 0 0.014330074056094291 0.00035537719378204194 0 0.012181341503862722 0.00042851632731053608 0 0.013277354875328299 0.00073653833412254096 0 0.01218847132854398 0.0015241502903900767 0 0.012181341503862722 0.00042851632731053608 0 0.01301093114636058 0.00012589499903873578 0 0.013277354875328299 0.00073653833412254096 0 0.013277354875328299 0.00073653833412254096 0 0.014330074056094291 0.00035537719378204194 0 0.014112678054487642 0.0013684347081954632 0 0.014695342803554216 0.00078606110760318765 0 0.014330074056094291 0.00035537719378204194 0 0.014112678054487642 0.0013684347081954632 0 0.014695342803554216 0.00078606110760318765 0 0.015116220575322319 0.00058538259559590361 0 0.015137373597285763 0.00014450091145704736 0 0.014695342803554216 0.00078606110760318765 0 0.015116220575322319 0.00058538259559590361 0 0.015140056385787302 0.00099064009177734732 0 0.014695342803554216 0.00078606110760318765 0 0.015137373597285763 0.00014450091145704736 0 0.014330074056094291 0.00035537719378204194 0 0.015494929943618504 0.0002497926024474141 0 0.014330074056094291 0.00035537719378204194 0 0.015101852803947543 -0.00023162479960763904 0 0.015292393782698801 0.0001910347369512256 0 0.01439857622780287 0.00035000903156738692 0 0.01406275406407813 -0.0004923323692043721 0 0.015101852803947543 -0.00023162479960763904 0 0.015115792349385274 -0.00063448088144383761 0 0.015101852803947543 -0.00023162479960763904 0 0.015115792349385274 -0.00063448088144383761 0 0.015766429199831327 -0.00054188698196353901 0 0.015101852803947543 -0.00023162479960763904 0 0.015776623320222311 -0.00017377483388295172 0 0.015766429199831327 -0.00054188698196353901 0 0.015494929943618504 0.0002497926024474141 0 0.015101852803947543 -0.00023162479960763904 0 0.015776623320222311 -0.00017377483388295172 0 0.015776623320222311 -0.00017377483388295172 0 0.015766429199831327 -0.00054188698196353901 0 0.0161176852635194 -0.00028880633650713901 0 0.016151953647776652 -0.00069652230252753675 0 0.015766429199831327 -0.00054188698196353901 0 0.0161176852635194 -0.00028880633650713901 0 0.015776623320222311 -0.00017377483388295172 0 0.0161176852635194 -0.00028880633650713901 0 0.016041937936968662 4.1760928075589693e-06 0 0.015717352954440243 2.9888847059940808e-05 0 0.015459449547777976 0.0004060337455562807 0 0.015806511203421372 0.00026339754323323277 0 0.015494929943618504 0.0002497926024474141 0 0.015776623320222311 -0.00017377483388295172 0 0.016041937936968662 4.1760928075589693e-06 0 0.015292393782698801 0.0001910347369512256 0 0.015876326740827187 2.659583368060642e-05 0 0.015137373597285763 0.00014450091145704736 0 0.015717352954440243 2.9888847059940808e-05 0 0.015459449547777976 0.0004060337455562807 0 0.015116220575322319 0.00058538259559590361 0 0.015137373597285763 0.00014450091145704736 0 0.015459449547777976 0.0004060337455562807 0 0.015116220575322319 0.00058538259559590361 0 0.015459449547777976 0.0004060337455562807 0 0.015140056385787302 0.00099064009177734732 0 0.015459449547777976 0.0004060337455562807 0 0.015632426771353396 0.00052718050347078094 0 0.015140056385787302 0.00099064009177734732 0 0.015459449547777976 0.0004060337455562807 0 0.015632426771353396 0.00052718050347078094 0 0.015806511203421372 0.00026339754323323277 0 0.015857580865149958 0.00041478797483481873 0 0.015632426771353396 0.00052718050347078094 0 0.015806511203421372 0.00026339754323323277 0 0.015857580865149958 0.00041478797483481873 0 0.015632426771353396 0.00052718050347078094 0 0.015775466307994285 0.00065407609649012163 0 0.014549349509028127 0.00014468716111923954 0 0.013551786459005179 0.00031437147128659051 0 0.015632426771353396 0.00052718050347078094 0 0.015775466307994285 0.00065407609649012163 0 0.015140056385787302 0.00099064009177734732 0 0.013358227289281399 -0.0003540860236770526 0 0.012793154290552815 -9.5357327412698284e-06 0 0.011987614144628348 -0.00036924294361482775 0 0.012147016121699713 0.00019172208960357943 0 0.01334297146051908 -4.5839796741357661e-06 0 0.012792576327890728 0.00052548667745345935 0 0.012793154290552815 -9.5357327412698284e-06 0 0.01224097240455773 0.00034409413582252844 0 0.01341175397773893 0.00016818339096403922 0 0.012793154290552815 -9.5357327412698284e-06 0 0.01224097240455773 0.00034409413582252844 0 0.011987614144628348 -0.00036924294361482775 0 0.012185707989526949 0.00026971817542221816 0 0.013388644119672471 8.6438058033020231e-05 0 0.01334297146051908 -4.5839796741357661e-06 0 0.013280558022745874 0.00066665622006929672 0 0.012792576327890728 0.00052548667745345935 0 0.013358227289281399 -0.0003540860236770526 0 0.012793154290552815 -9.5357327412698284e-06 0 0.01341175397773893 0.00016818339096403922 0 0.013974964210395619 0.00044312358138349334 0 0.01334297146051908 -4.5839796741357661e-06 0 0.013280558022745874 0.00066665622006929672 0 0.013280558022745874 0.00066665622006929672 0 0.012494993485584272 0.0012039285628266322 0 0.012792576327890728 0.00052548667745345935 0 0.013772268025334045 0.0011621886647061436 0 0.013280558022745874 0.00066665622006929672 0 0.012494993485584272 0.0012039285628266322 0 0.0054342817433765608 -0.00011959484284383184 0 0.0052508227343101947 2.5032144964529784e-05 0 0.0054184478657813328 0.00014122549862825501 0 0.0096130092931674353 0.00052373701229258387 0 0.0089737670342379741 0.00066116639541727318 0 0.0052508227343101947 2.5032144964529784e-05 0 0.0054184478657813328 0.00014122549862825501 0 0.005642810453406661 -0.00013931172866087438 0 0.012147016121699713 0.00019172208960357943 0 0.012494993485584272 0.0012039285628266322 0 0.011692419186590218 0.0006685117209041724 0 0.012147016121699713 0.00019172208960357943 0 0.012494993485584272 0.0012039285628266322 0 0.012792576327890728 0.00052548667745345935 0 0.012494993485584272 0.0012039285628266322 0 0.011692419186590218 0.0006685117209041724 0 0.011344796774475368 0.0011556916856808009 0 0.0089737670342379741 0.00066116639541727318 0 0.0086630265516979294 0.00068585968657914546 0 0.0054184478657813328 0.00014122549862825501 0 0.0059884516881306823 0.00022445019529569564 0 0.005642810453406661 -0.00013931172866087438 0 0.0060108923657145128 -2.5219602392047364e-05 0 0.0059884516881306823 0.00022445019529569564 0 0.005642810453406661 -0.00013931172866087438 0 0.0062305231844315533 3.0237081913821797e-05 0 0.0059884516881306823 0.00022445019529569564 0 0.0065088872924114489 0.00019829836525995479 0 0.0062305231844315533 3.0237081913821797e-05 0 0.0060108923657145128 -2.5219602392047364e-05 0 0.0059884516881306823 0.00022445019529569564 0 0.011692419186590218 0.0006685117209041724 0 0.011344796774475368 0.0011556916856808009 0 0.011118976535556128 0.00044628606118684054 0 0.011344796774475368 0.0011556916856808009 0 0.011118976535556128 0.00044628606118684054 0 0.010354946699028259 0.0011018255316133344 0 0.01224097240455773 0.00034409413582252844 0 0.011118976535556128 0.00044628606118684054 0 0.011987614144628348 -0.00036924294361482775 0 0.012185707989526949 0.00026971817542221816 0 0.011190424918588772 0.0004293456084176486 0 0.012147016121699713 0.00019172208960357943 0 0.011692419186590218 0.0006685117209041724 0 0.011118976535556128 0.00044628606118684054 0 0.011118976535556128 0.00044628606118684054 0 0.011987614144628348 -0.00036924294361482775 0 0.010760030216712702 -0.0003246994189841607 0 0.013551786459005179 0.00031437147128659051 0 0.012409019246951576 0.00052371963149850916 0 0.014695342803554216 0.00078606110760318765 0 0.015140056385787302 0.00099064009177734732 0 0.014112678054487642 0.0013684347081954632 0 0.010760030216712702 -0.0003246994189841607 0 0.010317899771021065 0.00028476400040301119 0 0.0096962141506096201 -0.00021088121078330488 0 0.012409019246951576 0.00052371963149850916 0 0.01099090376308335 0.00060251384555262341 0 0.013277354875328299 0.00073653833412254096 0 0.014112678054487642 0.0013684347081954632 0 0.01218847132854398 0.0015241502903900767 0 0.010317899771021065 0.00028476400040301119 0 0.0097419420094203533 0.00043814883828825041 0 0.0096962141506096201 -0.00021088121078330488 0 0.011118976535556128 0.00044628606118684054 0 0.010760030216712702 -0.0003246994189841607 0 0.010317899771021065 0.00028476400040301119 0 0.011118976535556128 0.00044628606118684054 0 0.010317899771021065 0.00028476400040301119 0 0.010354946699028259 0.0011018255316133344 0 0.0086630265516979294 0.00068585968657914546 0 0.0084526101499762668 0.00065534252122567585 0 0.0065088872924114489 0.00019829836525995479 0 0.0064147330943595884 -4.5721003357273618e-05 0 0.0065866773442667904 -3.8319391032872359e-05 0 0.0062305231844315533 3.0237081913821797e-05 0 0.0065088872924114489 0.00019829836525995479 0 0.0064147330943595884 -4.5721003357273618e-05 0 0.0065088872924114489 0.00019829836525995479 0 0.006700770018052366 5.274488093897189e-08 0 0.0067650168664613753 4.7090185133374375e-05 0 0.0065088872924114489 0.00019829836525995479 0 0.0068471899585497639 0.00012061176798507381 0 0.0067650168664613753 4.7090185133374375e-05 0 0.006700770018052366 5.274488093897189e-08 0 0.0065866773442667904 -3.8319391032872359e-05 0 0.0066742644111489708 -5.9563803290462934e-05 0 0.006700770018052366 5.274488093897189e-08 0 0.00675853351645449 -3.8361869186851726e-05 0 0.0067198447990438875 -5.6290623253579224e-05 0 0.0065088872924114489 0.00019829836525995479 0 0.006700770018052366 5.274488093897189e-08 0 0.0065866773442667904 -3.8319391032872359e-05 0 0.010317899771021065 0.00028476400040301119 0 0.010354946699028259 0.0011018255316133344 0 0.0097419420094203533 0.00043814883828825041 0 0.0084526101499762668 0.00065534252122567585 0 0.0080676210880925355 0.00051884771125417395 0 0.010354946699028259 0.0011018255316133344 0 0.0094920065177318113 0.0010356584797889684 0 0.0097419420094203533 0.00043814883828825041 0 0.0094920065177318113 0.0010356584797889684 0 0.0092073905983941617 0.00048238525392928162 0 0.0097419420094203533 0.00043814883828825041 0 0.0080676210880925355 0.00051884771125417395 0 0.0084756606815046837 0.00020184352162296726 0 0.0068471899585497639 0.00012061176798507381 0 0.0067650168664613753 4.7090185133374375e-05 0 0.0068570172588763093 4.2783473903333683e-05 0 0.0068471899585497639 0.00012061176798507381 0 0.0068570172588763093 4.2783473903333683e-05 0 0.0069323846682976652 -1.9852825495076998e-05 0 0.0067650168664613753 4.7090185133374375e-05 0 0.0068570172588763093 4.2783473903333683e-05 0 0.006863794329947547 -1.2608134687675287e-05 0 0.0068570172588763093 4.2783473903333683e-05 0 0.006863794329947547 -1.2608134687675287e-05 0 0.0069323846682976652 -1.9852825495076998e-05 0 0.006700770018052366 5.274488093897189e-08 0 0.0067980239960851278 -1.1865734755287013e-05 0 0.00675853351645449 -3.8361869186851726e-05 0 0.006700770018052366 5.274488093897189e-08 0 0.0067650168664613753 4.7090185133374375e-05 0 0.0067980239960851278 -1.1865734755287013e-05 0 0.0067650168664613753 4.7090185133374375e-05 0 0.006863794329947547 -1.2608134687675287e-05 0 0.0067980239960851278 -1.1865734755287013e-05 0 0.006863794329947547 -1.2608134687675287e-05 0 0.0067980239960851278 -1.1865734755287013e-05 0 0.0068122758204541625 -4.5412607349345219e-05 0 0.0068471899585497639 0.00012061176798507381 0 0.0069323846682976652 -1.9852825495076998e-05 0 0.0071309115369914489 -6.4056161956240358e-07 0 0.0066251233451607629 -1.6927806342138492e-07 0 0.0064046031111986415 -3.0217614861931842e-05 0 0.0066270593782046961 2.9818614415706695e-07 0 0.0069323846682976652 -1.9852825495076998e-05 0 0.0069097754442801057 -8.8213202633610487e-06 0 0.006863794329947547 -1.2608134687675287e-05 0 0.0069323846682976652 -1.9852825495076998e-05 0 0.0069097754442801057 -8.8213202633610487e-06 0 0.0066270593782046961 2.9818614415706695e-07 0 0.0069323846682976652 -1.9852825495076998e-05 0 0.0071309115369914489 -6.4056161956240358e-07 0 0.0066270593782046961 2.9818614415706695e-07 0 0.0071309115369914489 -6.4056161956240358e-07 0 0.0077473552522271238 -3.7144404610908716e-07 0 0.007502059005213035 2.3153309205849971e-05 0 0.0074268848513551547 -3.0222803388470648e-05 0 0.0075993131534037132 -1.4366545922995086e-05 0 0.0080676210880925355 0.00051884771125417395 0 0.006825670774617462 1.8758156607328948e-05 0 0.007502059005213035 2.3153309205849971e-05 0 0.0071309115369914489 -6.4056161956240358e-07 0 0.0074268848513551547 -3.0222803388470648e-05 0 0.0071309115369914489 -6.4056161956240358e-07 0 0.0074268848513551547 -3.0222803388470648e-05 0 0.0077473552522271238 -3.7144404610908716e-07 0 0.0074268848513551547 -3.0222803388470648e-05 0 0.0077473552522271238 -3.7144404610908716e-07 0 0.0075993131534037132 -1.4366545922995086e-05 0 0.0092073905983941617 0.00048238525392928162 0 0.0093793992592727457 3.2743310676462056e-05 0 0.0088731393309271715 9.4503167589239154e-07 0 0.0084756606815046837 0.00020184352162296726 0 0.0088698353955293623 -1.1732074428942872e-07 0 0.0077473552522271238 -3.7144404610908716e-07 0 0.0075993131534037132 -1.4366545922995086e-05 0 0.0088695215014504315 4.5590489461075196e-07 0 0.0092073905983941617 0.00048238525392928162 0 0.0097419420094203533 0.00043814883828825041 0 0.0093793992592727457 3.2743310676462056e-05 0 0.0097419420094203533 0.00043814883828825041 0 0.0093793992592727457 3.2743310676462056e-05 0 0.0096962141506096201 -0.00021088121078330488 0 0.01099090376308335 0.00060251384555262341 0 0.0091964764763091747 2.5950522062409382e-07 0 0.0093793992592727457 3.2743310676462056e-05 0 0.0096962141506096201 -0.00021088121078330488 0 0.009192976248167525 -1.0465065184899825e-06 0 0.0093793992592727457 3.2743310676462056e-05 0 0.009192976248167525 -1.0465065184899825e-06 0 0.0088731393309271715 9.4503167589239154e-07 0 0.0032369254552422786 -0.00011951135479499539 0 0.0034332619276706243 7.817459350047418e-06 0 0.0042360837994819709 1.8423520425015012e-07 0 0.0032369254552422786 -0.00011951135479499539 0 0.0042360837994819709 1.8423520425015012e-07 0 0.002786770967688825 5.0612464607241731e-08 0 0.0032369254552422786 -0.00011951135479499539 0 0.0032342551920343629 -0.00015890951737469218 0 0.0034332619276706243 7.817459350047418e-06 0 0.0032369254552422786 -0.00011951135479499539 0 0.0032342551920343629 -0.00015890951737469218 0 0.0031485063808616041 -4.6780598646818562e-05 0 0.0032342551920343629 -0.00015890951737469218 0 0.0034332619276706243 7.817459350047418e-06 0 0.0032624801841632705 0.00022918879370254945 0 0.0032342551920343629 -0.00015890951737469218 0 0.0032624801841632705 0.00022918879370254945 0 0.0029972145459612157 0.00036967503608165001 0 0.0034332619276706243 7.817459350047418e-06 0 0.0032624801841632705 0.00022918879370254945 0 0.0035583965199353427 0.00042824110801680876 0 0.0034332619276706243 7.817459350047418e-06 0 0.0042360837994819709 1.8423520425015012e-07 0 0.0035583965199353427 0.00042824110801680876 0 0.0042400003583140736 -3.6632939834328633e-09 0 0.0050474346209037424 8.5295097359032833e-09 0 0.0047811400573696565 -4.8596915469013307e-05 0 0.0042380163499856072 9.0892169254608616e-09 0 0.0041178008303065462 0.0002006256025945052 0 0.0050497985410776075 -4.2646022244682967e-08 0 0.0051320753489234325 0.00028692231435232851 0 0.0050474346209037424 8.5295097359032833e-09 0 0.0047811400573696565 -4.8596915469013307e-05 0 0.004560317690579789 0.00017739817426485729 0 0.0050512486164336389 3.2568217413207159e-07 0 0.0057079289172516255 -9.0233356378659833e-05 0 0.0059022267928507382 0.00012914487506237272 0 0.0066246699085520649 3.3495987311057215e-07 0 0.0058370029870885853 -3.2875591129655447e-07 0 0.0057079289172516255 -9.0233356378659833e-05 0 0.0050512486164336389 3.2568217413207159e-07 0 0.0058370029870885853 -3.2875591129655447e-07 0 0.0057079289172516255 -9.0233356378659833e-05 0 0.0067493495801117407 -7.5380705329792199e-05 0 0.0068122758204541625 -4.5412607349345219e-05 0 0.0067660369115503782 -0.00011311324535645545 0 0.0067493495801117407 -7.5380705329792199e-05 0 0.0067660369115503782 -0.00011311324535645545 0 0.0066987388255751214 -0.00010036437728154019 0 0.0067493495801117407 -7.5380705329792199e-05 0 0.00675853351645449 -3.8361869186851726e-05 0 0.0068122758204541625 -4.5412607349345219e-05 0 0.0067493495801117407 -7.5380705329792199e-05 0 0.00675853351645449 -3.8361869186851726e-05 0 0.0067198447990438875 -5.6290623253579224e-05 0 0.0067980239960851278 -1.1865734755287013e-05 0 0.00675853351645449 -3.8361869186851726e-05 0 0.0068122758204541625 -4.5412607349345219e-05 0 0.006863794329947547 -1.2608134687675287e-05 0 0.0069097754442801057 -8.8213202633610487e-06 0 0.0068122758204541625 -4.5412607349345219e-05 0 0.0069097754442801057 -8.8213202633610487e-06 0 0.0068122758204541625 -4.5412607349345219e-05 0 0.0067660369115503782 -0.00011311324535645545 0 0.0064046031111986415 -3.0217614861931842e-05 0 0.0051320753489234325 0.00028692231435232851 0 0.0069097754442801057 -8.8213202633610487e-06 0 0.0067660369115503782 -0.00011311324535645545 0 0.0067796946314215853 -0.0002321559182866128 0 0.0067660369115503782 -0.00011311324535645545 0 0.0067796946314215853 -0.0002321559182866128 0 0.0067047775446697896 -0.00017801415599043362 0 0.0042835148617601715 0.00015580765220096291 0 0.0043255867988379378 0.00019849751520638212 0 0.0044249426173045307 0.00012476627642256778 0 0.0067796946314215853 -0.0002321559182866128 0 0.0067116056430000697 -0.00022457607749188854 0 0.0067047775446697896 -0.00017801415599043362 0 0.0032624801841632705 0.00022918879370254945 0 0.0035583965199353427 0.00042824110801680876 0 0.0032173499126386612 0.00062282354066927747 0 0.0051320753489234325 0.00028692231435232851 0 0.0042635258300473431 0.00024404657602671657 0 0.0032624801841632705 0.00022918879370254945 0 0.0032173499126386612 0.00062282354066927747 0 0.0029972145459612157 0.00036967503608165001 0 0.0041828974374367375 0.00022630793648086963 0 0.0042635258300473431 0.00024404657602671657 0 0.0051320753489234325 0.00028692231435232851 0 0.0041828974374367375 0.00022630793648086963 0 0.0047811400573696565 -4.8596915469013307e-05 0 0.004560317690579789 0.00017739817426485729 0 0.0045295211217119607 0.00014685306038539158 0 0.0041178008303065462 0.0002006256025945052 0 0.0041828974374367375 0.00022630793648086963 0 0.0041828974374367375 0.00022630793648086963 0 0.0028843957226006439 0.00040468851265593951 0 0.0029615183905254195 0.0004649560991346298 0 0.0028783535883601242 0.00048009030380379985 0 0.0030250104969861027 0.00035634945279589957 0 0.0029602348523997736 0.0005074749545341009 0 0.0029636404562427632 0.00050460218896558682 0 0.0029448102134325502 0.00050472401648535997 0 0.0028843957226006439 0.00040468851265593951 0 0.0029014333829987435 0.00048852522834060485 0 0.0029602348523997736 0.0005074749545341009 0 0.0029315545625361087 0.00048870548643150855 0 0.0029636404562427632 0.00050460218896558682 0 0.0029315545625361087 0.00048870548643150855 0 0.0029615183905254195 0.0004649560991346298 0 0.0029636404562427632 0.00050460218896558682 0 0.0029315545625361087 0.00048870548643150855 0 0.0029615183905254195 0.0004649560991346298 0 0.0028783535883601242 0.00048009030380379985 0 0.0028631612612150309 0.00049281224195664723 0 0.0029153676420559382 0.00053777873444978803 0 0.0028783535883601242 0.00048009030380379985 0 0.0029153676420559382 0.00053777873444978803 0 0.0029315545625361087 0.00048870548643150855 0 0.0028783535883601242 0.00048009030380379985 0 0.0035763570589775074 0.00022068747291118692 0 0.0036660364035645244 0.00015319591088247899 0 0.0039079118382164008 0.00014865033805767824 0 0.0042635258300473431 0.00024404657602671657 0 0.0056057964644467204 -8.6179465616704741e-05 0 0.0067116056430000697 -0.00022457607749188854 0 0.0067047775446697896 -0.00017801415599043362 0 0.0066124331431323714 -0.000166501015394589 0 0.0042635258300473431 0.00024404657602671657 0 0.0032605865507361912 0.00028731430090419045 0 0.0063848277340368869 -0.00019638957546571151 0 0.0056057964644467204 -8.6179465616704741e-05 0 0.0067047775446697896 -0.00017801415599043362 0 0.0066839448299770496 -0.00014759621796970511 0 0.0066439966585573598 -0.0001836627301806318 0 0.0067660369115503782 -0.00011311324535645545 0 0.0066839448299770496 -0.00014759621796970511 0 0.0066987388255751214 -0.00010036437728154019 0 0.0067660369115503782 -0.00011311324535645545 0 0.0067047775446697896 -0.00017801415599043362 0 0.0066839448299770496 -0.00014759621796970511 0 0.0066839448299770496 -0.00014759621796970511 0 0.0066439966585573598 -0.0001836627301806318 0 0.0066459509981426461 -0.00011847236759515162 0 0.0066439966585573598 -0.0001836627301806318 0 0.0065702464768226656 -0.00016524213023759844 0 0.0066459509981426461 -0.00011847236759515162 0 0.0056057964644467204 -8.6179465616704741e-05 0 0.0062837460427669183 -0.00035592334372822407 0 0.0065866773442667904 -3.8319391032872359e-05 0 0.0065702464768226656 -0.00016524213023759844 0 0.0066459509981426461 -0.00011847236759515162 0 0.0064147330943595884 -4.5721003357273618e-05 0 0.0065866773442667904 -3.8319391032872359e-05 0 0.0065702464768226656 -0.00016524213023759844 0 0.0065866773442667904 -3.8319391032872359e-05 0 0.0066742644111489708 -5.9563803290462934e-05 0 0.0066459509981426461 -0.00011847236759515162 0 0.0066742644111489708 -5.9563803290462934e-05 0 0.0067198447990438875 -5.6290623253579224e-05 0 0.0066987388255751214 -0.00010036437728154019 0 0.006700770018052366 5.274488093897189e-08 0 0.0066742644111489708 -5.9563803290462934e-05 0 0.0067198447990438875 -5.6290623253579224e-05 0 0.0067493495801117407 -7.5380705329792199e-05 0 0.0067198447990438875 -5.6290623253579224e-05 0 0.0066987388255751214 -0.00010036437728154019 0 0.0066839448299770496 -0.00014759621796970511 0 0.0066987388255751214 -0.00010036437728154019 0 0.0066459509981426461 -0.00011847236759515162 0 0.0066742644111489708 -5.9563803290462934e-05 0 0.0066987388255751214 -0.00010036437728154019 0 0.0066459509981426461 -0.00011847236759515162 0 0.0056057964644467204 -8.6179465616704741e-05 0 0.005025065785671635 -4.4966340908031482e-05 0 0.0036660364035645244 0.00015319591088247899 0 0.0039079118382164008 0.00014865033805767824 0 0.0040502144476538479 8.2602052667497445e-05 0 0.0066619694902000431 -0.00021714400505729156 0 0.0065702464768226656 -0.00016524213023759844 0 0.0062081370621311967 -0.00020791385668444241 0 0.0064147330943595884 -4.5721003357273618e-05 0 0.0065702464768226656 -0.00016524213023759844 0 0.0062081370621311967 -0.00020791385668444241 0 0.0062305231844315533 3.0237081913821797e-05 0 0.0064147330943595884 -4.5721003357273618e-05 0 0.0062081370621311967 -0.00020791385668444241 0 0.0029676771157571397 0.00047851975607042611 0 0.003396655343228167 0.00097817234781163022 0 0.003024288878866902 0.00050931663523402424 0 0.0029448102134325502 0.00050472401648535997 0 0.0028898214545569063 0.00049694571789168625 0 0.0030250104969861027 0.00035634945279589957 0 0.003024288878866902 0.00050931663523402424 0 0.0035176761365879996 0.00045239294519928649 0 0.0029615183905254195 0.0004649560991346298 0 0.003024288878866902 0.00050931663523402424 0 0.0029636404562427632 0.00050460218896558682 0 0.0029615183905254195 0.0004649560991346298 0 0.0030250104969861027 0.00035634945279589957 0 0.003024288878866902 0.00050931663523402424 0 0.003024288878866902 0.00050931663523402424 0 0.0029636404562427632 0.00050460218896558682 0 0.0029448102134325502 0.00050472401648535997 0 0.0028843957226006439 0.00040468851265593951 0 0.0028820325853712706 0.00049984596031949283 0 0.0029602348523997736 0.0005074749545341009 0 0.0029448102134325502 0.00050472401648535997 0 0.0028818986606168246 0.00048948341128088432 0 0.0029448102134325502 0.00050472401648535997 0 0.0028818986606168246 0.00048948341128088432 0 0.0028898214545569063 0.00049694571789168625 0 0.0032058317409042339 0.00016060875479373849 0 0.0028843957226006439 0.00040468851265593951 0 0.0027770881363704189 0.00037735031033693712 0 0.0028039374849958749 0.00046954642932649801 0 0.0028818986606168246 0.00048948341128088432 0 0.0027479018601761379 0.00049399403092343101 0 0.0027770881363704189 0.00037735031033693712 0 0.0028039374849958749 0.00046954642932649801 0 0.0027479018601761379 0.00049399403092343101 0 0.0028039374849958749 0.00046954642932649801 0 0.0028164767470865862 0.00051280142019656234 0 0.0028164767470865862 0.00051280142019656234 0 0.0028818986606168246 0.00048948341128088432 0 0.0028649396206437525 0.00051755647688670858 0 0.0028039374849958749 0.00046954642932649801 0 0.0028164767470865862 0.00051280142019656234 0 0.0028818986606168246 0.00048948341128088432 0 0.0028898214545569063 0.00049694571789168625 0 0.0028828532837686192 0.00052176856680335028 0 0.0028649396206437525 0.00051755647688670858 0 0.0028818986606168246 0.00048948341128088432 0 0.0028898214545569063 0.00049694571789168625 0 0.0028649396206437525 0.00051755647688670858 0 0.003396655343228167 0.00097817234781163022 0 0.0022467222381552247 0.0011167700691758239 0 0.0044840963251922957 0.0011355638387097763 0 0.0045470229433846295 0.0015557034965506093 0 0.0042781838229897454 0.0017706329548636138 0 0.0050236432592375667 0.0013511432215075644 0 0.0022467222381552247 0.0011167700691758239 0 0.0039992894945886136 0.0010747995528878 0 0.0044840963251922957 0.0011355638387097763 0 0.003990562465709795 0.0020203290713868157 0 0.0039992894945886136 0.0010747995528878 0 0.0035413785932702458 0.0012953659165931212 0 0.003990562465709795 0.0020203290713868157 0 0.0039992894945886136 0.0010747995528878 0 0.0035413785932702458 0.0012953659165931212 0 0.0036301862836462073 0.00073401696737215687 0 0.003024288878866902 0.00050931663523402424 0 0.0035413785932702458 0.0012953659165931212 0 0.0036301862836462073 0.00073401696737215687 0 0.003024288878866902 0.00050931663523402424 0 0.0036301862836462073 0.00073401696737215687 0 0.0035176761365879996 0.00045239294519928649 0 0.0036301862836462073 0.00073401696737215687 0 0.0035176761365879996 0.00045239294519928649 0 0.003964965501977385 0.0005620861636475462 0 0.0039079118382164008 0.00014865033805767824 0 0.0040502144476538479 8.2602052667497445e-05 0 0.0043126514142676963 9.2256849461972909e-05 0 0.005025065785671635 -4.4966340908031482e-05 0 0.0051284565936614897 -4.7153694990545935e-05 0 0.0032605865507361912 0.00028731430090419045 0 0.0041719670076819267 0.00011316897601514464 0 0.0030250104969861027 0.00035634945279589957 0 0.0035176761365879996 0.00045239294519928649 0 0.0039068131832230733 0.00013231074658110931 0 0.0060108923657145128 -2.5219602392047364e-05 0 0.0062081370621311967 -0.00020791385668444241 0 0.005642810453406661 -0.00013931172866087438 0 0.0035176761365879996 0.00045239294519928649 0 0.0039068131832230733 0.00013231074658110931 0 0.003964965501977385 0.0005620861636475462 0 0.0062305231844315533 3.0237081913821797e-05 0 0.0060108923657145128 -2.5219602392047364e-05 0 0.0062081370621311967 -0.00020791385668444241 0 0.0045556335828827775 3.3048495707190085e-05 0 0.0043126514142676963 9.2256849461972909e-05 0 0.0048499533312104269 5.9728425198149871e-05 0 0.0039068131832230733 0.00013231074658110931 0 0.0044564537719444745 0.00055596930925662347 0 0.0048499533312104269 5.9728425198149871e-05 0 0.0040502144476538479 8.2602052667497445e-05 0 0.0045556335828827775 3.3048495707190085e-05 0 0.0043126514142676963 9.2256849461972909e-05 0 0.0041719670076819267 0.00011316897601514464 0 0.0047755704226213015 5.2084343483482357e-05 0 0.0039068131832230733 0.00013231074658110931 0 0.003964965501977385 0.0005620861636475462 0 0.0044564537719444745 0.00055596930925662347 0 0.0039992894945886136 0.0010747995528878 0 0.0044564537719444745 0.00055596930925662347 0 0.0044840963251922957 0.0011355638387097763 0 0.0039992894945886136 0.0010747995528878 0 0.003964965501977385 0.0005620861636475462 0 0.0044564537719444745 0.00055596930925662347 0 0.0039992894945886136 0.0010747995528878 0 0.0036301862836462073 0.00073401696737215687 0 0.003964965501977385 0.0005620861636475462 0 0.0044564537719444745 0.00055596930925662347 0 0.0050264358813418399 0.000373739170831902 0 0.0050342805415082266 0.00082364746831358544 0 0.0044564537719444745 0.00055596930925662347 0 0.0050342805415082266 0.00082364746831358544 0 0.0044840963251922957 0.0011355638387097763 0 0.005227681787955977 8.585958431279992e-06 0 0.0051284565936614897 -4.7153694990545935e-05 0 0.0044564537719444745 0.00055596930925662347 0 0.0048499533312104269 5.9728425198149871e-05 0 0.0050264358813418399 0.000373739170831902 0 0.0052508227343101947 2.5032144964529784e-05 0 0.0045556335828827775 3.3048495707190085e-05 0 0.0048499533312104269 5.9728425198149871e-05 0 0.0052508227343101947 2.5032144964529784e-05 0 0.0050264358813418399 0.000373739170831902 0 0.0054601544313011797 0.00052062175047732522 0 0.0052508227343101947 2.5032144964529784e-05 0 0.0048499533312104269 5.9728425198149871e-05 0 0.0050264358813418399 0.000373739170831902 0 0.0050264358813418399 0.000373739170831902 0 0.0050342805415082266 0.00082364746831358544 0 0.0054601544313011797 0.00052062175047732522 0 0.0050342805415082266 0.00082364746831358544 0 0.0049689224335184475 0.0013246567322932811 0 0.00553319941893769 0.0011136951653037135 0 0.0050342805415082266 0.00082364746831358544 0 0.0049689224335184475 0.0013246567322932811 0 0.0044840963251922957 0.0011355638387097763 0 0.0049689224335184475 0.0013246567322932811 0 0.0044840963251922957 0.0011355638387097763 0 0.0045470229433846295 0.0015557034965506093 0 0.0049689224335184475 0.0013246567322932811 0 0.0045470229433846295 0.0015557034965506093 0 0.0048235088967920744 0.001692272520991706 0 0.0045470229433846295 0.0015557034965506093 0 0.0044121683761103453 0.0018087805887367621 0 0.0042781838229897454 0.0017706329548636138 0 0.0045470229433846295 0.0015557034965506093 0 0.0048235088967920744 0.001692272520991706 0 0.0044121683761103453 0.0018087805887367621 0 0.0049689224335184475 0.0013246567322932811 0 0.0048235088967920744 0.001692272520991706 0 0.0052416264979344377 0.0016833184501345167 0 0.0049689224335184475 0.0013246567322932811 0 0.0052416264979344377 0.0016833184501345167 0 0.00553319941893769 0.0011136951653037135 0 0.0052416264979344377 0.0016833184501345167 0 0.004925926233759351 0.0020842223735609657 0 0.0053621460760032436 0.0022855163559284846 0 0.0044577726001059316 0.0019202148890739919 0 0.004602140776135656 0.0014516014353314409 0 0.0048235088967920744 0.001692272520991706 0 0.0052416264979344377 0.0016833184501345167 0 0.004925926233759351 0.0020842223735609657 0 0.0048235088967920744 0.001692272520991706 0 0.004925926233759351 0.0020842223735609657 0 0.0044121683761103453 0.0018087805887367621 0 0.0044577726001059316 0.0019202148890739919 0 0.0043908547499644729 0.0018378734293552567 0 0.0039662300009631751 0.0017937211536769343 0 0.0044121683761103453 0.0018087805887367621 0 0.0040274602448004586 0.0015713350013410617 0 0.0044121683761103453 0.0018087805887367621 0 0.0043781953501042829 0.0015790405004516826 0 0.0040274602448004586 0.0015713350013410617 0 0.0040274602448004586 0.0015713350013410617 0 0.0037143290303010986 0.0013457086063528893 0 0.0035605688793931118 0.0016636563918790291 0 0.0039662300009631751 0.0017937211536769343 0 0.0040274602448004586 0.0015713350013410617 0 0.0035605688793931118 0.0016636563918790291 0 0.0035384763441436871 0.0016758671310971032 0 0.004602140776135656 0.0014516014353314409 0 0.0037143290303010986 0.0013457086063528893 0 0.0034645568149810962 0.00069035518002969918 0 0.003982651324087076 0.00079794025521480417 0 0.0040274602448004586 0.0015713350013410617 0 0.0037143290303010986 0.0013457086063528893 0 0.003982651324087076 0.00079794025521480417 0 0.0037143290303010986 0.0013457086063528893 0 0.0034645568149810962 0.00069035518002969918 0 0.0031904826652238228 0.0010352170703838688 0 -0.0013561319989726186 0.00027716083970289254 0 -0.0014988650216267536 0.00023813382401483623 0 -0.0014526121166025514 0.00016517069442950201 0 -5.2204486022793683e-06 0.00034230766334609331 0 0.0014281717025022296 0.0004867672483541165 0 0.0033802986900799423 -0.00019193118053351704 0 0.0034645568149810962 0.00069035518002969918 0 0.003982651324087076 0.00079794025521480417 0 -0.0014988650216267536 0.00023813382401483623 0 -0.0015571594549802256 0.0002536011653170992 0 -0.0015210600004553862 0.00017990049641427794 0 -0.0014988650216267536 0.00023813382401483623 0 -0.0014526121166025514 0.00016517069442950201 0 -0.0015210600004553862 0.00017990049641427794 0 0.0043781953501042829 0.0015790405004516826 0 0.0040274602448004586 0.0015713350013410617 0 0.003982651324087076 0.00079794025521480417 0 -0.001487757708212718 0.00014006593423819132 0 -0.0014526121166025514 0.00016517069442950201 0 -0.0015185693175434286 0.000145222193556591 0 -0.0014526121166025514 0.00016517069442950201 0 -0.0015185693175434286 0.000145222193556591 0 -0.0015210600004553862 0.00017990049641427794 0 0.0012781006777580282 0.00077578539127609548 0 0.0014281717025022296 0.0004867672483541165 0 -0.0015185693175434286 0.000145222193556591 0 -0.0015210600004553862 0.00017990049641427794 0 -0.0015662256094005154 0.00014251152442528884 0 -0.0015185693175434286 0.000145222193556591 0 -0.0015662256094005154 0.00014251152442528884 0 -0.0015336569397249539 0.00014439668659666939 0 -0.0015210600004553862 0.00017990049641427794 0 -0.0015785177459210773 0.00020999376014124219 0 -0.0015662256094005154 0.00014251152442528884 0 -0.0015571594549802256 0.0002536011653170992 0 -0.0015210600004553862 0.00017990049641427794 0 -0.0015785177459210773 0.00020999376014124219 0 -0.0015785177459210773 0.00020999376014124219 0 -0.0016496174052330471 0.0002062163906331092 0 -0.0015662256094005154 0.00014251152442528884 0 -0.0016496174052330471 0.0002062163906331092 0 -0.0016567146065556081 0.00015263914113957449 0 -0.0015662256094005154 0.00014251152442528884 0 -0.0016496174052330471 0.0002062163906331092 0 -0.0016567146065556081 0.00015263914113957449 0 -0.0017363379804961267 0.00017120312562140771 0 -0.0018402616450180034 -9.5706440748746482e-05 0 -0.00016186840312261181 9.3471256989493162e-05 0 -0.0016567146065556081 0.00015263914113957449 0 -0.0015662256094005154 0.00014251152442528884 0 -0.0016777737241558482 7.280110103359727e-05 0 -0.0015662256094005154 0.00014251152442528884 0 -0.0015336569397249539 0.00014439668659666939 0 -0.0015259455423110894 0.000143265129936863 0 -0.0015185693175434286 0.000145222193556591 0 -0.0015336569397249539 0.00014439668659666939 0 -0.001506471191924358 0.00014203536219680138 0 0.00062820678694189475 0.00030836185235726989 0 -0.00016186840312261181 9.3471256989493162e-05 0 -0.0015336569397249539 0.00014439668659666939 0 -0.001506471191924358 0.00014203536219680138 0 -0.0015259455423110894 0.000143265129936863 0 0.0028530064114595591 0.00056110314214273744 0 0.0028108102567480421 0.00057277696413927123 0 0.0028031116085815702 0.000605203990384487 0 -0.001487757708212718 0.00014006593423819132 0 -0.0015185693175434286 0.000145222193556591 0 -0.001506471191924358 0.00014203536219680138 0 -0.001487757708212718 0.00014006593423819132 0 -0.001506471191924358 0.00014203536219680138 0 -0.0014652269361132573 0.00014632309650037338 0 0.0012781006777580282 0.00077578539127609548 0 0.0022467222381552247 0.0011167700691758239 0 0.0044121683761103453 0.0018087805887367621 0 0.0043781953501042829 0.0015790405004516826 0 0.0042781838229897454 0.0017706329548636138 0 0.0028530064114595591 0.00056110314214273744 0 0.0028828532837686192 0.00052176856680335028 0 0.0028649396206437525 0.00051755647688670858 0 0.00062820678694189475 0.00030836185235726989 0 0.0022467222381552247 0.0011167700691758239 0 0.0028530064114595591 0.00056110314214273744 0 0.0028649396206437525 0.00051755647688670858 0 0.0028158607934944888 0.000540470153723254 0 0.0028164767470865862 0.00051280142019656234 0 0.0028649396206437525 0.00051755647688670858 0 0.0028158607934944888 0.000540470153723254 0 0.0027479018601761379 0.00049399403092343101 0 0.0028164767470865862 0.00051280142019656234 0 0.002767901031368902 0.00054148013783899694 0 0.0028164767470865862 0.00051280142019656234 0 0.0028158607934944888 0.000540470153723254 0 0.002767901031368902 0.00054148013783899694 0 -0.001795689994189205 6.5813792414405457e-05 0 -0.0018688553728835895 0.00011154858857531163 0 -0.0018875046527234076 1.422540128798505e-05 0 0.0028158607934944888 0.000540470153723254 0 0.002767901031368902 0.00054148013783899694 0 0.0027656632230524908 0.00058582765641879229 0 0.002767901031368902 0.00054148013783899694 0 0.0027656632230524908 0.00058582765641879229 0 0.0027134270921272984 0.00056478097374825637 0 0.00046942271868542865 0.00034305515412287824 0 0.001292544592238764 0.0002956283479507756 0 0.0028530064114595591 0.00056110314214273744 0 0.0028158607934944888 0.000540470153723254 0 0.0028108102567480421 0.00057277696413927123 0 0.0027656632230524908 0.00058582765641879229 0 0.0028108102567480421 0.00057277696413927123 0 0.0028031116085815702 0.000605203990384487 0 0.0028158607934944888 0.000540470153723254 0 0.0027656632230524908 0.00058582765641879229 0 0.0028108102567480421 0.00057277696413927123 0 -0.0016900444330586028 0.00011141927508760561 0 -0.0017363379804961267 0.00017120312562140771 0 -0.0017970763028945075 0.00014552049430548646 0 0.00046942271868542865 0.00034305515412287824 0 -0.00016186840312261181 9.3471256989493162e-05 0 -0.001795689994189205 6.5813792414405457e-05 0 -0.0016900444330586028 0.00011141927508760561 0 -0.0017970763028945075 0.00014552049430548646 0 -0.00016186840312261181 9.3471256989493162e-05 0 -0.0016354120456246396 0.00041952628807401851 0 -0.0016567146065556081 0.00015263914113957449 0 -0.0016777737241558482 7.280110103359727e-05 0 -0.0017363379804961267 0.00017120312562140771 0 -0.0017602911242538329 0.00026875594975610576 0 -0.0017363379804961267 0.00017120312562140771 0 -0.0018291973658317729 0.00021650109611606272 0 -0.0017602911242538329 0.00026875594975610576 0 -0.0016496174052330471 0.0002062163906331092 0 -0.0017363379804961267 0.00017120312562140771 0 -0.0017363379804961267 0.00017120312562140771 0 -0.0018291973658317729 0.00021650109611606272 0 -0.0017970763028945075 0.00014552049430548646 0 -0.0019200530680460973 0.00025596752841823642 0 -0.0018291973658317729 0.00021650109611606272 0 -0.0018689229514781489 0.00019581565954961513 0 -0.0018291973658317729 0.00021650109611606272 0 -0.0018689229514781489 0.00019581565954961513 0 -0.0017970763028945075 0.00014552049430548646 0 -0.0018689229514781489 0.00019581565954961513 0 -0.0017970763028945075 0.00014552049430548646 0 -0.0018688553728835895 0.00011154858857531163 0 -0.001795689994189205 6.5813792414405457e-05 0 -0.0017970763028945075 0.00014552049430548646 0 -0.0018688553728835895 0.00011154858857531163 0 -0.0018688553728835895 0.00011154858857531163 0 -0.0019644015977560536 0.00014248943246483704 0 -0.0018875046527234076 1.422540128798505e-05 0 -0.0018689229514781489 0.00019581565954961513 0 -0.0018688553728835895 0.00011154858857531163 0 -0.0019644015977560536 0.00014248943246483704 0 -0.0018689229514781489 0.00019581565954961513 0 -0.0019494805735275897 0.00025549941190583395 0 -0.0019644015977560536 0.00014248943246483704 0 -0.0019705176354388111 0.00030138407854943494 0 -0.0019200530680460973 0.00025596752841823642 0 -0.0019494805735275897 0.00025549941190583395 0 -0.0019200530680460973 0.00025596752841823642 0 -0.0018689229514781489 0.00019581565954961513 0 -0.0019494805735275897 0.00025549941190583395 0 -0.00011582571567183758 -1.1937929158626732e-09 0 8.8102468762112773e-06 3.084022677081422e-05 0 0.0012132402810777474 -7.5665549815071104e-05 0 -0.00095383921945529741 0.0001129490396529307 0 -0.00055169117636009633 -1.1860105528163548e-05 0 -0.0019961191441734008 0.00038088841596083155 0 -0.0019494805735275897 0.00025549941190583395 0 -0.0019644015977560536 0.00014248943246483704 0 -0.00011582571567183758 -1.1937929158626732e-09 0 0.0012132402810777474 -7.5665549815071104e-05 0 0.0013347427340201484 -2.7075875751610873e-07 0 0.0012132402810777474 -7.5665549815071104e-05 0 0.0013347427340201484 -2.7075875751610873e-07 0 0.0016859400761390076 -2.7998437866755958e-05 0 0.0016859400761390076 -2.7998437866755958e-05 0 0.0015993537554127618 6.0616345323310891e-05 0 0.0025904758797498572 3.197174001041757e-05 0 0.0013347427340201484 -2.7075875751610873e-07 0 0.002786770967688825 5.0612464607241731e-08 0 0.0025904758797498572 3.197174001041757e-05 0 0.0013347427340201484 -2.7075875751610873e-07 0 0.0016859400761390076 -2.7998437866755958e-05 0 0.0025904758797498572 3.197174001041757e-05 0 0.0012132402810777474 -7.5665549815071104e-05 0 0.0016859400761390076 -2.7998437866755958e-05 0 0.0015993537554127618 6.0616345323310891e-05 0 -0.00055169117636009633 -1.1860105528163548e-05 0 0.001292544592238764 0.0002956283479507756 0 0.0027479018601761379 0.00049399403092343101 0 0.002767901031368902 0.00054148013783899694 0 0.0027134270921272984 0.00056478097374825637 0 0.0032342551920343629 -0.00015890951737469218 0 0.003268077082808568 0.00024426195347249135 0 0.0031485063808616041 -4.6780598646818562e-05 0 0.0032058317409042339 0.00016060875479373849 0 0.001292544592238764 0.0002956283479507756 0 0.003268077082808568 0.00024426195347249135 0 0.0031485063808616041 -4.6780598646818562e-05 0 0.0025904758797498572 3.197174001041757e-05 0 0.0032369254552422786 -0.00011951135479499539 0 0.0031485063808616041 -4.6780598646818562e-05 0 0.0025904758797498572 3.197174001041757e-05 0 0.001292544592238764 0.0002956283479507756 0 0.0028771746667572607 0.00014889691503101345 0 0.0032369254552422786 -0.00011951135479499539 0 0.002786770967688825 5.0612464607241731e-08 0 0.0025904758797498572 3.197174001041757e-05 0 0.0063259685056148438 0.00059436902129676413 0 0.006300049760847584 0.00057128171797326817 0 0.0062676885217601537 0.00059468829486913422 0 0.0063259685056148438 0.00059436902129676413 0 0.0063294842224373886 0.00057457882706351236 0 0.006300049760847584 0.00057128171797326817 0 0.0063259685056148438 0.00059436902129676413 0 0.0063600655006307632 0.0005713024318351013 0 0.0063294842224373886 0.00057457882706351236 0 0.0063294842224373886 0.00057457882706351236 0 0.0063210018677541616 0.00058128057431410191 0 0.0062913395996340438 0.00059199897326683783 0 0.0063600655006307632 0.0005713024318351013 0 0.0063294842224373886 0.00057457882706351236 0 0.0063210018677541616 0.00058128057431410191 0 0.0063294842224373886 0.00057457882706351236 0 0.006300049760847584 0.00057128171797326817 0 0.0063114219084024767 0.00052567374939294044 0 0.006300049760847584 0.00057128171797326817 0 0.0062676885217601537 0.00059468829486913422 0 0.0062604680484485455 0.00054892097756991146 0 0.0089522094283562871 0.0017596744388504988 0 0.0084120430253007104 0.001447306879917508 0 0.0091446441082265496 0.0013197661327891792 0 0.006541606877907679 0.00099100882777717475 0 0.0075295594799196638 0.0010971833981563543 0 0.0062093538059191326 0.0005730505408213291 0 0.0062676885217601537 0.00059468829486913422 0 0.0062604680484485455 0.00054892097756991146 0 0.0084120430253007104 0.001447306879917508 0 0.0088254472827000493 0.00093970404236810834 0 0.0091446441082265496 0.0013197661327891792 0 0.0084120430253007104 0.001447306879917508 0 0.0083921391392654029 0.00078099376579175901 0 0.0088254472827000493 0.00093970404236810834 0 0.0070423074043941174 0.00084895099119003956 0 0.0075295594799196638 0.0010971833981563543 0 0.0078415426109773399 0.0011453112423660101 0 0.0084120430253007104 0.001447306879917508 0 0.0083921391392654029 0.00078099376579175901 0 0.0083921391392654029 0.00078099376579175901 0 0.0088254472827000493 0.00093970404236810834 0 0.0089399081258580895 0.00043146878526946546 0 0.0087099896999991069 -0.00017667236259283841 0 0.0089399081258580895 0.00043146878526946546 0 0.0092619369693665819 0.00022855318355044654 0 0.0083921391392654029 0.00078099376579175901 0 0.0089399081258580895 0.00043146878526946546 0 0.0083639867693262107 0.00026092018015396498 0 0.0087099896999991069 -0.00017667236259283841 0 0.0089399081258580895 0.00043146878526946546 0 0.0083639867693262107 0.00026092018015396498 0 0.0083921391392654029 0.00078099376579175901 0 0.0083639867693262107 0.00026092018015396498 0 0.0078176335446818249 0.00049830615560304576 0 0.0079049221705559322 -0.00024328220660029798 0 0.0083639867693262107 0.00026092018015396498 0 0.0078176335446818249 0.00049830615560304576 0 0.0078415426109773399 0.0011453112423660101 0 0.0078176335446818249 0.00049830615560304576 0 0.0072110211840361055 0.00084251652607067202 0 0.0078415426109773399 0.0011453112423660101 0 0.0083921391392654029 0.00078099376579175901 0 0.0078176335446818249 0.00049830615560304576 0 0.0070423074043941174 0.00084895099119003956 0 0.0067998025216732504 0.00069854520770588218 0 0.0063259685056148438 0.00059436902129676413 0 0.0063600655006307632 0.0005713024318351013 0 0.0063985745291032506 0.00057182910661170605 0 0.0078176335446818249 0.00049830615560304576 0 0.0072110211840361055 0.00084251652607067202 0 0.0071030643476112099 0.00027652366100221085 0 0.0079049221705559322 -0.00024328220660029798 0 0.0078176335446818249 0.00049830615560304576 0 0.0071030643476112099 0.00027652366100221085 0 0.0063985745291032506 0.00057182910661170605 0 0.0064512313629693733 0.00050695275085256076 0 0.0064660240615397263 0.0004680368218847359 0 0.0072110211840361055 0.00084251652607067202 0 0.0071030643476112099 0.00027652366100221085 0 0.0064660240615397263 0.0004680368218847359 0 0.0067004634600890756 7.1398462934246489e-05 0 0.0071030643476112099 0.00027652366100221085 0 0.0064660240615397263 0.0004680368218847359 0 0.0063417821042161373 0.00014903303494325621 0 0.0067004634600890756 7.1398462934246489e-05 0 0.0064660240615397263 0.0004680368218847359 0 0.0064512313629693733 0.00050695275085256076 0 0.0064660240615397263 0.0004680368218847359 0 0.0061836193662051014 0.0005932909066624914 0 0.0063417821042161373 0.00014903303494325621 0 0.0064660240615397263 0.0004680368218847359 0 0.0060830464548717912 0.0002728622003653277 0 0.0064660240615397263 0.0004680368218847359 0 0.0061836193662051014 0.0005932909066624914 0 0.0060830464548717912 0.0002728622003653277 0 0.0064512313629693733 0.00050695275085256076 0 0.0061836193662051014 0.0005932909066624914 0 0.006229166374258765 0.0010167514130837211 0 0.0064491975848456175 0.00052094141551675287 0 0.0062289603179304376 0.00081227258380311518 0 0.0064512313629693733 0.00050695275085256076 0 0.0063775079916967735 0.00055779830754443206 0 0.0063026484706651441 0.00056225687681896522 0 0.0063985745291032506 0.00057182910661170605 0 0.0064512313629693733 0.00050695275085256076 0 0.0063775079916967735 0.00055779830754443206 0 0.0063600655006307632 0.0005713024318351013 0 0.0063985745291032506 0.00057182910661170605 0 0.0063775079916967735 0.00055779830754443206 0 0.0067998025216732504 0.00069854520770588218 0 0.0064767454937384311 0.00048387669467077858 0 0.0056597741408004124 0.00015300919780226633 0 0.0058102339986035112 0.00046184824845540691 0 0.0054601544313011797 0.00052062175047732522 0 0.0052508227343101947 2.5032144964529784e-05 0 0.0056597741408004124 0.00015300919780226633 0 0.0054601544313011797 0.00052062175047732522 0 0.0056597741408004124 0.00015300919780226633 0 0.0058102339986035112 0.00046184824845540691 0 0.0060830464548717912 0.0002728622003653277 0 0.0061836193662051014 0.0005932909066624914 0 0.0058102339986035112 0.00046184824845540691 0 0.0060830464548717912 0.0002728622003653277 0 0.0061836193662051014 0.0005932909066624914 0 0.0058605889495134088 0.00078439032962308278 0 0.006229166374258765 0.0010167514130837211 0 0.0061836193662051014 0.0005932909066624914 0 0.0058102339986035112 0.00046184824845540691 0 0.0058605889495134088 0.00078439032962308278 0 0.0050342805415082266 0.00082364746831358544 0 0.0054601544313011797 0.00052062175047732522 0 0.00553319941893769 0.0011136951653037135 0 0.0058102339986035112 0.00046184824845540691 0 0.0058605889495134088 0.00078439032962308278 0 0.0054601544313011797 0.00052062175047732522 0 0.0058605889495134088 0.00078439032962308278 0 0.0054601544313011797 0.00052062175047732522 0 0.00553319941893769 0.0011136951653037135 0 0.00553319941893769 0.0011136951653037135 0 0.0058222040212145077 0.0016379414059238876 0 0.006229166374258765 0.0010167514130837211 0 0.0058605889495134088 0.00078439032962308278 0 0.00553319941893769 0.0011136951653037135 0 0.006229166374258765 0.0010167514130837211 0 0.0062226452179479702 0.0010574435381241513 0 0.0062289603179304376 0.00081227258380311518 0 0.0052416264979344377 0.0016833184501345167 0 0.00553319941893769 0.0011136951653037135 0 0.0058222040212145077 0.0016379414059238876 0 0.0062502140498177363 0.00058508062939245783 0 0.0063026484706651441 0.00056225687681896522 0 0.0063210018677541616 0.00058128057431410191 0 0.0062502140498177363 0.00058508062939245783 0 0.0063210018677541616 0.00058128057431410191 0 0.0062732487279419033 0.00060016291876545576 0 0.0063775079916967735 0.00055779830754443206 0 0.0063026484706651441 0.00056225687681896522 0 0.0063210018677541616 0.00058128057431410191 0 0.0063600655006307632 0.0005713024318351013 0 0.0063775079916967735 0.00055779830754443206 0 0.0063210018677541616 0.00058128057431410191 0 0.0063210018677541616 0.00058128057431410191 0 0.0062913395996340438 0.00059199897326683783 0 0.0062732487279419033 0.00060016291876545576 0 0.0062913395996340438 0.00059199897326683783 0 0.0062732487279419033 0.00060016291876545576 0 0.0062599666887225057 0.00059037454896076114 0 0.0062732487279419033 0.00060016291876545576 0 0.0062437304865400499 0.00061150467448564899 0 0.0062547483416978914 0.00058585369733158365 0 0.0062732487279419033 0.00060016291876545576 0 0.0062547483416978914 0.00058585369733158365 0 0.0062599666887225057 0.00059037454896076114 0 0.0062502140498177363 0.00058508062939245783 0 0.0062433831223987594 0.0006029689942258393 0 0.0062039676173058587 0.00061479488349070453 0 0.0062226452179479702 0.0010574435381241513 0 0.004602140776135656 0.0014516014353314409 0 0.0052416264979344377 0.0016833184501345167 0 0.0058222040212145077 0.0016379414059238876 0 0.0053621460760032436 0.0022855163559284846 0 0.0062502140498177363 0.00058508062939245783 0 0.0062732487279419033 0.00060016291876545576 0 0.0062433831223987594 0.0006029689942258393 0 0.0062732487279419033 0.00060016291876545576 0 0.0062433831223987594 0.0006029689942258393 0 0.0062437304865400499 0.00061150467448564899 0 0.0062433831223987594 0.0006029689942258393 0 0.0062437304865400499 0.00061150467448564899 0 0.0062039676173058587 0.00061479488349070453 0 0.002366759057376142 0.0015245045566312837 0 0.0031845616660020155 0.0014778129792371983 0 0.0032808653690754746 0.0019686350786567532 0 0.0043179533935078949 0.0010541359481530024 0 0.004602140776135656 0.0014516014353314409 0 0.0037143290303010986 0.0013457086063528893 0 0.0031845616660020155 0.0014778129792371983 0 0.0032808653690754746 0.0019686350786567532 0 0.002366759057376142 0.0015245045566312837 0 0.0031845616660020155 0.0014778129792371983 0 0.0031904826652238228 0.0010352170703838688 0 0.0037143290303010986 0.0013457086063528893 0 0.0031845616660020155 0.0014778129792371983 0 0.0031904826652238228 0.0010352170703838688 0 0.002366759057376142 0.0015245045566312837 0 0.0031904826652238228 0.0010352170703838688 0 0.0025731850591129497 0.00074755666374281464 0 0.002366759057376142 0.0015245045566312837 0 0.0025731850591129497 0.00074755666374281464 0 0.0019131718591824626 0.00061227850109617427 0 0.0023617698198578722 0.00018755519343628915 0 0.0025731850591129497 0.00074755666374281464 0 0.0019131718591824626 0.00061227850109617427 0 0.0023617698198578722 0.00018755519343628915 0 0.0025731850591129497 0.00074755666374281464 0 0.0030329410589721986 0.00041138332460238466 0 0.0031904826652238228 0.0010352170703838688 0 0.0025731850591129497 0.00074755666374281464 0 0.0030329410589721986 0.00041138332460238466 0 0.003159731733035593 0.00094446019016338791 0 0.0030256996395882476 0.00046218479411364613 0 0.0034645568149810962 0.00069035518002969918 0 0.0031904826652238228 0.0010352170703838688 0 0.0030765522446710601 0.0003828041587157931 0 0.0033802986900799423 -0.00019193118053351704 0 0.0034645568149810962 0.00069035518002969918 0 0.0030765522446710601 0.0003828041587157931 0 0.0039022626389779757 0.00085416374472883406 0 0.0033447904663975099 0.00060014792832525227 0 0.0062547483416978914 0.00058585369733158365 0 0.0062269274902701233 0.00054530307173974947 0 0.0062599666887225057 0.00059037454896076114 0 0.002366759057376142 0.0015245045566312837 0 0.0015101624365633883 0.0011102353038132892 0 0.0019131718591824626 0.00061227850109617427 0 0.0043179533935078949 0.0010541359481530024 0 0.0039022626389779757 0.00085416374472883406 0 0.0015101624365633883 0.0011102353038132892 0 0.0019131718591824626 0.00061227850109617427 0 0.001432841131386621 0.00021849273126621575 0 0.0023617698198578722 0.00018755519343628915 0 0.0019131718591824626 0.00061227850109617427 0 0.001432841131386621 0.00021849273126621575 0 0.00075613155943574757 4.2759203453038337e-06 0 0.001432841131386621 0.00021849273126621575 0 0.00070058106053420062 0.00068550897817705773 0 0.0015101624365633883 0.0011102353038132892 0 0.001432841131386621 0.00021849273126621575 0 0.00070058106053420062 0.00068550897817705773 0 0.0033447904663975099 0.00060014792832525227 0 0.0037960219928408678 0.00023757702963208316 0 0.0037960219928408678 0.00023757702963208316 0 0.0064870663685449373 0.00061566896259261346 0 0.006214491486009029 0.00037630419811667378 0 0.0062466530028035738 0.00038977133631741654 0 0.006244556250666106 0.00043234478856065008 0 0.0062269274902701233 0.00054530307173974947 0 0.0061501865172491057 0.000502806871439502 0 0.0062053017222635249 0.00057382133439151954 0 0.0062466530028035738 0.00038977133631741654 0 0.0062844744174173793 0.00046332646207932843 0 0.006244556250666106 0.00043234478856065008 0 0.00026155782430550644 -4.8852452902679443e-05 0 0.00070058106053420062 0.00068550897817705773 0 3.5777982193886939e-05 0.00028714405818644565 0 0.0041592772981956022 0.00014414409003881329 0 0.0037960219928408678 0.00023757702963208316 0 0.0062844744174173793 0.00046332646207932843 0 0.006244556250666106 0.00043234478856065008 0 0.0062545844394574657 0.00049169211800225115 0 0.0062269274902701233 0.00054530307173974947 0 0.0062053017222635249 0.00057382133439151954 0 0.0062599666887225057 0.00059037454896076114 0 0.0062053017222635249 0.00057382133439151954 0 0.0062599666887225057 0.00059037454896076114 0 0.0062689626666373758 0.00059572694568867091 0 0.0062844744174173793 0.00046332646207932843 0 0.0063114219084024767 0.00052567374939294044 0 0.0062545844394574657 0.00049169211800225115 0 0.0064870663685449373 0.00061566896259261346 0 0.0062634791459694871 0.00052976725381560081 0 0.0063114219084024767 0.00052567374939294044 0 0.0062604680484485455 0.00054892097756991146 0 0.0062545844394574657 0.00049169211800225115 0 0.006300049760847584 0.00057128171797326817 0 0.0063114219084024767 0.00052567374939294044 0 0.0062604680484485455 0.00054892097756991146 0 0.0063276340757844537 0.00058421996541679639 0 0.0062634791459694871 0.00052976725381560081 0 0.0062913395996340438 0.00059199897326683783 0 0.0062599666887225057 0.00059037454896076114 0 0.0062689626666373758 0.00059572694568867091 0 0.0063294842224373886 0.00057457882706351236 0 0.0062913395996340438 0.00059199897326683783 0 0.0062689626666373758 0.00059572694568867091 0 0.0039380324812744779 0.0010164765579318464 0 0.0040386497991990178 0.00070872328110788846 0 0.0038097039254322215 0.00074064682076733623 0 0.0062093538059191326 0.0005730505408213291 0 0.0062604680484485455 0.00054892097756991146 0 0.0062144910142630828 0.00051518572990933971 0 0.006541606877907679 0.00099100882777717475 0 0.0049381292625896118 0.00063625696303451723 0 0.0062604680484485455 0.00054892097756991146 0 0.0062545844394574657 0.00049169211800225115 0 0.0062144910142630828 0.00051518572990933971 0 0.0062545844394574657 0.00049169211800225115 0 0.0062144910142630828 0.00051518572990933971 0 0.0062139280425014516 0.00045090830628784911 0 0.0049381292625896118 0.00063625696303451723 0 0.0053293066689576807 0.00039769549889264198 0 0.0040386497991990178 0.00070872328110788846 0 0.0039112578381815854 0.0005155647302989649 0 0.0041445544890602749 0.00040746112354561663 0 0.0040386497991990178 0.00070872328110788846 0 0.0039112578381815854 0.0005155647302989649 0 0.0038097039254322215 0.00074064682076733623 0 0.0039112578381815854 0.0005155647302989649 0 0.003949158617125653 0.0003349488823498109 0 0.0041445544890602749 0.00040746112354561663 0 0.006244556250666106 0.00043234478856065008 0 0.0062545844394574657 0.00049169211800225115 0 0.0062139280425014516 0.00045090830628784911 0 0.006214491486009029 0.00037630419811667378 0 0.006244556250666106 0.00043234478856065008 0 0.0062139280425014516 0.00045090830628784911 0 0.0041592772981956022 0.00014414409003881329 0 0.0053293066689576807 0.00039769549889264198 0 0.0042578307301626176 0.00010380948518407043 0 0.0041445544890602749 0.00040746112354561663 0 0.00405149181578406 0.00020176368603184159 0 0.003949158617125653 0.0003349488823498109 0 0.0041445544890602749 0.00040746112354561663 0 0.00405149181578406 0.00020176368603184159 0 0.003949158617125653 0.0003349488823498109 0 0.00405149181578406 0.00020176368603184159 0 0.0038824133360461366 0.00016068270882223983 0 0.0037290057066255654 0.00014254448565929325 0 0.0035905520399308996 0.00026883182598251896 0 0.0037683576778498422 0.00035196582553771879 0 0.0037290057066255654 0.00014254448565929325 0 0.0038824133360461366 0.00016068270882223983 0 0.0037683576778498422 0.00035196582553771879 0 0.003949158617125653 0.0003349488823498109 0 0.0038824133360461366 0.00016068270882223983 0 0.0037683576778498422 0.00035196582553771879 0 0.0036130772080478378 4.8116173537428579e-05 0 0.0037290057066255654 0.00014254448565929325 0 0.0035905520399308996 0.00026883182598251896 0 0.0036130772080478378 4.8116173537428579e-05 0 0.0035905520399308996 0.00026883182598251896 0 0.0034258454479426602 0.00021501407954771057 0 0.0024849204212121154 0.00034799061426031563 0 0.0024759915572825164 0.000455066867773392 0 0.0035905520399308996 0.00026883182598251896 0 0.0034434417832989042 0.00021814714695001782 0 0.0034463104051579234 0.00040750194716533407 0 0.0036684461015760342 0.00044330364463848081 0 0.0024759915572825164 0.000455066867773392 0 0.0035905520399308996 0.00026883182598251896 0 0.0036128620847290646 0.00041704803578042663 0 0.0037683576778498422 0.00035196582553771879 0 0.0035905520399308996 0.00026883182598251896 0 0.0036128620847290646 0.00041704803578042663 0 0.0034463104051579234 0.00040750194716533407 0 0.0036128620847290646 0.00041704803578042663 0 0.0035226415747701459 0.00050931686551563941 0 0.0034463104051579234 0.00040750194716533407 0 0.0036128620847290646 0.00041704803578042663 0 0.0035226415747701459 0.00050931686551563941 0 0.0037084185458587516 0.0005401361966628791 0 0.0039112578381815854 0.0005155647302989649 0 0.0037683576778498422 0.00035196582553771879 0 0.0037084185458587516 0.0005401361966628791 0 0.0036128620847290646 0.00041704803578042663 0 0.0037683576778498422 0.00035196582553771879 0 0.0037084185458587516 0.0005401361966628791 0 0.0039112578381815854 0.0005155647302989649 0 0.003949158617125653 0.0003349488823498109 0 0.0037683576778498422 0.00035196582553771879 0 0.0017505016826421748 0.00042695462234390856 0 0.0019246094633185978 0.000837869951656393 0 0.001500355786959994 0.00064339019569619924 0 0.0017505016826421748 0.00042695462234390856 0 0.0022033970144452698 0.00058522357768114777 0 0.0019246094633185978 0.000837869951656393 0 0.00084413573795134975 0.00078308888932235885 0 0.0024759915572825164 0.000455066867773392 0 0.0024759915572825164 0.000455066867773392 0 0.0026079060430660096 0.0006021007790039159 0 0.0034434417832989042 0.00021814714695001782 0 0.0034463104051579234 0.00040750194716533407 0 0.0032693664336340923 0.0003758423613995188 0 0.0035226415747701459 0.00050931686551563941 0 0.0034463104051579234 0.00040750194716533407 0 0.0034032282714761908 0.00056160705236653818 0 0.0034463104051579234 0.00040750194716533407 0 0.0032800691549542908 0.00050687144898909459 0 0.0034032282714761908 0.00056160705236653818 0 0.0034463104051579234 0.00040750194716533407 0 0.0032693664336340923 0.0003758423613995188 0 0.0032800691549542908 0.00050687144898909459 0 0.0019246094633185978 0.000837869951656393 0 0.0016480734095572591 0.0010900515953514555 0 0.001500355786959994 0.00064339019569619924 0 0.0032693664336340923 0.0003758423613995188 0 0.0032800691549542908 0.00050687144898909459 0 0.003089371108609656 0.0005364279032820451 0 0.0026079060430660096 0.0006021007790039159 0 0.0025625400640992666 0.00068723627952173359 0 0.0041247199895725409 -0.00034789519294217561 0 0.0042404625780228791 -0.00039388695845840192 0 0.0041615039494104378 -0.00023960382637197377 0 0.0041247199895725409 -0.00034789519294217561 0 0.004101456993205398 -0.00045598561073982168 0 0.0042404625780228791 -0.00039388695845840192 0 0.0025625400640992666 0.00068723627952173359 0 0.0037942245643818773 0.00018719207695267655 0 0.0032800691549542908 0.00050687144898909459 0 0.003089371108609656 0.0005364279032820451 0 0.0032687843262223142 0.00063815921621126939 0 0.0032687843262223142 0.00063815921621126939 0 0.0034032282714761908 0.00056160705236653818 0 0.0034471268015523523 0.00073773772295336203 0 0.0037942245643818773 0.00018719207695267655 0 0.0040537822086099719 0.00023074514460748728 0 0.0032800691549542908 0.00050687144898909459 0 0.0032687843262223142 0.00063815921621126939 0 0.0034032282714761908 0.00056160705236653818 0 0.0035258684373407258 0.0006642151850865288 0 0.0040537822086099719 0.00023074514460748728 0 0.0034032282714761908 0.00056160705236653818 0 0.0034486361412066195 0.00074266562982393388 0 0.0035744311738022966 0.00063935519946657377 0 0.0042404625780228791 -0.00039388695845840192 0 0.004396797878517821 -0.00031914801760292265 0 0.0043108649893356518 -0.00023653636051865481 0 0.004396797878517821 -0.00031914801760292265 0 0.0043108649893356518 -0.00023653636051865481 0 0.0044580418270154989 -0.00013182582551114937 0 0.0040537822086099719 0.00023074514460748728 0 0.0046824415196480467 -8.4804100177578401e-05 0 0.0042404625780228791 -0.00039388695845840192 0 0.0043108649893356518 -0.00023653636051865481 0 0.0041615039494104378 -0.00023960382637197377 0 0.0043108649893356518 -0.00023653636051865481 0 0.0041615039494104378 -0.00023960382637197377 0 0.0043110413342618802 -7.058903480597452e-05 0 0.0042301638631898099 -0.00017564527006268192 0 0.0041320816759831151 -0.00022216282110045977 0 0.0039112578381815854 0.0005155647302989649 0 0.0037084185458587516 0.0005401361966628791 0 0.0038097039254322215 0.00074064682076733623 0 0.0037084185458587516 0.0005401361966628791 0 0.0035744311738022966 0.00063935519946657377 0 0.0038097039254322215 0.00074064682076733623 0 0.0035226415747701459 0.00050931686551563941 0 0.0037084185458587516 0.0005401361966628791 0 0.0035744311738022966 0.00063935519946657377 0 0.0035226415747701459 0.00050931686551563941 0 0.0034032282714761908 0.00056160705236653818 0 0.0035744311738022966 0.00063935519946657377 0 0.0048796467811040457 -9.5816328816456341e-05 0 0.0050753603239088599 1.6117063031296387e-05 0 0.004941618446755414 0.00014072816647264877 0 0.0050753603239088599 1.6117063031296387e-05 0 0.0052657902349074687 0.00012964621255604302 0 0.004941618446755414 0.00014072816647264877 0 0.0035744311738022966 0.00063935519946657377 0 0.0036290439083448418 0.00084637832879966193 0 0.0038097039254322215 0.00074064682076733623 0 0.0034486361412066195 0.00074266562982393388 0 0.0035744311738022966 0.00063935519946657377 0 0.0036290439083448418 0.00084637832879966193 0 0.0040537822086099719 0.00023074514460748728 0 0.0042858693256103168 0.00036184703452128041 0 0.0042858693256103168 0.00036184703452128041 0 0.0055289179331767281 0.00039314568583627988 0 0.0039380324812744779 0.0010164765579318464 0 0.0038097039254322215 0.00074064682076733623 0 0.0038155348655473141 0.00095130743057328837 0 0.0036290439083448418 0.00084637832879966193 0 0.0038097039254322215 0.00074064682076733623 0 0.0038155348655473141 0.00095130743057328837 0 0.006541606877907679 0.00099100882777717475 0 0.0080976164162044947 0.00099535924675063915 0 0.006541606877907679 0.00099100882777717475 0 0.0055289179331767281 0.00039314568583627988 0 0.0070273743070096732 0.00075603123643010466 0 0.007032218699751634 0.00074388308965886885 0 0.0070449871446042348 0.0007355692789608408 0 0.0070187362448806559 0.00075123137629843479 0 0.0070273743070096732 0.00075603123643010466 0 0.007032218699751634 0.00074388308965886885 0 0.0070187362448806559 0.00075123137629843479 0 0.007032218699751634 0.00074388308965886885 0 0.0070370921091812422 0.00073324259789465419 0 0.0070370921091812422 0.00073324259789465419 0 0.0070449871446042348 0.0007355692789608408 0 0.0070535945531663815 0.00072029173626931046 0 0.0080976164162044947 0.00099535924675063915 0 0.0086491129060745926 0.00086685307944142198 0 0.007032218699751634 0.00074388308965886885 0 0.0070370921091812422 0.00073324259789465419 0 0.0070449871446042348 0.0007355692789608408 0 0.0070449871446042348 0.0007355692789608408 0 0.0070557510912193635 0.00073056391174405291 0 0.0070535945531663815 0.00072029173626931046 0 0.0080088024832957495 -0.0008061875757269083 0 0.0079404954265549325 -0.00087226020438314553 0 0.0079193434093925083 -0.00054206191961283026 0 0.0074423235354378345 0.00033518130714133731 0 0.0086491129060745926 0.00086685307944142198 0 0.0070449871446042348 0.0007355692789608408 0 0.0070557510912193635 0.00073056391174405291 0 0.0070553515476507317 0.00073460807839485765 0 0.0074423235354378345 0.00033518130714133731 0 0.0060993394026095738 0.00019945787114480668 0 0.0067748733361453805 8.203483537230755e-05 0 0.0066585968392992283 -3.3228532346906494e-05 0 0.0067319484187553956 -0.00010093027364615617 0 0.0074423235354378345 0.00033518130714133731 0 0.0060901987945322106 -0.00010265213358503085 0 0.0060901987945322106 -0.00010265213358503085 0 0.0060993394026095738 0.00019945787114480668 0 0.0055289179331767281 0.00039314568583627988 0 0.0060993394026095738 0.00019945787114480668 0 0.0052657902349074687 0.00012964621255604302 0 0.0050010083602725821 0.00037446213012476767 0 0.004941618446755414 0.00014072816647264877 0 0.0060993394026095738 0.00019945787114480668 0 0.0046824415196480467 -8.4804100177578401e-05 0 0.0070273743070096732 0.00075603123643010466 0 0.0070449871446042348 0.0007355692789608408 0 0.0070553515476507317 0.00073460807839485765 0 0.0045218772037628092 8.3452999584802571e-05 0 0.0044580418270154989 -0.00013182582551114937 0 0.0043110413342618802 -7.058903480597452e-05 0 0.0043108649893356518 -0.00023653636051865481 0 0.0044580418270154989 -0.00013182582551114937 0 0.0043110413342618802 -7.058903480597452e-05 0 0.0060901987945322106 -0.00010265213358503085 0 0.0041320816759831151 -0.00022216282110045977 0 0.0044964023588832053 0.00010767178900072668 0 0.0045218772037628092 8.3452999584802571e-05 0 0.0043110413342618802 -7.058903480597452e-05 0 0.0041615039494104378 -0.00023960382637197377 0 0.004290942056710159 -0.00014064073582782465 0 0.0041492761841844831 -0.00012170051993707219 0 0.004290942056710159 -0.00014064073582782465 0 0.0041492761841844831 -0.00012170051993707219 0 0.0042244651311233658 -2.3371819683378895e-05 0 0.0041492761841844831 -0.00012170051993707219 0 0.0042244651311233658 -2.3371819683378895e-05 0 0.0040675435088749837 -3.0918349110346119e-05 0 0.0042244651311233658 -2.3371819683378895e-05 0 0.0042827848181345085 9.7904827652241843e-05 0 0.0041359602082949561 8.219796905142027e-05 0 0.0042244651311233658 -2.3371819683378895e-05 0 0.0041359602082949561 8.219796905142027e-05 0 0.0040675435088749837 -3.0918349110346119e-05 0 0.0044267130312064399 -2.5018956146411012e-05 0 0.0042244651311233658 -2.3371819683378895e-05 0 0.0042827848181345085 9.7904827652241843e-05 0 0.0044267130312064399 -2.5018956146411012e-05 0 0.004290942056710159 -0.00014064073582782465 0 0.0042244651311233658 -2.3371819683378895e-05 0 0.0079404954265549325 -0.00087226020438314553 0 0.0076013758966056392 -0.00057454589629959681 0 0.0079193434093925083 -0.00054206191961283026 0 0.0060901987945322106 -0.00010265213358503085 0 0.0059809841822888185 -0.00029596174351112817 0 0.0076013758966056392 -0.00057454589629959681 0 0.0078872393054130342 -0.00018607771339271875 0 0.0079193434093925083 -0.00054206191961283026 0 0.0042827848181345085 9.7904827652241843e-05 0 0.0041359602082949561 8.219796905142027e-05 0 0.0041444965726173929 0.00021479620911723124 0 0.0059809841822888185 -0.00029596174351112817 0 0.005692264254098316 5.8361015854615044e-05 0 0.0076013758966056392 -0.00057454589629959681 0 0.0075296307723675977 -4.2341641117501806e-05 0 0.0072364740143245941 -0.00026174972952291932 0 0.0075296307723675977 -4.2341641117501806e-05 0 0.0072364740143245941 -0.00026174972952291932 0 0.0070863250586096034 0.00028107861361340513 0 0.0075296307723675977 -4.2341641117501806e-05 0 0.0078872393054130342 -0.00018607771339271875 0 0.0077694317972172838 0.00029702454961651219 0 0.0076013758966056392 -0.00057454589629959681 0 0.0075296307723675977 -4.2341641117501806e-05 0 0.0078872393054130342 -0.00018607771339271875 0 0.008157627168822592 -0.000264539064115055 0 0.0080441331292064409 4.980867532291404e-05 0 0.0083058868993035519 0.00026813922310401446 0 0.0094614657840423246 0.00050288020420458362 0 0.0092619369693665819 0.00022855318355044654 0 0.0094021783082780894 -0.00012348454300286095 0 0.0086887179447004362 0.00010767167246151951 0 0.011194548667904603 -0.00033292320745565947 0 0.0078872393054130342 -0.00018607771339271875 0 0.008157627168822592 -0.000264539064115055 0 0.0080441331292064409 4.980867532291404e-05 0 0.0094614657840423246 0.00050288020420458362 0 0.0092619369693665819 0.00022855318355044654 0 0.0093715174505372995 0.0005461954544022467 0 0.0089399081258580895 0.00043146878526946546 0 0.0092619369693665819 0.00022855318355044654 0 0.0093715174505372995 0.0005461954544022467 0 0.0088254472827000493 0.00093970404236810834 0 0.0089399081258580895 0.00043146878526946546 0 0.0093380369639043705 0.00086798393540010895 0 0.0089399081258580895 0.00043146878526946546 0 0.0092912645991368361 0.00074405034231236802 0 0.0093715174505372995 0.0005461954544022467 0 0.0088254472827000493 0.00093970404236810834 0 0.0091446441082265496 0.0013197661327891792 0 0.0093380369639043705 0.00086798393540010895 0 0.0086491129060745926 0.00086685307944142198 0 0.0091108791587630605 0.00048975315584204402 0 0.0091211753787503406 0.00053283361555947343 0 0.0086491129060745926 0.00086685307944142198 0 0.0074423235354378345 0.00033518130714133731 0 0.0086887179447004362 0.00010767167246151951 0 0.0078872393054130342 -0.00018607771339271875 0 0.008157627168822592 -0.000264539064115055 0 0.0079193434093925083 -0.00054206191961283026 0 0.0080088024832957495 -0.0008061875757269083 0 0.008157627168822592 -0.000264539064115055 0 0.0079193434093925083 -0.00054206191961283026 0 0.0094717950761451526 0.00082873092856969744 0 0.0094614657840423246 0.00050288020420458362 0 0.0093182658397809003 0.00065393494030575611 0 0.0094614657840423246 0.00050288020420458362 0 0.0093182658397809003 0.00065393494030575611 0 0.0093715174505372995 0.0005461954544022467 0 0.0035772549501732506 -0.0012451784317514931 0 0.0037910986087333481 -0.0011782409547713788 0 0.0037798332337163889 -0.0014236146953393403 0 0.0037910986087333481 -0.0011782409547713788 0 0.0037798332337163889 -0.0014236146953393403 0 0.003926469264581429 -0.0012537150791155868 0 0.0035772549501732506 -0.0012451784317514931 0 0.0037910986087333481 -0.0011782409547713788 0 0.0038038181560032009 -0.00092563057176676673 0 0.0037798332337163889 -0.0014236146953393403 0 0.0040360143513353802 -0.0014531473998202159 0 0.0039203071891845097 -0.0016356431426001743 0 0.0037798332337163889 -0.0014236146953393403 0 0.003926469264581429 -0.0012537150791155868 0 0.0040360143513353802 -0.0014531473998202159 0 0.0035772549501732506 -0.0012451784317514931 0 0.0037798332337163889 -0.0014236146953393403 0 0.0035865082185203329 -0.0014814627485443676 0 0.0037798332337163889 -0.0014236146953393403 0 0.0035865082185203329 -0.0014814627485443676 0 0.0036952576704145758 -0.001616934979844492 0 0.0035749238672568026 -0.0006046435119742593 0 0.0049337948857746065 -0.00066011979353678546 0 0.0038145347763328084 0.00015265258466558366 0 0.0040092601638708975 0.00012153868498457813 0 0.004010705911302097 0.00033187187848418299 0 0.0035772549501732506 -0.0012451784317514931 0 0.0035865082185203329 -0.0014814627485443676 0 0.0033964377668960302 -0.0015072203960247732 0 0.0041444965726173929 0.00021479620911723124 0 0.0040092601638708975 0.00012153868498457813 0 0.004010705911302097 0.00033187187848418299 0 0.0072364740143245941 -0.00026174972952291932 0 0.0068647887075925082 6.0695402953565887e-05 0 0.0070863250586096034 0.00028107861361340513 0 0.005692264254098316 5.8361015854615044e-05 0 0.0049337948857746065 -0.00066011979353678546 0 0.0041359602082949561 8.219796905142027e-05 0 0.0041444965726173929 0.00021479620911723124 0 0.0040092601638708975 0.00012153868498457813 0 0.0038145347763328084 0.00015265258466558366 0 0.0040092601638708975 0.00012153868498457813 0 0.0038839963005840869 -2.055370173888962e-05 0 0.0041359602082949561 8.219796905142027e-05 0 0.0040092601638708975 0.00012153868498457813 0 0.0040675435088749837 -3.0918349110346119e-05 0 0.0040092601638708975 0.00012153868498457813 0 0.0038839963005840869 -2.055370173888962e-05 0 0.0040675435088749837 -3.0918349110346119e-05 0 0.0038839963005840869 -2.055370173888962e-05 0 0.0040675435088749837 -3.0918349110346119e-05 0 0.0039997450701818437 -0.00015373592439741943 0 0.0041492761841844831 -0.00012170051993707219 0 0.0040675435088749837 -3.0918349110346119e-05 0 0.0039997450701818437 -0.00015373592439741943 0 0.0041615039494104378 -0.00023960382637197377 0 0.0041492761841844831 -0.00012170051993707219 0 0.0039997450701818437 -0.00015373592439741943 0 0.0038839963005840869 -2.055370173888962e-05 0 0.0039997450701818437 -0.00015373592439741943 0 0.0037851482133293745 -0.00016546124613771505 0 0.0025140134972429888 0.00042405169413501671 0 0.0031250148110919937 -0.00020747505875271321 0 0.0038839963005840869 -2.055370173888962e-05 0 0.0037851482133293745 -0.00016546124613771505 0 0.0036242130080556402 -2.7915861381106494e-05 0 0.0038145347763328084 0.00015265258466558366 0 0.0038839963005840869 -2.055370173888962e-05 0 0.0036242130080556402 -2.7915861381106494e-05 0 0.0035749238672568026 -0.0006046435119742593 0 0.0031250148110919937 -0.00020747505875271321 0 0.0037910986087333481 -0.0011782409547713788 0 0.0038038181560032009 -0.00092563057176676673 0 0.0039900390499770181 -0.0010387782165528947 0 0.0019649466636785275 -4.0678790890384785e-05 0 0.0019631399857615787 0.00064731051078556468 0 0.00308638872473129 0.00054787536903519614 0 0.0013583995998529205 0.00096178788066825021 0 0.0019649466636785275 -4.0678790890384785e-05 0 0.0019631399857615787 0.00064731051078556468 0 0.0031250148110919937 -0.00020747505875271321 0 0.0029162578704123444 0.00039616819558586783 0 0.0013583995998529205 0.00096178788066825021 0 0.0019631399857615787 0.00064731051078556468 0 0.001918234739294416 0.0012149196001755695 0 0.0019631399857615787 0.00064731051078556468 0 0.001918234739294416 0.0012149196001755695 0 0.00308638872473129 0.00054787536903519614 0 0.0013583995998529205 0.00096178788066825021 0 0.001918234739294416 0.0012149196001755695 0 0.0015908199791400365 0.0012136961872548785 0 0.001918234739294416 0.0012149196001755695 0 0.0016601634769227308 0.0012221456969173275 0 0.0015035084619430881 0.0011896093701547861 0 0.0016601634769227308 0.0012221456969173275 0 0.0015908199791400365 0.0012136961872548785 0 0.0015686697831784656 0.0012426218817455674 0 0.001918234739294416 0.0012149196001755695 0 0.0016601634769227308 0.0012221456969173275 0 0.0015908199791400365 0.0012136961872548785 0 0.0013583995998529205 0.00096178788066825021 0 0.0015908199791400365 0.0012136961872548785 0 0.0012409004021715665 0.0012008076660591199 0 0.0015908199791400365 0.0012136961872548785 0 0.0015376548632294595 0.0012742997744677447 0 0.0012409004021715665 0.0012008076660591199 0 0.0015376548632294595 0.0012742997744677447 0 0.0015394537260839927 0.0012595394098970057 0 0.0015389466240656282 0.001257197196514441 0 0.0015147138398104595 0.0012860285552691536 0 0.0014883964805727885 0.0012764772277298277 0 0.0015376548632294595 0.0012742997744677447 0 0.0015394537260839927 0.0012595394098970057 0 0.0015686697831784656 0.0012426218817455674 0 0.0015394537260839927 0.0012595394098970057 0 0.0015686697831784656 0.0012426218817455674 0 0.0015339926424891971 0.0012580958092680077 0 0.0015686697831784656 0.0012426218817455674 0 0.0015085470423362457 0.0012156375469372397 0 0.0013499474745069591 0.0012307193546339636 0 0.0016601634769227308 0.0012221456969173275 0 0.0015686697831784656 0.0012426218817455674 0 0.0015085470423362457 0.0012156375469372397 0 0.0015908199791400365 0.0012136961872548785 0 0.0015376548632294595 0.0012742997744677447 0 0.0015686697831784656 0.0012426218817455674 0 0.0041615039494104378 -0.00023960382637197377 0 0.0039997450701818437 -0.00015373592439741943 0 0.0039410936628706383 -0.00030326076300953117 0 0.0041247199895725409 -0.00034789519294217561 0 0.0041615039494104378 -0.00023960382637197377 0 0.0039410936628706383 -0.00030326076300953117 0 0.0039997450701818437 -0.00015373592439741943 0 0.0037851482133293745 -0.00016546124613771505 0 0.0039410936628706383 -0.00030326076300953117 0 0.0025140134972429888 0.00042405169413501671 0 0.0026218418344048041 0.00039716828239162619 0 0.0015376548632294595 0.0012742997744677447 0 0.0012409004021715665 0.0012008076660591199 0 0.001390122466650563 0.0013826068269143525 0 0.0012409004021715665 0.0012008076660591199 0 0.0012467977519483415 0.001344618122617136 0 0.001390122466650563 0.0013826068269143525 0 0.0041247199895725409 -0.00034789519294217561 0 0.004101456993205398 -0.00045598561073982168 0 0.0039410936628706383 -0.00030326076300953117 0 0.0025625400640992666 0.00068723627952173359 0 0.0026218418344048041 0.00039716828239162619 0 0.001108173704005812 0.0013558415365474391 0 0.0012409004021715665 0.0012008076660591199 0 0.0012467977519483415 0.001344618122617136 0 0.001108173704005812 0.0013558415365474391 0 0.0012467977519483415 0.001344618122617136 0 0.0012654115025378522 0.0014656213204637485 0 0.0025625400640992666 0.00068723627952173359 0 0.00084620653794966957 0.0011323776186882557 0 0.0016480734095572591 0.0010900515953514555 0 0.0012483291482912192 0.00086041659267375428 0 0.001500355786959994 0.00064339019569619924 0 0.0015345601192533571 0.001253232381129538 0 0.0015389466240656282 0.001257197196514441 0 0.0015347193153317791 0.0012479574982712108 0 0.0012467977519483415 0.001344618122617136 0 0.0012654115025378522 0.0014656213204637485 0 0.001390122466650563 0.0013826068269143525 0 0.00084620653794966957 0.0011323776186882557 0 0.0014883964805727885 0.0012764772277298277 0 -4.8370937173194422e-05 0.00093474119804168548 0 -6.0046564053224235e-06 0.00097878862989095035 0 -0.00010380942417013101 0.00097110224625402254 0 0.00084620653794966957 0.0011323776186882557 0 0.0007135046799039939 0.0011106168326862644 0 1.5997949111501446e-06 0.0010537071171917841 0 -6.0046564053224235e-06 0.00097878862989095035 0 -0.00010380942417013101 0.00097110224625402254 0 2.8802904864526386e-05 0.00089519153301725126 0 -6.0046564053224235e-06 0.00097878862989095035 0 7.477896433327161e-05 0.00099486137226753612 0 0.00084620653794966957 0.0011323776186882557 0 0.00080292112554224788 0.00081217934534248074 0 1.5997949111501446e-06 0.0010537071171917841 0 -6.0046564053224235e-06 0.00097878862989095035 0 7.477896433327161e-05 0.00099486137226753612 0 0.00084413573795134975 0.00078308888932235885 0 0.00080292112554224788 0.00081217934534248074 0 0.0015686697831784656 0.0012426218817455674 0 0.0011896929251261105 0.0012503371891053143 0 0.0013499474745069591 0.0012307193546339636 0 0.0015686697831784656 0.0012426218817455674 0 0.0015339926424891971 0.0012580958092680077 0 0.0015088362999017379 0.0012576414249891464 0 0.0015234334968364409 0.0012469047981122489 0 0.0014159149456166769 0.0012954630786093614 0 0.0015339926424891971 0.0012580958092680077 0 0.0015249046439046222 0.0012482374164516372 0 0.0015088362999017379 0.0012576414249891464 0 0.0015394537260839927 0.0012595394098970057 0 0.0015389466240656282 0.001257197196514441 0 0.0015339926424891971 0.0012580958092680077 0 0.0015389466240656282 0.001257197196514441 0 0.0015339926424891971 0.0012580958092680077 0 0.0015347193153317791 0.0012479574982712108 0 0.0015339926424891971 0.0012580958092680077 0 0.0015347193153317791 0.0012479574982712108 0 0.0015249046439046222 0.0012482374164516372 0 -4.7266768749345693e-05 0.00094792591600640274 0 -0.00011069767224787999 0.00094715753171957908 0 -0.00010380942417013101 0.00097110224625402254 0 -0.00011069767224787999 0.00094715753171957908 0 -4.8370937173194422e-05 0.00093474119804168548 0 -0.00010380942417013101 0.00097110224625402254 0 0.00071269373710040613 0.0010692781436031315 0 0.0007135046799039939 0.0011106168326862644 0 0.0015157286446185409 0.0012234486992599041 0 0.0015249046439046222 0.0012482374164516372 0 0.0015088362999017379 0.0012576414249891464 0 0.0015157286446185409 0.0012234486992599041 0 0.0015347193153317791 0.0012479574982712108 0 0.0015249046439046222 0.0012482374164516372 0 0.00085793223595863777 0.0012579270092130115 0 0.0014159149456166769 0.0012954630786093614 0 0.0011896929251261105 0.0012503371891053143 0 0.001168920206328162 0.001262251932730839 0 0.001054254264232612 0.0013431296650069033 0 0.00090154291245308626 0.0014557526226127555 0 0.0011896929251261105 0.0012503371891053143 0 0.001054254264232612 0.0013431296650069033 0 0.0011896929251261105 0.0012503371891053143 0 0.001168920206328162 0.001262251932730839 0 0.0013499474745069591 0.0012307193546339636 0 0.001168920206328162 0.001262251932730839 0 0.0013499474745069591 0.0012307193546339636 0 0.0012686927147815164 0.0012055858589603791 0 0.001168920206328162 0.001262251932730839 0 0.0011651311338734 0.0012598582667180116 0 0.0012686927147815164 0.0012055858589603791 0 0.001168920206328162 0.001262251932730839 0 0.0010573960643432295 0.0013562413150837501 0 0.0011651311338734 0.0012598582667180116 0 0.0009516115253527022 0.0014304621044963651 0 0.001054254264232612 0.0013431296650069033 0 0.0010573960643432295 0.0013562413150837501 0 0.001168920206328162 0.001262251932730839 0 0.001054254264232612 0.0013431296650069033 0 0.0010573960643432295 0.0013562413150837501 0 0.0010573960643432295 0.0013562413150837501 0 0.0010904852306312777 0.0013994365952365001 0 0.0011438744735896564 0.0013214827867015042 0 0.00099090734334714961 0.0014585672546020001 0 0.0010573960643432295 0.0013562413150837501 0 0.0010904852306312777 0.0013994365952365001 0 0.0010904852306312777 0.0013994365952365001 0 0.0011952706575612876 0.0013419470946277648 0 0.0012098681586187093 0.0014430833046353781 0 0.0010459387867892125 0.001490510730301401 0 0.0010904852306312777 0.0013994365952365001 0 0.0012098681586187093 0.0014430833046353781 0 0.0010904852306312777 0.0013994365952365001 0 0.0011952706575612876 0.0013419470946277648 0 0.0011438744735896564 0.0013214827867015042 0 0.0011438744735896564 0.0013214827867015042 0 0.0011651311338734 0.0012598582667180116 0 0.0012191654065159545 0.0012610416777082234 0 0.0011952706575612876 0.0013419470946277648 0 0.0011438744735896564 0.0013214827867015042 0 0.0012191654065159545 0.0012610416777082234 0 0.0010573960643432295 0.0013562413150837501 0 0.0011438744735896564 0.0013214827867015042 0 0.0011651311338734 0.0012598582667180116 0 0.0011651311338734 0.0012598582667180116 0 0.0012079258141529682 0.0012082051294864007 0 0.0012686927147815164 0.0012055858589603791 0 0.0011651311338734 0.0012598582667180116 0 0.0012079258141529682 0.0012082051294864007 0 0.0012191654065159545 0.0012610416777082234 0 0.0012079258141529682 0.0012082051294864007 0 0.0012191654065159545 0.0012610416777082234 0 0.0012560393609855804 0.001176985682540534 0 0.0012560393609855804 0.001176985682540534 0 0.0012257390535699499 0.0011755994755929141 0 0.0012423271221193642 0.001093234713041271 0 0.0012079258141529682 0.0012082051294864007 0 0.0012560393609855804 0.001176985682540534 0 0.0012257390535699499 0.0011755994755929141 0 0.0012079258141529682 0.0012082051294864007 0 0.0012257390535699499 0.0011755994755929141 0 0.0012303255328198041 0.0011954382012102473 0 0.001323269285054581 0.0012019404479107856 0 0.0015035084619430881 0.0011896093701547861 0 0.0012686927147815164 0.0012055858589603791 0 0.0012079258141529682 0.0012082051294864007 0 0.001323269285054581 0.0012019404479107856 0 0.0012303255328198041 0.0011954382012102473 0 0.001918234739294416 0.0012149196001755695 0 0.001323269285054581 0.0012019404479107856 0 0.0015035084619430881 0.0011896093701547861 0 0.0015035084619430881 0.0011896093701547861 0 0.0015085470423362457 0.0012156375469372397 0 0.0013499474745069591 0.0012307193546339636 0 0.0015035084619430881 0.0011896093701547861 0 0.0013499474745069591 0.0012307193546339636 0 0.0012686927147815164 0.0012055858589603791 0 0.0016601634769227308 0.0012221456969173275 0 0.0015035084619430881 0.0011896093701547861 0 0.0015085470423362457 0.0012156375469372397 0 0.0012079258141529682 0.0012082051294864007 0 0.001323269285054581 0.0012019404479107856 0 0.0012686927147815164 0.0012055858589603791 0 0.0019041006417393404 0.001443445661159412 0 0.0017187435423918959 0.0014232352732294641 0 0.0018598916107634012 0.0013322504581854348 0 0.0017187435423918959 0.0014232352732294641 0 0.0017797602845570526 0.0015236704523623372 0 0.0015741561539870943 0.0015101609621424002 0 0.0019041006417393404 0.001443445661159412 0 0.0017187435423918959 0.0014232352732294641 0 0.0017797602845570526 0.0015236704523623372 0 0.0017187435423918959 0.0014232352732294641 0 0.0015741561539870943 0.0015101609621424002 0 0.0014970959023193535 0.0014028204127245203 0 0.0015741561539870943 0.0015101609621424002 0 0.0014970959023193535 0.0014028204127245203 0 0.0014041440475314148 0.0014950698652820334 0 0.0014970959023193535 0.0014028204127245203 0 0.0014603500695140013 0.0013128512880755032 0 0.0016274439932203405 0.0013292993373169397 0 0.0017187435423918959 0.0014232352732294641 0 0.0014970959023193535 0.0014028204127245203 0 0.0016274439932203405 0.0013292993373169397 0 0.0014970959023193535 0.0014028204127245203 0 0.001343192742834252 0.0014211363496697579 0 0.0013178183853129488 0.0013431916655981938 0 0.0014970959023193535 0.0014028204127245203 0 0.0013178183853129488 0.0013431916655981938 0 0.0014603500695140013 0.0013128512880755032 0 0.001343192742834252 0.0014211363496697579 0 0.0014041440475314148 0.0014950698652820334 0 0.0012098681586187093 0.0014430833046353781 0 0.0014970959023193535 0.0014028204127245203 0 0.001343192742834252 0.0014211363496697579 0 0.0014041440475314148 0.0014950698652820334 0 0.0011952706575612876 0.0013419470946277648 0 0.0012098681586187093 0.0014430833046353781 0 0.0013178183853129488 0.0013431916655981938 0 0.001343192742834252 0.0014211363496697579 0 0.0012098681586187093 0.0014430833046353781 0 0.0013178183853129488 0.0013431916655981938 0 0.0011952706575612876 0.0013419470946277648 0 0.0012191654065159545 0.0012610416777082234 0 0.0013178183853129488 0.0013431916655981938 0 0.0012191654065159545 0.0012610416777082234 0 0.0013178183853129488 0.0013431916655981938 0 0.0013515647357320848 0.0012471280439631922 0 0.0012191654065159545 0.0012610416777082234 0 0.0012560393609855804 0.001176985682540534 0 0.0013515647357320848 0.0012471280439631922 0 0.0012560393609855804 0.001176985682540534 0 0.0013515647357320848 0.0012471280439631922 0 0.0013982106589327894 0.0011489439657961127 0 0.0012560393609855804 0.001176985682540534 0 0.0013982106589327894 0.0011489439657961127 0 0.0013292386859621642 0.0010480519379603476 0 0.0013515647357320848 0.0012471280439631922 0 0.0013982106589327894 0.0011489439657961127 0 0.001524770513628606 0.0012344195620923944 0 0.0013982106589327894 0.0011489439657961127 0 0.001524770513628606 0.0012344195620923944 0 0.0016169344172897659 0.0011121686072011136 0 0.0013515647357320848 0.0012471280439631922 0 0.001524770513628606 0.0012344195620923944 0 0.0014603500695140013 0.0013128512880755032 0 0.0013178183853129488 0.0013431916655981938 0 0.0013515647357320848 0.0012471280439631922 0 0.0014603500695140013 0.0013128512880755032 0 0.001524770513628606 0.0012344195620923944 0 0.0014603500695140013 0.0013128512880755032 0 0.0016274439932203405 0.0013292993373169397 0 0.001524770513628606 0.0012344195620923944 0 0.0016274439932203405 0.0013292993373169397 0 0.0016961906804004354 0.001245691699073356 0 0.0016169344172897659 0.0011121686072011136 0 0.0016961906804004354 0.001245691699073356 0 0.0018483909597004 0.0011900527471251034 0 0.001524770513628606 0.0012344195620923944 0 0.0016169344172897659 0.0011121686072011136 0 0.0016961906804004354 0.001245691699073356 0 0.0020345418299589188 0.0012847935180221198 0 0.0018483909597004 0.0011900527471251034 0 0.0018598916107634012 0.0013322504581854348 0 0.0016961906804004354 0.001245691699073356 0 0.0018483909597004 0.0011900527471251034 0 0.0018598916107634012 0.0013322504581854348 0 0.0020345418299589188 0.0012847935180221198 0 0.0020457637460194775 0.0011428890710481875 0 0.0018483909597004 0.0011900527471251034 0 0.0017187435423918959 0.0014232352732294641 0 0.0016274439932203405 0.0013292993373169397 0 0.0018598916107634012 0.0013322504581854348 0 0.0016274439932203405 0.0013292993373169397 0 0.0016961906804004354 0.001245691699073356 0 0.0018598916107634012 0.0013322504581854348 0 0.0022307379017484788 0.00092725729263440782 0 0.0019210590722370214 0.00075050997302270397 0 0.0018445699091381048 0.000969852459292575 0 0.0022307379017484788 0.00092725729263440782 0 0.0019210590722370214 0.00075050997302270397 0 0.0020387813455947754 0.00044418510752564734 0 0.001789365724115871 0.00056209467889292979 0 0.0019210590722370214 0.00075050997302270397 0 0.0020387813455947754 0.00044418510752564734 0 0.001789365724115871 0.00056209467889292979 0 0.0019210590722370214 0.00075050997302270397 0 0.0017554143327452954 0.00078684426796655756 0 0.0019210590722370214 0.00075050997302270397 0 0.0018445699091381048 0.000969852459292575 0 0.0017554143327452954 0.00078684426796655756 0 0.0016169344172897659 0.0011121686072011136 0 0.0018483909597004 0.0011900527471251034 0 0.0018445699091381048 0.000969852459292575 0 0.0020457637460194775 0.0011428890710481875 0 0.0018483909597004 0.0011900527471251034 0 0.0018445699091381048 0.000969852459292575 0 0.0016169344172897659 0.0011121686072011136 0 0.0016246583489955473 0.00090497696119228933 0 0.0014649729459317448 0.00099105850595239235 0 0.0016169344172897659 0.0011121686072011136 0 0.0018445699091381048 0.000969852459292575 0 0.0016246583489955473 0.00090497696119228933 0 0.0016246583489955473 0.00090497696119228933 0 0.0016204358806462262 0.00071270500240680403 0 0.0014912404755936743 0.00081552692119841422 0 0.0016246583489955473 0.00090497696119228933 0 0.0017554143327452954 0.00078684426796655756 0 0.0016204358806462262 0.00071270500240680403 0 0.0018445699091381048 0.000969852459292575 0 0.0016246583489955473 0.00090497696119228933 0 0.0017554143327452954 0.00078684426796655756 0 0.001789365724115871 0.00056209467889292979 0 0.0017554143327452954 0.00078684426796655756 0 0.0016204358806462262 0.00071270500240680403 0 0.001789365724115871 0.00056209467889292979 0 0.0016204358806462262 0.00071270500240680403 0 0.0016447062862604809 0.00051170544655649978 0 0.0016204358806462262 0.00071270500240680403 0 0.0015009666826001048 0.00062753452719226924 0 0.0016447062862604809 0.00051170544655649978 0 0.0016204358806462262 0.00071270500240680403 0 0.0014912404755936743 0.00081552692119841422 0 0.0015009666826001048 0.00062753452719226924 0 0.001420574000888225 0.00075924064041376293 0 0.0013263984526987042 0.00071498628901191762 0 0.0015009666826001048 0.00062753452719226924 0 0.001420574000888225 0.00075924064041376293 0 0.0014912404755936743 0.00081552692119841422 0 0.0015009666826001048 0.00062753452719226924 0 0.001420574000888225 0.00075924064041376293 0 0.0013793365024790808 0.0008800117323043209 0 0.0013263984526987042 0.00071498628901191762 0 0.001420574000888225 0.00075924064041376293 0 0.0013793365024790808 0.0008800117323043209 0 0.0014912404755936743 0.00081552692119841422 0 0.0013793365024790808 0.0008800117323043209 0 0.0014912404755936743 0.00081552692119841422 0 0.0014649729459317448 0.00099105850595239235 0 0.0013982106589327894 0.0011489439657961127 0 0.0016169344172897659 0.0011121686072011136 0 0.0014649729459317448 0.00099105850595239235 0 0.0013982106589327894 0.0011489439657961127 0 0.0014649729459317448 0.00099105850595239235 0 0.0013292386859621642 0.0010480519379603476 0 0.0016246583489955473 0.00090497696119228933 0 0.0014912404755936743 0.00081552692119841422 0 0.0014649729459317448 0.00099105850595239235 0 0.0013793365024790808 0.0008800117323043209 0 0.0014649729459317448 0.00099105850595239235 0 0.0013292386859621642 0.0010480519379603476 0 0.0013793365024790808 0.0008800117323043209 0 0.0013292386859621642 0.0010480519379603476 0 0.0012888820342133523 0.00095972820033104122 0 0.0013292386859621642 0.0010480519379603476 0 0.0012888820342133523 0.00095972820033104122 0 0.0012423271221193642 0.001093234713041271 0 0.0012888820342133523 0.00095972820033104122 0 0.0013263984526987042 0.00071498628901191762 0 0.0012136709506071653 0.001033616483790726 0 0.0013793365024790808 0.0008800117323043209 0 0.0012888820342133523 0.00095972820033104122 0 0.0013263984526987042 0.00071498628901191762 0 0.0058263280417993344 -0.00099605859210528491 0 0.0057597378598143829 -0.0010932070868890831 0 0.0056244978166808436 -0.00099516920439659813 0 0.0058263280417993344 -0.00099605859210528491 0 0.0057597378598143829 -0.0010932070868890831 0 0.0058227290226847044 -0.0010337176794073906 0 0.0057597378598143829 -0.0010932070868890831 0 0.0057036705980074561 -0.0012355013089054051 0 0.0056106662381895404 -0.0011773031432489331 0 0.0057036705980074561 -0.0012355013089054051 0 0.0058346009406874001 -0.0011657535538571705 0 0.0057509209893507555 -0.0014156825782202607 0 0.0057597378598143829 -0.0010932070868890831 0 0.0057036705980074561 -0.0012355013089054051 0 0.0058346009406874001 -0.0011657535538571705 0 0.0057597378598143829 -0.0010932070868890831 0 0.0058346009406874001 -0.0011657535538571705 0 0.0058227290226847044 -0.0010337176794073906 0 0.0058346009406874001 -0.0011657535538571705 0 0.005886572540959617 -0.0011298718117615963 0 0.0058227290226847044 -0.0010337176794073906 0 0.0058605014595599645 -0.0010352762349502432 0 0.00573745418785506 -0.0011038405887698762 0 0.005886572540959617 -0.0011298718117615963 0 0.0058227290226847044 -0.0010337176794073906 0 0.0059597442405605709 -0.0011062677043568608 0 0.0058346009406874001 -0.0011657535538571705 0 0.005886572540959617 -0.0011298718117615963 0 0.0058718921215655615 -0.0011735514939942321 0 0.0058263280417993344 -0.00099605859210528491 0 0.0058227290226847044 -0.0010337176794073906 0 0.0057613831227611599 -0.00103869623321611 0 0.0013263984526987042 0.00071498628901191762 0 0.0015009666826001048 0.00062753452719226924 0 0.001590284000056331 0.00027728400743743563 0 0.0036238018735361716 -0.00014115890324952233 0 0.0034832268984502034 -0.00042093038122375213 0 0.0058227290226847044 -0.0010337176794073906 0 0.0057613831227611599 -0.00103869623321611 0 0.0057461412402351891 -0.00099848128165032422 0 0.0015009666826001048 0.00062753452719226924 0 0.0016447062862604809 0.00051170544655649978 0 0.001590284000056331 0.00027728400743743563 0 0.001789365724115871 0.00056209467889292979 0 0.0016447062862604809 0.00051170544655649978 0 0.0017691377779418605 0.00035896041151467598 0 0.0016447062862604809 0.00051170544655649978 0 0.0017691377779418605 0.00035896041151467598 0 0.001590284000056331 0.00027728400743743563 0 0.0017691377779418605 0.00035896041151467598 0 0.001590284000056331 0.00027728400743743563 0 0.00195187134717283 0.00010067655883296029 0 0.005886572540959617 -0.0011298718117615963 0 0.0059349753214245973 -0.0011388124047887881 0 0.0059111584982164487 -0.0011692424557944688 0 0.005886572540959617 -0.0011298718117615963 0 0.0059349753214245973 -0.0011388124047887881 0 0.0059597442405605709 -0.0011062677043568608 0 0.0059349753214245973 -0.0011388124047887881 0 0.0059597442405605709 -0.0011062677043568608 0 0.0059778202823084943 -0.0011434917309752284 0 0.0055580300355070333 -0.00094837516705954968 0 0.0057613831227611599 -0.00103869623321611 0 0.0057461412402351891 -0.00099848128165032422 0 0.0055580300355070333 -0.00094837516705954968 0 0.0057461412402351891 -0.00099848128165032422 0 0.0055856762979449208 -0.00091914037957652346 0 0.0022255776665723276 -0.00038791884731909749 0 0.001590284000056331 0.00027728400743743563 0 0.00195187134717283 0.00010067655883296029 0 0.0059597442405605709 -0.0011062677043568608 0 0.0059778202823084943 -0.0011434917309752284 0 0.0060337204096435502 -0.0011298633078321596 0 0.00573745418785506 -0.0011038405887698762 0 0.0066254151949700132 -8.8815325272039361e-05 0 0.0049427006065045458 -0.00023177870602173473 0 0.0034832268984502034 -0.00042093038122375213 0 0.0022255776665723276 -0.00038791884731909749 0 0.0021313762421741886 -3.3465614842225668e-05 0 0.00195187134717283 0.00010067655883296029 0 0.0022389895139374645 4.3405686907079511e-05 0 0.0021313762421741886 -3.3465614842225668e-05 0 0.0020821771040674402 0.00020573052469686188 0 0.0020821771040674402 0.00020573052469686188 0 0.00195187134717283 0.00010067655883296029 0 0.0019169339194998491 0.00032015105539401562 0 0.0021313762421741886 -3.3465614842225668e-05 0 0.0020821771040674402 0.00020573052469686188 0 0.00195187134717283 0.00010067655883296029 0 0.0017691377779418605 0.00035896041151467598 0 0.00195187134717283 0.00010067655883296029 0 0.0019169339194998491 0.00032015105539401562 0 0.001789365724115871 0.00056209467889292979 0 0.0019169339194998491 0.00032015105539401562 0 0.0020387813455947754 0.00044418510752564734 0 0.001789365724115871 0.00056209467889292979 0 0.0017691377779418605 0.00035896041151467598 0 0.0019169339194998491 0.00032015105539401562 0 0.0020821771040674402 0.00020573052469686188 0 0.0019169339194998491 0.00032015105539401562 0 0.0020387813455947754 0.00044418510752564734 0 0.0046245544631374159 -0.00063225946646638758 0 0.0047222771445467274 0.0002903986587651443 0 0.0051071354001560997 -0.00065172363284909842 0 0.0046245544631374159 -0.00063225946646638758 0 0.0040372775585956712 -0.00022411941770537726 0 0.0047222771445467274 0.0002903986587651443 0 0.0046245544631374159 -0.00063225946646638758 0 0.0051071354001560997 -0.00065172363284909842 0 0.0050720522524742902 -0.0010766807190781861 0 0.0046245544631374159 -0.00063225946646638758 0 0.0041656541426253494 -0.00069145549083790895 0 0.0044926141843936659 -0.0010611699777580733 0 0.0046245544631374159 -0.00063225946646638758 0 0.0041656541426253494 -0.00069145549083790895 0 0.0040372775585956712 -0.00022411941770537726 0 0.0041656541426253494 -0.00069145549083790895 0 0.0035211020545289121 -0.00033629581736026098 0 0.0039900390499770181 -0.0010387782165528947 0 0.002678648682774397 -0.0003119573586675712 0 0.0035211020545289121 -0.00033629581736026098 0 0.0039900390499770181 -0.0010387782165528947 0 0.0031250148110919937 -0.00020747505875271321 0 0.0039662333226626739 -0.0011143080749470772 0 0.002678648682774397 -0.0003119573586675712 0 0.0035211020545289121 -0.00033629581736026098 0 0.00308638872473129 0.00054787536903519614 0 0.0041656541426253494 -0.00069145549083790895 0 0.0035211020545289121 -0.00033629581736026098 0 0.0040372775585956712 -0.00022411941770537726 0 0.0040372775585956712 -0.00022411941770537726 0 0.00308638872473129 0.00054787536903519614 0 0.0047222771445467274 0.0002903986587651443 0 0.0020044893233263613 0.0011985839369590557 0 0.002977725856173832 0.00077386790023912849 0 0.001918234739294416 0.0012149196001755695 0 0.00308638872473129 0.00054787536903519614 0 0.0047222771445467274 0.0002903986587651443 0 0.001918234739294416 0.0012149196001755695 0 0.001323269285054581 0.0012019404479107856 0 0.0013008915107241969 0.0013126761031145124 0 0.0035211020545289121 -0.00033629581736026098 0 0.0040372775585956712 -0.00022411941770537726 0 0.00308638872473129 0.00054787536903519614 0 0.001323269285054581 0.0012019404479107856 0 0.0013008915107241969 0.0013126761031145124 0 0.0012303255328198041 0.0011954382012102473 0 0.0012257390535699499 0.0011755994755929141 0 0.0012303255328198041 0.0011954382012102473 0 0.0012423271221193642 0.001093234713041271 0 0.0012303255328198041 0.0011954382012102473 0 0.0012423271221193642 0.001093234713041271 0 0.0012136709506071653 0.001033616483790726 0 0.0013008915107241969 0.0013126761031145124 0 0.0012303255328198041 0.0011954382012102473 0 0.0012136709506071653 0.001033616483790726 0 0.0012560393609855804 0.001176985682540534 0 0.0013292386859621642 0.0010480519379603476 0 0.0012423271221193642 0.001093234713041271 0 0.0012888820342133523 0.00095972820033104122 0 0.0012423271221193642 0.001093234713041271 0 0.0012136709506071653 0.001033616483790726 0 0.0058263280417993344 -0.00099605859210528491 0 0.0055858627821417121 -0.00062797428702585892 0 0.0056244978166808436 -0.00099516920439659813 0 0.0036238018735361716 -0.00014115890324952233 0 0.0033892107170344272 0.00022284016901688084 0 0.0055858627821417121 -0.00062797428702585892 0 0.0053765095743095173 -0.00090253461177433874 0 0.0056244978166808436 -0.00099516920439659813 0 0.002977725856173832 0.00077386790023912849 0 0.0033892107170344272 0.00022284016901688084 0 0.0047222771445467274 0.0002903986587651443 0 0.0055858627821417121 -0.00062797428702585892 0 0.0051071354001560997 -0.00065172363284909842 0 0.0055858627821417121 -0.00062797428702585892 0 0.0051071354001560997 -0.00065172363284909842 0 0.0053765095743095173 -0.00090253461177433874 0 0.0051071354001560997 -0.00065172363284909842 0 0.0053765095743095173 -0.00090253461177433874 0 0.0050720522524742902 -0.0010766807190781861 0 0.0053765095743095173 -0.00090253461177433874 0 0.0054127060905942073 -0.0011371519655886356 0 0.0050720522524742902 -0.0010766807190781861 0 0.0053765095743095173 -0.00090253461177433874 0 0.0054127060905942073 -0.0011371519655886356 0 0.0056244978166808436 -0.00099516920439659813 0 0.0054127060905942073 -0.0011371519655886356 0 0.005246777322104405 -0.0013393558638988502 0 0.0050720522524742902 -0.0010766807190781861 0 0.0054127060905942073 -0.0011371519655886356 0 0.0056244978166808436 -0.00099516920439659813 0 0.0056106662381895404 -0.0011773031432489331 0 0.0057597378598143829 -0.0010932070868890831 0 0.0056244978166808436 -0.00099516920439659813 0 0.0056106662381895404 -0.0011773031432489331 0 0.0054127060905942073 -0.0011371519655886356 0 0.0056106662381895404 -0.0011773031432489331 0 0.005460611683844336 -0.0012913929786063931 0 0.005460611683844336 -0.0012913929786063931 0 0.0054661895868613822 -0.0014071595948789649 0 0.0055686709481026705 -0.001355604476585795 0 0.0056106662381895404 -0.0011773031432489331 0 0.005460611683844336 -0.0012913929786063931 0 0.0055686709481026705 -0.001355604476585795 0 0.0057036705980074561 -0.0012355013089054051 0 0.0056106662381895404 -0.0011773031432489331 0 0.0055686709481026705 -0.001355604476585795 0 0.0054127060905942073 -0.0011371519655886356 0 0.005246777322104405 -0.0013393558638988502 0 0.005460611683844336 -0.0012913929786063931 0 0.005460611683844336 -0.0012913929786063931 0 0.0053592431588583324 -0.0014576530310287431 0 0.0054661895868613822 -0.0014071595948789649 0 0.005246777322104405 -0.0013393558638988502 0 0.005460611683844336 -0.0012913929786063931 0 0.0053592431588583324 -0.0014576530310287431 0 0.005246777322104405 -0.0013393558638988502 0 0.0052718914090080339 -0.0014306698536615094 0 0.0053592431588583324 -0.0014576530310287431 0 0.005246777322104405 -0.0013393558638988502 0 0.0052718914090080339 -0.0014306698536615094 0 0.0051555958376160015 -0.0014195850618339864 0 0.0052718914090080339 -0.0014306698536615094 0 0.0051555958376160015 -0.0014195850618339864 0 0.0053094779634458621 -0.0014925126196316269 0 0.0051555958376160015 -0.0014195850618339864 0 0.0049750503042166709 -0.0013023676623613617 0 0.0050897969114842428 -0.0014091583661082722 0 0.005246777322104405 -0.0013393558638988502 0 0.0051555958376160015 -0.0014195850618339864 0 0.0049750503042166709 -0.0013023676623613617 0 0.005246777322104405 -0.0013393558638988502 0 0.0049750503042166709 -0.0013023676623613617 0 0.0050720522524742902 -0.0010766807190781861 0 0.0049750503042166709 -0.0013023676623613617 0 0.0044926141843936659 -0.0010611699777580733 0 0.0050720522524742902 -0.0010766807190781861 0 0.0046245544631374159 -0.00063225946646638758 0 0.0044926141843936659 -0.0010611699777580733 0 0.0050720522524742902 -0.0010766807190781861 0 0.0044926141843936659 -0.0010611699777580733 0 0.003926469264581429 -0.0012537150791155868 0 0.0040360143513353802 -0.0014531473998202159 0 0.0045639117480834957 -0.0010590192955016705 0 0.0045337837668755834 -0.0013540800568241015 0 0.0037910986087333481 -0.0011782409547713788 0 0.0039900390499770181 -0.0010387782165528947 0 0.003926469264581429 -0.0012537150791155868 0 0.0049750503042166709 -0.0013023676623613617 0 0.0044926141843936659 -0.0010611699777580733 0 0.0050897969114842428 -0.0014091583661082722 0 0.0041656541426253494 -0.00069145549083790895 0 0.0044926141843936659 -0.0010611699777580733 0 0.0039900390499770181 -0.0010387782165528947 0 0.0044926141843936659 -0.0010611699777580733 0 0.0039900390499770181 -0.0010387782165528947 0 0.003926469264581429 -0.0012537150791155868 0 0.0045337837668755834 -0.0013540800568241015 0 0.0054248186618450957 -0.0019874630198539567 0 0.0051555958376160015 -0.0014195850618339864 0 0.0050897969114842428 -0.0014091583661082722 0 0.0052714663153450667 -0.0014959907539725812 0 0.0050897969114842428 -0.0014091583661082722 0 0.0052714663153450667 -0.0014959907539725812 0 0.0053994058678815508 -0.0015827777864626019 0 0.0050897969114842428 -0.0014091583661082722 0 0.0053994058678815508 -0.0015827777864626019 0 0.0053630696832938961 -0.001586276801587318 0 0.0052714663153450667 -0.0014959907539725812 0 0.0054008052279041667 -0.001548419112674927 0 0.0053994058678815508 -0.0015827777864626019 0 0.0054008052279041667 -0.001548419112674927 0 0.0054907213118736272 -0.0015756142234331755 0 0.0053994058678815508 -0.0015827777864626019 0 0.0054008052279041667 -0.001548419112674927 0 0.0054907213118736272 -0.0015756142234331755 0 0.0054780257207909166 -0.0015448970995101761 0 0.0055065255222580371 -0.0015903594729562065 0 0.0056061473521682986 -0.0015911931479790447 0 0.0055682572695642078 -0.0016300566158089819 0 0.0053994058678815508 -0.0015827777864626019 0 0.0055065255222580371 -0.0015903594729562065 0 0.0055682572695642078 -0.0016300566158089819 0 0.0054333265706803316 -0.0018511364032961302 0 0.0054248186618450957 -0.0019874630198539567 0 0.0054907213118736272 -0.0015756142234331755 0 0.0055065255222580371 -0.0015903594729562065 0 0.0056061473521682986 -0.0015911931479790447 0 0.0054907213118736272 -0.0015756142234331755 0 0.0053994058678815508 -0.0015827777864626019 0 0.0055065255222580371 -0.0015903594729562065 0 0.0056061473521682986 -0.0015911931479790447 0 0.0057250526384067012 -0.0015742243021926996 0 0.0057751315463902319 -0.0016036894934298176 0 0.0056061473521682986 -0.0015911931479790447 0 0.0055739190697239021 -0.0015586991478567706 0 0.0057250526384067012 -0.0015742243021926996 0 0.0054907213118736272 -0.0015756142234331755 0 0.0056061473521682986 -0.0015911931479790447 0 0.0055739190697239021 -0.0015586991478567706 0 0.0055739190697239021 -0.0015586991478567706 0 0.0055532505789118499 -0.0015187229791110799 0 0.0054780257207909166 -0.0015448970995101761 0 0.0054907213118736272 -0.0015756142234331755 0 0.0055739190697239021 -0.0015586991478567706 0 0.0054780257207909166 -0.0015448970995101761 0 0.0055739190697239021 -0.0015586991478567706 0 0.0056437547539546305 -0.0015322963913942695 0 0.0055532505789118499 -0.0015187229791110799 0 0.0056437547539546305 -0.0015322963913942695 0 0.0055532505789118499 -0.0015187229791110799 0 0.005639725640207309 -0.0014887749994632708 0 0.0056437547539546305 -0.0015322963913942695 0 0.0057250526384067012 -0.0015742243021926996 0 0.0057534170720040228 -0.001511535443630842 0 0.0055739190697239021 -0.0015586991478567706 0 0.0056437547539546305 -0.0015322963913942695 0 0.0057250526384067012 -0.0015742243021926996 0 0.0055178309536104211 -0.0014835896598737251 0 0.0055532505789118499 -0.0015187229791110799 0 0.0054726531635753634 -0.0015149250741588194 0 0.0055178309536104211 -0.0014835896598737251 0 0.0054726531635753634 -0.0015149250741588194 0 0.0054800969653172682 -0.0014869460712295599 0 0.0055178309536104211 -0.0014835896598737251 0 0.0055532505789118499 -0.0015187229791110799 0 0.0055789419380768996 -0.0014585063106592252 0 0.0054780257207909166 -0.0015448970995101761 0 0.0054726531635753634 -0.0015149250741588194 0 0.0054048708944768034 -0.0015219849299320908 0 0.0055532505789118499 -0.0015187229791110799 0 0.0054780257207909166 -0.0015448970995101761 0 0.0054726531635753634 -0.0015149250741588194 0 0.0054726531635753634 -0.0015149250741588194 0 0.0054048708944768034 -0.0015219849299320908 0 0.0054381107212837796 -0.0015017515928297171 0 0.0054048708944768034 -0.0015219849299320908 0 0.0053592431588583324 -0.0014576530310287431 0 0.0054381107212837796 -0.0015017515928297171 0 0.0054008052279041667 -0.001548419112674927 0 0.0054048708944768034 -0.0015219849299320908 0 0.0053094779634458621 -0.0014925126196316269 0 0.0054008052279041667 -0.001548419112674927 0 0.0054780257207909166 -0.0015448970995101761 0 0.0054048708944768034 -0.0015219849299320908 0 0.0051555958376160015 -0.0014195850618339864 0 0.0052714663153450667 -0.0014959907539725812 0 0.0053094779634458621 -0.0014925126196316269 0 0.0052714663153450667 -0.0014959907539725812 0 0.0054008052279041667 -0.001548419112674927 0 0.0053094779634458621 -0.0014925126196316269 0 0.0052718914090080339 -0.0014306698536615094 0 0.0053094779634458621 -0.0014925126196316269 0 0.0053592431588583324 -0.0014576530310287431 0 0.0054048708944768034 -0.0015219849299320908 0 0.0053094779634458621 -0.0014925126196316269 0 0.0053592431588583324 -0.0014576530310287431 0 0.0053592431588583324 -0.0014576530310287431 0 0.0054661895868613822 -0.0014071595948789649 0 0.0054473023500208693 -0.0014792823923055845 0 0.0054473023500208693 -0.0014792823923055845 0 0.0054997329971213206 -0.0014606353983047486 0 0.0054818520892549521 -0.0014796401934686744 0 0.0054661895868613822 -0.0014071595948789649 0 0.0054473023500208693 -0.0014792823923055845 0 0.0054997329971213206 -0.0014606353983047486 0 0.0053592431588583324 -0.0014576530310287431 0 0.0054473023500208693 -0.0014792823923055845 0 0.0054381107212837796 -0.0015017515928297171 0 0.0054661895868613822 -0.0014071595948789649 0 0.0055686709481026705 -0.001355604476585795 0 0.0054997329971213206 -0.0014606353983047486 0 0.0055686709481026705 -0.001355604476585795 0 0.0054997329971213206 -0.0014606353983047486 0 0.0055386297708470448 -0.0014878465531198673 0 0.0054997329971213206 -0.0014606353983047486 0 0.0055386297708470448 -0.0014878465531198673 0 0.0054980945874254211 -0.0014728457138570054 0 0.0055386297708470448 -0.0014878465531198673 0 0.0054980945874254211 -0.0014728457138570054 0 0.0054332885264831588 -0.0014584568541548184 0 0.0054997329971213206 -0.0014606353983047486 0 0.0054980945874254211 -0.0014728457138570054 0 0.0054818520892549521 -0.0014796401934686744 0 0.0054980945874254211 -0.0014728457138570054 0 0.0054818520892549521 -0.0014796401934686744 0 0.0054998657176655117 -0.001435030414704409 0 0.0054980945874254211 -0.0014728457138570054 0 0.0054998657176655117 -0.001435030414704409 0 0.0054721437424479083 -0.0014093193438622033 0 0.0054980945874254211 -0.0014728457138570054 0 0.0054721437424479083 -0.0014093193438622033 0 0.0054332885264831588 -0.0014584568541548184 0 0.0054473023500208693 -0.0014792823923055845 0 0.0054381107212837796 -0.0015017515928297171 0 0.0054800969653172682 -0.0014869460712295599 0 0.0054726531635753634 -0.0015149250741588194 0 0.0054381107212837796 -0.0015017515928297171 0 0.0054800969653172682 -0.0014869460712295599 0 0.0054473023500208693 -0.0014792823923055845 0 0.0054818520892549521 -0.0014796401934686744 0 0.0054800969653172682 -0.0014869460712295599 0 0.0054818520892549521 -0.0014796401934686744 0 0.0054800969653172682 -0.0014869460712295599 0 0.0054998657176655117 -0.001435030414704409 0 0.0055178309536104211 -0.0014835896598737251 0 0.0054800969653172682 -0.0014869460712295599 0 0.005524631974260623 -0.0014398300811723891 0 0.0054800969653172682 -0.0014869460712295599 0 0.005524631974260623 -0.0014398300811723891 0 0.0054998657176655117 -0.001435030414704409 0 0.005524631974260623 -0.0014398300811723891 0 0.0054998657176655117 -0.001435030414704409 0 0.0055380377122764201 -0.0013596582399803647 0 0.0054998657176655117 -0.001435030414704409 0 0.0055380377122764201 -0.0013596582399803647 0 0.0055044027617958905 -0.0013386945641129045 0 0.0055380377122764201 -0.0013596582399803647 0 0.005590239324870014 -0.0012772983398449927 0 0.005589624366862841 -0.0013788712673014269 0 0.005524631974260623 -0.0014398300811723891 0 0.0055380377122764201 -0.0013596582399803647 0 0.005589624366862841 -0.0013788712673014269 0 0.0054998657176655117 -0.001435030414704409 0 0.0054721437424479083 -0.0014093193438622033 0 0.0055044027617958905 -0.0013386945641129045 0 0.0054721437424479083 -0.0014093193438622033 0 0.0055044027617958905 -0.0013386945641129045 0 0.005409451126909188 -0.0013178108945314456 0 0.0055134126635504252 -0.0012218583684246828 0 0.005409451126909188 -0.0013178108945314456 0 0.00554924384316181 -0.0010664932875315894 0 0.005599568482248094 -0.00082296083932243812 0 0.0055392249901394389 -0.0010830255120926364 0 0.0055044027617958905 -0.0013386945641129045 0 0.0055134126635504252 -0.0012218583684246828 0 0.005409451126909188 -0.0013178108945314456 0 0.0055044027617958905 -0.0013386945641129045 0 0.0055134126635504252 -0.0012218583684246828 0 0.0055434693340832217 -0.0012561795554850547 0 0.0055134126635504252 -0.0012218583684246828 0 0.0055375517128265711 -0.001159752655570291 0 0.00554924384316181 -0.0010664932875315894 0 0.0055380377122764201 -0.0013596582399803647 0 0.0055434693340832217 -0.0012561795554850547 0 0.005590239324870014 -0.0012772983398449927 0 0.0055380377122764201 -0.0013596582399803647 0 0.0055044027617958905 -0.0013386945641129045 0 0.0055434693340832217 -0.0012561795554850547 0 0.0055434693340832217 -0.0012561795554850547 0 0.0055375517128265711 -0.001159752655570291 0 0.005576697438376764 -0.0011744442678538944 0 0.0055134126635504252 -0.0012218583684246828 0 0.0055434693340832217 -0.0012561795554850547 0 0.0055375517128265711 -0.001159752655570291 0 0.0055434693340832217 -0.0012561795554850547 0 0.005576697438376764 -0.0011744442678538944 0 0.005590239324870014 -0.0012772983398449927 0 0.005590239324870014 -0.0012772983398449927 0 0.0056575172060235428 -0.0013071512070377961 0 0.0056660267439154971 -0.0011700261934642711 0 0.005576697438376764 -0.0011744442678538944 0 0.005590239324870014 -0.0012772983398449927 0 0.0056660267439154971 -0.0011700261934642711 0 0.005590239324870014 -0.0012772983398449927 0 0.0056575172060235428 -0.0013071512070377961 0 0.005589624366862841 -0.0013788712673014269 0 0.0056575172060235428 -0.0013071512070377961 0 0.0057665214143666306 -0.0012882467324494774 0 0.0056849274182330959 -0.0014074209094854695 0 0.0056575172060235428 -0.0013071512070377961 0 0.0056660267439154971 -0.0011700261934642711 0 0.0057665214143666306 -0.0012882467324494774 0 0.0056660267439154971 -0.0011700261934642711 0 0.005894066384836129 -0.001145147756573018 0 0.0057665214143666306 -0.0012882467324494774 0 0.005894066384836129 -0.001145147756573018 0 0.0058762100396866522 -0.0013735638202385901 0 0.0060632058877487533 -0.0012847625535316351 0 0.005894066384836129 -0.001145147756573018 0 0.0058762100396866522 -0.0013735638202385901 0 0.0057665214143666306 -0.0012882467324494774 0 0.0058762100396866522 -0.0013735638202385901 0 0.0057665214143666306 -0.0012882467324494774 0 0.0056849274182330959 -0.0014074209094854695 0 0.0058762100396866522 -0.0013735638202385901 0 0.0056849274182330959 -0.0014074209094854695 0 0.0057534170720040228 -0.001511535443630842 0 0.0058762100396866522 -0.0013735638202385901 0 0.0057534170720040228 -0.001511535443630842 0 0.0059109852505591226 -0.0015156611732299952 0 0.0057250526384067012 -0.0015742243021926996 0 0.0057534170720040228 -0.001511535443630842 0 0.0058441422483489214 -0.0015536689638347473 0 0.0057534170720040228 -0.001511535443630842 0 0.0058441422483489214 -0.0015536689638347473 0 0.0059109852505591226 -0.0015156611732299952 0 0.0056437547539546305 -0.0015322963913942695 0 0.0057534170720040228 -0.001511535443630842 0 0.005639725640207309 -0.0014887749994632708 0 0.0056849274182330959 -0.0014074209094854695 0 0.0057534170720040228 -0.001511535443630842 0 0.005639725640207309 -0.0014887749994632708 0 0.0055532505789118499 -0.0015187229791110799 0 0.005639725640207309 -0.0014887749994632708 0 0.0055789419380768996 -0.0014585063106592252 0 0.0056849274182330959 -0.0014074209094854695 0 0.005639725640207309 -0.0014887749994632708 0 0.0055789419380768996 -0.0014585063106592252 0 0.005524631974260623 -0.0014398300811723891 0 0.0055789419380768996 -0.0014585063106592252 0 0.005589624366862841 -0.0013788712673014269 0 0.0055178309536104211 -0.0014835896598737251 0 0.005524631974260623 -0.0014398300811723891 0 0.0055789419380768996 -0.0014585063106592252 0 0.0056575172060235428 -0.0013071512070377961 0 0.0056849274182330959 -0.0014074209094854695 0 0.005589624366862841 -0.0013788712673014269 0 0.0056849274182330959 -0.0014074209094854695 0 0.0055789419380768996 -0.0014585063106592252 0 0.005589624366862841 -0.0013788712673014269 0 0.0083891016706969818 0.00039499157817456804 0 0.0083777697973535115 0.00038727687987450473 0 0.0083829848187148403 0.00039490459205500952 0 0.0083812324286300938 0.00038809183311398608 0 0.0083891016706969818 0.00039499157817456804 0 0.0083777697973535115 0.00038727687987450473 0 0.0083812324286300938 0.00038809183311398608 0 0.0083708556423558005 0.00037775173194386176 0 0.0083777697973535115 0.00038727687987450473 0 0.0066254151949700132 -8.8815325272039361e-05 0 0.0072171044808690367 -0.00040093460843065447 0 0.0059778202823084943 -0.0011434917309752284 0 0.0060337204096435502 -0.0011298633078321596 0 0.0059757467276785881 -0.0011850997868955119 0 0.0059757467276785881 -0.0011850997868955119 0 0.0058938570516633244 -0.0011938474815271266 0 0.0059111584982164487 -0.0011692424557944688 0 0.0059349753214245973 -0.0011388124047887881 0 0.0059778202823084943 -0.0011434917309752284 0 0.0059111584982164487 -0.0011692424557944688 0 0.0059778202823084943 -0.0011434917309752284 0 0.0059757467276785881 -0.0011850997868955119 0 0.0059111584982164487 -0.0011692424557944688 0 0.0059757467276785881 -0.0011850997868955119 0 0.0059250934603938647 -0.0012140297600862146 0 0.0058938570516633244 -0.0011938474815271266 0 0.0083777697973535115 0.00038727687987450473 0 0.0083697688523655025 0.00039401307466395164 0 0.0083829848187148403 0.00039490459205500952 0 0.0072171044808690367 -0.00040093460843065447 0 0.0071981386701901644 -0.00039526513940043602 0 0.0058933167104761354 -0.0012121712751176276 0 0.0058938570516633244 -0.0011938474815271266 0 0.0058681945279838695 -0.0012083846727899399 0 0.0059250934603938647 -0.0012140297600862146 0 0.0058933167104761354 -0.0012121712751176276 0 0.0058938570516633244 -0.0011938474815271266 0 0.0058346009406874001 -0.0011657535538571705 0 0.0058718921215655615 -0.0011735514939942321 0 0.0058669034247014673 -0.001183202628172757 0 0.0058938570516633244 -0.0011938474815271266 0 0.0059111584982164487 -0.0011692424557944688 0 0.0058718921215655615 -0.0011735514939942321 0 0.005886572540959617 -0.0011298718117615963 0 0.0059111584982164487 -0.0011692424557944688 0 0.0058718921215655615 -0.0011735514939942321 0 0.0058938570516633244 -0.0011938474815271266 0 0.0058718921215655615 -0.0011735514939942321 0 0.0058669034247014673 -0.001183202628172757 0 0.0058411331749932986 -0.0011601407331136068 0 0.0057919997898159877 -0.0013489055126784384 0 0.0057036705980074561 -0.0012355013089054051 0 0.0055686709481026705 -0.001355604476585795 0 0.0057509209893507555 -0.0014156825782202607 0 0.0055686709481026705 -0.001355604476585795 0 0.0055386297708470448 -0.0014878465531198673 0 0.0057509209893507555 -0.0014156825782202607 0 0.0056209683466012196 -0.0015028053032594374 0 0.0057460552826607914 -0.0010857991130299206 0 0.0058938570516633244 -0.0011938474815271266 0 0.0058669034247014673 -0.001183202628172757 0 0.0058681945279838695 -0.0012083846727899399 0 0.0057919997898159877 -0.0013489055126784384 0 0.0057460552826607914 -0.0010857991130299206 0 0.0055386297708470448 -0.0014878465531198673 0 0.0057509209893507555 -0.0014156825782202607 0 0.0056693413364667135 -0.0016451418326760311 0 0.0057460552826607914 -0.0010857991130299206 0 0.006556653000496058 -0.00026128049484334481 0 0.0058933167104761354 -0.0012121712751176276 0 0.0058681945279838695 -0.0012083846727899399 0 0.0058964108248831092 -0.0012292126703034565 0 0.0054721437424479083 -0.0014093193438622033 0 0.0054332885264831588 -0.0014584568541548184 0 0.005409451126909188 -0.0013178108945314456 0 0.0059191162079387681 4.6997447266183126e-05 0 0.005982689342838794 -0.00028615613529797516 0 0.0057548071294037679 -0.00046112133371979691 0 0.0059191162079387681 4.6997447266183126e-05 0 0.005982689342838794 -0.00028615613529797516 0 0.006275824759707953 -0.00038000572997524929 0 0.0057460552826607914 -0.0010857991130299206 0 0.005599568482248094 -0.00082296083932243812 0 0.005982689342838794 -0.00028615613529797516 0 0.0057548071294037679 -0.00046112133371979691 0 0.0059243003509182298 -0.00078281368353911673 0 0.005982689342838794 -0.00028615613529797516 0 0.0059243003509182298 -0.00078281368353911673 0 0.006275824759707953 -0.00038000572997524929 0 0.0057548071294037679 -0.00046112133371979691 0 0.0059243003509182298 -0.00078281368353911673 0 0.00554924384316181 -0.0010664932875315894 0 0.0059243003509182298 -0.00078281368353911673 0 0.0063762181011477919 -0.00040970272351994672 0 0.0063693114983455947 -0.00083531621525439255 0 0.0059243003509182298 -0.00078281368353911673 0 0.0063762181011477919 -0.00040970272351994672 0 0.0063994702920307997 -0.00021248633919363489 0 0.00590417552646083 -0.000776294031413859 0 0.006556653000496058 -0.00026128049484334481 0 0.0063693114983455947 -0.00083531621525439255 0 0.006683336531965017 -0.00055470811346500616 0 0.0071703130025832619 -0.0011121236967659963 0 0.0063762181011477919 -0.00040970272351994672 0 0.0063693114983455947 -0.00083531621525439255 0 0.006683336531965017 -0.00055470811346500616 0 0.0063762181011477919 -0.00040970272351994672 0 0.0067105248940468659 -0.00057365153465716349 0 0.0063994702920307997 -0.00021248633919363489 0 0.0075193118605645752 -4.2994198365245252e-05 0 0.006556653000496058 -0.00026128049484334481 0 0.0066046154030721081 -0.00011779399837687659 0 0.0075193118605645752 -4.2994198365245252e-05 0 0.0083602713440840207 0.0003782665781961814 0 0.0083456281879933612 0.0003854085643393391 0 0.0083699064540085286 0.0003895583983671654 0 0.0083697688523655025 0.00039401307466395164 0 0.0083456281879933612 0.0003854085643393391 0 0.0083699064540085286 0.0003895583983671654 0 0.0059250934603938647 -0.0012140297600862146 0 0.0058933167104761354 -0.0012121712751176276 0 0.0058964108248831092 -0.0012292126703034565 0 0.0071981386701901644 -0.00039526513940043602 0 0.006556653000496058 -0.00026128049484334481 0 0.0083697688523655025 0.00039401307466395164 0 0.0083829848187148403 0.00039490459205500952 0 0.0083699064540085286 0.0003895583983671654 0 0.0083829848187148403 0.00039490459205500952 0 0.0083699064540085286 0.0003895583983671654 0 0.008385119887953903 0.00039043678776097898 0 0.0083602713440840207 0.0003782665781961814 0 0.008385119887953903 0.00039043678776097898 0 0.0084067726112020316 0.00038117293943670225 0 0.0083602713440840207 0.0003782665781961814 0 0.0083699064540085286 0.0003895583983671654 0 0.008385119887953903 0.00039043678776097898 0 0.0075193118605645752 -4.2994198365245252e-05 0 0.0093557442949542442 0.00078120165522445957 0 0.0075193118605645752 -4.2994198365245252e-05 0 0.0095168416172235013 0.00087429944327679563 0 0.008385119887953903 0.00039043678776097898 0 0.0084037066424581426 0.00039407198440136681 0 0.0084067726112020316 0.00038117293943670225 0 0.008385119887953903 0.00039043678776097898 0 0.0084037066424581426 0.00039407198440136681 0 0.0083982869101952972 0.0003968364761942975 0 0.0084037066424581426 0.00039407198440136681 0 0.0084203358877525964 0.00039831301061205943 0 0.0084116175826428104 0.00039922438826762714 0 0.0084037066424581426 0.00039407198440136681 0 0.0084203358877525964 0.00039831301061205943 0 0.0084067726112020316 0.00038117293943670225 0 0.0084037066424581426 0.00039407198440136681 0 0.0084116175826428104 0.00039922438826762714 0 0.0083982869101952972 0.0003968364761942975 0 0.0084081071280765803 0.00039974683353427879 0 0.0084116175826428104 0.00039922438826762714 0 0.0083982869101952972 0.0003968364761942975 0 0.0084081071280765803 0.00039974683353427879 0 0.0084014580190929621 0.0003983090547846426 0 0.0083982869101952972 0.0003968364761942975 0 0.0083829848187148403 0.00039490459205500952 0 0.008385119887953903 0.00039043678776097898 0 0.0083982869101952972 0.0003968364761942975 0 0.0083891016706969818 0.00039499157817456804 0 0.0083829848187148403 0.00039490459205500952 0 0.0083982869101952972 0.0003968364761942975 0 0.0083945421527644361 0.00039603048094329795 0 0.0084014580190929621 0.0003983090547846426 0 0.0083891016706969818 0.00039499157817456804 0 0.0084014580190929621 0.0003983090547846426 0 0.0083891016706969818 0.00039499157817456804 0 0.0083982869101952972 0.0003968364761942975 0 0.011043539571691534 0.0022847799758042905 0 0.011013550857345327 0.0023750292044902631 0 0.010871569064388534 0.0024196803968472421 0 0.011043539571691534 0.0022847799758042905 0 0.011076247757888104 0.0021747529928401563 0 0.011082248663658277 0.0022509682361486379 0 0.011043539571691534 0.0022847799758042905 0 0.011082248663658277 0.0022509682361486379 0 0.011104393054056238 0.002351356047853026 0 0.011412169650654147 0.0026915728651683208 0 0.0095168416172235013 0.00087429944327679563 0 0.011069389985771866 0.0023336169028345408 0 0.011043539571691534 0.0022847799758042905 0 0.011013550857345327 0.0023750292044902631 0 0.011096265587463995 0.0023983552953588997 0 0.011013550857345327 0.0023750292044902631 0 0.010979437795122119 0.0024444068977617461 0 0.009742413591449086 0.0014368172483323737 0 0.0093557442949542442 0.00078120165522445957 0 0.011013550857345327 0.0023750292044902631 0 0.010979437795122119 0.0024444068977617461 0 0.010871569064388534 0.0024196803968472421 0 0.0084400855430609434 0.00041024781473181476 0 0.0084203358877525964 0.00039831301061205943 0 0.0084067726112020316 0.00038117293943670225 0 0.0081756974971888691 0.00038775402979768355 0 0.0093557442949542442 0.00078120165522445957 0 0.0093557442949542442 0.00078120165522445957 0 0.0095168416172235013 0.00087429944327679563 0 0.0082713896081256302 0.00076192595451565835 0 0.0092124199689256146 0.00029237773209834925 0 0.0087354049982726733 0.00020866787560706374 0 0.011076247757888104 0.0021747529928401563 0 0.011122010635310358 0.0022146110440864788 0 0.011082248663658277 0.0022509682361486379 0 0.011082248663658277 0.0022509682361486379 0 0.011140860727059982 0.0022568995692676648 0 0.011104393054056238 0.002351356047853026 0 0.011122010635310358 0.0022146110440864788 0 0.011082248663658277 0.0022509682361486379 0 0.011140860727059982 0.0022568995692676648 0 0.011176443027829641 0.0023074469137274877 0 0.011140860727059982 0.0022568995692676648 0 0.011240599391348013 0.0022520632452881417 0 0.011140860727059982 0.0022568995692676648 0 0.011200989853208424 0.0021677077100309022 0 0.011240599391348013 0.0022520632452881417 0 0.011122010635310358 0.0022146110440864788 0 0.011140860727059982 0.0022568995692676648 0 0.011200989853208424 0.0021677077100309022 0 0.011176443027829641 0.0023074469137274877 0 0.011240599391348013 0.0022520632452881417 0 0.011253011264287101 0.0023091873644071714 0 0.011076247757888104 0.0021747529928401563 0 0.011122010635310358 0.0022146110440864788 0 0.011200989853208424 0.0021677077100309022 0 0.0063693114983455947 -0.00083531621525439255 0 0.0071703130025832619 -0.0011121236967659963 0 0.0062530638129140049 -0.0012509208898814482 0 0.0095168416172235013 0.00087429944327679563 0 0.0086432822516029073 0.00042325418208425574 0 0.0062530638129140049 -0.0012509208898814482 0 0.00554924384316181 -0.0010664932875315894 0 0.0055325626275636534 -0.0012055254776149125 0 0.0086432822516029073 0.00042325418208425574 0 0.0085032448111956489 0.00050051347269045043 0 0.0059243003509182298 -0.00078281368353911673 0 0.0062530638129140049 -0.0012509208898814482 0 0.00554924384316181 -0.0010664932875315894 0 0.0059243003509182298 -0.00078281368353911673 0 0.0063693114983455947 -0.00083531621525439255 0 0.0062530638129140049 -0.0012509208898814482 0 0.011240599391348013 0.0022520632452881417 0 0.011330140092260488 0.0022771433946234027 0 0.011388632161577355 0.0021762825542562918 0 0.011200989853208424 0.0021677077100309022 0 0.011240599391348013 0.0022520632452881417 0 0.011388632161577355 0.0021762825542562918 0 0.011240599391348013 0.0022520632452881417 0 0.011253011264287101 0.0023091873644071714 0 0.011330140092260488 0.0022771433946234027 0 0.011302171960304844 0.0023695314358094153 0 0.01125094168553277 0.0024482354349151768 0 0.011375834354759008 0.0024280597042779452 0 0.011330140092260488 0.0022771433946234027 0 0.011302171960304844 0.0023695314358094153 0 0.011394817850120179 0.0023469947919276543 0 0.011253011264287101 0.0023091873644071714 0 0.011330140092260488 0.0022771433946234027 0 0.011302171960304844 0.0023695314358094153 0 0.011253011264287101 0.0023091873644071714 0 0.011302171960304844 0.0023695314358094153 0 0.011212431582103289 0.0023591352050326068 0 0.011302171960304844 0.0023695314358094153 0 0.01125094168553277 0.0024482354349151768 0 0.011212431582103289 0.0023591352050326068 0 0.013486976286858219 0.0030650028338892231 0 0.013908791770901199 0.0034862605470311996 0 0.012665875498672038 0.0031473232186393636 0 0.012574145884678815 0.0029662898776732362 0 0.012077112786728199 0.0028350009491956586 0 0.013748378582233831 0.002811126190473866 0 0.013486976286858219 0.0030650028338892231 0 0.01402563191216104 0.0031765909303745491 0 0.013486976286858219 0.0030650028338892231 0 0.01402563191216104 0.0031765909303745491 0 0.013908791770901199 0.0034862605470311996 0 0.013748378582233831 0.002811126190473866 0 0.014191713962909965 0.0026998968999784683 0 0.01402563191216104 0.0031765909303745491 0 0.01402563191216104 0.0031765909303745491 0 0.013908791770901199 0.0034862605470311996 0 0.014490450811487872 0.0031208907401863509 0 0.014676850051425508 0.002657486945654671 0 0.01402563191216104 0.0031765909303745491 0 0.014490450811487872 0.0031208907401863509 0 0.013908791770901199 0.0034862605470311996 0 0.014490450811487872 0.0031208907401863509 0 0.014777869862676013 0.0036603003968240788 0 0.011176443027829641 0.0023074469137274877 0 0.011140860727059982 0.0022568995692676648 0 0.011104393054056238 0.002351356047853026 0 0.012574145884678815 0.0029662898776732362 0 0.012938647763141463 0.0029959024728322533 0 0.011176443027829641 0.0023074469137274877 0 0.011212431582103289 0.0023591352050326068 0 0.011104393054056238 0.002351356047853026 0 0.01125094168553277 0.0024482354349151768 0 0.011212431582103289 0.0023591352050326068 0 0.011104393054056238 0.002351356047853026 0 0.011176443027829641 0.0023074469137274877 0 0.011253011264287101 0.0023091873644071714 0 0.011212431582103289 0.0023591352050326068 0 0.014777869862676013 0.0036603003968240788 0 0.014933397841787946 0.0031340918846428068 0 0.0152813859553333 0.0035188378862693851 0 0.014490450811487872 0.0031208907401863509 0 0.014777869862676013 0.0036603003968240788 0 0.014933397841787946 0.0031340918846428068 0 0.014758500887856661 0.0029438640849424793 0 0.014490450811487872 0.0031208907401863509 0 0.014933397841787946 0.0031340918846428068 0 0.014931558413649081 0.0028594577853824042 0 0.015193474821379232 0.0029357358633564984 0 0.014933397841787946 0.0031340918846428068 0 0.014758500887856661 0.0029438640849424793 0 0.014931558413649081 0.0028594577853824042 0 0.014933397841787946 0.0031340918846428068 0 0.014933397841787946 0.0031340918846428068 0 0.015286885098993492 0.003171321577348069 0 0.0152813859553333 0.0035188378862693851 0 0.015193474821379232 0.0029357358633564984 0 0.015286885098993492 0.003171321577348069 0 0.015523733847009114 0.0030003499406119458 0 0.015193474821379232 0.0029357358633564984 0 0.014933397841787946 0.0031340918846428068 0 0.015286885098993492 0.003171321577348069 0 0.015684754838465577 0.0031660026380121329 0 0.015523733847009114 0.0030003499406119458 0 0.01550298703231838 0.0032646688241718814 0 0.015286885098993492 0.003171321577348069 0 0.015523733847009114 0.0030003499406119458 0 0.01550298703231838 0.0032646688241718814 0 0.015764094146670134 0.0034200478023205276 0 0.01550298703231838 0.0032646688241718814 0 0.0152813859553333 0.0035188378862693851 0 0.015286885098993492 0.003171321577348069 0 0.01550298703231838 0.0032646688241718814 0 0.0152813859553333 0.0035188378862693851 0 0.015621800521195595 0.0038789796425723741 0 0.014777869862676013 0.0036603003968240788 0 0.0152813859553333 0.0035188378862693851 0 0.015764094146670134 0.0034200478023205276 0 0.015621800521195595 0.0038789796425723741 0 0.0152813859553333 0.0035188378862693851 0 0.011051715002596503 0.0022789791497356137 0 0.011043539571691534 0.0022847799758042905 0 0.011104393054056238 0.002351356047853026 0 0.013343077404130339 0.0031754374558843027 0 0.012938647763141463 0.0029959024728322533 0 0.0086158105794047167 0.00063361640773742058 0 0.008855578741207501 0.00076913382045584711 0 0.011611953526429254 0.0022334622780535826 0 0.011599958260548123 0.0023922914615191358 0 0.011717341315853589 0.0023843602434573822 0 0.011611953526429254 0.0022334622780535826 0 0.011765194460628755 0.0023164696452084937 0 0.011717341315853589 0.0023843602434573822 0 0.0056660267439154971 -0.0011700261934642711 0 0.005894066384836129 -0.001145147756573018 0 0.0059434009752062072 -0.0007776264243049961 0 0.005894066384836129 -0.001145147756573018 0 0.0059434009752062072 -0.0007776264243049961 0 0.0061530848803211906 -0.001015131818935536 0 0.005576697438376764 -0.0011744442678538944 0 0.0056660267439154971 -0.0011700261934642711 0 0.0056122559952709525 -0.00095903323723095795 0 0.0056660267439154971 -0.0011700261934642711 0 0.0056122559952709525 -0.00095903323723095795 0 0.0059434009752062072 -0.0007776264243049961 0 0.005576697438376764 -0.0011744442678538944 0 0.0056122559952709525 -0.00095903323723095795 0 0.0055379227850518792 -0.0011235014438526368 0 0.0056122559952709525 -0.00095903323723095795 0 0.0055379227850518792 -0.0011235014438526368 0 0.0055325626275636534 -0.0012055254776149125 0 0.0055375517128265711 -0.001159752655570291 0 0.005576697438376764 -0.0011744442678538944 0 0.0055379227850518792 -0.0011235014438526368 0 0.0055375517128265711 -0.001159752655570291 0 0.0055379227850518792 -0.0011235014438526368 0 0.00554924384316181 -0.0010664932875315894 0 0.0055379227850518792 -0.0011235014438526368 0 0.00554924384316181 -0.0010664932875315894 0 0.0055325626275636534 -0.0012055254776149125 0 0.011330140092260488 0.0022771433946234027 0 0.011388632161577355 0.0021762825542562918 0 0.011402769576117215 0.0022664660763865932 0 0.011388632161577355 0.0021762825542562918 0 0.011402769576117215 0.0022664660763865932 0 0.011489580146175465 0.0022889929800313678 0 0.011402769576117215 0.0022664660763865932 0 0.011489580146175465 0.0022889929800313678 0 0.011394817850120179 0.0023469947919276543 0 0.011330140092260488 0.0022771433946234027 0 0.011402769576117215 0.0022664660763865932 0 0.011394817850120179 0.0023469947919276543 0 0.011611953526429254 0.0022334622780535826 0 0.011388632161577355 0.0021762825542562918 0 0.011489580146175465 0.0022889929800313678 0 0.011611953526429254 0.0022334622780535826 0 0.011489580146175465 0.0022889929800313678 0 0.011599958260548123 0.0023922914615191358 0 0.0086158105794047167 0.00063361640773742058 0 0.0085032448111956489 0.00050051347269045043 0 0.011489580146175465 0.0022889929800313678 0 0.011599958260548123 0.0023922914615191358 0 0.011485179458806543 0.002421023398285615 0 0.011599958260548123 0.0023922914615191358 0 0.011485179458806543 0.002421023398285615 0 0.011615509121124832 0.0024888528949727844 0 0.011599958260548123 0.0023922914615191358 0 0.011615509121124832 0.0024888528949727844 0 0.011731706864225042 0.0024863694281831742 0 0.011489580146175465 0.0022889929800313678 0 0.011394817850120179 0.0023469947919276543 0 0.011485179458806543 0.002421023398285615 0 0.011302171960304844 0.0023695314358094153 0 0.011394817850120179 0.0023469947919276543 0 0.011375834354759008 0.0024280597042779452 0 0.011394817850120179 0.0023469947919276543 0 0.011485179458806543 0.002421023398285615 0 0.011375834354759008 0.0024280597042779452 0 0.013165203765234241 0.0027909876966712879 0 0.013486976286858219 0.0030650028338892231 0 0.012665875498672038 0.0031473232186393636 0 0.01125094168553277 0.0024482354349151768 0 0.011375834354759008 0.0024280597042779452 0 0.011461088099009772 0.0025548156349551182 0 0.011485179458806543 0.002421023398285615 0 0.011375834354759008 0.0024280597042779452 0 0.011461088099009772 0.0025548156349551182 0 0.011817037086138476 0.0026593182574658034 0 0.012077112786728199 0.0028350009491956586 0 0.011799357862078799 0.0026231903685253518 0 0.011461088099009772 0.0025548156349551182 0 0.011615509121124832 0.0024888528949727844 0 0.011485179458806543 0.002421023398285615 0 0.011461088099009772 0.0025548156349551182 0 0.011615509121124832 0.0024888528949727844 0 0.011799357862078799 0.0026231903685253518 0 0.011731706864225042 0.0024863694281831742 0 0.01179553287743073 0.0025459257799863026 0 0.011799357862078799 0.0026231903685253518 0 0.011615509121124832 0.0024888528949727844 0 0.011731706864225042 0.0024863694281831742 0 0.011731706864225042 0.0024863694281831742 0 0.011717341315853589 0.0023843602434573822 0 0.011792092803763334 0.0024623132291547436 0 0.011599958260548123 0.0023922914615191358 0 0.011731706864225042 0.0024863694281831742 0 0.011717341315853589 0.0023843602434573822 0 0.011765194460628755 0.0023164696452084937 0 0.011717341315853589 0.0023843602434573822 0 0.011792092803763334 0.0024623132291547436 0 0.011810185582185865 0.0025200321189376988 0 0.011792092803763334 0.0024623132291547436 0 0.01179553287743073 0.0025459257799863026 0 0.011731706864225042 0.0024863694281831742 0 0.011792092803763334 0.0024623132291547436 0 0.01179553287743073 0.0025459257799863026 0 0.011810185582185865 0.0025200321189376988 0 0.011858693578513976 0.0025041348838888895 0 0.011832214585637163 0.0024319528641311016 0 0.011810185582185865 0.0025200321189376988 0 0.011792092803763334 0.0024623132291547436 0 0.011832214585637163 0.0024319528641311016 0 0.011858693578513976 0.0025041348838888895 0 0.011882091137644744 0.0024471906024662467 0 0.011832214585637163 0.0024319528641311016 0 0.011869226236143195 0.0021365810898328081 0 0.0091154759929306418 0.00079550222988642523 0 0.011197308139551476 0.001345823060711704 0 0.010858812409111327 0.00071233757782321295 0 0.011653880868332151 0.00085210109410722989 0 0.011882091137644744 0.0024471906024662467 0 0.011832214585637163 0.0024319528641311016 0 0.01183965154747796 0.0023514982306266073 0 0.011765194460628755 0.0023164696452084937 0 0.011792092803763334 0.0024623132291547436 0 0.011832214585637163 0.0024319528641311016 0 0.011765194460628755 0.0023164696452084937 0 0.011832214585637163 0.0024319528641311016 0 0.01183965154747796 0.0023514982306266073 0 0.0091154759929306418 0.00079550222988642523 0 0.0054788322390565674 -0.0014501752533117292 0 0.0059434009752062072 -0.0007776264243049961 0 0.006364602337326249 -0.00066579155234146141 0 0.0061530848803211906 -0.001015131818935536 0 0.008855578741207501 0.00076913382045584711 0 0.0091154759929306418 0.00079550222988642523 0 0.0067387526835827266 0.00063900697787542832 0 0.0078897059203174441 -0.00010871234322335422 0 0.0069700183037162654 -0.00074998981425854064 0 0.0078897059203174441 -0.00010871234322335422 0 0.0069700183037162654 -0.00074998981425854064 0 0.0074288851184773162 -0.0010663307323548487 0 0.0069700183037162654 -0.00074998981425854064 0 0.0074288851184773162 -0.0010663307323548487 0 0.0072010166371103534 -0.0012465379194641218 0 0.0074288851184773162 -0.0010663307323548487 0 0.0072010166371103534 -0.0012465379194641218 0 0.0074145786061542308 -0.001350379032806466 0 0.0069700183037162654 -0.00074998981425854064 0 0.0072010166371103534 -0.0012465379194641218 0 0.0066642442770861055 -0.0011241068108861262 0 0.0067387526835827266 0.00063900697787542832 0 0.0069700183037162654 -0.00074998981425854064 0 0.0061530848803211906 -0.001015131818935536 0 0.0069700183037162654 -0.00074998981425854064 0 0.0066642442770861055 -0.0011241068108861262 0 0.0061530848803211906 -0.001015131818935536 0 0.009928514909991833 -0.0017867478399815249 0 0.0090331461479036344 -0.00035287285027378324 0 0.01093562654072322 -0.00021908708206965166 0 0.009928514909991833 -0.0017867478399815249 0 0.01093562654072322 -0.00021908708206965166 0 0.011843758342378764 -0.0010313201537583082 0 0.0075738885962511396 -0.0011104629475375367 0 0.008856973465048568 -0.0015375404628493509 0 0.0074288851184773162 -0.0010663307323548487 0 0.009928514909991833 -0.0017867478399815249 0 0.0090331461479036344 -0.00035287285027378324 0 0.0074288851184773162 -0.0010663307323548487 0 0.0080098628807247045 -0.001226755562651106 0 0.0076539098779076289 -0.0014217139672748421 0 0.0078897059203174441 -0.00010871234322335422 0 0.0074288851184773162 -0.0010663307323548487 0 0.0090331461479036344 -0.00035287285027378324 0 0.0078897059203174441 -0.00010871234322335422 0 0.0090331461479036344 -0.00035287285027378324 0 0.0094150251726804763 0.0011062812730306328 0 0.0091154759929306418 0.00079550222988642523 0 0.010467395235549752 0.00092486709254444098 0 0.0067387526835827266 0.00063900697787542832 0 0.0078897059203174441 -0.00010871234322335422 0 0.0094150251726804763 0.0011062812730306328 0 0.01093562654072322 -0.00021908708206965166 0 0.0094150251726804763 0.0011062812730306328 0 0.01226835537938779 0.00094836703361991543 0 0.0090331461479036344 -0.00035287285027378324 0 0.01093562654072322 -0.00021908708206965166 0 0.0094150251726804763 0.0011062812730306328 0 0.011653880868332151 0.00085210109410722989 0 0.011965844055403891 0.0014798460326850792 0 0.01226835537938779 0.00094836703361991543 0 0.010467395235549752 0.00092486709254444098 0 0.012178470530735412 0.00099484479565335065 0 0.011197308139551476 0.001345823060711704 0 0.011653880868332151 0.00085210109410722989 0 0.011965844055403891 0.0014798460326850792 0 0.011682926819434676 0.0022011017071813582 0 0.011869226236143195 0.0021365810898328081 0 0.011537719663349381 0.0020049003316539196 0 0.011197308139551476 0.001345823060711704 0 0.011965844055403891 0.0014798460326850792 0 0.011965844055403891 0.0014798460326850792 0 0.012687716434013559 0.0014601984642946251 0 0.01226835537938779 0.00094836703361991543 0 0.01252061946096869 0.0019678887542181204 0 0.011965844055403891 0.0014798460326850792 0 0.012687716434013559 0.0014601984642946251 0 0.01226835537938779 0.00094836703361991543 0 0.013373780839714527 0.0010918098345008562 0 0.013198551119884123 0.00028298678366861762 0 0.012687716434013559 0.0014601984642946251 0 0.01226835537938779 0.00094836703361991543 0 0.013373780839714527 0.0010918098345008562 0 0.014654668250197475 0.0013501517682514 0 0.014316943647584757 0.0015361359013768246 0 0.014230703662341146 0.0011044481851600599 0 0.013695192360635525 0.0016572064479509986 0 0.014316943647584757 0.0015361359013768246 0 0.014230703662341146 0.0011044481851600599 0 0.013695192360635525 0.0016572064479509986 0 0.012687716434013559 0.0014601984642946251 0 0.013373780839714527 0.0010918098345008562 0 0.013695192360635525 0.0016572064479509986 0 0.014230703662341146 0.0011044481851600599 0 0.013373780839714527 0.0010918098345008562 0 0.014230703662341146 0.0011044481851600599 0 0.013905827820770829 0.00048794820209203639 0 0.013373780839714527 0.0010918098345008562 0 0.013905827820770829 0.00048794820209203639 0 0.013373780839714527 0.0010918098345008562 0 0.013198551119884123 0.00028298678366861762 0 0.014672133712797322 0.00052408906398266448 0 0.014230703662341146 0.0011044481851600599 0 0.013905827820770829 0.00048794820209203639 0 0.015135383808847394 0.00019960189673129367 0 0.013891482788838569 0.00052544099365712377 0 0.015070215183434604 0.00056741308498941038 0 0.013905827820770829 0.00048794820209203639 0 0.014037118290318567 -0.00032086489077430921 0 0.015070215183434604 0.00056741308498941038 0 0.014037118290318567 -0.00032086489077430921 0 0.014800441091556413 -0.0007454619192978375 0 0.013905827820770829 0.00048794820209203639 0 0.014037118290318567 -0.00032086489077430921 0 0.013198551119884123 0.00028298678366861762 0 0.014037118290318567 -0.00032086489077430921 0 0.01329290572560239 -0.00076460931627237924 0 0.013198551119884123 0.00028298678366861762 0 0.014037118290318567 -0.00032086489077430921 0 0.01329290572560239 -0.00076460931627237924 0 0.014063092813433882 -0.0012856259931475383 0 0.01329290572560239 -0.00076460931627237924 0 0.014063092813433882 -0.0012856259931475383 0 0.013324456900985524 -0.0018610075544085068 0 0.014037118290318567 -0.00032086489077430921 0 0.014063092813433882 -0.0012856259931475383 0 0.014800441091556413 -0.0007454619192978375 0 0.01093562654072322 -0.00021908708206965166 0 0.01226835537938779 0.00094836703361991543 0 0.012432835311012618 -0.00029131755043423636 0 0.01226835537938779 0.00094836703361991543 0 0.013198551119884123 0.00028298678366861762 0 0.012432835311012618 -0.00029131755043423636 0 0.01329290572560239 -0.00076460931627237924 0 0.013198551119884123 0.00028298678366861762 0 0.012432835311012618 -0.00029131755043423636 0 0.01329290572560239 -0.00076460931627237924 0 0.012670854159281287 -0.0011383217226105114 0 0.013324456900985524 -0.0018610075544085068 0 0.012432835311012618 -0.00029131755043423636 0 0.012670854159281287 -0.0011383217226105114 0 0.011843758342378764 -0.0010313201537583082 0 0.01329290572560239 -0.00076460931627237924 0 0.012432835311012618 -0.00029131755043423636 0 0.012670854159281287 -0.0011383217226105114 0 0.009928514909991833 -0.0017867478399815249 0 0.011843758342378764 -0.0010313201537583082 0 0.012116138455163725 -0.0021810897166252684 0 0.012670854159281287 -0.0011383217226105114 0 0.011843758342378764 -0.0010313201537583082 0 0.012068623052609001 -0.0016781829403831967 0 0.011742820572726482 -0.0014645152596051048 0 0.010919885736988648 -0.0011183848320443425 0 0.01093562654072322 -0.00021908708206965166 0 0.012432835311012618 -0.00029131755043423636 0 0.011843758342378764 -0.0010313201537583082 0 0.008856973465048568 -0.0015375404628493509 0 0.010919885736988648 -0.0011183848320443425 0 0.0087218717326171136 -0.001358071162123872 0 0.0084806206188222377 -0.001791037283502361 0 0.0081945734159405911 -0.001597387884022881 0 0.012670854159281287 -0.0011383217226105114 0 0.012068623052609001 -0.0016781829403831967 0 0.013324456900985524 -0.0018610075544085068 0 0.010919885736988648 -0.0011183848320443425 0 0.012299424112136378 -0.0010875790285610754 0 0.010879462677811553 -0.00013958095897393286 0 0.011186774963626201 -0.0005582422580275296 0 0.011419869907837096 -0.00024048941647701388 0 0.011186774963626201 -0.0005582422580275296 0 0.011014558920308582 -0.00072798858521705369 0 0.011416607094906181 -0.00088238168854654758 0 0.010879462677811553 -0.00013958095897393286 0 0.011186774963626201 -0.0005582422580275296 0 0.011017845644928987 -0.00073226589625926077 0 0.011014584556024909 -0.00038720689490875926 0 0.0098031673753835608 -0.0011892223404960261 0 0.0088879381933733605 -0.0020647648174553015 0 0.0083810987027125496 -0.00211842721986275 0 0.0084806206188222377 -0.001791037283502361 0 0.010919885736988648 -0.0011183848320443425 0 0.0098031673753835608 -0.0011892223404960261 0 0.0087218717326171136 -0.001358071162123872 0 0.0088879381933733605 -0.0020647648174553015 0 0.0084806206188222377 -0.001791037283502361 0 0.015751990755323055 0.00020552152896365821 0 0.015752820179301141 0.00018571081178876176 0 0.015752947052885564 0.00021290568749600619 0 0.015388720345486781 -0.00032439692654279059 0 0.014237702107653863 -0.00039536571959730075 0 0.014063092813433882 -0.0012856259931475383 0 0.014800441091556413 -0.0007454619192978375 0 0.014516079520124776 -0.0020721227301547869 0 0.015751990755323055 0.00020552152896365821 0 0.01574526284070113 0.00022082233364592271 0 0.015752947052885564 0.00021290568749600619 0 0.015306556887901794 -0.00033080805046286152 0 0.014237702107653863 -0.00039536571959730075 0 0.014063092813433882 -0.0012856259931475383 0 0.014516079520124776 -0.0020721227301547869 0 0.013324456900985524 -0.0018610075544085068 0 0.014237702107653863 -0.00039536571959730075 0 0.012299424112136378 -0.0010875790285610754 0 0.011978494644124512 -0.00034598695876963032 0 0.011419869907837096 -0.00024048941647701388 0 0.011568641257262957 -0.00058127591629024238 0 0.011568641257262957 -0.00058127591629024238 0 0.011855703313798186 -0.00082303456692851655 0 0.011416607094906181 -0.00088238168854654758 0 0.011186774963626201 -0.0005582422580275296 0 0.011419869907837096 -0.00024048941647701388 0 0.011568641257262957 -0.00058127591629024238 0 0.011186774963626201 -0.0005582422580275296 0 0.011568641257262957 -0.00058127591629024238 0 0.011416607094906181 -0.00088238168854654758 0 0.01574526284070113 0.00022082233364592271 0 0.015737746945404203 0.00022141598978862954 0 0.015711552843012837 0.0002399067424658424 0 0.015740730143006053 0.00024136322171170826 0 0.01574526284070113 0.00022082233364592271 0 0.015711552843012837 0.0002399067424658424 0 0.011978494644124512 -0.00034598695876963032 0 0.011568641257262957 -0.00058127591629024238 0 0.011855703313798186 -0.00082303456692851655 0 0.014237702107653863 -0.00039536571959730075 0 0.013880040995811114 -0.00020598903390145758 0 0.013880040995811114 -0.00020598903390145758 0 0.011194548667904603 -0.00033292320745565947 0 0.01572792362381625 0.00026712056132471482 0 0.015711552843012837 0.0002399067424658424 0 0.015667328545228575 0.00022495357211898238 0 0.011855703313798186 -0.00082303456692851655 0 0.011416607094906181 -0.00088238168854654758 0 0.01173446433498832 -0.0012965763319371948 0 0.011416607094906181 -0.00088238168854654758 0 0.01173446433498832 -0.0012965763319371948 0 0.011144927979927353 -0.0013091623609329669 0 0.0080441331292064409 4.980867532291404e-05 0 0.0083058868993035519 0.00026813922310401446 0 0.0078086876958208427 0.00025450536840515564 0 0.011194548667904603 -0.00033292320745565947 0 0.0087713713113196472 -0.00063831685270332862 0 0.012512245318969802 9.8247314440986659e-05 0 0.011194548667904603 -0.00033292320745565947 0 0.0087099896999991069 -0.00017667236259283841 0 0.0092619369693665819 0.00022855318355044654 0 0.0094021783082780894 -0.00012348454300286095 0 0.0088879381933733605 -0.0020647648174553015 0 0.0083810987027125496 -0.00211842721986275 0 0.0085366491251026785 -0.0024228967866774067 0 0.0083381104791960051 -0.0018750022142647563 0 0.0074913067867944955 -0.0011464602610383125 0 0.0098031673753835608 -0.0011892223404960261 0 0.0083381104791960051 -0.0018750022142647563 0 0.0087040601415562732 -0.00076799451120301474 0 0.0083938906421149075 -0.0010818500065758504 0 0.0088480327432548887 -0.0013778802846894892 0 0.0098031673753835608 -0.0011892223404960261 0 0.0087713713113196472 -0.00063831685270332862 0 0.011014558920308582 -0.00072798858521705369 0 0.011416607094906181 -0.00088238168854654758 0 0.011144927979927353 -0.0013091623609329669 0 0.0078872393054130342 -0.00018607771339271875 0 0.0080441331292064409 4.980867532291404e-05 0 0.0078086876958208427 0.00025450536840515564 0 0.0076800608566066899 0.00024626333174626846 0 0.0087713713113196472 -0.00063831685270332862 0 0.0087713713113196472 -0.00063831685270332862 0 0.0074913067867944955 -0.0011464602610383125 0 0.0075296307723675977 -4.2341641117501806e-05 0 0.0077694317972172838 0.00029702454961651219 0 0.0070863250586096034 0.00028107861361340513 0 0.0083938906421149075 -0.0010818500065758504 0 0.0088480327432548887 -0.0013778802846894892 0 0.008084455204841641 -0.0013968401250225922 0 0.0074913067867944955 -0.0011464602610383125 0 0.0061991746057108287 -0.0020711153219929463 0 0.0081838401969826294 -0.0027807224371228286 0 0.0080026046348386608 -0.0023574703802717164 0 0.0076097651622129186 -0.0027979213265716496 0 0.0062486342326703278 -0.0015866690597320572 0 0.0065475052912238657 -0.001280300874860288 0 0.005932269925406403 -0.0012990933256366601 0 0.0049337948857746065 -0.00066011979353678546 0 0.0074913067867944955 -0.0011464602610383125 0 0.0083810987027125496 -0.00211842721986275 0 0.0085366491251026785 -0.0024228967866774067 0 0.0080026046348386608 -0.0023574703802717164 0 0.0085366491251026785 -0.0024228967866774067 0 0.0081838401969826294 -0.0027807224371228286 0 0.0080026046348386608 -0.0023574703802717164 0 0.0083810987027125496 -0.00211842721986275 0 0.0080026046348386608 -0.0023574703802717164 0 0.0080452891232547213 -0.0020323435126958669 0 0.0080026046348386608 -0.0023574703802717164 0 0.0075640221500151957 -0.0023071369628549832 0 0.0076097651622129186 -0.0027979213265716496 0 0.0075640221500151957 -0.0023071369628549832 0 0.0076097651622129186 -0.0027979213265716496 0 0.0073483107315828015 -0.0022577403842623895 0 0.0075640221500151957 -0.0023071369628549832 0 0.0073483107315828015 -0.0022577403842623895 0 0.007420197880927311 -0.0020565659296314402 0 0.0080026046348386608 -0.0023574703802717164 0 0.0075640221500151957 -0.0023071369628549832 0 0.0077227127217643519 -0.0020471088497636502 0 0.0035865082185203329 -0.0014814627485443676 0 0.0033964377668960302 -0.0015072203960247732 0 0.0035003031273940343 -0.0016057033557449086 0 0.0049337948857746065 -0.00066011979353678546 0 0.0061991746057108287 -0.0020711153219929463 0 0.0072133997095801365 -0.0024828880562486957 0 0.0069673983753388812 -0.0024916957163493886 0 0.0069787313437975297 -0.0023608717352083812 0 0.0035865082185203329 -0.0014814627485443676 0 0.0035003031273940343 -0.0016057033557449086 0 0.0036952576704145758 -0.001616934979844492 0 0.0061991746057108287 -0.0020711153219929463 0 0.0051555338166803617 -0.0020616093777395227 0 0.0069673983753388812 -0.0024916957163493886 0 0.0068183430230559557 -0.00236215148158297 0 0.0069787313437975297 -0.0023608717352083812 0 0.0051555338166803617 -0.0020616093777395227 0 0.0054248186618450957 -0.0019874630198539567 0 0.0069673983753388812 -0.0024916957163493886 0 0.0066512175823470309 -0.0025258121924046587 0 0.0068183430230559557 -0.00236215148158297 0 0.0037798332337163889 -0.0014236146953393403 0 0.0036952576704145758 -0.001616934979844492 0 0.0039203071891845097 -0.0016356431426001743 0 0.0055682572695642078 -0.0016300566158089819 0 0.0057751315463902319 -0.0016036894934298176 0 0.0060963714196327996 -0.0016327709196194515 0 0.0054248186618450957 -0.0019874630198539567 0 0.0066356276727825613 -0.0017970705477018654 0 0.0066512175823470309 -0.0025258121924046587 0 0.0068183430230559557 -0.00236215148158297 0 0.0068774350632755396 -0.0020469627365662974 0 0.0068183430230559557 -0.00236215148158297 0 0.0069123043372274528 -0.0022576100601523139 0 0.0068774350632755396 -0.0020469627365662974 0 0.0056061473521682986 -0.0015911931479790447 0 0.0055682572695642078 -0.0016300566158089819 0 0.0057751315463902319 -0.0016036894934298176 0 0.0068183430230559557 -0.00236215148158297 0 0.0069123043372274528 -0.0022576100601523139 0 0.0069787313437975297 -0.0023608717352083812 0 0.0069123043372274528 -0.0022576100601523139 0 0.0069575413980612283 -0.0021865905887570934 0 0.0068774350632755396 -0.0020469627365662974 0 0.0058808335020462919 -0.0015926018270460594 0 0.0057751315463902319 -0.0016036894934298176 0 0.0060963714196327996 -0.0016327709196194515 0 0.0057250526384067012 -0.0015742243021926996 0 0.0058808335020462919 -0.0015926018270460594 0 0.0058441422483489214 -0.0015536689638347473 0 0.0057250526384067012 -0.0015742243021926996 0 0.0058808335020462919 -0.0015926018270460594 0 0.0057751315463902319 -0.0016036894934298176 0 0.0061991746057108287 -0.0020711153219929463 0 0.0074595312918135049 -0.0025024578243257279 0 0.0072133997095801365 -0.0024828880562486957 0 0.0069787313437975297 -0.0023608717352083812 0 0.0069575413980612283 -0.0021865905887570934 0 0.0076097651622129186 -0.0027979213265716496 0 0.0069575413980612283 -0.0021865905887570934 0 0.0073483107315828015 -0.0022577403842623895 0 0.0069123043372274528 -0.0022576100601523139 0 0.0069787313437975297 -0.0023608717352083812 0 0.0069575413980612283 -0.0021865905887570934 0 0.0073483107315828015 -0.0022577403842623895 0 0.0072105143599752617 -0.0019765378259524223 0 0.007420197880927311 -0.0020565659296314402 0 0.0072105143599752617 -0.0019765378259524223 0 0.007420197880927311 -0.0020565659296314402 0 0.0074947984294750176 -0.0018051881220152162 0 0.0069575413980612283 -0.0021865905887570934 0 0.0073483107315828015 -0.0022577403842623895 0 0.0072105143599752617 -0.0019765378259524223 0 0.0069575413980612283 -0.0021865905887570934 0 0.0072105143599752617 -0.0019765378259524223 0 0.0068774350632755396 -0.0020469627365662974 0 0.0072105143599752617 -0.0019765378259524223 0 0.0068774350632755396 -0.0020469627365662974 0 0.0073093288614558671 -0.0016478843036558575 0 0.0072105143599752617 -0.0019765378259524223 0 0.0073093288614558671 -0.0016478843036558575 0 0.0074947984294750176 -0.0018051881220152162 0 0.0060963714196327996 -0.0016327709196194515 0 0.0060738986975836171 -0.0014910080131422896 0 0.0063973504243504458 -0.0013797945548209029 0 0.0058441422483489214 -0.0015536689638347473 0 0.0059574505490263751 -0.0015652634380751286 0 0.0059109852505591226 -0.0015156611732299952 0 0.0058808335020462919 -0.0015926018270460594 0 0.0058441422483489214 -0.0015536689638347473 0 0.0059574505490263751 -0.0015652634380751286 0 0.0058808335020462919 -0.0015926018270460594 0 0.0059574505490263751 -0.0015652634380751286 0 0.0060963714196327996 -0.0016327709196194515 0 0.0059574505490263751 -0.0015652634380751286 0 0.0060963714196327996 -0.0016327709196194515 0 0.0060738986975836171 -0.0014910080131422896 0 0.0058762100396866522 -0.0013735638202385901 0 0.0060738986975836171 -0.0014910080131422896 0 0.0059109852505591226 -0.0015156611732299952 0 0.0059574505490263751 -0.0015652634380751286 0 0.0060738986975836171 -0.0014910080131422896 0 0.0059109852505591226 -0.0015156611732299952 0 0.0058762100396866522 -0.0013735638202385901 0 0.0060738986975836171 -0.0014910080131422896 0 0.0060632058877487533 -0.0012847625535316351 0 0.0060738986975836171 -0.0014910080131422896 0 0.0063973504243504458 -0.0013797945548209029 0 0.0060632058877487533 -0.0012847625535316351 0 0.0066642442770861055 -0.0011241068108861262 0 0.0061530848803211906 -0.001015131818935536 0 0.0063973504243504458 -0.0013797945548209029 0 0.0061530848803211906 -0.001015131818935536 0 0.0063973504243504458 -0.0013797945548209029 0 0.0060632058877487533 -0.0012847625535316351 0 0.005894066384836129 -0.001145147756573018 0 0.0061530848803211906 -0.001015131818935536 0 0.0060632058877487533 -0.0012847625535316351 0 0.0072010166371103534 -0.0012465379194641218 0 0.0068774350632755396 -0.0020469627365662974 0 0.0073093288614558671 -0.0016478843036558575 0 0.0071077646561071781 -0.0012311475291173651 0 0.0066356276727825613 -0.0017970705477018654 0 0.0072010166371103534 -0.0012465379194641218 0 0.0060963714196327996 -0.0016327709196194515 0 0.0063973504243504458 -0.0013797945548209029 0 0.0072010166371103534 -0.0012465379194641218 0 0.0066642442770861055 -0.0011241068108861262 0 0.0063973504243504458 -0.0013797945548209029 0 0.0072010166371103534 -0.0012465379194641218 0 0.0073093288614558671 -0.0016478843036558575 0 0.0074145786061542308 -0.001350379032806466 0 0.0073093288614558671 -0.0016478843036558575 0 0.0074145786061542308 -0.001350379032806466 0 0.0076539098779076289 -0.0014217139672748421 0 0.0074288851184773162 -0.0010663307323548487 0 0.0074145786061542308 -0.001350379032806466 0 0.0076539098779076289 -0.0014217139672748421 0 0.0080098628807247045 -0.001226755562651106 0 0.0076539098779076289 -0.0014217139672748421 0 0.007830758513464979 -0.0017349948148380203 0 0.0073093288614558671 -0.0016478843036558575 0 0.0076539098779076289 -0.0014217139672748421 0 0.0074947984294750176 -0.0018051881220152162 0 0.0076539098779076289 -0.0014217139672748421 0 0.0074947984294750176 -0.0018051881220152162 0 0.007830758513464979 -0.0017349948148380203 0 0.0080098628807247045 -0.001226755562651106 0 0.0087218717326171136 -0.001358071162123872 0 0.0081945734159405911 -0.001597387884022881 0 0.0080098628807247045 -0.001226755562651106 0 0.0081945734159405911 -0.001597387884022881 0 0.007830758513464979 -0.0017349948148380203 0 0.0081945734159405911 -0.001597387884022881 0 0.0080452891232547213 -0.0020323435126958669 0 0.007830758513464979 -0.0017349948148380203 0 0.0084806206188222377 -0.001791037283502361 0 0.0081945734159405911 -0.001597387884022881 0 0.0080452891232547213 -0.0020323435126958669 0 0.0083810987027125496 -0.00211842721986275 0 0.0084806206188222377 -0.001791037283502361 0 0.0080452891232547213 -0.0020323435126958669 0 0.0080026046348386608 -0.0023574703802717164 0 0.0080452891232547213 -0.0020323435126958669 0 0.0077227127217643519 -0.0020471088497636502 0 0.0080452891232547213 -0.0020323435126958669 0 0.0077227127217643519 -0.0020471088497636502 0 0.007830758513464979 -0.0017349948148380203 0 0.0077227127217643519 -0.0020471088497636502 0 0.007420197880927311 -0.0020565659296314402 0 0.0074947984294750176 -0.0018051881220152162 0 0.0075640221500151957 -0.0023071369628549832 0 0.0077227127217643519 -0.0020471088497636502 0 0.007420197880927311 -0.0020565659296314402 0 0.0077227127217643519 -0.0020471088497636502 0 0.0074947984294750176 -0.0018051881220152162 0 0.007830758513464979 -0.0017349948148380203 0 
</DataArray>
</PointData>
<CellData Scalars="region_id,cross_section_updated," Vectors="" Tensors="stress,">
<DataArray type="Float64" Name="region_id" format="ascii">
5 5 5 5 5 5 6 5 5 5 6 5 5 5 6 5 5 5 5 5 5 6 6 5 5 5 5 6 6 5 6 6 5 6 5 5 5 6 5 5 6 5 5 5 5 5 5 5 6 5 5 5 5 5 5 5 5 6 5 5 6 5 6 5 6 5 6 5 5 5 5 5 5 5 5 5 5 5 5 5 5 5 5 6 5 5 5 5 5 5 5 5 6 5 5 6 6 5 5 5 5 5 5 5 5 5 5 5 5 6 5 5 5 5 5 6 5 5 6 5 5 5 5 5 5 5 5 5 5 5 5 5 5 5 5 5 5 5 6 5 5 5 5 5 6 5 5 5 5 5 5 5 5 5 5 5 5 5 5 5 5 5 5 5 5 5 5 5 5 6 5 6 5 5 5 6 5 5 5 6 5 5 5 6 6 5 5 6 5 5 5 5 6 5 5 5 5 5 6 5 5 5 5 6 5 6 5 5 6 5 5 5 6 5 5 6 5 5 5 5 5 5 5 5 5 5 6 5 5 6 5 5 5 5 5 5 5 6 5 5 5 5 5 5 5 5 5 5 5 5 5 5 5 5 5 5 5 5 5 6 5 6 5 5 5 5 5 6 5 5 5 5 5 5 5 5 6 5 5 5 6 5 5 6 5 5 5 5 6 5 5 6 5 5 5 5 5 6 5 6 5 5 5 5 5 5 5 5 5 5 5 5 5 5 5 5 5 5 6 5 5 5 5 5 6 6 5 5 5 5 5 5 5 5 5 5 6 5 5 5 5 5 5 5 5 5 6 5 5 6 6 5 5 5 6 5 5 6 5 5 5 5 5 5 5 5 5 5 5 5 5 5 5 6 5 5 5 5 5 5 5 5 6 5 5 6 5 5 5 5 6 5 5 5 5 5 5 5 5 5 5 5 5 5 5 6 6 5 5 6 6 5 6 5 6 5 6 5 5 6 5 5 5 5 5 5 5 5 5 6 6 5 5 6 5 5 5 5 5 6 5 5 6 5 5 5 5 6 5 5 5 6 5 5 5 6 5 6 5 5 6 5 5 5 5 5 5 5 5 5 5 5 6 5 5 5 5 5 5 6 5 5 5 6 5 5 5 5 5 5 5 6 5 5 5 5 5 6 5 6 5 5 5 5 5 6 6 5 5 5 6 6 5 6 5 5 5 5 5 5 5 6 5 5 5 5 5 5 5 5 5 5 5 5 5 5 6 5 5 6 5 6 5 5 5 5 5 5 5 5 5 5 5 5 5 5 6 5 5 5 5 5 5 5 5 5 5 5 5 5 5 5 5 6 5 5 5 5 5 5 5 5 5 5 5 6 6 5 5 5 5 5 5 5 5 5 5 5 5 5 5 5 5 6 5 5 5 5 5 5 5 6 5 5 5 5 5 5 5 5 6 5 5 5 6 5 5 5 5 5 5 5 5 5 5 5 5 5 5 5 5 5 5 5 5 5 5 5 5 5 5 5 5 6 5 6 5 5 5 5 5 5 5 5 5 5 5 5 5 6 5 5 5 6 5 5 5 5 5 5 5 5 5 5 5 5 5 6 6 5 5 5 5 5 5 5 6 5 5 5 5 5 5 5 5 5 5 5 6 5 5 5 5 5 5 5 6 5 5 5 5 5 5 5 5 5 5 5 5 5 5 5 5 5 6 5 5 5 5 5 5 5 5 5 5 6 5 5 5 5 5 6 5 5 5 6 5 5 5 5 6 5 5 5 5 5 5 5 6 5 6 5 5 6 5 6 5 5 5 5 5 5 5 5 5 5 5 5 5 5 5 5 5 5 5 5 5 5 5 5 5 5 5 5 5 5 5 5 5 5 5 6 5 6 6 5 5 5 5 5 5 5 5 5 5 5 6 5 5 5 5 5 5 5 6 5 6 5 6 5 5 5 5 5 5 6 5 6 6 5 5 5 5 5 5 5 5 5 5 5 5 5 5 5 5 5 6 5 5 5 5 5 5 5 5 5 5 5 5 5 5 6 5 5 5 5 5 5 5 5 5 5 5 5 5 6 5 5 5 5 5 5 5 5 5 6 5 5 5 5 5 6 6 5 5 5 5 6 6 5 5 5 5 5 5 5 5 5 5 5 6 5 5 5 5 6 5 5 5 5 5 5 6 5 5 6 5 6 5 5 5 6 5 5 5 5 5 5 5 6 5 5 5 5 6 6 5 5 6 5 5 5 6 6 6 6 5 5 6 5 5 5 5 5 5 5 5 6 6 5 5 5 5 5 5 6 5 6 5 5 5 6 5 5 5 5 5 5 5 5 5 5 5 5 5 5 5 5 5 5 5 5 5 5 5 5 5 5 5 5 6 5 5 5 5 5 5 5 5 5 5 5 5 5 5 5 5 5 5 5 5 5 6 5 5 5 5 5 5 5 5 5 6 5 5 5 5 5 5 6 5 5 5 5 5 6 5 5 5 5 5 6 5 5 5 5 5 5 5 5 5 5 6 5 5 5 5 6 6 5 5 6 5 5 5 5 6 5 5 6 5 5 5 5 5 6 6 5 5 5 5 5 5 6 5 5 5 5 5 5 5 6 6 5 5 5 6 5 5 5 6 5 5 6 5 6 5 5 5 6 5 5 6 6 5 5 5 5 5 5 6 5 6 5 6 5 5 5 6 6 5 6 5 5 5 5 5 5 5 5 5 5 5 5 5 5 5 5 6 5 5 5 5 5 5 5 6 5 5 5 5 5 6 5 5 5 6 5 5 5 5 6 5 6 5 6 5 5 5 5 6 5 5 6 5 5 5 5 5 5 5 5 5 5 5 6 5 5 5 5 6 5 5 5 5 6 5 5 5 5 5 5 6 5 5 5 6 5 6 6 5 5 5 5 5 5 5 5 5 5 5 5 5 5 5 5 5 5 5 5 5 5 5 5 5 5 5 5 6 5 5 6 6 5 6 5 5 5 5 6 5 5 6 5 5 5 5 5 5 5 5 5 5 5 5 5 5 5 5 5 5 5 5 5 5 5 5 5 5 5 5 6 5 5 5 5 5 5 5 5 6 5 5 5 5 5 5 5 6 5 6 5 5 5 6 5 5 5 5 5 5 5 6 5 6 5 5 5 5 5 6 5 5 5 5 5 5 5 5 5 5 5 5 5 5 5 5 5 5 5 5 5 5 5 5 5 5 5 5 5 5 5 5 5 5 5 5 5 5 5 6 6 5 5 6 5 5 5 6 5 5 5 6 6 5 5 6 5 5 5 5 5 5 5 5 5 5 5 5 5 5 5 5 5 5 5 5 5 6 5 6 5 5 5 5 5 5 5 5 5 5 5 5 5 5 5 5 5 5 5 5 5 5 5 5 5 5 5 5 5 5 5 5 5 5 5 5 5 5 5 5 5 5 5 5 5 6 5 6 5 6 5 5 6 5 5 5 5 5 5 5 5 5 5 5 5 5 5 5 5 5 5 5 5 5 5 5 5 5 5 5 6 5 5 5 5 5 5 5 5 5 5 5 5 5 5 5 5 5 5 5 5 5 5 5 5 5 5 5 5 5 5 5 5 5 5 5 5 5 5 5 5 5 5 5 5 5 5 5 5 5 6 5 5 5 5 6 5 5 5 5 5 5 5 5 6 5 5 5 5 5 6 6 6 5 5 5 5 6 6 5 5 6 5 5 5 5 5 5 5 5 5 5 5 5 5 5 6 6 5 6 5 5 5 5 5 5 5 5 5 5 5 5 5 5 5 5 5 5 6 5 5 5 5 5 5 6 5 5 5 5 5 5 5 5 5 5 5 5 5 5 5 5 5 5 6 5 5 5 5 5 5 5 5 5 6 5 5 6 5 5 5 5 5 5 5 5 5 5 5 5 5 5 5 5 6 5 6 5 5 5 5 6 5 6 5 5 6 6 5 5 6 5 5 5 6 5 5 5 5 5 5 6 5 5 5 6 5 5 5 5 6 5 5 5 5 5 5 5 6 5 5 5 5 5 6 5 5 6 5 5 5 5 5 5 5 6 5 5 5 6 6 5 5 5 6 5 5 5 5 5 6 6 6 5 5 5 5 5 5 5 5 5 6 6 5 6 5 5 5 5 5 6 5 5 6 5 6 5 5 5 6 5 5 6 5 5 5 5 5 5 5 6 5 5 6 6 5 5 6 5 6 5 5 6 5 5 6 5 6 5 5 5 6 5 5 6 5 6 5 5 6 5 6 5 5 5 5 6 6 5 5 5 5 5 5 5 5 5 6 5 5 5 5 5 5 5 5 5 5 5 5 5 5 5 5 5 5 6 6 5 5 5 6 5 5 5 5 6 5 5 6 5 5 5 6 5 5 6 5 5 5 5 6 5 5 5 5 5 6 5 5 5 6 6 5 5 6 5 5 5 5 5 6 6 5 5 5 5 6 5 5 5 5 6 5 5 5 5 5 5 5 5 5 5 5 5 5 5 5 5 5 5 5 5 5 5 5 5 5 5 5 5 6 5 5 5 5 5 5 5 5 5 5 5 6 5 5 5 5 6 5 5 5 6 5 5 6 5 5 5 5 5 6 5 5 5 5 5 5 5 5 5 5 5 5 5 5 5 5 5 5 5 5 6 5 5 5 5 5 6 5 5 5 5 5 5 5 6 5 5 5 5 5 5 5 5 5 5 5 5 5 6 5 5 5 5 5 6 6 5 5 5 5 6 5 6 5 5 5 6 6 5 5 6 5 5 5 6 5 5 5 5 6 5 5 6 6 5 5 5 5 5 5 6 5 5 6 5 5 5 5 6 5 5 5 5 5 5 5 5 5 5 5 5 5 5 5 5 5 5 5 6 5 6 5 5 5 6 5 6 5 6 5 5 6 5 5 6 6 6 5 5 5 6 5 5 5 5 5 5 6 5 5 5 5 5 5 5 6 5 6 5 5 5 5 5 5 5 6 5 5 5 5 5 5 5 5 5 5 5 6 5 5 6 5 5 5 5 5 5 5 5 5 5 5 5 5 5 5 5 6 5 5 5 5 5 5 5 5 5 5 5 5 5 5 5 5 5 5 5 5 5 6 5 5 5 6 5 5 5 5 5 5 5 5 5 5 6 5 5 5 5 5 5 5 5 5 5 6 5 5 5 5 5 5 6 5 5 5 6 5 5 5 5 5 5 5 5 5 5 5 5 5 5 5 5 5 5 5 5 5 6 5 5 5 5 5 6 5 5 6 5 5 5 5 5 5 6 5 5 5 5 6 5 5 5 5 5 5 5 5 5 5 5 5 5 5 5 5 5 5 6 5 5 5 5 5 6 5 5 5 6 5 6 5 5 5 5 5 5 5 6 5 5 5 6 6 5 5 5 5 5 6 5 5 5 6 5 5 5 5 5 5 5 5 5 5 5 5 5 5 5 6 5 5 5 5 5 5 6 5 5 5 5 5 5 5 5 5 5 5 6 5 5 5 5 5 5 5 5 5 6 5 5 5 5 6 6 5 5 5 5 5 5 5 5 6 6 5 6 5 5 5 5 5 6 5 5 5 5 5 5 6 5 6 5 5 5 5 5 5 5 5 5 5 6 5 5 5 5 5 5 6 5 5 5 5 5 5 5 5 6 5 5 5 5 5 6 5 5 6 5 5 5 5 5 5 6 5 5 5 5 5 5 5 5 6 5 5 5 5 6 5 5 5 5 5 5 5 5 5 5 6 5 5 5 5 5 5 5 5 5 6 5 5 5 5 6 5 5 5 5 5 5 5 5 6 5 6 5 5 5 6 5 5 5 5 5 5 5 5 6 5 5 5 6 5 5 5 6 5 5 6 5 5 5 5 5 5 5 5 5 5 5 5 5 5 5 5 5 5 5 5 5 5 5 5 5 5 5 5 5 5 5 5 5 5 5 5 5 5 5 5 5 5 5 5 5 5 5 5 5 5 5 5 5 6 5 5 5 6 5 5 5 5 5 5 6 5 6 5 5 5 5 6 6 5 5 5 5 5 5 5 5 5 5 5 5 5 5 5 5 5 5 5 5 5 5 6 5 5 6 5 5 5 6 5 5 5 5 5 5 5 5 5 5 5 5 5 5 6 5 6 5 6 5 5 5 5 5 5 5 5 5 5 5 5 5 5 5 5 5 6 5 5 5 5 5 5 5 5 5 5 5 5 5 5 5 5 5 5 5 5 5 5 5 5 5 5 5 5 5 5 5 5 5 6 5 5 5 5 5 5 6 5 5 6 5 6 5 5 6 5 5 5 6 5 5 5 5 5 5 5 5 5 5 5 5 5 5 5 5 5 5 5 5 5 5 5 5 5 6 5 5 5 5 6 5 5 6 5 5 5 5 5 5 5 5 5 5 5 5 5 5 5 5 5 5 5 5 5 5 5 5 5 5 5 5 5 5 6 5 5 5 6 5 5 5 5 6 5 5 5 5 5 6 5 5 5 5 6 5 5 5 5 5 5 5 5 5 5 5 5 5 5 6 6 5 6 5 6 5 5 5 5 5 5 5 5 5 5 5 5 5 5 5 5 5 5 5 5 5 5 5 5 5 6 6 5 5 6 5 5 6 5 5 5 5 5 5 5 5 5 5 5 6 5 5 6 5 5 5 5 5 5 5 5 5 5 5 5 5 5 6 6 5 6 6 5 5 5 5 6 5 5 5 6 6 5 5 5 5 5 5 5 6 5 5 5 5 5 5 5 5 5 5 5 5 5 5 5 5 6 5 5 5 5 6 5 5 5 5 5 5 5 6 5 5 5 5 5 5 5 6 5 5 6 5 5 5 5 5 5 5 5 5 5 5 5 5 5 5 6 5 5 5 5 5 5 5 5 6 5 5 5 5 5 5 5 6 5 5 5 5 5 6 5 5 5 5 6 5 5 5 5 5 5 5 5 5 5 5 5 6 5 5 5 5 5 5 5 5 5 5 5 5 5 5 6 5 5 5 5 5 5 5 5 5 5 5 5 5 6 6 5 5 6 5 5 5 5 6 5 5 5 6 5 5 6 5 5 5 5 6 5 5 5 5 5 5 5 5 5 5 5 5 5 5 5 5 5 5 5 5 5 5 5 5 5 5 5 5 5 5 5 5 5 5 6 5 5 5 6 5 6 5 5 5 5 5 5 5 5 5 5 5 5 5 5 6 5 5 5 5 5 5 5 5 6 5 5 5 6 5 5 5 5 5 5 5 6 5 6 5 5 5 5 5 5 5 5 5 5 5 5 5 5 6 5 5 6 5 5 5 5 5 5 5 6 5 5 5 5 5 5 5 5 5 5 5 5 5 5 5 5 5 5 5 5 5 5 5 5 5 5 5 6 5 5 6 5 5 5 6 5 5 6 5 5 5 5 5 5 5 5 5 5 5 5 5 5 5 5 5 5 5 6 5 5 5 5 5 5 5 5 5 5 5 5 5 6 5 5 5 5 5 5 5 5 5 5 5 5 5 5 5 5 5 5 5 6 5 5 5 5 5 5 5 5 5 5 5 5 5 5 5 5 6 5 5 6 5 5 5 6 5 5 6 5 5 5 5 5 5 5 5 5 5 5 5 5 5 6 5 5 6 5 5 5 5 5 5 5 5 5 5 5 5 5 5 5 5 5 5 5 5 5 5 5 5 5 5 5 5 5 5 5 5 5 5 5 5 6 5 5 5 5 6 5 5 5 5 5 5 5 5 5 5 5 5 5 5 5 6 5 6 6 5 5 6 5 6 5 5 5 5 5 5 5 5 6 5 5 6 5 5 5 5 6 6 5 6 5 5 5 5 5 5 5 5 5 5 5 5 5 5 5 5 5 5 5 5 5 6 5 5 5 5 5 5 5 5 5 5 5 5 5 5 5 5 5 5 5 5 5 5 5 5 5 6 5 5 5 5 5 6 5 5 5 5 5 5 5 5 5 6 5 5 5 5 5 5 5 5 5 5 5 5 5 5 5 5 5 6 6 5 5 6 5 5 5 6 5 5 5 5 5 5 5 5 5 5 6 5 5 6 5 6 5 5 5 5 6 5 5 5 6 5 5 5 5 5 5 6 5 5 5 5 5 5 6 5 5 5 5 5 5 5 5 5 5 5 5 5 5 6 5 5 6 5 5 5 6 6 5 5 5 5 5 5 5 5 5 5 6 5 5 5 6 5 5 5 5 6 5 5 5 5 5 5 5 5 6 5 5 5 5 5 6 6 5 5 5 6 5 6 6 5 5 5 5 5 6 5 5 5 5 5 5 6 5 5 5 5 5 5 5 6 5 5 6 5 5 6 5 5 5 5 5 5 5 5 5 5 5 5 5 5 6 5 5 5 6 5 5 6 5 5 5 5 6 5 5 5 5 5 5 5 5 6 5 5 5 5 6 5 5 5 5 5 5 5 5 6 5 5 5 5 5 5 5 5 5 6 5 5 5 6 5 5 6 5 5 6 5 5 5 5 5 5 5 5 5 6 5 5 5 5 5 5 5 5 5 5 5 5 5 5 5 5 6 5 5 5 5 5 5 5 5 5 5 5 5 5 5 5 5 5 5 5 5 5 5 5 5 5 5 6 5 6 5 5 5 5 5 5 5 5 5 5 6 5 5 6 5 5 5 5 5 5 5 5 5 5 5 5 5 5 5 5 5 5 5 5 5 6 5 5 5 5 5 5 5 5 5 6 5 6 5 5 5 5 5 5 5 6 5 6 5 5 5 5 5 5 5 5 5 5 5 6 5 5 5 5 6 5 6 5 5 5 5 5 5 6 5 5 6 5 5 6 5 5 5 6 6 6 5 5 5 5 5 5 5 5 5 5 5 5 5 6 5 5 5 5 5 5 5 6 5 6 5 6 5 5 6 6 5 5 5 5 5 5 6 5 5 5 5 6 5 6 5 6 5 6 5 5 5 5 6 5 5 5 5 5 6 5 5 5 5 5 5 5 5 5 5 5 5 5 5 6 5 5 5 5 5 6 5 5 5 6 5 5 5 5 5 5 5 5 5 5 5 5 5 5 5 5 5 6 5 5 5 5 6 5 5 5 5 5 5 6 5 5 5 5 5 5 5 5 5 5 6 5 5 6 5 6 5 5 5 5 5 5 5 5 5 5 5 6 5 5 5 5 5 5 6 5 6 6 5 6 5 5 5 5 5 5 5 6 5 5 5 5 5 5 5 5 5 5 5 5 5 5 5 5 6 5 5 5 5 5 5 5 5 5 5 6 5 5 5 5 5 5 5 5 5 5 6 5 5 5 5 6 5 5 5 5 5 6 5 5 5 5 6 5 5 5 5 5 5 5 5 5 5 5 5 5 5 5 5 5 5 6 5 5 5 5 5 5 5 5 6 5 6 6 5 5 5 5 5 6 5 5 5 5 5 5 5 5 5 5 5 5 5 5 6 5 5 6 5 6 6 5 5 5 5 5 5 6 5 5 5 5 6 5 6 5 5 6 5 5 5 5 5 5 6 6 5 5 5 5 5 5 5 5 5 5 5 5 5 5 5 6 5 5 5 5 5 5 5 6 5 6 5 5 5 6 5 6 5 5 5 5 5 5 5 5 6 5 5 5 5 5 6 5 6 5 5 5 5 6 5 5 5 5 5 6 5 5 5 5 5 5 5 5 5 5 5 5 5 5 5 5 5 5 5 5 5 5 5 5 6 5 5 5 6 5 6 5 5 5 6 5 5 5 5 5 5 5 5 5 5 5 5 5 5 5 5 5 6 6 6 6 5 5 5 5 5 5 6 5 5 5 6 5 5 5 5 5 5 5 5 5 5 6 6 6 5 5 6 6 5 5 5 5 5 5 5 5 5 6 5 5 5 5 5 5 5 5 6 6 5 5 5 6 5 5 5 5 5 5 5 5 5 5 5 6 5 6 5 5 5 5 5 6 6 5 5 6 6 5 5 5 5 5 5 5 5 5 5 5 5 5 5 5 5 5 5 5 5 5 5 5 5 5 5 5 5 5 5 5 5 5 5 5 5 5 5 5 5 5 5 6 6 5 5 5 5 5 5 5 5 5 5 5 5 5 5 5 5 5 5 5 5 6 5 5 5 5 5 5 5 5 5 5 5 5 5 5 5 5 6 5 6 5 5 5 5 5 5 5 5 6 5 5 5 5 5 5 5 5 5 5 5 6 5 5 6 5 5 6 5 5 5 5 6 5 5 5 5 6 5 5 6 5 6 5 5 5 5 5 6 5 5 5 5 5 5 5 6 5 5 5 5 5 5 5 5 5 5 5 5 5 5 5 5 5 5 5 5 5 5 5 5 6 5 5 5 6 5 5 6 5 5 5 6 5 5 5 5 6 5 6 5 5 5 5 5 5 5 5 6 5 5 5 5 5 5 5 5 5 5 6 5 5 6 5 5 6 5 5 6 6 5 5 5 5 5 5 5 6 6 5 5 5 6 5 5 6 6 5 5 5 6 6 5 6 5 5 6 5 5 5 5 6 5 6 6 5 5 5 6 5 6 6 5 6 6 6 6 5 6 5 6 5 6 5 5 5 6 5 5 6 5 6 6 5 5 5 5 6 5 6 6 5 5 5 6 6 5 5 6 6 5 5 5 5 6 5 5 5 5 6 5 5 5 5 6 5 6 5 6 5 6 5 6 5 6 5 5 5 5 5 6 5 5 6 6 6 5 5 6 6 5 6 5 5 6 5 5 5 5 5 5 6 5 5 6 5 6 5 5 5 5 6 5 6 5 6 5 5 5 6 5 5 6 5 6 5 6 5 5 5 5 5 6 5 5 5 5 5 5 5 5 5 5 6 5 5 5 5 6 5 5 6 5 5 5 5 5 6 5 5 6 5 5 5 6 5 6 5 5 5 6 5 5 5 5 6 5 5 5 5 6 6 5 5 5 5 5 5 6 5 5 6 5 5 5 5 5 5 5 5 5 5 5 5 5 5 5 5 5 5 5 5 5 5 5 5 5 5 5 5 5 5 5 5 5 5 5 5 5 5 5 5 5 5 5 5 5 5 5 5 5 5 5 5 5 5 5 5 5 5 6 5 5 5 5 5 5 5 5 5 5 5 5 6 5 5 6 5 5 5 6 5 5 5 5 5 5 5 5 5 5 5 5 5 5 5 6 5 5 5 5 5 5 5 5 5 5 5 5 5 5 5 5 6 5 5 5 5 5 5 5 5 5 5 5 5 5 6 5 5 6 5 5 6 5 6 5 5 5 5 5 5 5 6 5 5 5 5 5 5 5 5 5 5 5 5 6 5 5 5 6 5 5 5 5 5 5 5 5 5 6 5 5 5 5 5 5 6 5 5 5 5 5 5 6 5 5 5 6 5 5 5 5 5 5 5 6 5 5 5 5 5 5 5 5 5 5 6 5 5 5 5 5 5 5 5 5 5 5 5 5 5 5 5 6 5 6 5 5 5 5 5 5 5 5 5 5 6 5 6 5 5 5 5 5 5 5 5 5 5 5 6 5 5 5 5 5 5 5 5 5 5 5 6 5 5 5 5 5 5 5 6 5 5 5 5 5 5 5 6 5 5 5 5 5 5 5 5 5 5 5 6 5 5 5 5 5 5 5 5 6 5 6 5 5 5 5 5 5 5 5 5 5 6 5 5 5 6 5 5 5 5 5 5 5 5 5 6 5 5 5 5 5 5 5 5 5 5 5 5 5 5 5 5 6 5 5 5 5 5 5 5 5 5 5 5 5 5 5 5 5 5 5 6 5 5 6 5 5 6 5 5 5 5 5 6 5 5 5 5 5 5 5 5 5 5 5 5 5 5 5 5 5 5 5 5 5 5 5 5 5 5 5 5 5 5 5 5 5 5 5 5 5 5 5 5 5 5 5 5 5 5 5 5 5 5 5 5 5 5 5 5 5 5 5 6 5 5 6 5 5 5 5 5 5 5 5 5 5 5 5 5 5 5 5 5 5 5 5 5 5 5 5 6 6 5 5 5 5 5 5 5 5 5 5 5 5 5 5 5 5 6 6 5 5 5 5 5 5 5 6 5 6 5 5 6 6 5 5 5 5 5 5 5 5 5 5 5 6 5 6 5 5 5 6 5 5 5 6 5 6 5 5 5 5 5 6 6 5 5 5 5 5 5 5 5 5 5 5 5 5 5 5 5 5 5 5 5 5 5 5 5 5 5 5 5 5 5 5 5 5 5 5 5 5 5 5 5 5 5 5 5 5 5 5 5 5 5 5 5 5 5 5 5 5 5 5 5 5 5 5 5 5 5 5 5 5 5 5 5 5 5 5 5 5 5 5 5 5 5 5 5 5 5 5 5 5 5 5 5 5 5 5 5 5 5 5 5 5 5 5 5 6 6 5 6 5 6 5 5 6 5 5 5 5 6 5 5 5 5 5 5 5 6 6 6 5 5 5 5 5 6 6 5 5 5 5 5 5 5 5 5 5 5 5 5 5 5 5 5 5 5 5 5 5 5 5 5 5 5 5 5 5 5 5 5 5 6 5 5 6 5 5 5 5 5 5 5 5 5 5 5 6 5 5 5 5 5 5 5 6 5 5 5 5 5 5 5 5 5 5 5 5 5 5 5 5 6 5 5 6 5 5 5 5 5 5 5 5 5 5 5 5 5 5 5 5 5 5 5 5 5 5 5 6 5 5 6 5 5 6 5 5 5 5 5 5 5 6 5 5 5 5 5 5 6 5 5 6 5 5 5 5 6 5 6 5 5 6 5 5 5 5 6 5 6 5 5 6 5 5 5 5 5 5 5 5 5 5 5 5 6 5 5 5 6 5 5 6 5 5 5 5 6 5 5 5 5 5 5 5 5 5 5 6 5 5 5 5 5 5 5 5 5 5 6 5 5 5 5 5 5 5 5 5 5 5 5 6 5 5 6 5 5 5 5 5 5 5 5 5 5 6 5 5 5 5 5 6 5 6 6 5 5 6 5 5 5 5 5 5 5 5 5 6 6 5 5 5 5 5 5 6 5 5 5 5 5 5 5 5 5 5 5 5 5 5 5 5 5 5 5 5 5 5 5 5 5 6 5 5 5 5 5 5 5 5 5 5 5 5 5 5 5 5 5 5 5 5 5 5 5 5 5 5 5 5 5 5 5 5 5 5 5 5 5 5 5 5 6 5 5 5 5 5 5 5 5 5 5 6 5 5 5 6 5 6 5 5 5 6 5 5 5 6 5 6 5 6 5 6 6 5 5 6 5 5 5 6 5 5 5 5 5 6 5 5 5 5 6 5 5 5 6 5 5 5 5 6 5 6 5 5 5 5 5 5 5 5 5 5 5 5 5 5 6 5 5 5 5 6 5 5 6 5 5 6 6 5 5 6 5 6 5 5 5 6 6 6 6 5 5 6 5 5 5 5 6 5 6 5 5 6 6 6 5 6 5 5 6 6 6 5 5 5 5 5 5 5 5 5 6 6 5 5 5 5 6 6 5 5 5 6 5 6 5 5 5 5 5 5 5 5 5 5 5 6 5 5 5 5 5 5 5 5 5 5 5 5 5 5 5 5 5 5 5 5 5 5 5 6 5 5 5 5 5 5 5 5 5 5 5 5 5 5 5 5 6 5 5 6 5 5 5 5 5 5 5 5 5 6 5 5 5 6 6 5 5 6 5 5 5 5 5 6 5 6 5 5 5 6 5 5 5 5 5 5 5 6 5 5 6 5 5 5 5 6 5 5 5 6 6 5 5 6 5 5 5 6 5 5 5 5 5 5 5 6 5 5 6 5 6 6 6 5 6 5 6 6 5 5 5 5 5 5 6 5 5 6 5 5 5 5 5 5 5 5 5 5 5 5 5 5 5 5 5 5 5 5 5 5 5 5 5 5 5 5 5 5 5 5 5 5 5 6 6 5 5 5 5 5 5 5 5 6 6 6 6 5 5 6 5 5 5 5 5 5 5 5 6 5 5 6 5 5 5 6 5 5 5 5 6 5 5 5 5 5 5 5 5 5 5 5 5 5 5 6 5 5 5 5 5 6 5 5 5 5 5 5 5 5 6 5 5 5 6 6 5 5 6 6 5 5 5 5 5 6 5 5 5 5 5 5 6 5 6 5 5 5 5 5 5 5 5 6 6 5 6 6 6 5 6 5 5 5 5 5 5 6 5 5 5 5 5 5 5 6 5 5 5 5 5 5 5 5 5 5 5 5 5 5 5 5 5 5 5 5 5 5 5 5 5 5 5 5 5 5 5 5 5 5 5 5 5 5 5 5 5 5 5 5 5 5 5 5 5 5 5 5 5 5 5 5 5 6 5 5 5 5 5 5 5 6 5 5 6 5 5 5 6 5 6 5 5 6 5 5 5 5 5 5 5 6 5 5 5 6 5 5 5 5 5 5 5 6 5 6 5 5 5 5 5 5 5 5 5 5 5 5 5 5 5 5 5 5 5 5 5 5 5 5 5 6 6 5 6 5 5 5 5 5 5 5 6 5 6 5 6 6 6 5 5 6 5 5 6 5 5 5 6 5 5 5 5 5 5 5 6 6 5 5 6 5 5 5 6 5 5 5 5 6 5 6 5 5 5 5 5 5 6 5 6 5 5 5 5 5 6 5 5 6 5 5 5 5 5 5 5 5 5 5 5 5 5 5 5 5 6 5 5 6 6 5 6 5 5 5 5 5 5 5 5 6 5 5 5 5 5 5 5 5 5 5 5 5 5 5 5 5 6 5 5 5 6 5 5 6 5 5 5 5 5 5 6 5 5 5 5 5 5 5 5 5 5 5 5 5 5 5 5 5 5 5 6 6 5 5 5 5 5 5 5 6 5 5 5 6 5 5 6 5 6 5 5 6 5 6 6 5 6 5 6 5 6 5 5 5 5 5 5 5 5 5 5 5 5 5 5 5 6 6 5 5 5 5 5 5 5 6 5 5 5 5 5 5 5 5 5 5 5 5 5 5 5 6 5 6 5 5 5 5 5 5 6 5 5 5 6 5 5 5 6 5 5 5 5 5 5 5 5 5 5 5 5 5 5 5 5 5 5 5 5 5 6 5 5 5 5 6 5 5 5 5 5 6 5 5 5 6 5 5 5 5 5 5 5 5 5 5 5 5 6 5 5 5 5 6 5 5 5 5 5 5 5 5 6 5 5 5 5 5 5 5 6 5 5 5 5 6 5 5 5 5 5 5 5 5 6 5 5 5 5 5 5 5 5 5 6 5 5 5 5 5 5 5 5 5 5 5 5 5 5 5 5 5 5 5 5 5 5 5 5 5 5 5 5 6 5 5 5 5 5 5 5 6 5 5 5 5 5 5 5 5 5 5 5 5 5 5 5 5 5 5 5 5 5 5 5 5 5 5 5 5 5 6 5 5 5 5 5 5 5 5 5 5 5 5 5 5 5 5 5 5 5 5 5 5 5 5 5 5 5 5 5 5 5 5 6 5 5 6 5 5 5 5 6 5 5 6 5 5 5 5 6 5 5 5 6 5 5 5 6 5 5 5 5 5 5 5 5 5 5 6 5 5 6 5 5 5 5 5 5 6 5 5 5 5 5 6 5 5 5 5 6 5 5 5 5 5 5 5 5 5 5 6 5 5 5 5 5 5 5 5 5 6 5 5 5 5 5 5 5 5 5 5 5 5 5 6 5 5 5 5 5 5 5 6 5 5 5 5 5 6 5 5 5 5 5 5 5 5 5 5 5 5 5 5 6 5 5 5 5 5 5 5 5 6 5 5 5 5 5 5 5 5 5 5 5 5 5 5 5 5 5 5 5 5 5 5 5 5 5 5 5 5 5 5 5 5 5 6 5 5 5 5 6 6 5 5 6 5 5 6 5 5 6 5 5 5 5 5 5 5 5 5 5 5 5 5 5 5 5 5 5 5 6 5 5 5 5 6 5 5 5 5 5 5 5 5 5 5 5 5 5 5 5 5 5 5 5 5 5 5 5 5 5 5 5 5 5 5 5 5 5 5 5 5 5 5 5 5 5 5 5 5 5 5 5 5 5 5 5 5 5 5 5 5 5 5 5 5 5 5 5 5 5 5 5 5 5 5 5 6 5 5 5 5 6 5 6 5 5 6 5 5 5 5 6 5 5 6 5 5 5 5 5 5 5 5 5 5 5 5 5 5 5 5 5 5 5 5 5 5 5 5 5 5 5 5 5 5 5 5 5 5 5 5 5 5 5 5 5 5 5 5 5 5 5 5 5 5 5 5 5 5 5 5 5 5 5 5 6 5 5 5 5 5 5 5 5 5 6 5 5 5 5 5 5 5 6 5 5 5 5 5 5 5 5 5 5 5 5 5 5 5 5 5 5 5 6 6 5 5 6 5 6 5 5 5 5 5 5 5 5 5 5 5 5 5 5 5 5 5 5 5 5 5 5 5 5 5 5 5 5 5 5 5 5 5 5 5 5 5 5 5 5 5 5 5 5 5 5 5 5 5 5 5 5 5 5 5 6 6 5 5 5 5 5 5 5 5 5 5 5 5 5 5 5 5 5 5 5 5 6 5 5 5 5 5 5 5 5 5 5 6 5 5 5 6 5 5 5 5 5 5 6 5 5 5 5 5 5 5 5 5 5 5 5 5 6 5 5 5 5 5 5 6 6 5 6 5 5 6 5 5 5 6 5 5 5 6 5 5 5 5 5 6 5 6 5 5 5 5 6 5 5 5 5 6 5 6 5 5 6 6 5 5 5 5 5 6 5 5 5 5 5 6 6 6 5 6 5 6 5 5 5 5 5 6 5 5 5 5 5 5 5 5 6 6 5 5 6 5 5 5 5 6 5 5 6 5 5 6 5 5 5 5 5 5 5 5 5 6 5 5 5 5 5 5 5 5 6 5 5 5 5 5 5 5 5 5 6 6 5 5 5 5 5 5 5 5 5 5 5 5 5 5 5 5 5 5 5 5 5 5 5 5 5 5 5 5 5 5 5 5 5 5 5 6 5 5 5 5 6 5 5 5 5 5 5 5 5 5 5 5 5 5 5 5 5 6 6 5 5 5 5 5 5 5 5 5 6 5 5 5 5 6 5 5 6 5 5 5 5 5 5 5 5 5 5 5 5 5 6 5 5 5 5 5 5 5 5 5 5 5 5 5 5 5 5 5 5 5 5 5 5 5 5 5 6 5 5 5 5 5 6 5 5 5 6 5 5 5 6 6 5 5 5 5 5 5 5 5 5 5 5 5 5 5 6 5 5 5 6 5 5 5 5 6 6 5 5 5 5 5 5 5 5 5 5 5 5 5 5 5 5 5 5 5 5 5 5 5 6 5 5 5 5 5 5 5 5 5 6 5 5 5 5 6 5 6 5 5 5 5 6 5 5 5 5 5 5 5 5 5 5 5 5 5 5 5 6 5 5 6 5 5 5 5 5 5 5 5 5 5 6 6 5 5 5 5 6 5 5 5 6 5 5 5 5 6 6 5 6 5 6 5 6 5 5 6 5 5 6 5 5 6 5 5 5 6 5 5 6 5 6 5 6 5 5 6 5 5 5 5 5 5 5 5 5 5 5 5 5 6 5 5 5 5 5 5 5 5 5 5 5 5 5 5 5 5 6 6 5 5 5 5 5 6 5 5 5 5 6 5 5 6 5 5 5 5 6 5 5 5 5 5 5 5 5 5 5 5 5 5 5 5 5 5 5 5 5 5 5 5 5 5 5 5 5 5 5 5 5 5 5 5 5 5 5 6 5 5 5 5 5 5 5 5 5 5 5 5 5 6 5 6 5 5 5 5 6 5 5 5 5 5 5 5 5 5 5 5 5 5 5 5 5 5 5 6 5 6 5 5 6 5 5 5 6 5 5 5 5 5 5 5 5 5 5 5 5 5 5 5 5 5 5 5 5 5 5 5 5 5 5 5 6 5 5 6 5 5 5 5 5 5 5 5 5 5 5 5 5 5 5 5 5 5 5 5 5 5 5 5 5 5 5 5 5 5 5 5 5 5 5 6 5 6 5 5 5 5 5 5 5 5 5 5 5 5 5 5 5 5 5 6 6 5 5 5 5 5 6 5 5 5 5 6 5 5 5 5 6 5 5 5 5 5 5 5 5 5 5 5 5 5 5 5 5 5 5 6 5 5 5 5 5 5 6 5 5 6 5 5 5 5 5 5 5 5 5 5 5 5 6 5 5 6 5 5 5 5 5 5 5 5 6 5 5 5 5 5 5 6 5 5 6 5 5 5 5 5 5 5 5 5 5 5 5 5 5 5 5 5 5 5 5 5 5 5 5 5 5 5 5 5 5 5 5 5 5 5 5 6 5 5 5 6 5 5 6 5 5 5 5 5 5 6 5 5 5 5 5 6 5 5 5 5 5 5 6 5 5 5 5 6 5 6 5 5 6 5 5 5 6 5 5 5 5 5 5 5 5 5 5 5 5 5 6 5 5 5 5 5 5 5 5 5 5 5 5 5 5 5 5 5 5 5 5 5 5 5 5 6 5 6 5 6 5 6 5 5 5 5 6 5 5 5 5 6 5 5 5 5 5 5 5 5 5 5 5 5 5 5 6 5 5 5 6 5 5 5 6 5 5 6 5 5 5 6 5 5 5 5 6 5 5 5 5 6 5 5 5 5 5 5 5 5 5 5 6 5 5 5 5 5 6 5 6 5 5 5 5 5 6 6 5 5 6 5 6 5 5 6 5 5 5 5 5 5 5 5 5 5 5 5 5 6 5 5 5 5 5 6 5 5 5 5 5 5 5 5 5 5 6 5 6 5 5 6 5 5 6 5 6 5 6 5 5 5 5 5 6 6 5 5 5 5 5 5 5 5 5 5 5 6 5 5 5 5 5 6 5 5 5 6 5 6 5 5 5 5 5 5 5 5 5 5 5 5 5 5 5 6 5 5 5 5 6 5 5 5 5 5 5 5 5 5 5 5 5 5 5 5 5 5 5 5 5 5 5 5 6 5 5 6 5 5 5 5 5 5 5 6 5 5 6 5 6 5 5 5 5 5 5 5 5 5 6 5 5 6 5 5 5 6 5 5 5 5 5 5 5 6 5 5 5 5 6 6 5 5 5 5 5 5 5 5 5 6 5 5 5 5 5 5 5 5 5 5 5 5 5 5 5 5 6 5 6 5 5 5 6 5 5 5 5 5 5 5 5 5 5 5 5 5 6 5 5 5 5 5 6 5 5 5 6 6 5 5 5 6 5 5 6 5 5 5 5 6 6 5 5 5 6 5 5 6 5 5 5 5 6 5 6 5 5 5 6 5 5 5 5 5 5 5 5 5 5 5 5 5 5 5 5 5 5 5 5 5 6 5 5 5 5 5 5 5 5 5 6 5 5 5 6 5 6 5 5 5 5 5 5 5 5 5 5 5 6 5 5 5 5 5 6 5 5 5 5 5 6 5 5 5 5 5 5 5 5 5 5 5 5 5 5 5 5 6 5 5 5 5 5 5 5 5 5 6 5 5 5 5 5 5 5 5 5 5 5 5 5 5 5 6 5 5 5 5 5 5 5 5 5 5 5 5 5 5 5 5 5 5 5 5 5 5 5 5 5 5 5 5 5 6 5 5 5 5 6 5 6 6 5 5 5 5 5 5 6 5 6 5 5 5 6 5 5 6 5 5 5 5 5 5 6 5 5 5 5 5 5 5 6 5 5 5 5 6 5 5 5 5 5 5 6 5 5 5 5 5 5 5 5 5 5 5 5 6 5 6 5 5 5 5 5 5 5 6 6 5 5 5 5 5 5 5 5 6 5 5 5 6 5 5 6 5 5 5 5 5 5 5 5 5 5 5 5 5 5 5 5 5 5 5 5 5 5 5 5 5 6 5 5 6 5 5 5 5 5 6 5 5 6 5 6 5 5 5 6 5 5 5 5 6 5 5 6 6 5 5 5 5 5 6 5 5 6 5 5 5 5 5 6 5 5 5 5 5 5 5 5 5 6 5 5 5 5 6 5 5 5 5 5 5 6 5 6 5 5 5 6 5 6 5 5 6 5 6 5 5 5 6 5 5 5 5 5 5 5 5 5 5 5 5 5 6 5 5 5 5 6 5 5 5 5 5 5 6 5 5 5 5 5 5 5 6 5 5 5 5 5 5 6 5 5 5 5 5 5 5 6 5 5 6 5 5 5 5 5 5 5 5 5 6 6 5 5 5 5 5 5 5 5 5 5 5 5 6 5 5 5 5 5 5 5 6 5 5 5 6 5 6 5 5 6 5 5 5 5 5 6 5 5 5 6 5 5 5 5 6 5 5 5 6 5 5 5 5 5 5 5 6 5 5 6 5 5 5 6 5 5 5 6 5 5 5 5 6 5 5 5 6 5 5 5 5 5 5 5 5 5 6 5 5 5 5 5 5 5 5 5 6 5 5 5 5 6 5 5 6 5 5 5 5 5 5 5 5 5 5 5 5 5 5 5 5 5 5 5 5 5 5 5 5 5 5 6 5 5 5 5 5 5 5 5 5 5 5 6 5 5 5 6 5 5 5 5 5 5 6 5 5 5 5 5 5 5 5 5 5 5 5 5 5 5 5 5 5 5 5 5 5 5 5 5 5 6 5 6 5 5 6 6 5 5 5 5 5 5 5 5 5 5 5 5 5 5 5 5 5 6 5 5 5 5 5 5 5 5 5 5 5 5 5 5 5 5 5 5 5 5 5 5 5 5 5 5 5 5 5 5 5 5 5 5 5 5 5 5 5 5 5 5 5 5 5 5 5 5 5 5 5 5 5 5 5 5 5 5 5 5 5 6 5 5 6 5 5 5 5 6 5 5 5 5 5 5 5 5 5 5 6 5 6 5 5 5 6 5 5 5 6 5 6 5 5 5 6 5 6 5 6 5 5 5 6 5 5 5 5 6 5 6 5 5 5 5 5 6 5 6 6 5 5 5 5 5 5 6 5 5 5 6 5 5 5 5 5 5 5 5 5 5 5 5 5 5 5 5 5 5 5 6 5 5 5 6 6 5 5 5 5 5 6 5 5 5 5 5 5 5 5 5 5 5 5 5 5 6 5 5 6 5 6 5 5 5 6 5 6 5 5 6 5 5 5 5 5 5 5 5 5 5 5 6 5 5 5 5 5 5 5 5 5 5 6 6 5 5 5 5 5 5 5 6 5 5 5 5 5 5 5 5 5 5 5 5 5 5 6 5 5 5 5 5 5 5 5 5 5 6 5 5 5 6 5 6 6 5 5 5 5 5 5 5 5 6 5 5 5 5 5 5 5 5 5 6 5 6 5 6 5 5 5 5 5 5 5 5 6 5 6 5 5 5 5 5 5 6 5 5 6 5 6 5 5 5 5 5 5 5 5 5 5 5 5 5 5 6 5 5 5 5 5 5 5 5 5 5 6 5 5 5 5 5 5 6 5 5 5 5 5 5 5 5 5 5 5 5 5 5 5 5 5 5 5 5 5 5 5 5 5 6 5 5 5 5 5 6 5 5 5 5 5 5 5 5 5 5 5 6 5 5 5 5 6 5 5 5 5 5 6 5 5 5 5 5 6 5 5 6 5 5 5 5 5 5 5 5 5 5 5 5 5 5 5 5 5 5 5 5 5 5 5 5 5 5 6 5 5 6 5 5 5 5 5 5 5 5 5 5 5 5 5 5 5 6 5 5 5 5 5 5 5 5 5 6 5 5 5 5 5 5 5 6 5 5 5 5 5 6 5 5 5 5 5 5 6 5 5 5 5 6 5 5 5 5 5 5 5 6 5 5 6 5 5 6 5 5 5 5 6 5 5 5 5 5 5 5 5 6 5 5 6 5 5 5 5 5 5 5 5 5 6 5 5 5 5 5 6 5 5 5 5 6 5 5 5 6 5 5 5 5 5 5 5 5 5 5 5 6 6 5 5 5 5 5 5 5 5 5 5 5 6 5 5 5 5 5 6 5 6 6 5 6 6 5 5 6 5 5 5 5 5 5 6 5 6 6 5 5 5 5 5 6 5 5 5 5 5 5 5 5 6 5 5 5 5 6 5 5 5 5 5 6 5 5 6 5 5 5 5 5 5 5 6 5 6 5 5 5 5 5 5 5 6 6 5 5 5 5 5 5 5 6 5 5 5 5 5 5 6 5 5 5 5 5 5 5 5 5 5 5 5 5 5 6 5 5 6 5 5 5 5 6 5 5 5 5 6 5 5 5 5 5 5 6 5 5 5 5 5 5 5 6 5 5 5 6 5 5 5 5 6 5 5 6 5 5 5 5 5 5 5 6 5 5 5 5 6 5 6 5 5 5 5 5 5 5 5 5 5 5 5 5 5 6 5 5 5 5 5 5 5 6 5 5 6 5 5 6 5 5 5 5 5 5 5 5 5 6 5 5 5 6 5 5 5 5 5 5 5 5 5 6 5 5 5 5 5 5 5 5 5 5 5 6 5 5 5 6 5 5 5 5 5 5 5 5 5 5 5 6 5 5 5 5 5 5 5 5 5 5 6 5 5 5 5 5 6 5 5 5 5 5 5 5 5 6 5 5 6 5 5 6 5 5 5 5 6 6 5 5 5 5 6 5 5 5 5 6 5 5 6 5 5 5 5 6 5 5 6 5 5 5 5 5 6 5 5 5 5 5 5 5 5 6 5 6 5 5 5 5 5 5 5 5 5 6 6 5 5 5 5 5 5 6 5 5 6 5 5 6 5 6 5 5 5 6 5 5 6 5 5 5 5 5 5 5 5 6 6 5 5 6 6 5 5 5 5 6 5 5 5 6 5 6 5 6 6 6 5 6 5 5 5 6 5 5 5 5 5 5 5 5 5 6 5 5 6 5 5 5 5 5 5 6 5 5 5 5 5 5 6 6 6 5 5 5 5 5 5 5 5 5 5 5 6 5 5 5 5 6 5 5 5 5 5 5 5 5 6 5 5 6 5 5 5 6 5 5 5 5 5 5 5 5 5 6 5 5 5 5 5 5 5 5 6 5 5 5 6 5 5 6 5 5 5 6 5 6 5 5 6 5 6 5 5 6 5 5 5 5 5 5 6 5 5 6 5 5 5 5 5 5 5 5 5 5 5 5 5 5 5 5 5 5 5 5 5 5 5 5 5 5 5 5 5 5 5 5 5 5 5 5 5 5 5 5 5 5 5 5 5 5 5 5 5 5 5 5 5 5 5 5 5 5 5 5 5 5 5 5 5 5 5 5 5 5 5 5 5 5 5 5 5 5 5 5 5 5 5 5 5 5 5 5 5 5 5 5 5 5 5 5 6 5 5 5 5 6 5 5 5 5 5 5 5 5 5 5 5 5 6 6 5 5 5 5 5 5 5 5 5 5 5 5 5 5 5 6 5 5 5 6 5 5 5 5 5 5 5 5 5 5 6 5 6 5 5 5 5 5 5 5 5 5 5 5 5 5 5 5 5 5 5 5 5 5 5 5 5 6 5 5 5 5 6 5 5 5 5 5 5 5 5 6 5 5 5 5 5 5 5 5 5 5 5 5 5 5 5 5 5 5 5 5 5 5 5 5 5 5 5 5 5 5 5 5 5 5 5 5 5 5 5 5 5 5 5 5 5 5 5 5 5 6 5 5 5 5 5 5 5 5 5 5 5 5 5 5 5 5 5 5 5 5 5 5 5 5 5 5 5 5 5 5 5 5 6 5 5 5 5 5 5 6 5 5 5 5 5 5 6 5 5 6 5 6 5 6 5 5 5 5 6 5 5 5 5 5 6 5 5 5 6 6 5 5 5 6 5 5 5 5 6 6 5 5 5 5 5 5 5 5 5 5 5 5 5 5 6 5 5 6 5 5 6 6 5 5 5 5 5 5 5 5 5 5 6 5 6 5 5 5 5 5 5 5 5 5 5 5 6 5 5 5 5 5 5 5 6 5 5 5 5 5 5 5 5 5 5 5 5 5 5 5 5 5 5 6 6 5 5 5 5 5 5 5 5 5 5 5 5 5 5 5 5 5 6 5 5 5 5 5 5 5 5 5 6 5 5 5 5 5 5 5 5 5 5 5 5 6 5 5 5 5 6 5 6 5 5 5 5 5 5 5 5 5 6 5 5 5 5 6 5 5 5 5 6 5 6 5 5 5 5 5 5 5 5 5 5 5 5 6 5 5 5 5 5 5 5 5 5 5 5 5 5 5 5 6 5 6 5 5 6 5 5 5 6 5 6 5 5 6 5 5 6 5 6 5 5 5 5 5 5 5 6 6 5 5 5 5 6 6 5 5 6 6 5 6 5 5 6 6 5 5 6 5 5 6 5 5 5 5 5 5 5 5 6 5 5 6 5 6 5 5 5 6 5 5 5 5 5 5 5 5 6 5 5 5 5 5 5 5 5 5 5 5 5 5 5 5 5 5 5 5 5 5 5 6 5 5 5 5 5 5 5 5 5 5 5 5 5 5 5 5 5 5 
</DataArray>
<DataArray type="Float64" Name="stress" NumberOfComponents="9" format="ascii">
1415.7847720153768 -116.1873139737975 0 -116.1873139737975 0.77454002267047872 0 0 0 0 2494.8793570547459 -716.47859701100992 0 -716.47859701100992 -308.70590130410915 0 0 0 0 1650.5456224629925 -1387.8701847058851 0 -1387.8701847058851 261.87417173887934 0 0 0 0 1295.8842827009139 -408.20801861307717 0 -408.20801861307717 -7.4322630656822497 0 0 0 0 -250.2695668982451 -13.955067317564565 0 -13.955067317564565 285.64402100249612 0 0 0 0 875.10228679719512 -1263.097978654072 0 -1263.097978654072 959.51471719966003 0 0 0 0 13.79908181645618 -1.213695838575557 0 -1.213695838575557 -0.23831274445571154 0 0 0 0 87.307370479196834 -135.28029801768531 0 -135.28029801768531 73.376253645791195 0 0 0 0 605.51165410511021 168.63215188922044 0 168.63215188922044 -799.59724390500458 0 0 0 0 146.50081235224206 -195.65141241775751 0 -195.65141241775751 -259.25986594567269 0 0 0 0 23.336374805872083 0.098553609372999063 0 0.098553609372999063 -1.9618740857992276 0 0 0 0 1096.9403865583881 65.627872336633345 0 65.627872336633345 -85.876633152209706 0 0 0 0 -393.98476467220462 -196.32710851430693 0 -196.32710851430693 -126.27199709399115 0 0 0 0 -149.05528459430207 262.13523282240232 0 262.13523282240232 414.81474644956887 0 0 0 0 4.600381087966781 1.4506812801162177 0 1.4506812801162177 0.56288555748272406 0 0 0 0 745.16557053511497 -179.34689970324146 0 -179.34689970324146 304.97115454218567 0 0 0 0 374.41539649126207 -313.93380264957131 0 -313.93380264957131 299.5819684570489 0 0 0 0 739.89750219707548 -250.17902999152795 0 -250.17902999152795 -34.95709110351585 0 0 0 0 160.79594939708477 57.047747435497399 0 57.047747435497399 -12.860412617193251 0 0 0 0 64.119944532838417 14.485972528623485 0 14.485972528623485 -0.0052809737315997474 0 0 0 0 107.44554337606678 -18.304767947040979 0 -18.304767947040979 4.2574294224288707 0 0 0 0 2.486229235263238 1.1913350877853475 0 1.1913350877853475 -0.42115343478963402 0 0 0 0 12.818136697615842 2.263737467025507 0 2.263737467025507 -0.43441444509446125 0 0 0 0 322.95701100127917 124.31248915244976 0 124.31248915244976 -269.44541756100426 0 0 0 0 7.8468131772642664 -0.8394050348064982 0 -0.8394050348064982 -2.1167274166402188 0 0 0 0 -6.8703384726577497 -7.8012212321737877 0 -7.8012212321737877 -4.7809040137498116 0 0 0 0 4.8709714684082428 -0.90161624535419316 0 -0.90161624535419316 -0.86221567697554935 0 0 0 0 -0.0016205443372143691 -0.37820505480510391 0 -0.37820505480510391 0.34855186292552659 0 0 0 0 0.46381416010639498 -0.32471971184345705 0 -0.32471971184345705 0.11560274283556388 0 0 0 0 7.8686970714625204 -2.015275998209157 0 -2.015275998209157 -1.4895414043340938 0 0 0 0 5.9679986794108402 -1.1733147133391668 0 -1.1733147133391668 -0.49537113552118106 0 0 0 0 9.2063779709004905 -3.0595508936870317 0 -3.0595508936870317 -1.2934025933931195 0 0 0 0 2.7015951230205246 -7.3272720559120259 0 -7.3272720559120259 4.7780756216307054 0 0 0 0 2.4387620285397844 -3.5060548815836512 0 -3.5060548815836512 0.24504704816948308 0 0 0 0 1.7483123870370036 -6.9588740783749623 0 -6.9588740783749623 8.537003262919729 0 0 0 0 19.028959525878236 20.816293642777083 0 20.816293642777083 21.292177931698802 0 0 0 0 1.5492644618207123 -14.793731731521646 0 -14.793731731521646 -2.2148680237911975 0 0 0 0 8.9741749362616474 -6.5794774019071838 0 -6.5794774019071838 1.3810789667502017 0 0 0 0 62.4540444876111 -319.9002790217466 0 -319.9002790217466 -56.003746360405501 0 0 0 0 -277.10580659646439 229.51576617731823 0 229.51576617731823 435.37814639021258 0 0 0 0 2.2311722612865736 -1.3507646747715825 0 -1.3507646747715825 -0.70838201207429297 0 0 0 0 35.858694343900424 -64.842877874235597 0 -64.842877874235597 35.217938599307445 0 0 0 0 -269.32531720437692 -73.557043556348958 0 -73.557043556348958 130.09725114332548 0 0 0 0 34.847067258531752 5.8282166691411703 0 5.8282166691411703 -19.406899910127891 0 0 0 0 23.525608734082198 8.6672775699844919 0 8.6672775699844919 16.391218128765559 0 0 0 0 48.698626321158372 -4.6155751901419251 0 -4.6155751901419251 -76.460564110546215 0 0 0 0 -22.618023903778521 67.330271592705657 0 67.330271592705657 -55.269695517496075 0 0 0 0 71.443333260784129 251.54834622554137 0 251.54834622554137 -107.83200825247428 0 0 0 0 9.871141271699571 0.51584017686811734 0 0.51584017686811734 -0.40504680316239283 0 0 0 0 254.61146502610791 575.26867614029368 0 575.26867614029368 -347.51896969639472 0 0 0 0 724.19907846304704 -97.123083360048042 0 -97.123083360048042 -144.89192637730474 0 0 0 0 248.4948979843175 -438.52664368399712 0 -438.52664368399712 425.16946528994066 0 0 0 0 50.623765202923096 -118.88180838761537 0 -118.88180838761537 189.35270622516626 0 0 0 0 153.2490496081009 -47.686107519313055 0 -47.686107519313055 -158.68613508013027 0 0 0 0 320.60320065235283 -228.34478005295148 0 -228.34478005295148 -18.460218984150458 0 0 0 0 65.852950798915117 136.17928152620385 0 136.17928152620385 -117.45548054123492 0 0 0 0 74.603507705935044 -17.381007093752714 0 -17.381007093752714 -19.398882911802502 0 0 0 0 63.920826454892023 -1.7049616079690182 0 -1.7049616079690182 -5.0010305912709008 0 0 0 0 79.387624037678506 0.38482204473078241 0 0.38482204473078241 -52.972957367819163 0 0 0 0 34.163483628195536 -11.818810935949735 0 -11.818810935949735 -9.5572433492996538 0 0 0 0 23.170901950409302 -10.72478926759851 0 -10.72478926759851 -1.5652864157162796 0 0 0 0 -0.61961166039691307 106.29073612134836 0 106.29073612134836 -147.12378690878327 0 0 0 0 67.215427420621069 -1.5661745966684073 0 -1.5661745966684073 -6.3816893053790826 0 0 0 0 124.18019750956591 173.52513485878512 0 173.52513485878512 -126.59173140010734 0 0 0 0 17.533191357550749 1.3816801181565097 0 1.3816801181565097 -8.3986497481507829 0 0 0 0 71.031933510304953 -19.153372520410358 0 -19.153372520410358 -15.058364840442891 0 0 0 0 31.703033733760151 -17.60475420902354 0 -17.60475420902354 2.6694923402686364 0 0 0 0 70.663994051894406 -18.443040780666024 0 -18.443040780666024 -9.4475188079395593 0 0 0 0 51.964731797794229 -19.427942286404914 0 -19.427942286404914 -9.0171368674054975 0 0 0 0 73.46246681590128 -33.891795743601506 0 -33.891795743601506 -3.719106949871275 0 0 0 0 74.831201159592183 -24.300126916163379 0 -24.300126916163379 -26.079406224688682 0 0 0 0 69.670871633901697 -59.373142059918564 0 -59.373142059918564 -23.549590946100125 0 0 0 0 43.686620086828043 -64.1656865128748 0 -64.1656865128748 64.360501800765633 0 0 0 0 63.977423617179738 -51.190238752081768 0 -51.190238752081768 -0.46343048294625078 0 0 0 0 68.101175674317346 -9.5504088883510576 0 -9.5504088883510576 -34.022055763277308 0 0 0 0 109.33554451084092 -1.0331449752826529 0 -1.0331449752826529 -32.451096965253328 0 0 0 0 99.077398399989761 -40.133966828669827 0 -40.133966828669827 -17.988630343404566 0 0 0 0 92.291929721177439 -28.152379194427567 0 -28.152379194427567 -38.142018068660946 0 0 0 0 134.85915237314475 -30.362207716567809 0 -30.362207716567809 -38.514508648723393 0 0 0 0 91.054015645189793 12.368512885148789 0 12.368512885148789 -41.591901408154627 0 0 0 0 92.630522949359147 35.154723387845934 0 35.154723387845934 1.6952984892288896 0 0 0 0 77.717493532960361 12.667211413672703 0 12.667211413672703 -20.655239968934666 0 0 0 0 62.696287532395218 25.731988452592532 0 25.731988452592532 -30.274131952449579 0 0 0 0 6.6907575743963221 9.1785523086053331 0 9.1785523086053331 -17.990122335565005 0 0 0 0 233.80713205890788 202.34847995477639 0 202.34847995477639 243.12883825875087 0 0 0 0 87.202953520149094 22.350756454395423 0 22.350756454395423 -38.333772263405081 0 0 0 0 495.18762215893366 350.4538832900289 0 350.4538832900289 -111.68098188343529 0 0 0 0 1499.8919429251764 1267.9782589264773 0 1267.9782589264773 -83.477374560435905 0 0 0 0 432.51720956926874 626.99586277571802 0 626.99586277571802 661.37487384620408 0 0 0 0 2495.9915847749144 1750.9492328936924 0 1750.9492328936924 242.30727261941416 0 0 0 0 1526.1923835860362 1062.9790397285874 0 1062.9790397285874 -174.23253502464672 0 0 0 0 527.88444709678879 1445.970318433152 0 1445.970318433152 2488.1036033536247 0 0 0 0 12.619438601608834 4.6577758736575916 0 4.6577758736575916 3.8909800795435077 0 0 0 0 332.20657242728339 330.67069510057399 0 330.67069510057399 250.67910972051595 0 0 0 0 241.36363334541056 307.53750900981424 0 307.53750900981424 426.35547817569773 0 0 0 0 31.122260235565818 11.791286530250318 0 11.791286530250318 0.40768749149505201 0 0 0 0 12.937828895406355 0.13118220068820108 0 0.13118220068820108 2.8215714680760593 0 0 0 0 246.69242424933327 -114.40779709380067 0 -114.40779709380067 234.36539467935827 0 0 0 0 669.04291520005791 5.5241674309807118 0 5.5241674309807118 -30.32600965280929 0 0 0 0 750.51412077316309 -305.31686885132564 0 -305.31686885132564 -84.155146543873414 0 0 0 0 2496.5810497825951 -1228.0790735752603 0 -1228.0790735752603 242.6652718337188 0 0 0 0 2493.3342440068882 -457.56137217486372 0 -457.56137217486372 -105.72160856846391 0 0 0 0 1259.3157821082059 162.10099863438558 0 162.10099863438558 146.22511712686071 0 0 0 0 400.12866930234304 614.8563658469119 0 614.8563658469119 -61.465140850797098 0 0 0 0 -40.254922748237732 -69.277529442994108 0 -69.277529442994108 476.80139114877267 0 0 0 0 35.745286892035438 -561.59077107371945 0 -561.59077107371945 226.52373172304311 0 0 0 0 41.369983099255478 -168.9196801438685 0 -168.9196801438685 70.470976056433486 0 0 0 0 -50.9406408556315 -151.10844001919156 0 -151.10844001919156 181.1349250281512 0 0 0 0 76.328661998049938 21.281149043351661 0 21.281149043351661 69.411275706110473 0 0 0 0 58.438962969755323 -2.2138130300067012 0 -2.2138130300067012 -6.9665567606690004 0 0 0 0 78.002576734925242 31.971287735262763 0 31.971287735262763 -46.230714360823185 0 0 0 0 82.178314722754294 108.87353667375214 0 108.87353667375214 306.06490925795765 0 0 0 0 30.257301954683498 -3.3289308671259974 0 -3.3289308671259974 5.7511556114498035 0 0 0 0 39.643399454769678 -19.903138368082494 0 -19.903138368082494 2.2577210113231558 0 0 0 0 2.2164017385985062 31.018579679429145 0 31.018579679429145 6.6641716558168724 0 0 0 0 1.7766523282068363 1.2794435321538202 0 1.2794435321538202 0.46738729150517544 0 0 0 0 43.255876838800759 -3.6446263930028628 0 -3.6446263930028628 18.088827335883014 0 0 0 0 28.333445941316313 -25.588817243912992 0 -25.588817243912992 -5.1395527862321195 0 0 0 0 1.0694981033627755 0.70335048167764569 0 0.70335048167764569 0.1530491410281829 0 0 0 0 -6.9436504335899372 17.097980767203254 0 17.097980767203254 3.617868799378833 0 0 0 0 5.5790451390057569 -11.273060149501513 0 -11.273060149501513 5.4812510232350125 0 0 0 0 16.087872422725923 -0.94892288842842687 0 -0.94892288842842687 0.042181933157721743 0 0 0 0 8.4975005316591705 -8.3573269196444446 0 -8.3573269196444446 3.3728735346205232 0 0 0 0 42.734154496763949 -5.8522821568186432 0 -5.8522821568186432 -4.6670709709853631 0 0 0 0 55.959409140366915 -28.012071261769727 0 -28.012071261769727 14.194433185116239 0 0 0 0 103.61132588791952 -19.58502136573032 0 -19.58502136573032 -1.8736801052054801 0 0 0 0 104.69350437638695 -11.867617837304639 0 -11.867617837304639 17.63795819111775 0 0 0 0 108.89737328093179 -7.4726654513091271 0 -7.4726654513091271 -0.007520715129069825 0 0 0 0 155.33826197843882 -29.443284905210589 0 -29.443284905210589 -0.19619990692921618 0 0 0 0 162.56037654217471 -7.3176028772042994 0 -7.3176028772042994 -0.029554073092558756 0 0 0 0 185.91625903018576 -19.763450947611219 0 -19.763450947611219 -11.60320825533595 0 0 0 0 181.37819635741653 29.247877316394927 0 29.247877316394927 38.547532026025166 0 0 0 0 109.99306777312449 -42.021713617418769 0 -42.021713617418769 5.9813044088165981 0 0 0 0 147.24876755141304 -5.6612191267883247 0 -5.6612191267883247 -1.0399416733261013 0 0 0 0 32.36691550535943 -56.168980539530608 0 -56.168980539530608 17.703141387340878 0 0 0 0 201.67481870444317 -59.068482584223688 0 -59.068482584223688 -43.888171495627262 0 0 0 0 211.26322921011888 59.822444955118073 0 59.822444955118073 -22.369443280750488 0 0 0 0 264.53286256766296 24.83431608854702 0 24.83431608854702 -6.3762240177563854 0 0 0 0 0.25639374122071779 0.95805807197932324 0 0.95805807197932324 2.2986814394451645 0 0 0 0 42.95690055545856 -0.99078117616318195 0 -0.99078117616318195 2.2965706276334856 0 0 0 0 42.587829965526225 -13.298670357153462 0 -13.298670357153462 -3.5000724145940012 0 0 0 0 41.05362902701745 -4.7381891777056921 0 -4.7381891777056921 -2.0447540336781742 0 0 0 0 315.63903516169376 2.0254106436995034 0 2.0254106436995034 -27.061714855778611 0 0 0 0 49.697055837976222 -5.7713831073861215 0 -5.7713831073861215 5.6630460171990435 0 0 0 0 0.30057230797626744 0.34320925730605722 0 0.34320925730605722 0.70364295154861867 0 0 0 0 184.3472988707872 -21.466965557784196 0 -21.466965557784196 8.6228431311814937 0 0 0 0 158.57880607863262 40.641161660197028 0 40.641161660197028 6.1557070232992182 0 0 0 0 81.203585745381133 -14.589359715905003 0 -14.589359715905003 0.016187249454890345 0 0 0 0 58.334597255703557 -9.489025272079342 0 -9.489025272079342 1.2231051433502103 0 0 0 0 51.063445037485508 6.8603318560606361 0 6.8603318560606361 29.520967923724609 0 0 0 0 34.627984255508636 -22.828833606458765 0 -22.828833606458765 15.406999190038007 0 0 0 0 28.231568698909541 -10.906358294302535 0 -10.906358294302535 4.3355601493911706 0 0 0 0 39.811445971450667 -7.3416721967675898 0 -7.3416721967675898 -11.253051174347664 0 0 0 0 43.989533896121429 9.0174195597640399 0 9.0174195597640399 18.737277752781058 0 0 0 0 3.8183784370630747 -16.162584176934512 0 -16.162584176934512 0.015568058392347052 0 0 0 0 2.9021973580966005 -7.3953134010443264 0 -7.3953134010443264 5.2958496693939594 0 0 0 0 5.1311386149172904 -20.57139363486607 0 -20.57139363486607 15.303640999480919 0 0 0 0 13.760768992186058 -9.4002009927298644 0 -9.4002009927298644 -7.077009746194733 0 0 0 0 1.1391836215934745 -12.760615030217199 0 -12.760615030217199 9.0896058822801251 0 0 0 0 17.67898290148878 -18.446561339299052 0 -18.446561339299052 6.6372989693273539 0 0 0 0 32.715465604618657 -12.976681594491623 0 -12.976681594491623 5.4570708245080652 0 0 0 0 33.212953975311393 -13.241645488043321 0 -13.241645488043321 -4.2271045071440199 0 0 0 0 24.644320638180943 -19.160615112355885 0 -19.160615112355885 -3.3269257471878291 0 0 0 0 33.119782895082608 -17.549607459935885 0 -17.549607459935885 -5.7081973226561331 0 0 0 0 25.586191535636317 -14.593099249633497 0 -14.593099249633497 0.028574482874363483 0 0 0 0 28.685341949909343 -18.470269866651961 0 -18.470269866651961 -1.9647316241878343 0 0 0 0 32.920506929018302 -11.243123322776739 0 -11.243123322776739 -0.10685227932003727 0 0 0 0 26.627892422664445 -19.180528572508194 0 -19.180528572508194 -2.1840971745680804 0 0 0 0 28.195482512539456 -15.124006842415113 0 -15.124006842415113 -21.895070202081911 0 0 0 0 3.4085575784195328 -6.6320615617191336 0 -6.6320615617191336 0.46689143970478686 0 0 0 0 16.404201335084508 -14.329253628507331 0 -14.329253628507331 -5.2821490672694154 0 0 0 0 12.286935803080382 -5.1374925851866067 0 -5.1374925851866067 -1.3707862718628387 0 0 0 0 15.14798849869112 -20.935932177170287 0 -20.935932177170287 -8.330482148241483 0 0 0 0 29.663302711996948 -16.930013204729335 0 -16.930013204729335 -2.8585023301993715 0 0 0 0 18.570222118134552 -23.45140047607299 0 -23.45140047607299 3.080997490279259 0 0 0 0 19.893996044215186 -14.571925313651846 0 -14.571925313651846 8.4914345756892562 0 0 0 0 15.837091999084805 -20.442812164671182 0 -20.442812164671182 1.9083945905264557 0 0 0 0 18.565588919795118 -12.616462377066568 0 -12.616462377066568 7.6107821894069048 0 0 0 0 25.866011070895183 -23.446518382192949 0 -23.446518382192949 -3.1384641657089105 0 0 0 0 24.984921413068406 -22.661636263420789 0 -22.661636263420789 8.1318191794432924 0 0 0 0 31.497906678443542 -13.838190720239936 0 -13.838190720239936 6.7077826613267462 0 0 0 0 26.02991192438094 -42.224737488472044 0 -42.224737488472044 10.379038069466787 0 0 0 0 36.911409280506632 -45.06836824250172 0 -45.06836824250172 11.120579350508706 0 0 0 0 8.1768538206947881 -8.7825961145979363 0 -8.7825961145979363 0.26469111121916544 0 0 0 0 35.339981352188261 -31.385202489150529 0 -31.385202489150529 7.6993571165389332 0 0 0 0 -7.5035107567236992 -42.398817616662313 0 -42.398817616662313 18.106743980924421 0 0 0 0 -21.347083542539622 -86.236062409957583 0 -86.236062409957583 38.896117022192868 0 0 0 0 -3.1971657313249011 -15.697007747996317 0 -15.697007747996317 0.080795968531669815 0 0 0 0 6.5596096818553633 -23.378982004338866 0 -23.378982004338866 13.678751489598653 0 0 0 0 29.228634889263958 -30.98981882813894 0 -30.98981882813894 13.749840134480564 0 0 0 0 7.6514076960083912 -26.443175839830019 0 -26.443175839830019 4.5698193478287976 0 0 0 0 0.062328930988869047 28.628205647317916 0 28.628205647317916 29.689241753038914 0 0 0 0 -10.109351421702343 -5.4107604202595709 0 -5.4107604202595709 1.7042221257834831 0 0 0 0 21.88444561669894 -83.670664279015625 0 -83.670664279015625 75.484004562356489 0 0 0 0 194.24167414897238 -162.63867026610413 0 -162.63867026610413 40.900716620307378 0 0 0 0 295.58611287458916 82.897391939625095 0 82.897391939625095 23.482387490099228 0 0 0 0 1.5771180810188525 -106.95919138926324 0 -106.95919138926324 195.05282539600705 0 0 0 0 458.08054426267785 -131.24706799044466 0 -131.24706799044466 9.3200768780609451 0 0 0 0 0.23003524240684214 -1.5679296214035503 0 -1.5679296214035503 1.300467557801027 0 0 0 0 212.78389668592717 120.89224313422778 0 120.89224313422778 36.906240541791703 0 0 0 0 457.47638485631614 -26.240054875438346 0 -26.240054875438346 -38.423703692848051 0 0 0 0 0.11642623024542331 -12.503526592372106 0 -12.503526592372106 173.93699213672664 0 0 0 0 19.097588201286271 49.206952784558744 0 49.206952784558744 123.18414034976792 0 0 0 0 0.14519766370425558 0.49719545023805267 0 0.49719545023805267 -0.21661872982242569 0 0 0 0 60.942629596789629 -10.604459022745408 0 -10.604459022745408 -2.6902319781993924 0 0 0 0 6.2547476676073188 -2.0377450844277263 0 -2.0377450844277263 2.2442562593122108 0 0 0 0 427.28157664517857 -60.814254936433898 0 -60.814254936433898 -48.333487278151722 0 0 0 0 402.59999324331875 -125.3948929904288 0 -125.3948929904288 35.851792733820233 0 0 0 0 0.92281232706560168 0.8900233837157856 0 0.8900233837157856 2.6509541059118793 0 0 0 0 216.90292661776766 -96.881845774274225 0 -96.881845774274225 109.6110945173445 0 0 0 0 119.90280487549899 46.22895613020566 0 46.22895613020566 21.622708080927111 0 0 0 0 23.938311401710962 -6.3478047261475865 0 -6.3478047261475865 2.3866028825059971 0 0 0 0 -0.12628220121894174 0.0087357770251372813 0 0.0087357770251372813 1.0043828201590743 0 0 0 0 14.132179335778346 0.85592791975142291 0 0.85592791975142291 5.3699291734519079 0 0 0 0 18.433341426367406 -9.8746633392743774 0 -9.8746633392743774 3.1632951767843451 0 0 0 0 13.194126236956151 -9.9693747669849557 0 -9.9693747669849557 5.911399966517715 0 0 0 0 23.315258991817245 -8.7991370003967972 0 -8.7991370003967972 2.5140945520328728 0 0 0 0 21.780212190082239 -7.3508602417840052 0 -7.3508602417840052 4.0283828166819831 0 0 0 0 17.502863922076358 -10.615892094202039 0 -10.615892094202039 4.3900595741212101 0 0 0 0 30.950498451944441 -12.334702401269908 0 -12.334702401269908 -1.249102223672935 0 0 0 0 30.660836013068774 -2.4026102943264132 0 -2.4026102943264132 4.2599722702188956 0 0 0 0 378.78096255655691 124.41800772349781 0 124.41800772349781 -44.986883710628774 0 0 0 0 422.15686057662242 -237.75988205969179 0 -237.75988205969179 187.71988071077007 0 0 0 0 108.90320335960132 -140.13655861384291 0 -140.13655861384291 101.1436091128819 0 0 0 0 403.06503355051973 -61.475733182405691 0 -61.475733182405691 -44.252963706091563 0 0 0 0 29.299435993445513 29.568085557398945 0 29.568085557398945 14.175569086815766 0 0 0 0 1.609255404074645 1.7400020730500358 0 1.7400020730500358 0.57377128300521885 0 0 0 0 -26.291691157384776 -51.17174935768179 0 -51.17174935768179 -14.725765375528681 0 0 0 0 13.736366027675103 -12.533020204970057 0 -12.533020204970057 -76.570200720697812 0 0 0 0 2.1148396721685856 -0.61497297062878431 0 -0.61497297062878431 -0.5189292774130303 0 0 0 0 10.049052720809414 -2.6635572960864877 0 -2.6635572960864877 -12.487481772719775 0 0 0 0 -8.6329741179361008 -5.8803395460066348 0 -5.8803395460066348 38.834471176879219 0 0 0 0 -18.581608471577056 -35.013626180117967 0 -35.013626180117967 19.096275294824864 0 0 0 0 -0.98162503489584196 4.7657699673100922 0 4.7657699673100922 37.690215302784907 0 0 0 0 -55.210151699968264 49.037516801333609 0 49.037516801333609 72.568147611269751 0 0 0 0 3.4363726406299975 -3.7264680246379527 0 -3.7264680246379527 52.315010045258276 0 0 0 0 74.695215433835983 84.922539364551767 0 84.922539364551767 56.301802716829407 0 0 0 0 2.8392221515571237 -1.2980226345608656 0 -1.2980226345608656 0.81783792369911157 0 0 0 0 236.93704476466519 140.2236229311996 0 140.2236229311996 87.917032391434333 0 0 0 0 33.767304931476247 63.929903112984221 0 63.929903112984221 175.41338115634642 0 0 0 0 160.81999776403245 30.177747154761725 0 30.177747154761725 29.245116761512747 0 0 0 0 204.23613180032407 90.445221487872104 0 90.445221487872104 0.46110099153258943 0 0 0 0 413.09944378459477 104.33020529676737 0 104.33020529676737 1.2474422969100374 0 0 0 0 477.17387036780201 44.926899152882939 0 44.926899152882939 -64.702827630052923 0 0 0 0 440.92303006022121 -55.614053115015011 0 -55.614053115015011 -55.064050822412497 0 0 0 0 392.88883147749584 35.440030565088065 0 35.440030565088065 -39.558371559510135 0 0 0 0 360.05078497281647 3.7152587274498075 0 3.7152587274498075 -5.9719108961564871 0 0 0 0 325.86539155294304 -57.677126790252316 0 -57.677126790252316 -29.427978703690087 0 0 0 0 325.32278957361996 -57.949523665344202 0 -57.949523665344202 32.338014799023767 0 0 0 0 193.26987567901961 13.282831873484611 0 13.282831873484611 6.6624395289900917 0 0 0 0 185.59792004709743 52.693308301095342 0 52.693308301095342 15.578048270299519 0 0 0 0 99.438491392633296 21.987193536513132 0 21.987193536513132 88.12467524235808 0 0 0 0 215.03232887964987 -102.82556547165208 0 -102.82556547165208 173.77804161729637 0 0 0 0 5.060820801067166 23.093472462698884 0 23.093472462698884 20.543743006410125 0 0 0 0 116.88281839198316 64.078333642862901 0 64.078333642862901 14.854579262187258 0 0 0 0 66.730310569138965 -2.5008624663930874 0 -2.5008624663930874 50.671867475584065 0 0 0 0 10.322870264259109 42.809737032802062 0 42.809737032802062 67.049102876817074 0 0 0 0 8.8173302508021152 30.572431314934441 0 30.572431314934441 20.618063375573001 0 0 0 0 -49.156805098369659 31.305830191788615 0 31.305830191788615 23.20062407458019 0 0 0 0 42.205597665779337 29.545801299724857 0 29.545801299724857 -8.6577546147471054 0 0 0 0 -23.086470566835487 12.003499122155119 0 12.003499122155119 15.818925885391764 0 0 0 0 35.721527696264701 32.000466483380208 0 32.000466483380208 -5.6710648824525753 0 0 0 0 -43.303752986750624 101.01301318224824 0 101.01301318224824 0.82413366712950875 0 0 0 0 49.58243798436888 46.8045044971077 0 46.8045044971077 1.7477901140591712 0 0 0 0 57.216625850815035 49.767259663542404 0 49.767259663542404 -8.9615862827222372 0 0 0 0 53.198153648714651 54.234605443566124 0 54.234605443566124 9.2182036573321966 0 0 0 0 46.547088391584111 52.741732335474808 0 52.741732335474808 9.387597806418853 0 0 0 0 -14.932725178338188 10.816982259109132 0 10.816982259109132 10.011367896256502 0 0 0 0 92.01091873687983 70.892233570193639 0 70.892233570193639 -25.496338813158218 0 0 0 0 79.428591179021169 70.741843349026794 0 70.741843349026794 9.7765587718408824 0 0 0 0 93.886268633075815 60.508015034145615 0 60.508015034145615 -23.571284054770331 0 0 0 0 112.147967805402 59.619158167814476 0 59.619158167814476 -56.623422125781076 0 0 0 0 109.48831701773452 14.489953367951557 0 14.489953367951557 -27.243439697599513 0 0 0 0 104.64250028474635 27.32563029189248 0 27.32563029189248 -58.287731330258794 0 0 0 0 86.683889102379908 45.327339665957652 0 45.327339665957652 -23.517943798471606 0 0 0 0 275.59932659703918 -35.09265961737492 0 -35.09265961737492 -211.15876117201424 0 0 0 0 85.406047322105792 -4.7517219964618924 0 -4.7517219964618924 -5.3984322644001095 0 0 0 0 -4.1297405309451278 0.2393102331857051 0 0.2393102331857051 -0.7777651461214532 0 0 0 0 -23.205896368213871 18.249819907002077 0 18.249819907002077 -0.67587611405596704 0 0 0 0 28.769619318336481 1.1269218103914227 0 1.1269218103914227 0.15728696657760111 0 0 0 0 7.7093325474117478 2.1952444821830142 0 2.1952444821830142 -0.73478812275006233 0 0 0 0 27.804569230545894 -8.8428572860240422 0 -8.8428572860240422 -1.2861815734536322 0 0 0 0 22.18238405471493 2.4216591840057617 0 2.4216591840057617 1.9540547523806708 0 0 0 0 9.0467599319395191 -5.578648023309114 0 -5.578648023309114 -7.857067623368426 0 0 0 0 41.334946240596764 -7.1354575154432496 0 -7.1354575154432496 -3.1170892801071659 0 0 0 0 -253.15795269403316 3.6658006853598977 0 3.6658006853598977 648.69963373632254 0 0 0 0 12.89104555787344 2.3193326506547294 0 2.3193326506547294 0.45232067973579504 0 0 0 0 10.484744983856217 2.7301264710204123 0 2.7301264710204123 0.74873053494820851 0 0 0 0 6.5871401058408736 -0.57037950359172385 0 -0.57037950359172385 0.78055382250185001 0 0 0 0 6.4933182575987303 0.24386298938895834 0 0.24386298938895834 1.8132229160291899 0 0 0 0 11.76258527047321 -0.032404737625626012 0 -0.032404737625626012 1.8023541266522898 0 0 0 0 6.069296401723463 1.3276207890801857 0 1.3276207890801857 1.8770031635765427 0 0 0 0 26.598270015470916 -7.8888617716597764 0 -7.8888617716597764 12.708684531703966 0 0 0 0 18.590967162741435 1.5036145358378263 0 1.5036145358378263 1.6433956041983038 0 0 0 0 20.110809336409147 2.645734573552744 0 2.645734573552744 -0.4833435560933026 0 0 0 0 1.9812001245518331 -5.4287028899166216 0 -5.4287028899166216 5.3738596934749694 0 0 0 0 17.246750772486848 7.6240646983345641 0 7.6240646983345641 -5.0687178186403798 0 0 0 0 3.7644031239612588 1.4342359899600581 0 1.4342359899600581 -0.096372436024244834 0 0 0 0 15.961024181975517 9.2196820559568096 0 9.2196820559568096 4.1334625023007323 0 0 0 0 9.6106786752870903 0.8750037068658294 0 0.8750037068658294 0.016448533630650797 0 0 0 0 20.169327638905088 -4.5369903679630852 0 -4.5369903679630852 -26.604180792814986 0 0 0 0 17.683758980523635 22.550182793601948 0 22.550182793601948 46.211959913438477 0 0 0 0 -6.6112385537126102 -26.257892947113078 0 -26.257892947113078 20.531986406805572 0 0 0 0 11.145058742593392 11.411654897639437 0 11.411654897639437 61.976473022246182 0 0 0 0 9.697312295109441 29.108640744437594 0 29.108640744437594 42.32753446155084 0 0 0 0 30.814684728633438 63.836971059157236 0 63.836971059157236 92.014573882715013 0 0 0 0 68.083809142874088 80.689343532994144 0 80.689343532994144 56.580208571332605 0 0 0 0 44.231855435529724 66.838932908706738 0 66.838932908706738 49.871800947070824 0 0 0 0 46.557572231744416 66.843748000281721 0 66.843748000281721 44.200951728329528 0 0 0 0 56.252492714927939 68.501221839122991 0 68.501221839122991 11.145462781732022 0 0 0 0 79.714688989108254 94.884228184231233 0 94.884228184231233 39.777077296897005 0 0 0 0 48.528321659061476 41.262035704963409 0 41.262035704963409 7.2713502220876762 0 0 0 0 77.665648642738233 36.109686572289775 0 36.109686572289775 8.1435876008281411 0 0 0 0 40.789164551417343 53.335005877224376 0 53.335005877224376 11.318454376106729 0 0 0 0 52.721261461003451 68.091225045548981 0 68.091225045548981 22.494108584924106 0 0 0 0 27.399944526187028 47.38379933069973 0 47.38379933069973 26.250392234579294 0 0 0 0 39.707280389287916 40.644557742228017 0 40.644557742228017 1.8303430014630067 0 0 0 0 27.549111186206574 45.792475221127461 0 45.792475221127461 14.680339265653856 0 0 0 0 -0.16723461593230127 0.28470429423219912 0 0.28470429423219912 0.06775154250893678 0 0 0 0 2.6253332039741508 10.924326866282627 0 10.924326866282627 16.258212855905185 0 0 0 0 10.293458232641569 8.8777001192247553 0 8.8777001192247553 4.1317122654396394 0 0 0 0 20.714577116312284 29.659717181307428 0 29.659717181307428 28.572662092974952 0 0 0 0 5.4274065457593679 -8.625945342231546 0 -8.625945342231546 7.7008786585302005 0 0 0 0 10.902203709767491 10.754300198767396 0 10.754300198767396 7.9377555326125275 0 0 0 0 46.076636805282931 12.04796889163633 0 12.04796889163633 -7.4412175076737004 0 0 0 0 17.481476368743131 11.577242392453073 0 11.577242392453073 4.6325363630266434 0 0 0 0 27.125952674854489 11.274363238897877 0 11.274363238897877 -6.7136191761283044 0 0 0 0 102.57653997022135 137.06713174302149 0 137.06713174302149 -96.407407797367597 0 0 0 0 35.04432844092662 0.67144659036841858 0 0.67144659036841858 16.793764281449512 0 0 0 0 58.046923313546358 -31.028234290000448 0 -31.028234290000448 -25.986401960525882 0 0 0 0 62.735142334699049 -5.3574886434024336 0 -5.3574886434024336 2.0513892869216761 0 0 0 0 62.388153532738215 -3.490417380395229 0 -3.490417380395229 -0.69714424454923574 0 0 0 0 60.799377006071154 0.12526088315735251 0 0.12526088315735251 -1.1665849883613646 0 0 0 0 59.340675673316582 -1.2689663818814552 0 -1.2689663818814552 5.5418360163012039 0 0 0 0 52.553712568973424 2.0012074386216057 0 2.0012074386216057 4.6970885002856448 0 0 0 0 55.722571602469543 -6.4306988531435252 0 -6.4306988531435252 2.2809675179981923 0 0 0 0 10.316281506210288 9.8341460356873114 0 9.8341460356873114 -3.5391984613999776 0 0 0 0 60.108578160936304 -0.11045918117076781 0 -0.11045918117076781 6.3617117895041702 0 0 0 0 15.367315917696033 11.338073877983589 0 11.338073877983589 -6.2371928740849398 0 0 0 0 18.38998308191367 8.6523356554962447 0 8.6523356554962447 -5.7884190145734919 0 0 0 0 14.699357093195431 13.771629620349586 0 13.771629620349586 3.62371663396857 0 0 0 0 15.542645873771107 11.094601175332627 0 11.094601175332627 -4.2485749564330035 0 0 0 0 18.524267005472211 7.1787072365127642 0 7.1787072365127642 -7.7447925133676563 0 0 0 0 16.846516113029793 12.041220634805541 0 12.041220634805541 -5.0901987006591298 0 0 0 0 12.985778216410836 7.7547535045013092 0 7.7547535045013092 -10.953807442644575 0 0 0 0 16.604525142509374 13.025808661517999 0 13.025808661517999 -9.0950921437652141 0 0 0 0 6.9802934856864169 3.085901781893881 0 3.085901781893881 -0.52611106157066578 0 0 0 0 22.503121290726995 8.4737334990002395 0 8.4737334990002395 -1.150082482829565 0 0 0 0 22.377004016896535 1.3219339399801733 0 1.3219339399801733 0.28820794253284987 0 0 0 0 17.374163609037822 2.5882047302021789 0 2.5882047302021789 -0.57544635191053195 0 0 0 0 1.9477104194729193 1.1201340706563485 0 1.1201340706563485 0.38937364777531869 0 0 0 0 21.380726434377721 2.3118860047279668 0 2.3118860047279668 -27.268876705269577 0 0 0 0 59.221985975113057 11.641180743367158 0 11.641180743367158 -5.3408597307604282 0 0 0 0 64.317380722764938 2.72098834917999 0 2.72098834917999 0.36368353302981404 0 0 0 0 -1.7819677523721396 5.8759922393161537 0 5.8759922393161537 0.38312322645540353 0 0 0 0 84.172562765772454 -14.403284257527503 0 -14.403284257527503 -9.8398538490998817 0 0 0 0 5.1344975538631843 15.08709195770075 0 15.08709195770075 -3.812069985542621 0 0 0 0 12.044976657631935 10.694195362893492 0 10.694195362893492 0.18298614941940916 0 0 0 0 52.790654656106199 2.7458287032686712 0 2.7458287032686712 0.12280298046971438 0 0 0 0 55.700128297990886 -12.994173435221683 0 -12.994173435221683 -0.37277965659393431 0 0 0 0 47.519271545832453 -11.561605536570994 0 -11.561605536570994 5.8413432212001339 0 0 0 0 64.556119309942005 -3.4080032408243142 0 -3.4080032408243142 2.4105544206533978 0 0 0 0 57.461657383828424 4.1069624018300601 0 4.1069624018300601 0.1040322099015043 0 0 0 0 59.967854735208675 0.15649383083285784 0 0.15649383083285784 1.1181340386955299 0 0 0 0 51.411116060058703 -3.3624863432369239 0 -3.3624863432369239 3.2260418731957543 0 0 0 0 52.924796639614215 -6.58232117787378 0 -6.58232117787378 9.8516983590729978 0 0 0 0 39.363078912560013 1.2998069702919111 0 1.2998069702919111 6.8266151019078052 0 0 0 0 41.355736294601229 -5.2438277424803346 0 -5.2438277424803346 25.220733275205021 0 0 0 0 32.537220439160592 -14.958115373266082 0 -14.958115373266082 15.011891524927478 0 0 0 0 40.033068427655962 -33.575988827310312 0 -33.575988827310312 60.253472406226138 0 0 0 0 49.677368471355294 -19.609510335183245 0 -19.609510335183245 16.270290080436041 0 0 0 0 48.868007916324814 -1.752392031334276 0 -1.752392031334276 -19.138332551749841 0 0 0 0 63.541716541833011 -27.569339241222735 0 -27.569339241222735 -13.271062426521667 0 0 0 0 13.93698026755402 -3.1529954372448756 0 -3.1529954372448756 -0.49456844617147633 0 0 0 0 46.597201126627624 -35.546556638337734 0 -35.546556638337734 10.091164563701568 0 0 0 0 76.69124715126236 0.34891987220669307 0 0.34891987220669307 5.7208660881724427 0 0 0 0 83.74329698170186 -10.429872929512157 0 -10.429872929512157 -2.0061602668956766 0 0 0 0 74.891489061308675 -11.974328158346793 0 -11.974328158346793 -1.8472508294583463 0 0 0 0 61.627426103528705 -3.6343015408535848 0 -3.6343015408535848 5.0287496874061617 0 0 0 0 64.044307951568044 -0.2296571197580306 0 -0.2296571197580306 0.84857251112197218 0 0 0 0 65.312892501169699 -3.0419306480134765 0 -3.0419306480134765 4.0896850379378975 0 0 0 0 64.759513463854091 -3.4630204279746977 0 -3.4630204279746977 11.884105769609732 0 0 0 0 63.402879257786452 8.9040307426937133 0 8.9040307426937133 -6.4125998007182874 0 0 0 0 70.287943847844872 -0.20948995628123157 0 -0.20948995628123157 -1.7072158461196523 0 0 0 0 96.729438051188481 -5.5200055696727759 0 -5.5200055696727759 -0.77948769300382992 0 0 0 0 14.888240640928458 1.5678440678304923 0 1.5678440678304923 -5.1415107937613689 0 0 0 0 136.80224303327122 13.577097581342997 0 13.577097581342997 -113.60406521371371 0 0 0 0 66.307747068924073 -61.043548965543323 0 -61.043548965543323 -39.707743703687413 0 0 0 0 75.062970208491606 -69.804827021202854 0 -69.804827021202854 -44.094391603189266 0 0 0 0 33.657402210585133 -48.415885374763661 0 -48.415885374763661 23.976160935517157 0 0 0 0 44.335577003493199 -26.472200735006822 0 -26.472200735006822 5.2901083879659385 0 0 0 0 26.721238988553523 -39.869810571738299 0 -39.869810571738299 20.509257421052553 0 0 0 0 32.935422263830333 -30.918095397122613 0 -30.918095397122613 4.688393878928764 0 0 0 0 41.840231907997804 -40.976605654619675 0 -40.976605654619675 11.954874117644749 0 0 0 0 40.218186608337419 -35.420113871306057 0 -35.420113871306057 -0.86785881888431504 0 0 0 0 40.194251580855052 -37.840488901519052 0 -37.840488901519052 -25.395481543814526 0 0 0 0 22.041410930811253 -34.206411996291592 0 -34.206411996291592 3.2364450687325643 0 0 0 0 39.002668314911716 -42.074063756420628 0 -42.074063756420628 -1.8574462949600274 0 0 0 0 33.146664330644853 -31.5328097301811 0 -31.5328097301811 45.744124742023132 0 0 0 0 13.496231596254802 -49.438989246844017 0 -49.438989246844017 75.373265955359329 0 0 0 0 21.271012481331127 -38.868310271080929 0 -38.868310271080929 74.489091858677597 0 0 0 0 65.089885300330934 -41.034925237942616 0 -41.034925237942616 8.0732040933758071 0 0 0 0 17.266065189880464 35.19172430043119 0 35.19172430043119 17.440139216703301 0 0 0 0 3.0434290919947671 -1.0576905777334389 0 -1.0576905777334389 4.6550792907278264 0 0 0 0 17.609083451650804 29.180429345179192 0 29.180429345179192 -9.3893543174986007 0 0 0 0 12.304779117972316 5.2307902603656302 0 5.2307902603656302 -0.06612400310229577 0 0 0 0 -1.8381563524580002 8.2996009647143296 0 8.2996009647143296 6.6768928386772686 0 0 0 0 21.20391395202023 -28.281136466586759 0 -28.281136466586759 32.451613682842435 0 0 0 0 3.1545704736236075 5.4149024657438645 0 5.4149024657438645 36.479437077106695 0 0 0 0 38.499360517435782 8.8509970802567466 0 8.8509970802567466 3.0878648998266858 0 0 0 0 33.961581032686723 8.436834921473789 0 8.436834921473789 -0.15681918291804342 0 0 0 0 85.371164639960625 -31.761841432531583 0 -31.761841432531583 -25.520272191444292 0 0 0 0 3.0789372074310961 -1.515946692776204 0 -1.515946692776204 -0.39636672494201486 0 0 0 0 32.922409005834197 -2.9153653382284119 0 -2.9153653382284119 -9.6633133053787788 0 0 0 0 32.209777967881621 -3.7564867084184477 0 -3.7564867084184477 -1.9030924193850547 0 0 0 0 34.113007899315562 4.5586008918824064 0 4.5586008918824064 -18.601371721713122 0 0 0 0 21.088680538323693 -6.8115888892890268 0 -6.8115888892890268 -16.765856376078411 0 0 0 0 86.28009319101875 -106.22299774442399 0 -106.22299774442399 -40.740638839564781 0 0 0 0 48.738350317205914 57.085815201651712 0 57.085815201651712 -64.82648405549844 0 0 0 0 37.998874850682938 12.551143650995204 0 12.551143650995204 0.46823236013328229 0 0 0 0 17.872540033291443 4.2289601343911727 0 4.2289601343911727 -11.388361121767957 0 0 0 0 13.695880248567846 51.51556091687371 0 51.51556091687371 2.9867105924404314 0 0 0 0 31.864137333814142 14.909311001762035 0 14.909311001762035 41.840524166123032 0 0 0 0 179.25707796990173 5.2676852130700809 0 5.2676852130700809 16.213629886751733 0 0 0 0 215.47648833221501 84.081452863080017 0 84.081452863080017 16.298294653139237 0 0 0 0 83.577566156152898 20.888630757129704 0 20.888630757129704 39.041766981586079 0 0 0 0 158.30003834141826 35.975176521635149 0 35.975176521635149 15.36996831761553 0 0 0 0 135.45063385017056 63.022375252006896 0 63.022375252006896 45.758324465823534 0 0 0 0 94.389991684009146 31.582989913425081 0 31.582989913425081 25.989987461277451 0 0 0 0 -1.3338802163086925 -3.858679844399191 0 -3.858679844399191 -0.95530663618535883 0 0 0 0 15.629118513717593 -16.367166297414023 0 -16.367166297414023 -8.3338516668298901 0 0 0 0 -80.600401345718637 -64.822740370216366 0 -64.822740370216366 -10.049880606784427 0 0 0 0 144.35846725264128 46.203549171282248 0 46.203549171282248 25.810772632852604 0 0 0 0 2.2851896480268792 -1.2514520177850628 0 -1.2514520177850628 -1.1597436449338296 0 0 0 0 -94.242667812563013 -4.9542740910637804 0 -4.9542740910637804 -39.926662242833117 0 0 0 0 48.357624369953555 -10.160379802298962 0 -10.160379802298962 -5.5117627337594968 0 0 0 0 38.33030904633415 0.94999920136820037 0 0.94999920136820037 -7.025464653031122 0 0 0 0 -51.331676177270282 66.327843499995581 0 66.327843499995581 37.228027937485422 0 0 0 0 -51.41198619377974 57.772923493952931 0 57.772923493952931 3.94654332695427 0 0 0 0 12.68436176471576 6.2664301769595738 0 6.2664301769595738 -7.2240832740260856 0 0 0 0 46.369417760219221 -9.5922377150438933 0 -9.5922377150438933 -0.93469007679937022 0 0 0 0 41.275027345836861 1.8129462037659323 0 1.8129462037659323 -9.5959482723201859 0 0 0 0 7.0454350291679404 7.241648347970802 0 7.241648347970802 -6.3593474888104513 0 0 0 0 69.556975493367645 0.27329807172111487 0 0.27329807172111487 -30.610136101661737 0 0 0 0 18.39040897934683 58.492652078310584 0 58.492652078310584 -27.762808953372854 0 0 0 0 47.950092634753673 12.248682965169394 0 12.248682965169394 -26.520803674691479 0 0 0 0 39.907302840565535 0.41783758843314445 0 0.41783758843314445 -18.458072153410967 0 0 0 0 16.67224520461351 6.067679776180249 0 6.067679776180249 -7.1359956986027449 0 0 0 0 34.182338185528351 -3.7829399042566365 0 -3.7829399042566365 -5.0639068107459764 0 0 0 0 17.540459184390784 22.891884752921214 0 22.891884752921214 57.69688923661397 0 0 0 0 28.01226155056429 30.626923665975198 0 30.626923665975198 6.6936568547084789 0 0 0 0 37.877181318703492 2.9748461766346952 0 2.9748461766346952 -2.2260699085019482 0 0 0 0 51.764980613370426 18.501067618395155 0 18.501067618395155 -27.699258738637582 0 0 0 0 52.803988391438907 2.9304429590463315 0 2.9304429590463315 -1.9966774705899297 0 0 0 0 24.470075103305135 8.8608760491849008 0 8.8608760491849008 -5.9477596247040054 0 0 0 0 28.764485670986573 3.9949971056098503 0 3.9949971056098503 -1.7054405007169411 0 0 0 0 39.682181748721632 3.4392673913437193 0 3.4392673913437193 -3.5092687085698913 0 0 0 0 21.673456299569352 12.392586609179503 0 12.392586609179503 -6.5091397117861538 0 0 0 0 38.387454454861654 -0.13157507203993646 0 -0.13157507203993646 -8.4670641621896721 0 0 0 0 37.165830593537976 -2.4404985974009037 0 -2.4404985974009037 -5.6327432697526092 0 0 0 0 8.6538766098600455 -2.8588331143703201 0 -2.8588331143703201 0.22672685302390017 0 0 0 0 39.203507036181691 -4.6486308219291459 0 -4.6486308219291459 -4.115147603729838 0 0 0 0 42.2076193959183 -2.9686090089981576 0 -2.9686090089981576 -7.2917700597229214 0 0 0 0 45.358752376654593 -2.612489619385542 0 -2.612489619385542 -27.441383356407641 0 0 0 0 49.307833565595502 7.2295700316287821 0 7.2295700316287821 -10.563401759409544 0 0 0 0 57.578560072899563 3.5103737797630856 0 3.5103737797630856 -30.986089176862833 0 0 0 0 63.987183965167787 -4.4182097499169686 0 -4.4182097499169686 -27.726634076559321 0 0 0 0 201.97430013813573 -37.196573641230998 0 -37.196573641230998 -15.710249251409152 0 0 0 0 60.054380457069783 -0.43389177760400344 0 -0.43389177760400344 -22.455463188902286 0 0 0 0 -13.812311906276591 -12.632909674718803 0 -12.632909674718803 18.16806303185399 0 0 0 0 -72.338509399065515 -63.756158333600069 0 -63.756158333600069 56.087764129710195 0 0 0 0 76.229879112141134 -21.790293925434526 0 -21.790293925434526 -33.579279974351721 0 0 0 0 1.6068933823339684 0.42753839110476122 0 0.42753839110476122 0.053501368829276252 0 0 0 0 41.689398689894006 -26.593228235051185 0 -26.593228235051185 -31.462650710891239 0 0 0 0 5.7306406276438793 -21.379183564582831 0 -21.379183564582831 -12.451280694887828 0 0 0 0 32.158283835775364 -5.8670737047051489 0 -5.8670737047051489 3.0892739563696523 0 0 0 0 33.07914759792402 -5.3033208800299008 0 -5.3033208800299008 1.6870046554399778 0 0 0 0 48.845627542963484 -4.3695064368536123 0 -4.3695064368536123 1.15974202611892 0 0 0 0 31.327406224503648 -5.0174680227243016 0 -5.0174680227243016 2.4949887469523446 0 0 0 0 -0.34268533750966412 0.54695576047943462 0 0.54695576047943462 0.36871800345694794 0 0 0 0 102.57447163284087 -16.014410187283602 0 -16.014410187283602 -0.10876709478156954 0 0 0 0 56.100258337413834 -43.387756060465904 0 -43.387756060465904 26.459180191103314 0 0 0 0 12.023820602393243 -10.363250629039385 0 -10.363250629039385 19.296587354788471 0 0 0 0 6.7873103493165345 -2.119651088788757 0 -2.119651088788757 0.78350028349545386 0 0 0 0 0.39821403611858841 -9.001446064673928 0 -9.001446064673928 33.272650528675058 0 0 0 0 21.939313556045818 -19.349027956127884 0 -19.349027956127884 22.824565638853755 0 0 0 0 23.613479040883249 -16.965751381603695 0 -16.965751381603695 21.965079532620621 0 0 0 0 23.894262000474555 -13.624552659198798 0 -13.624552659198798 6.8874367687967606 0 0 0 0 27.560186428156157 -12.862705005151952 0 -12.862705005151952 6.7645539036743685 0 0 0 0 38.524565364925365 -23.91954060072203 0 -23.91954060072203 14.818955044130121 0 0 0 0 28.949973694419896 -5.079468049084312 0 -5.079468049084312 5.222385809771481 0 0 0 0 9.3759302132449633 -12.191372870762429 0 -12.191372870762429 8.7043989478684978 0 0 0 0 33.492269969116023 -8.6140482724363778 0 -8.6140482724363778 4.6639978154651089 0 0 0 0 30.266210740075621 -5.3171162490625505 0 -5.3171162490625505 4.9659501075389869 0 0 0 0 27.422597934790247 -5.5991389517329395 0 -5.5991389517329395 6.0350493413274648 0 0 0 0 32.584316579290316 -4.6289901117091858 0 -4.6289901117091858 0.94833588921335377 0 0 0 0 28.377231616686913 -0.72563710055482034 0 -0.72563710055482034 1.3436833633143266 0 0 0 0 11.14443813382259 1.8712947952394856 0 1.8712947952394856 -0.93200145235248122 0 0 0 0 19.417231553416059 1.0032867814069419 0 1.0032867814069419 2.251491745801232 0 0 0 0 13.237694416623015 0.20641788305304054 0 0.20641788305304054 0.8071998885551428 0 0 0 0 10.406218014965816 -0.65556518397162655 0 -0.65556518397162655 1.2115825179732198 0 0 0 0 18.98133995540411 1.5515301176006062 0 1.5515301176006062 1.5714236123396859 0 0 0 0 8.4832495037990157 -2.8061057361252324 0 -2.8061057361252324 -1.6423385676587259 0 0 0 0 11.906246276326783 -17.26164745873524 0 -17.26164745873524 19.494315598201865 0 0 0 0 11.319313998174039 -14.43281175033917 0 -14.43281175033917 9.7575635855919245 0 0 0 0 11.483247116962119 -1.1882818610288481 0 -1.1882818610288481 0.5432276627253243 0 0 0 0 11.529353739712057 -1.3654381887465803 0 -1.3654381887465803 4.2263760268895068 0 0 0 0 12.110794473846909 -9.1565045642191762 0 -9.1565045642191762 6.5990169590932055 0 0 0 0 15.522598423223826 -13.195994532149598 0 -13.195994532149598 10.914254637591284 0 0 0 0 25.568914862858946 -7.9873580028906872 0 -7.9873580028906872 6.2638576477365859 0 0 0 0 0.92688819655694488 -5.1989543518906878 0 -5.1989543518906878 0.89455665322704703 0 0 0 0 10.388486329653091 -11.121668996015664 0 -11.121668996015664 6.9804566068410638 0 0 0 0 32.664209817739902 -15.906986037901333 0 -15.906986037901333 4.0228068267597337 0 0 0 0 17.530908805542879 -2.4889437908323893 0 -2.4889437908323893 -0.17695725691849995 0 0 0 0 28.979287809306697 -6.9031247124601123 0 -6.9031247124601123 5.9618639993311717 0 0 0 0 981.85203115554759 81.529732472730984 0 81.529732472730984 211.55217490964557 0 0 0 0 497.86574840058529 35.059057210125843 0 35.059057210125843 126.25746110744922 0 0 0 0 467.30589424479695 67.069257616771324 0 67.069257616771324 237.76206345281184 0 0 0 0 884.60135208295105 258.56351831783536 0 258.56351831783536 145.14161379628786 0 0 0 0 900.10873824924784 90.264756245289959 0 90.264756245289959 109.49035773135381 0 0 0 0 673.65639368040138 122.38133199452506 0 122.38133199452506 160.09633381625395 0 0 0 0 2.4146593462319466 2.2014060974738925 0 2.2014060974738925 -2.3680729778573344 0 0 0 0 1296.3726959154155 185.09780286021089 0 185.09780286021089 -9.5713707134899551 0 0 0 0 2228.3285275083254 483.69430314560987 0 483.69430314560987 426.1971408176646 0 0 0 0 935.40812232508324 267.8788543023536 0 267.8788543023536 208.82527419213784 0 0 0 0 2164.8620710968225 271.72786485728182 0 271.72786485728182 -145.20949515003343 0 0 0 0 1966.6435905474864 335.44374767274849 0 335.44374767274849 -152.45670845106812 0 0 0 0 1937.8993583264746 137.40663473399539 0 137.40663473399539 -356.56628030514219 0 0 0 0 2499.210348353161 311.52712168372761 0 311.52712168372761 -314.20070745722671 0 0 0 0 2051.4008135292543 541.84590237511054 0 541.84590237511054 -249.36473208652981 0 0 0 0 1958.4119437459231 287.38436856368776 0 287.38436856368776 -139.45284841386453 0 0 0 0 1778.7989637280316 395.05312054993936 0 395.05312054993936 -159.64157900900625 0 0 0 0 1838.7795310231159 474.86695613153211 0 474.86695613153211 -64.428975068980151 0 0 0 0 1773.787653865933 646.10092902874089 0 646.10092902874089 -264.07076234583013 0 0 0 0 2500.3237845105823 1008.5161364756689 0 1008.5161364756689 -415.08962238473276 0 0 0 0 512.9891540243525 706.58039400578332 0 706.58039400578332 148.35012042266118 0 0 0 0 1.8760226941864033 1.2100572600941888 0 1.2100572600941888 -3.1336061062469316 0 0 0 0 1700.3804772299627 702.6799039040726 0 702.6799039040726 -115.03783832332321 0 0 0 0 1006.9370413717734 -32.917130727977451 0 -32.917130727977451 115.82665306980107 0 0 0 0 -1.9391404106265355 2.5539252164865474 0 2.5539252164865474 -4.8007126416477615 0 0 0 0 1003.8546285363045 616.59526402112283 0 616.59526402112283 9.5022676532785226 0 0 0 0 2.83571410810627 3.6203763760152299 0 3.6203763760152299 -5.4312489622061655 0 0 0 0 1620.2048458576573 333.63326019872483 0 333.63326019872483 -174.12121282347039 0 0 0 0 381.37937092715765 -55.73185786248871 0 -55.73185786248871 -87.133589160805968 0 0 0 0 278.34589018895349 145.57021009910954 0 145.57021009910954 212.1392636236618 0 0 0 0 157.15230368916673 119.8237032659639 0 119.8237032659639 -128.06468599530308 0 0 0 0 63.942540027721407 59.836234657825912 0 59.836234657825912 -17.113473171366877 0 0 0 0 161.92749824558268 15.867896715966026 0 15.867896715966026 -55.259002171378597 0 0 0 0 217.2735698834731 -9.0481162299333846 0 -9.0481162299333846 -45.255867742262126 0 0 0 0 143.86969738643711 -38.906174437858795 0 -38.906174437858795 -31.415107355564487 0 0 0 0 191.9399670544226 -32.718378040782909 0 -32.718378040782909 -30.621609833969615 0 0 0 0 136.27252153950758 -69.647853316400415 0 -69.647853316400415 27.962278351648365 0 0 0 0 147.21491627071373 -41.292124293824145 0 -41.292124293824145 29.178601941742855 0 0 0 0 275.68647904577665 -66.017906854802732 0 -66.017906854802732 -8.2042387331524083 0 0 0 0 245.30875159559218 -43.338530502697495 0 -43.338530502697495 160.02497626206173 0 0 0 0 178.3995626179676 -21.302011953379974 0 -21.302011953379974 -19.433541438826524 0 0 0 0 -1.0170335086100408 0.24460169588982694 0 0.24460169588982694 0.1264410130094431 0 0 0 0 49.877351484414248 -24.242905395950515 0 -24.242905395950515 -127.68518781610192 0 0 0 0 120.09259035116702 -37.261999965004861 0 -37.261999965004861 -33.153884794748976 0 0 0 0 110.29896792801446 -72.311202543936133 0 -72.311202543936133 -31.72801394238536 0 0 0 0 73.34215412902995 -41.623328518217477 0 -41.623328518217477 33.671035408484641 0 0 0 0 22.294191738954396 -55.960974886835174 0 -55.960974886835174 32.240591937087174 0 0 0 0 23.357875179528492 -63.650760858077547 0 -63.650760858077547 40.67433678118482 0 0 0 0 18.292624957370208 -41.558853795637489 0 -41.558853795637489 81.175611496229521 0 0 0 0 26.026672499792767 -26.652387512758196 0 -26.652387512758196 108.31460322979638 0 0 0 0 64.633732948859688 -43.187480909860597 0 -43.187480909860597 75.86929246448949 0 0 0 0 58.093450922442571 -32.885824347897795 0 -32.885824347897795 115.57391492410034 0 0 0 0 109.68404704268323 -43.971647119370516 0 -43.971647119370516 114.72541469470008 0 0 0 0 95.359841088647954 -77.472507581594584 0 -77.472507581594584 90.186507071522101 0 0 0 0 55.713131656730184 -1.1901609742554484 0 -1.1901609742554484 159.90712311931372 0 0 0 0 59.189559380196442 -5.6759278341543222 0 -5.6759278341543222 79.475902405710769 0 0 0 0 13.488258411227434 41.395150721780382 0 41.395150721780382 72.659180059253828 0 0 0 0 52.504328660957981 -18.362128843442235 0 -18.362128843442235 56.172813935560271 0 0 0 0 -1.1060017534799442 0.71507105828729323 0 0.71507105828729323 1.5118892255903023 0 0 0 0 20.723163964277774 -35.740853783926298 0 -35.740853783926298 93.035264612689389 0 0 0 0 275.30585353235074 -84.165602783831957 0 -84.165602783831957 185.78061607949962 0 0 0 0 164.87311010820122 -86.96766607395756 0 -86.96766607395756 129.54168161116218 0 0 0 0 223.53990078439529 -23.059234666693101 0 -23.059234666693101 120.26938535466007 0 0 0 0 109.21437224311057 -41.077281095900553 0 -41.077281095900553 170.33370039507008 0 0 0 0 228.7570048603593 -34.132062494796969 0 -34.132062494796969 137.21660381370327 0 0 0 0 564.43259440256224 -58.503233936245067 0 -58.503233936245067 109.4094782259441 0 0 0 0 241.67675033877458 6.7164808261503595 0 6.7164808261503595 204.39171718877606 0 0 0 0 258.52965112241873 -120.08799683977695 0 -120.08799683977695 25.25764693042106 0 0 0 0 412.24969010923087 46.416480591768675 0 46.416480591768675 143.50071702398668 0 0 0 0 -66.826803833529993 -44.819857832081539 0 -44.819857832081539 198.18362230427135 0 0 0 0 -0.35765801823366239 0.62767450989974805 0 0.62767450989974805 0.28047548489622931 0 0 0 0 6.052437739215776 4.2100459097145091 0 4.2100459097145091 -0.9476541260892688 0 0 0 0 70.102760864348966 27.255914286162579 0 27.255914286162579 -22.458554646967514 0 0 0 0 -81.724705086337053 26.324381302126767 0 26.324381302126767 102.19005791488917 0 0 0 0 203.27746749635116 108.11770215321474 0 108.11770215321474 14.155764057541482 0 0 0 0 520.76767141778691 48.737472647429286 0 48.737472647429286 -11.847367172352165 0 0 0 0 422.15567379754066 -83.956696224316715 0 -83.956696224316715 58.91349804582569 0 0 0 0 8.9527974385928246 24.474586455680424 0 24.474586455680424 23.486828250622636 0 0 0 0 32.934715339142713 53.100588352643086 0 53.100588352643086 -6.4537909223666787 0 0 0 0 26.89537377396482 50.67464603900271 0 50.67464603900271 -7.1649159550630657 0 0 0 0 75.272550654452061 37.597269490524951 0 37.597269490524951 17.14194424341548 0 0 0 0 40.226055775416171 38.415482492813254 0 38.415482492813254 -13.413307134558181 0 0 0 0 36.357017886373797 47.649856851629806 0 47.649856851629806 24.905588288591332 0 0 0 0 76.733268688716635 61.84963198530383 0 61.84963198530383 118.24335593700224 0 0 0 0 167.63687921680616 45.907628494477024 0 45.907628494477024 14.878241820750759 0 0 0 0 59.283986270489095 72.658808125181366 0 72.658808125181366 -20.489728773683055 0 0 0 0 56.411553014870151 16.68843347001382 0 16.68843347001382 7.2267158482258651 0 0 0 0 50.591927653411403 60.97508646197457 0 60.97508646197457 -16.514154736673163 0 0 0 0 52.712992411383539 29.021663219417192 0 29.021663219417192 13.376396562380091 0 0 0 0 62.569102524357731 66.206918856799462 0 66.206918856799462 -44.501683183921614 0 0 0 0 63.279343578098633 58.763894407360567 0 58.763894407360567 -16.40839426195771 0 0 0 0 74.908501930265629 37.387718263737952 0 37.387718263737952 -15.993463994002923 0 0 0 0 41.748057594697457 37.752014953435719 0 37.752014953435719 -15.506574820682999 0 0 0 0 24.552818151714746 34.072988731162695 0 34.072988731162695 -14.471955404379059 0 0 0 0 33.96813466893218 39.423605744097131 0 39.423605744097131 20.994623255263832 0 0 0 0 60.764460265083471 37.32235495659188 0 37.32235495659188 14.966799899577381 0 0 0 0 41.251118551532912 27.075567983276859 0 27.075567983276859 14.217736809283029 0 0 0 0 33.71105262334919 50.000559576688275 0 50.000559576688275 7.1068946627146943 0 0 0 0 38.010916659142822 39.538911544420102 0 39.538911544420102 7.1326791113115178 0 0 0 0 42.510537008431129 28.914220897553605 0 28.914220897553605 26.084407978754825 0 0 0 0 49.66273308818927 38.023205469690765 0 38.023205469690765 32.047411116017429 0 0 0 0 94.80981158495706 32.473808605505383 0 32.473808605505383 12.835306495335317 0 0 0 0 69.439355138511019 47.609161039759329 0 47.609161039759329 22.674652502211757 0 0 0 0 532.08900841593277 -70.318439390807271 0 -70.318439390807271 -83.273900148130906 0 0 0 0 160.74622931997965 -9.9401719920327167 0 -9.9401719920327167 50.427896205470915 0 0 0 0 7.2905346325788525 26.339953877131414 0 26.339953877131414 12.205268152411916 0 0 0 0 153.81650784958038 84.378837853544439 0 84.378837853544439 -78.867143474166824 0 0 0 0 -38.452911900116305 15.85526405586188 0 15.85526405586188 36.892135752580998 0 0 0 0 25.672598661381926 42.170496229491619 0 42.170496229491619 18.230837158328541 0 0 0 0 -4.778934868368907 2.3133547001889241 0 2.3133547001889241 3.9908852822398151 0 0 0 0 279.38366816574853 65.309004493067505 0 65.309004493067505 -45.344219204027013 0 0 0 0 174.8827573994422 16.204009868098183 0 16.204009868098183 -13.559651633276644 0 0 0 0 103.35758934801561 -62.821835271789496 0 -62.821835271789496 27.174038796740206 0 0 0 0 179.74475299336336 -44.573772840214588 0 -44.573772840214588 40.745475492678452 0 0 0 0 619.89168983018317 -130.21101888963676 0 -130.21101888963676 -75.776019498871875 0 0 0 0 670.16790710855275 -155.74884476367288 0 -155.74884476367288 -76.491580952276379 0 0 0 0 980.48370361924572 -14.892580282977349 0 -14.892580282977349 -135.92538345482808 0 0 0 0 635.84167241834075 -49.411099506864048 0 -49.411099506864048 -49.944568587036429 0 0 0 0 1212.6872545801161 -119.33707689049879 0 -119.33707689049879 -224.66855999110203 0 0 0 0 1019.6120236765491 -105.27968654773997 0 -105.27968654773997 -205.46273904786267 0 0 0 0 1240.3301433512606 -21.979111374278546 0 -21.979111374278546 -184.06637339472536 0 0 0 0 976.86763086379506 8.1913898530841607 0 8.1913898530841607 -12.705548468533379 0 0 0 0 894.96942552398832 -102.3338982860414 0 -102.3338982860414 -116.58623487466724 0 0 0 0 671.77474778821488 84.9207748085812 0 84.9207748085812 -26.84946262085532 0 0 0 0 573.24214117855445 53.746711302884734 0 53.746711302884734 119.98671486864106 0 0 0 0 589.69428699354467 -65.558660707544618 0 -65.558660707544618 47.043590457249138 0 0 0 0 878.02863114490174 2.4273463699105946 0 2.4273463699105946 -9.7975314926600277 0 0 0 0 1277.7085787053657 -47.222614876314616 0 -47.222614876314616 214.50672615632212 0 0 0 0 1309.2401793770696 -65.702791316764319 0 -65.702791316764319 -60.381385936548611 0 0 0 0 877.26697643189982 -7.1723729457756065 0 -7.1723729457756065 179.05107580096239 0 0 0 0 1431.5908439758077 -51.728276163656489 0 -51.728276163656489 7.3041041798593369 0 0 0 0 1048.4330622560483 -10.02276213492371 0 -10.02276213492371 49.307930953919026 0 0 0 0 1540.5885280635894 -472.72301226899003 0 -472.72301226899003 393.73510128250865 0 0 0 0 788.30901417316636 -97.724547153941501 0 -97.724547153941501 78.937007531151608 0 0 0 0 890.5246809608434 60.145786472019836 0 60.145786472019836 91.520579824051509 0 0 0 0 1809.9250314132205 -268.62747117924164 0 -268.62747117924164 -186.99701305485223 0 0 0 0 2499.7614930878663 -4.262542968263098 0 -4.262542968263098 -419.4497500539963 0 0 0 0 2944.4504700269972 -386.97929875033623 0 -386.97929875033623 -452.15978426114845 0 0 0 0 4.9383289143791131 2.5850075123048555 0 2.5850075123048555 0.61390996121016461 0 0 0 0 1254.9649448641867 252.06896677256418 0 252.06896677256418 -34.565717682054057 0 0 0 0 7.2227204758158479 6.777251473663128 0 6.777251473663128 6.2165074711781605 0 0 0 0 2088.8186168104367 -371.25604947558577 0 -371.25604947558577 -20.3828869477937 0 0 0 0 2298.6821901812727 -373.70352488796595 0 -373.70352488796595 -179.7532474382111 0 0 0 0 2499.4756997080513 -485.89168140554949 0 -485.89168140554949 -156.28845692447936 0 0 0 0 2204.1861128303644 -590.13661332691731 0 -590.13661332691731 80.955425998199701 0 0 0 0 1549.7841219969996 -207.19303495484576 0 -207.19303495484576 -77.174912712078822 0 0 0 0 1176.7137557939714 -227.80650190792448 0 -227.80650190792448 3.5128832656796476 0 0 0 0 779.11262281743257 -3.0723519484481585 0 -3.0723519484481585 -123.35077808232745 0 0 0 0 1275.3148211604857 55.367775019720284 0 55.367775019720284 -209.93027086085931 0 0 0 0 1182.2379450723456 -68.621183702644885 0 -68.621183702644885 -308.30546601294373 0 0 0 0 2415.7359360458358 -651.99483902647899 0 -651.99483902647899 84.772029800941112 0 0 0 0 2500.0346421480426 -791.59890794263026 0 -791.59890794263026 247.22204076733072 0 0 0 0 2091.641115599974 -792.87538396719071 0 -792.87538396719071 366.53565128022007 0 0 0 0 703.99635837764617 256.03025951463064 0 256.03025951463064 -97.376973018457647 0 0 0 0 8.2356679935780051 6.7119329631280564 0 6.7119329631280564 17.794058324521828 0 0 0 0 2357.3509465220995 -813.75078152601736 0 -813.75078152601736 699.55187055822682 0 0 0 0 2314.4155479688834 -1432.2530339025961 0 -1432.2530339025961 529.65940284480257 0 0 0 0 3239.4706604190578 -752.65607518099807 0 -752.65607518099807 160.41627084052348 0 0 0 0 1.3708395180001887 4.7976913405597017 0 4.7976913405597017 5.0332637337164474 0 0 0 0 831.79364546043507 128.30365496931518 0 128.30365496931518 -282.88149077162598 0 0 0 0 889.0699451622495 292.40646114331958 0 292.40646114331958 -237.46247383130685 0 0 0 0 885.92853339603607 137.4900241798623 0 137.4900241798623 -218.77166994112031 0 0 0 0 1227.4059896989202 294.59333391810105 0 294.59333391810105 -308.78186613897515 0 0 0 0 1523.9715094111452 -86.761947742963457 0 -86.761947742963457 -309.29486318443423 0 0 0 0 1317.143555150702 252.87879125642394 0 252.87879125642394 -309.58906671209297 0 0 0 0 1773.4581161361784 597.72828212991135 0 597.72828212991135 -350.00321963031092 0 0 0 0 1148.7723431495106 712.57724159940881 0 712.57724159940881 -26.734122429625131 0 0 0 0 680.10944268210733 317.79735137280113 0 317.79735137280113 -16.013623233848193 0 0 0 0 125.32880521194602 1463.9801873446686 0 1463.9801873446686 1544.4272849397839 0 0 0 0 -478.94205191198125 -191.21233941058927 0 -191.21233941058927 651.24819353950625 0 0 0 0 2595.0544297589076 879.2198145696857 0 879.2198145696857 -13.020631525989415 0 0 0 0 2499.8899614594229 -547.39413531562241 0 -547.39413531562241 153.48840001079111 0 0 0 0 6.0068151224837756 3.5181432736081391 0 3.5181432736081391 10.541375309967874 0 0 0 0 12.654394838041696 -12.512394780041454 0 -12.512394780041454 17.215911612462804 0 0 0 0 49.484387962555047 -61.560599753246407 0 -61.560599753246407 335.29101920895209 0 0 0 0 469.73396467702696 -324.22908248621388 0 -324.22908248621388 270.54324606290356 0 0 0 0 1053.3144154464462 -369.74880052847402 0 -369.74880052847402 -27.66929099330082 0 0 0 0 527.5875909061142 -220.05796375895625 0 -220.05796375895625 105.55011383552846 0 0 0 0 1125.490071802793 -152.5209815124108 0 -152.5209815124108 -237.16033177888312 0 0 0 0 1217.2069643446521 -216.9413115139273 0 -216.9413115139273 -308.67781755351916 0 0 0 0 1941.0553258820082 -362.39662850796088 0 -362.39662850796088 -330.5429182109965 0 0 0 0 29.078987539690701 -6.4394623841785403 0 -6.4394623841785403 2.5592657286933331 0 0 0 0 944.18304947076103 -779.55066692921037 0 -779.55066692921037 371.8787616845384 0 0 0 0 2860.1199373504251 -322.55244954620196 0 -322.55244954620196 -338.83910151650707 0 0 0 0 -91.162608911887219 -31.621916929052986 0 -31.621916929052986 178.53273412404087 0 0 0 0 488.62457210239336 643.73204386460668 0 643.73204386460668 93.401495839931385 0 0 0 0 1820.9165462286037 710.27269076531502 0 710.27269076531502 -71.836998464662429 0 0 0 0 1620.3004491164938 90.665380417672395 0 90.665380417672395 31.832569163522749 0 0 0 0 3009.2917813458007 415.39632298704186 0 415.39632298704186 -210.64664573360974 0 0 0 0 2495.7723665361191 1072.0856865081907 0 1072.0856865081907 -253.46224216471117 0 0 0 0 1036.7276309299959 1307.0427900088532 0 1307.0427900088532 861.26257455609129 0 0 0 0 3273.5956216628183 -418.30912077057519 0 -418.30912077057519 -434.02041144245732 0 0 0 0 318.29981091717855 234.77256447024698 0 234.77256447024698 271.22384845277799 0 0 0 0 13.78676253101807 -17.007004016469509 0 -17.007004016469509 16.437751243342376 0 0 0 0 1645.5235396975841 -59.972252658512843 0 -59.972252658512843 -395.17082443469099 0 0 0 0 1543.0421927619755 596.73668120856053 0 596.73668120856053 -147.15141817752428 0 0 0 0 1573.7946695129795 550.25103676077902 0 550.25103676077902 -332.99356169507269 0 0 0 0 2500.4457972525965 335.06775045891072 0 335.06775045891072 -377.95570898250077 0 0 0 0 1696.9320444127588 -12.924052054638409 0 -12.924052054638409 -330.40005911453989 0 0 0 0 1783.9016749141956 -250.80664480676978 0 -250.80664480676978 117.11608899161502 0 0 0 0 544.82709973813144 -26.320920734977513 0 -26.320920734977513 89.501168011975608 0 0 0 0 7.3758234869171559 -6.0323954322978395 0 -6.0323954322978395 5.111702451227198 0 0 0 0 630.96014525372448 -71.673748691133937 0 -71.673748691133937 614.53182316393145 0 0 0 0 1578.5416067080478 428.83793816308958 0 428.83793816308958 -4.3312988808082764 0 0 0 0 2132.4740219495761 -171.83808489633074 0 -171.83808489633074 -222.13869864959884 0 0 0 0 1369.6534256691921 -77.777124211651298 0 -77.777124211651298 -188.99566354235606 0 0 0 0 1411.9219818454867 1.2288955877854022 0 1.2288955877854022 -45.524281628152892 0 0 0 0 425.94051937411132 357.87181226714705 0 357.87181226714705 96.550917898601142 0 0 0 0 893.55408615797751 56.545523418438592 0 56.545523418438592 -39.70448256948589 0 0 0 0 484.00439562290194 -76.898015843415322 0 -76.898015843415322 114.29376137779349 0 0 0 0 1390.9064612591574 -179.17788613830638 0 -179.17788613830638 -92.395003829294183 0 0 0 0 1354.0676208413979 -345.94103061431184 0 -345.94103061431184 -79.834425248566959 0 0 0 0 2501.2416878180593 -595.55412739213011 0 -595.55412739213011 -333.1273606687738 0 0 0 0 2498.7260679491465 -208.54760993163686 0 -208.54760993163686 -308.34925262034193 0 0 0 0 1846.6968441546051 -438.74504416374873 0 -438.74504416374873 -322.82284552551971 0 0 0 0 1886.2485709547291 -273.55551639259244 0 -273.55551639259244 -221.49637607773309 0 0 0 0 26.143961114139529 -40.856133533113166 0 -40.856133533113166 25.555241436546936 0 0 0 0 25.284883932366938 -17.579117007116196 0 -17.579117007116196 155.04139476593539 0 0 0 0 -16.734568912866962 -56.961827260807929 0 -56.961827260807929 98.946440797875638 0 0 0 0 0.34127806742800715 0.40088116816689023 0 0.40088116816689023 0.47046667519890173 0 0 0 0 37.079652328247903 86.019867456202775 0 86.019867456202775 29.348065274047041 0 0 0 0 158.91445680939796 23.833062666356739 0 23.833062666356739 86.790712936912257 0 0 0 0 23.412014383990027 49.686803973506358 0 49.686803973506358 161.88726790422797 0 0 0 0 485.43428324618435 -24.457758545435098 0 -24.457758545435098 108.40175003368091 0 0 0 0 178.18639962370071 86.224944848984507 0 86.224944848984507 201.8925860899181 0 0 0 0 414.57572582376133 36.962015994243629 0 36.962015994243629 77.549412945215522 0 0 0 0 146.98304833177099 -27.902080873928639 0 -27.902080873928639 197.20157936881043 0 0 0 0 128.46574940314895 7.5484637847299894 0 7.5484637847299894 130.96826462962463 0 0 0 0 -35.562320096343683 -60.406644269676804 0 -60.406644269676804 142.67627011171987 0 0 0 0 143.02025145119842 91.132275925979684 0 91.132275925979684 88.425436824354904 0 0 0 0 -3.1150252014153352 -0.5471717417643891 0 -0.5471717417643891 0.30142597868211335 0 0 0 0 493.54711531967223 316.47882464897623 0 316.47882464897623 -82.279793973066717 0 0 0 0 108.18410161397696 99.165075142568185 0 99.165075142568185 406.36401878334442 0 0 0 0 -285.73081225076788 -560.26951410109621 0 -560.26951410109621 213.68680575113819 0 0 0 0 -303.16811479652824 467.58367289128046 0 467.58367289128046 99.434965474801629 0 0 0 0 108.94488233188531 75.604240415636127 0 75.604240415636127 -315.19850860599837 0 0 0 0 -5.2562268571535355 -2.8462529950866244 0 -2.8462529950866244 -0.72465217776446678 0 0 0 0 22.895462692275032 -51.73232501295459 0 -51.73232501295459 51.921549881373807 0 0 0 0 15.157100142493618 -55.367037802502423 0 -55.367037802502423 94.511386785590844 0 0 0 0 9.1346884478589345 -63.562666210427423 0 -63.562666210427423 110.81106684350135 0 0 0 0 -3.6404576390465877 -2.9235462512986352 0 -2.9235462512986352 -1.3372116730042194 0 0 0 0 77.840389477833014 -116.38709987132214 0 -116.38709987132214 -114.61014584212012 0 0 0 0 152.04852252416276 13.535554580578065 0 13.535554580578065 -237.4585069940357 0 0 0 0 34.247348160541151 -1.7684003525682783 0 -1.7684003525682783 -22.221179623291505 0 0 0 0 30.784674292466661 63.079563189724837 0 63.079563189724837 -147.20805722834945 0 0 0 0 36.562573770074351 -3.2514550513699536 0 -3.2514550513699536 -4.2939070537675299 0 0 0 0 59.013662337347341 32.307355814190146 0 32.307355814190146 12.398664417037025 0 0 0 0 23.356366093783436 7.1973942490952822 0 7.1973942490952822 13.853597218194409 0 0 0 0 12.004754218254675 -258.48152891706286 0 -258.48152891706286 -671.55918291978242 0 0 0 0 50.649204364188336 79.812684578931794 0 79.812684578931794 495.01642329309539 0 0 0 0 458.2969629379607 -517.83179988080371 0 -517.83179988080371 -243.14328438632037 0 0 0 0 -13.718016745489876 109.27940249591066 0 109.27940249591066 -192.4874614184906 0 0 0 0 -582.50058321198412 -316.94827801126848 0 -316.94827801126848 66.285456815297039 0 0 0 0 15.856371588325549 -3.5816599409214049 0 -3.5816599409214049 -9.6325810856884395 0 0 0 0 94.127926157043476 -217.87270312626902 0 -217.87270312626902 -412.62171454532745 0 0 0 0 76.59504671019522 -15.494878465043818 0 -15.494878465043818 -3.3916381861079437 0 0 0 0 181.7120448750502 86.172926825905961 0 86.172926825905961 -246.28590850152113 0 0 0 0 20.843736367417819 3.6026949186562831 0 3.6026949186562831 -4.1366847790168322 0 0 0 0 19.041374666459266 21.706762468882069 0 21.706762468882069 -26.976665292312681 0 0 0 0 51.110372117233055 56.72729977029212 0 56.72729977029212 -37.063684439407552 0 0 0 0 0.30409101115220594 25.59400815743431 0 25.59400815743431 -6.8209235590022175 0 0 0 0 8.9191181598612275 30.18911857784812 0 30.18911857784812 5.8691717762831104 0 0 0 0 -36.09645247464141 54.684356308715124 0 54.684356308715124 65.179946526155618 0 0 0 0 114.25816896351898 58.036330314508632 0 58.036330314508632 -37.038851715930633 0 0 0 0 53.382077456895786 -30.643424053409944 0 -30.643424053409944 162.24282633355961 0 0 0 0 72.653823936285335 20.043554850572264 0 20.043554850572264 0.84914347701351289 0 0 0 0 41.986848849628586 14.417156868666211 0 14.417156868666211 -4.8163804216983408 0 0 0 0 18.20437603276514 20.105361867756073 0 20.105361867756073 16.165159087176562 0 0 0 0 33.062958119669929 25.341430460577612 0 25.341430460577612 -16.919086993106248 0 0 0 0 72.876946800872247 18.738140817268231 0 18.738140817268231 17.394106375825686 0 0 0 0 46.984794426190092 32.308537197595285 0 32.308537197595285 16.936406578928654 0 0 0 0 135.09121013963886 42.055705186962314 0 42.055705186962314 15.509740311676978 0 0 0 0 106.32235158888216 36.03296265037261 0 36.03296265037261 18.742844203427467 0 0 0 0 103.69706294607204 38.853220372697251 0 38.853220372697251 18.156315753554736 0 0 0 0 126.83603436176782 43.5316150307317 0 43.5316150307317 14.327089730502848 0 0 0 0 105.45443233726837 35.183243336785381 0 35.183243336785381 9.8178706607968707 0 0 0 0 95.966895719579043 43.887069186778945 0 43.887069186778945 15.97125505727854 0 0 0 0 67.23029285629309 34.735949106140424 0 34.735949106140424 17.336778344022832 0 0 0 0 110.40686769726744 38.673174640199704 0 38.673174640199704 9.3140256623464666 0 0 0 0 104.57694304257348 45.389163054453206 0 45.389163054453206 11.756728132108492 0 0 0 0 129.76313554336957 49.620082428900787 0 49.620082428900787 -8.2796076089310873 0 0 0 0 119.93026055760856 47.482392117743984 0 47.482392117743984 10.796779818052869 0 0 0 0 141.73482687255455 36.061728678602776 0 36.061728678602776 17.542195372519927 0 0 0 0 142.51524537659134 37.64359470592899 0 37.64359470592899 2.8674660462493193 0 0 0 0 146.53280014641814 59.581676852466217 0 59.581676852466217 20.354178522784423 0 0 0 0 131.38967097107525 52.888741485928222 0 52.888741485928222 20.522296619545159 0 0 0 0 -85.263258542210679 -53.348477438818009 0 -53.348477438818009 -33.32709430344039 0 0 0 0 187.76958051379188 58.627329903129066 0 58.627329903129066 26.439922356506941 0 0 0 0 131.05185702515882 49.980981285218149 0 49.980981285218149 39.144318990942338 0 0 0 0 123.57183532905037 42.051932478386334 0 42.051932478386334 18.857643320108764 0 0 0 0 123.81871166263591 54.104363502127853 0 54.104363502127853 25.698576465964834 0 0 0 0 141.95579653873574 53.363427948925164 0 53.363427948925164 18.672702518661026 0 0 0 0 125.9399330975175 54.559264997010814 0 54.559264997010814 23.700517489702179 0 0 0 0 138.888844087709 57.466510918776294 0 57.466510918776294 26.56656287824444 0 0 0 0 -124.84833031252492 -14.048719595524744 0 -14.048719595524744 -24.969287721611636 0 0 0 0 -47.602095158999873 6.7080908427928989 0 6.7080908427928989 -44.375447500329756 0 0 0 0 4.8525969135056357 0.49452748546674741 0 0.49452748546674741 -1.3797290775422315 0 0 0 0 -6.0704188513045665 -32.750875579559306 0 -32.750875579559306 -42.271687466260119 0 0 0 0 27.945402501423189 -17.876639482634058 0 -17.876639482634058 -9.9461328357062708 0 0 0 0 0.3048270302112428 -1.3917102180130883 0 -1.3917102180130883 -1.5378514489148287 0 0 0 0 105.76439064762235 94.52219482237831 0 94.52219482237831 70.199616623209749 0 0 0 0 -36.134458556945901 -29.993617458331869 0 -29.993617458331869 72.360688757702519 0 0 0 0 45.398495024099248 -28.563850898717192 0 -28.563850898717192 5.363661272970603 0 0 0 0 47.235902027141037 -0.25093305923157061 0 -0.25093305923157061 45.921564617737204 0 0 0 0 162.57041014675633 -114.93648487320434 0 -114.93648487320434 152.2449315621825 0 0 0 0 231.75318982338649 -40.027063467073276 0 -40.027063467073276 18.226132302840597 0 0 0 0 -82.370881716837175 -13.365498858495812 0 -13.365498858495812 65.12551008715991 0 0 0 0 44.769212269377022 -26.552444854040914 0 -26.552444854040914 -48.145404587362918 0 0 0 0 36.689864242645854 -59.746852644323099 0 -59.746852644323099 133.67072299395659 0 0 0 0 141.08629011468338 30.432937319618532 0 30.432937319618532 -31.287063995358949 0 0 0 0 -103.5383634305399 -77.686820851547509 0 -77.686820851547509 32.314404688939248 0 0 0 0 13.710210820811909 -13.260267042725602 0 -13.260267042725602 -3.2662197652186702 0 0 0 0 -110.09258640366897 -58.855398545821117 0 -58.855398545821117 -21.105831659764817 0 0 0 0 90.944021220848299 40.435590928961915 0 40.435590928961915 34.243192358878787 0 0 0 0 158.81513410186017 70.537572678544279 0 70.537572678544279 -46.955593895676486 0 0 0 0 97.679653989124517 60.588067566895688 0 60.588067566895688 42.684201838150329 0 0 0 0 127.25248730362182 66.786366454013432 0 66.786366454013432 -56.059273644913446 0 0 0 0 14.733967157986626 -119.35043442796109 0 -119.35043442796109 -14.327560875334143 0 0 0 0 100.34348594464896 -223.45493126393427 0 -223.45493126393427 -152.88275640323582 0 0 0 0 16.703333060077718 -16.575138851383194 0 -16.575138851383194 4.1558247932979029 0 0 0 0 -17.361836159969243 -40.63410118970387 0 -40.63410118970387 37.76519561920577 0 0 0 0 -0.0014656446763368081 -0.011158512526236564 0 -0.011158512526236564 -0.99968650071817322 0 0 0 0 47.259384363587742 -63.696540379241242 0 -63.696540379241242 -7.3233284257507307 0 0 0 0 13.018618917123824 -18.950986053651455 0 -18.950986053651455 7.7988172118778341 0 0 0 0 -256.80539034010144 -110.67702804616513 0 -110.67702804616513 365.80173320374621 0 0 0 0 553.76943762302108 -48.816301437072696 0 -48.816301437072696 -256.17954500966857 0 0 0 0 510.31861403812218 187.49026337825507 0 187.49026337825507 -163.99915239170099 0 0 0 0 256.55786565626477 261.93461680939663 0 261.93461680939663 187.30831217755212 0 0 0 0 217.98707872419618 -201.53872460908585 0 -201.53872460908585 -132.2860519588157 0 0 0 0 -134.78827339400596 -129.08817522390714 0 -129.08817522390714 -133.9864611450256 0 0 0 0 7.588150147902212 0.029453671238261592 0 0.029453671238261592 -0.40583873555777134 0 0 0 0 129.52865795978869 230.78268315194879 0 230.78268315194879 284.21798125426585 0 0 0 0 -1.0898942267247662 -1.205907473364789 0 -1.205907473364789 -0.74708255360987097 0 0 0 0 21.513768975812795 -2.8950797194171276 0 -2.8950797194171276 0.42539392451217573 0 0 0 0 39.232837994601141 -19.598061263478144 0 -19.598061263478144 -302.46845173700433 0 0 0 0 116.99027437507175 -27.56310012976229 0 -27.56310012976229 -401.52137771561615 0 0 0 0 62.118785233338713 6.3523261209850261 0 6.3523261209850261 -5.0635139144480945 0 0 0 0 22.026285608852049 17.354859765720107 0 17.354859765720107 56.269378321312161 0 0 0 0 62.252277287945617 29.905001985197259 0 29.905001985197259 13.121515883452886 0 0 0 0 103.47522504329754 71.59862366745881 0 71.59862366745881 46.813170305631729 0 0 0 0 129.73021506961231 64.707493029036414 0 64.707493029036414 -4.319272880234621 0 0 0 0 146.87407824716502 83.560852519694606 0 83.560852519694606 13.879802709843716 0 0 0 0 191.3043203406778 136.52489346376558 0 136.52489346376558 -11.00574659326935 0 0 0 0 61.038562375215406 98.283926193236994 0 98.283926193236994 212.97494024199125 0 0 0 0 8.4492228579820221 1.3094669429974033 0 1.3094669429974033 1.6608883731937567 0 0 0 0 9.2622906993346987 3.1605412913909277 0 3.1605412913909277 2.8833641980081666 0 0 0 0 9.3215504766922095 1.5382859210071729 0 1.5382859210071729 0.94561075518072357 0 0 0 0 8.5606878848072938 0.50518501063883647 0 0.50518501063883647 0.16231081691421423 0 0 0 0 24.638187933916925 10.694306079748458 0 10.694306079748458 -3.8379450380443814 0 0 0 0 8.5606435062501305 0.50026936827562096 0 0.50026936827562096 1.8762644736434595 0 0 0 0 5.7774575688963523 -3.6213031236272855 0 -3.6213031236272855 -2.8555806059985116 0 0 0 0 6.8688034286347914 -0.57125928915090052 0 -0.57125928915090052 0.026446010370166417 0 0 0 0 27.294881838635774 -13.940269613304281 0 -13.940269613304281 20.718123781280156 0 0 0 0 15.736621740517876 -34.645684504721771 0 -34.645684504721771 36.587674017261179 0 0 0 0 -6.9814388993327157 -7.8751702968488644 0 -7.8751702968488644 7.6197526715714048 0 0 0 0 3.6509733680975387 4.8624373372360523 0 4.8624373372360523 14.524914515013734 0 0 0 0 3.4825183904686128 1.1429107648609715 0 1.1429107648609715 2.1913462721317956 0 0 0 0 5.0784718323702691 12.27442295406172 0 12.27442295406172 5.4407547241221437 0 0 0 0 5.0594543054685346 15.020235517581114 0 15.020235517581114 14.03721771001301 0 0 0 0 19.774893766327295 24.510653855183136 0 24.510653855183136 -6.4429500833534803 0 0 0 0 14.52085951952904 13.90254734618884 0 13.90254734618884 2.1418181323585941 0 0 0 0 14.82661662764167 25.81419742575622 0 25.81419742575622 34.226556642198375 0 0 0 0 68.248357372111059 27.439805688580236 0 27.439805688580236 4.9845097064271613 0 0 0 0 13.947001183534667 20.857679491181898 0 20.857679491181898 17.62982765336983 0 0 0 0 5.0739957459518337 -53.41803333329085 0 -53.41803333329085 155.22653150599717 0 0 0 0 33.402609291930276 34.25366988546466 0 34.25366988546466 56.480388887432127 0 0 0 0 2.3943933934153705 -0.48225063040519922 0 -0.48225063040519922 0.095833919737202455 0 0 0 0 -11.484946107011638 1.5864081733775492 0 1.5864081733775492 43.967402930663866 0 0 0 0 6.8240780307241948 -18.561753935682646 0 -18.561753935682646 33.3648675698646 0 0 0 0 94.99019453164874 -93.854187685482884 0 -93.854187685482884 78.780251744194857 0 0 0 0 108.22098900012497 47.888488577460521 0 47.888488577460521 37.923677233426588 0 0 0 0 255.68702343968835 -44.304235479171439 0 -44.304235479171439 -22.903983727390369 0 0 0 0 148.49255851161433 -33.842086493787065 0 -33.842086493787065 -23.589009495731943 0 0 0 0 200.65176365549269 21.567779357429572 0 21.567779357429572 3.2112621889900765 0 0 0 0 67.038568327479879 11.647529903405484 0 11.647529903405484 2.6411346814631997 0 0 0 0 153.61679896200076 -22.737424508266486 0 -22.737424508266486 -19.013665573900653 0 0 0 0 23.437899965123506 -25.580148146603278 0 -25.580148146603278 -18.065119363853 0 0 0 0 49.246342538608587 -2.809725593861458 0 -2.809725593861458 -28.853738699721362 0 0 0 0 128.26592690614052 -90.048868135493194 0 -90.048868135493194 -71.713742379275573 0 0 0 0 234.40032934076316 -58.24190237899154 0 -58.24190237899154 -63.948254693817944 0 0 0 0 1.1875180449976597 -0.83677472041646439 0 -0.83677472041646439 0.45608396155740749 0 0 0 0 147.40687840964529 -98.934389455942437 0 -98.934389455942437 -94.400024394071806 0 0 0 0 318.9853507382104 149.78801129158762 0 149.78801129158762 -56.209087759761132 0 0 0 0 436.11306235034863 -67.620373932585608 0 -67.620373932585608 -202.90447239261903 0 0 0 0 -33.582989924536378 -6.3025954531630646 0 -6.3025954531630646 -17.79050582167929 0 0 0 0 -10.989506676261954 -98.747163219936283 0 -98.747163219936283 -44.726981996273935 0 0 0 0 84.514043547809706 25.403464803894622 0 25.403464803894622 19.575240818517159 0 0 0 0 73.503760448766116 58.095708237350891 0 58.095708237350891 11.895893057515423 0 0 0 0 159.74300402514928 119.14838048167258 0 119.14838048167258 60.169616829494771 0 0 0 0 67.526699805486714 52.715300089625543 0 52.715300089625543 73.08074307014499 0 0 0 0 5.2923942739714001 -1.222361818324238 0 -1.222361818324238 -3.4111658488776611 0 0 0 0 91.809674997675756 -1.1446232155756206 0 -1.1446232155756206 -48.871898674764225 0 0 0 0 63.720735596369195 -17.495824730125605 0 -17.495824730125605 -2.9270504577955307 0 0 0 0 79.749089841250679 -3.3647026016424206 0 -3.3647026016424206 -10.992948203595915 0 0 0 0 104.59718652196898 -4.6526078877682266 0 -4.6526078877682266 -14.688598190212815 0 0 0 0 89.198582470406109 0.71904973720529597 0 0.71904973720529597 39.355352494378167 0 0 0 0 3.4562965831094488 -2.2793690024577273 0 -2.2793690024577273 1.7203568932220037 0 0 0 0 -0.023281422511516325 -0.044377471774524224 0 -0.044377471774524224 0.86827798354478336 0 0 0 0 78.128877379367168 -16.580827804327868 0 -16.580827804327868 10.250454183738839 0 0 0 0 6.1390293905715225 -13.733811120549944 0 -13.733811120549944 -26.282276088787512 0 0 0 0 34.153317536009126 21.712659467636513 0 21.712659467636513 6.6158003358104907 0 0 0 0 87.488970581693138 30.304862572829052 0 30.304862572829052 4.4851488579201941 0 0 0 0 9.2769816682654636 -2.8640721483284466 0 -2.8640721483284466 -0.33360925233680927 0 0 0 0 4.8820236785715281 1.378006049543238 0 1.378006049543238 -1.6752554838765992 0 0 0 0 5.7314456862177394 -10.210708020176469 0 -10.210708020176469 -9.7050989539447983 0 0 0 0 14.804583830620686 3.2482635896553802 0 3.2482635896553802 -18.331082599280307 0 0 0 0 9.8272095131978858 4.5860228474111864 0 4.5860228474111864 -13.190149524820754 0 0 0 0 10.655143742864311 7.1866706186688134 0 7.1866706186688134 -39.569290378698952 0 0 0 0 13.578271320237036 6.6210275451808229 0 6.6210275451808229 -17.167717533028735 0 0 0 0 12.926369901320868 1.197290761624572 0 1.197290761624572 -1.1055698530085465 0 0 0 0 9.8992261758976383 7.4803532755468041 0 7.4803532755468041 0.38332543876731506 0 0 0 0 14.391706654767404 10.166696730508477 0 10.166696730508477 -6.1848980783870502 0 0 0 0 9.8312854983028046 4.2249135673598843 0 4.2249135673598843 1.1313339628577523 0 0 0 0 15.195681353077816 0.19584998699474454 0 0.19584998699474454 -9.286267597220899 0 0 0 0 15.849021002541122 -7.4523659404219416 0 -7.4523659404219416 -2.8885477124450176 0 0 0 0 6.22376594767033 0.21969156190582595 0 0.21969156190582595 -1.2735924043174762 0 0 0 0 3.5555573773515334 -7.6730017992409358 0 -7.6730017992409358 0.47722734429044067 0 0 0 0 13.615978872294363 -1.5622283236382373 0 -1.5622283236382373 -1.366023749561009 0 0 0 0 2.5271100996571931 6.1947537255389733 0 6.1947537255389733 -0.89163735710690162 0 0 0 0 11.697775063491463 0.45967461833382117 0 0.45967461833382117 1.2585617337913391 0 0 0 0 5.1271672975097147 2.902633171476424 0 2.902633171476424 -0.66559224281952822 0 0 0 0 -1.6056474242577679 3.4176788686297641 0 3.4176788686297641 2.830263229542652 0 0 0 0 11.480802154103003 2.2975817895703585 0 2.2975817895703585 -1.9377197494586653 0 0 0 0 22.806430990664012 6.5788043153828326 0 6.5788043153828326 -15.739517020544326 0 0 0 0 3.4638695625671971 -16.196054680604391 0 -16.196054680604391 10.518286781819711 0 0 0 0 -14.286945838066458 4.1398978872601901 0 4.1398978872601901 3.5304374123134039 0 0 0 0 -6.7471305348881288 -4.8972280503605248 0 -4.8972280503605248 1.9080099523562239 0 0 0 0 8.1356782392629015 -3.952998046695658 0 -3.952998046695658 1.5434980673945664 0 0 0 0 10.696265376900556 -9.2781798484744513 0 -9.2781798484744513 -6.792030082114934 0 0 0 0 9.3549689191568177 -0.97089342409344681 0 -0.97089342409344681 -2.4350060022309208 0 0 0 0 11.217050654996058 -4.8916699405056079 0 -4.8916699405056079 -0.88639691466739379 0 0 0 0 20.162819632201717 3.6492561722185428 0 3.6492561722185428 3.2183514240780369 0 0 0 0 8.0275778969383893 -3.5702593506192812 0 -3.5702593506192812 -2.254616470369684 0 0 0 0 16.719015848138952 1.5121334032892548 0 1.5121334032892548 3.8004796526039115 0 0 0 0 21.058477741721617 -0.46851359080962851 0 -0.46851359080962851 4.6952619957364732 0 0 0 0 29.716376189231596 -12.9662332740495 0 -12.9662332740495 0.24739538378253201 0 0 0 0 10.946905680369397 6.5879888456924647 0 6.5879888456924647 -0.087161795686450994 0 0 0 0 18.710195207870129 20.191575356129192 0 20.191575356129192 3.0119577635673522 0 0 0 0 14.688292277212895 -4.1995401168549051 0 -4.1995401168549051 -0.04256296882249444 0 0 0 0 55.509896940558974 10.679613403777694 0 10.679613403777694 0.41843773426222697 0 0 0 0 60.8815138212085 -16.134335708759295 0 -16.134335708759295 32.980416149760686 0 0 0 0 64.969594844067615 -13.171351033769156 0 -13.171351033769156 6.6097933189321338 0 0 0 0 78.76470320261069 -1.8976747551407129 0 -1.8976747551407129 -6.7596156134895864 0 0 0 0 124.28922321686696 10.776497835292957 0 10.776497835292957 -5.8270439664082119 0 0 0 0 -5.3206006034855591 0.083044962769307062 0 0.083044962769307062 1.7017957906641037 0 0 0 0 63.991662260807061 -20.159192628460886 0 -20.159192628460886 4.2571749511355392 0 0 0 0 57.60823452398472 3.7346552851174124 0 3.7346552851174124 -5.7147171467258531 0 0 0 0 61.715895459492458 2.3057962578419335 0 2.3057962578419335 -10.692706865480943 0 0 0 0 51.07145482658234 -11.070435529727092 0 -11.070435529727092 8.6680816171879087 0 0 0 0 10.973510102209246 -16.841072101755785 0 -16.841072101755785 3.1782210813157681 0 0 0 0 17.411155364259812 5.0383024577526996 0 5.0383024577526996 0.25824751147170133 0 0 0 0 60.082086572809203 11.563258579091666 0 11.563258579091666 9.444388770946091 0 0 0 0 30.876519346428722 7.3822780316531293 0 7.3822780316531293 -0.15198795930700726 0 0 0 0 -1.8043496396310275 -3.4871246879711357 0 -3.4871246879711357 1.7391662021698902 0 0 0 0 38.939860067723203 14.53449685158283 0 14.53449685158283 17.92066332958791 0 0 0 0 18.610118062850233 -14.413540287382659 0 -14.413540287382659 8.1228486197860548 0 0 0 0 5.3846611006374587 -1.5611205568636706 0 -1.5611205568636706 -2.7798108547085576 0 0 0 0 8.4040333505430862 -1.57625450521396 0 -1.57625450521396 1.8467536432575176 0 0 0 0 22.764456087709831 -8.8457102442341142 0 -8.8457102442341142 -3.3102536641723352 0 0 0 0 19.222219397586059 1.7896895271287114 0 1.7896895271287114 -0.56299960035290919 0 0 0 0 2.3672263102642788 -0.81111914225661508 0 -0.81111914225661508 -0.31998470928201794 0 0 0 0 22.358014044337324 5.5523648281912301 0 5.5523648281912301 8.2435368033807208 0 0 0 0 86.893869921772421 35.686577741645735 0 35.686577741645735 11.990622397463767 0 0 0 0 3.9628445664981591 1.2476316888029473 0 1.2476316888029473 4.1652509588860189 0 0 0 0 65.34759541157473 4.6574726423886617 0 4.6574726423886617 0.022337103076324638 0 0 0 0 24.958687744207054 5.4057716961461892 0 5.4057716961461892 6.9349679989468314 0 0 0 0 76.315434313946753 10.652963001404544 0 10.652963001404544 -11.243738001235954 0 0 0 0 15.922411484676559 6.1348854186273911 0 6.1348854186273911 3.3729887623495642 0 0 0 0 24.614830018639623 6.9886763541127266 0 6.9886763541127266 -0.2559700113836243 0 0 0 0 18.591810876460386 7.4665573310256406 0 7.4665573310256406 4.2822912839808396 0 0 0 0 19.023808072615793 -0.48563128320503779 0 -0.48563128320503779 -1.2489123652395051 0 0 0 0 26.882977734443557 5.7339125302110006 0 5.7339125302110006 1.8076284014016437 0 0 0 0 17.403317239979003 1.5546050238339806 0 1.5546050238339806 -0.29167678433888722 0 0 0 0 16.912893663890131 0.22373585848197486 0 0.22373585848197486 -1.4633615492822951 0 0 0 0 18.390265467360223 2.0305473842519959 0 2.0305473842519959 -1.4564945479998244 0 0 0 0 16.119368207113439 1.9260859485897441 0 1.9260859485897441 3.8087014206597445 0 0 0 0 17.730350829519011 6.9900955063009178 0 6.9900955063009178 -2.8763206127663352 0 0 0 0 19.643357055378146 1.3286389036361186 0 1.3286389036361186 -8.1376719005938867 0 0 0 0 19.287348455782194 5.3665404456548913 0 5.3665404456548913 -1.5616251891725597 0 0 0 0 24.807114602514048 4.7790509924834623 0 4.7790509924834623 -35.973488728055145 0 0 0 0 15.792819325893021 -1.8507193100388761 0 -1.8507193100388761 -0.98994288628067928 0 0 0 0 14.323019747946091 -1.1181144171489734 0 -1.1181144171489734 -13.026612106918947 0 0 0 0 9.7024531666018135 -3.3997940832026643 0 -3.3997940832026643 -0.0026009626804757158 0 0 0 0 16.128944102607875 1.9109192058602549 0 1.9109192058602549 2.9804608503255281 0 0 0 0 21.592132101508469 -71.723795129483534 0 -71.723795129483534 94.259036973751208 0 0 0 0 109.76397789429473 -17.314070562168112 0 -17.314070562168112 -5.1894507566254333 0 0 0 0 0.33012343016719825 0.22102547593222965 0 0.22102547593222965 0.38921804462179443 0 0 0 0 28.025879093955155 -54.634551266894519 0 -54.634551266894519 93.433398496066431 0 0 0 0 24.302648106126071 -39.392834923180025 0 -39.392834923180025 109.65011233173604 0 0 0 0 -4.2586517057716264 -73.697825966790646 0 -73.697825966790646 156.9314520718633 0 0 0 0 137.6359428690921 -58.939504185979843 0 -58.939504185979843 90.554586720037491 0 0 0 0 -85.267364159699355 -202.06416419990362 0 -202.06416419990362 -0.49841217468480181 0 0 0 0 196.38282253691068 -210.67941927644506 0 -210.67941927644506 -135.28669195769308 0 0 0 0 325.92860998329706 -42.568656346048478 0 -42.568656346048478 -29.543084540027927 0 0 0 0 203.86645729717929 120.99426226287937 0 120.99426226287937 -16.358957042035456 0 0 0 0 -23.020995263120312 41.073616614017553 0 41.073616614017553 21.221329013960812 0 0 0 0 117.26118821137061 -11.880453092762579 0 -11.880453092762579 -38.460396896333179 0 0 0 0 97.753760443983992 12.463297740665659 0 12.463297740665659 12.005163882659076 0 0 0 0 111.22529890605438 10.120773059757532 0 10.120773059757532 -42.100367516281977 0 0 0 0 101.05308214674733 17.199837589000907 0 17.199837589000907 -14.545454963587446 0 0 0 0 98.183051577419974 -4.488216560900554 0 -4.488216560900554 -3.7674830949758871 0 0 0 0 103.31371025569024 5.4346364726229126 0 5.4346364726229126 -11.745632542454189 0 0 0 0 147.39925479832891 5.9824470614387337 0 5.9824470614387337 -9.7627352126943094 0 0 0 0 106.7534560571803 58.094573096890031 0 58.094573096890031 42.674070120833278 0 0 0 0 104.74794755080075 2.7690843953114666 0 2.7690843953114666 -6.8823190013351336 0 0 0 0 109.49355004288736 4.0352817019639673 0 4.0352817019639673 -14.014595588625809 0 0 0 0 105.36145529343776 6.8264910866534194 0 6.8264910866534194 -15.58625514826926 0 0 0 0 105.67180473293956 4.2215423040057338 0 4.2215423040057338 -14.121509932937101 0 0 0 0 106.9170580876962 8.8886563606722007 0 8.8886563606722007 -19.28943563172308 0 0 0 0 81.485967122098373 -4.3841985043703176 0 -4.3841985043703176 -13.173505756597052 0 0 0 0 99.042191452623229 15.069049248901536 0 15.069049248901536 -5.0367260045393163 0 0 0 0 85.080158306725934 12.051055732686606 0 12.051055732686606 -5.3144869669930301 0 0 0 0 38.586804671616846 -21.035896420828081 0 -21.035896420828081 -2.7519703333044703 0 0 0 0 11.58527199704622 20.096762973821278 0 20.096762973821278 13.92893571780915 0 0 0 0 -3.5536147501957203 -16.305770643570838 0 -16.305770643570838 59.416919599175628 0 0 0 0 0.51845737274601333 0.68741266485970343 0 0.68741266485970343 0.91002328250613662 0 0 0 0 9.6215284787976998 4.5347057550293073 0 4.5347057550293073 18.649261055219853 0 0 0 0 5.4814028604396867 27.460759689770285 0 27.460759689770285 48.848501910911978 0 0 0 0 5.5162744607632135 28.208649910754179 0 28.208649910754179 24.359669155633526 0 0 0 0 41.72190376863 31.291319887626216 0 31.291319887626216 -45.264698943223948 0 0 0 0 45.853288464350044 22.254649110192076 0 22.254649110192076 -27.485210284626135 0 0 0 0 39.349062875371601 23.555943488599226 0 23.555943488599226 -70.228172405911039 0 0 0 0 29.326327846683853 24.950663822289577 0 24.950663822289577 40.516031542151552 0 0 0 0 26.827241691225936 8.1562312010060225 0 8.1562312010060225 -5.9939144576532044 0 0 0 0 35.004899027713776 29.400407302754555 0 29.400407302754555 30.316517323570565 0 0 0 0 35.070626038726914 19.281482742633187 0 19.281482742633187 23.294637887095178 0 0 0 0 100.877968039189 16.420429563606248 0 16.420429563606248 -15.245108017383473 0 0 0 0 212.27223299859179 25.369825764186572 0 25.369825764186572 -20.291113399377601 0 0 0 0 110.58981473072345 17.511235852633178 0 17.511235852633178 -18.361550021098793 0 0 0 0 123.3614366106633 -14.790107598556167 0 -14.790107598556167 -15.816639981028743 0 0 0 0 121.7228295795212 13.029599854386788 0 13.029599854386788 -21.576409372403134 0 0 0 0 76.381371192575898 -12.974782884773049 0 -12.974782884773049 0.079874124934576685 0 0 0 0 67.344873926071159 -19.955569287319634 0 -19.955569287319634 1.8482656456366158 0 0 0 0 149.6240071003449 -46.20964271263172 0 -46.20964271263172 7.4060720095782813 0 0 0 0 83.85955006864242 104.65432495109641 0 104.65432495109641 99.578781477348286 0 0 0 0 58.47797123825876 19.465610281055902 0 19.465610281055902 18.195976131680112 0 0 0 0 185.32682445063801 78.854664883414216 0 78.854664883414216 -228.39032674865371 0 0 0 0 68.0499646135831 1.981955026219347 0 1.981955026219347 -0.57878296915273186 0 0 0 0 126.02772402081246 13.700403896929068 0 13.700403896929068 -164.60682847722771 0 0 0 0 232.91405356677205 -130.77372982510857 0 -130.77372982510857 -7.489802976281446 0 0 0 0 36.816797775089071 143.081449805934 0 143.081449805934 19.089840394753836 0 0 0 0 160.25277545085268 199.81585762837773 0 199.81585762837773 -62.661015372308384 0 0 0 0 169.82962901000229 -276.63800287249433 0 -276.63800287249433 0.38375813064794784 0 0 0 0 63.028313033250924 86.275116209768157 0 86.275116209768157 120.42149819856184 0 0 0 0 120.52925268529179 22.085669907431566 0 22.085669907431566 -68.326903710059938 0 0 0 0 69.442372715241163 45.809191667413302 0 45.809191667413302 -66.925286542107187 0 0 0 0 50.843762635761323 26.176740611398174 0 26.176740611398174 18.816836667354096 0 0 0 0 -0.16661103212189121 -0.58163374142555657 0 -0.58163374142555657 -1.1258866611183516 0 0 0 0 -171.69097732047658 102.6709431401506 0 102.6709431401506 18.044112392047509 0 0 0 0 8.8617196188206435 -10.960874064018554 0 -10.960874064018554 -10.736923142656849 0 0 0 0 -79.058392625958277 0.53733118834475135 0 0.53733118834475135 -18.610727424330435 0 0 0 0 129.77299509284148 13.766299662780511 0 13.766299662780511 -80.65623308192221 0 0 0 0 4.2844975790394528 142.9702976658599 0 142.9702976658599 -70.39754058394692 0 0 0 0 77.494331910940673 -6.3947111299411858 0 -6.3947111299411858 -110.72527610348205 0 0 0 0 12.238433458441683 -11.357049541496451 0 -11.357049541496451 -9.2664763604742451 0 0 0 0 29.962068919541281 6.7020128779695547 0 6.7020128779695547 -63.783653652621012 0 0 0 0 30.083592250412039 35.147267344942236 0 35.147267344942236 -82.239025209295107 0 0 0 0 55.177324016513012 1.019216466631292 0 1.019216466631292 -31.858134354448225 0 0 0 0 58.626593990535184 5.6473792643944307 0 5.6473792643944307 -60.683460578479298 0 0 0 0 60.937350003165193 -42.905601269243931 0 -42.905601269243931 -99.784677968029428 0 0 0 0 64.293444839438649 2.9076143029283754 0 2.9076143029283754 -0.95989480300695551 0 0 0 0 -181.17413311711425 40.252532394375521 0 40.252532394375521 -34.482033534672837 0 0 0 0 34.035458054509945 -69.648310480154194 0 -69.648310480154194 18.073472552322475 0 0 0 0 108.17636947706444 -42.628793214855705 0 -42.628793214855705 -55.053150161551002 0 0 0 0 100.63275354725192 -34.804078122234728 0 -34.804078122234728 -70.807674179139326 0 0 0 0 9.2273187171012978 6.4876459296302755 0 6.4876459296302755 32.138769289504069 0 0 0 0 11.297714823831527 0.0041091819960776821 0 0.0041091819960776821 0.068038187810130851 0 0 0 0 102.13168863185092 -80.748870359159127 0 -80.748870359159127 -24.370299077049367 0 0 0 0 15.918624946203636 1.2679988875166259 0 1.2679988875166259 20.637302325727802 0 0 0 0 12.411860868745862 8.8661470239770566 0 8.8661470239770566 24.456909756646155 0 0 0 0 12.791424326542256 13.16300706950625 0 13.16300706950625 7.5362652370390606 0 0 0 0 15.345689505542396 7.5807184538367096 0 7.5807184538367096 7.4602303330799487 0 0 0 0 19.85068459653121 16.541433058324856 0 16.541433058324856 -7.6830602725499091 0 0 0 0 13.196565790682143 13.20912010236097 0 13.20912010236097 11.713204706275747 0 0 0 0 16.248142444066161 11.100882185903956 0 11.100882185903956 3.7106428927304478 0 0 0 0 17.231455847479083 6.8508913156518361 0 6.8508913156518361 9.1602165886126841 0 0 0 0 -7.1794691101422359 52.423562155356876 0 52.423562155356876 -36.020736085042415 0 0 0 0 18.219074175556365 0.56444176307827698 0 0.56444176307827698 -0.85089956652388854 0 0 0 0 15.799146237639263 5.5768826793213355 0 5.5768826793213355 8.8624404001247967 0 0 0 0 -27.98793039913653 24.675745091696115 0 24.675745091696115 57.301908903784806 0 0 0 0 23.157506127641682 5.0374537535805075 0 5.0374537535805075 4.1630581249156648 0 0 0 0 19.112788944607018 4.2559141580470623 0 4.2559141580470623 9.0583127214774208 0 0 0 0 17.658090761208378 8.6744610677908494 0 8.6744610677908494 -0.30702122939553278 0 0 0 0 8.8276612809097159 0.48589140402728503 0 0.48589140402728503 -1.3522586859705634 0 0 0 0 23.878991627938376 6.6563902954164291 0 6.6563902954164291 4.0435352489731713 0 0 0 0 20.817182527578552 8.6771755906959811 0 8.6771755906959811 3.8022839025798021 0 0 0 0 1.0429232824149928 1.74730674941069 0 1.74730674941069 2.4900737484773265 0 0 0 0 30.092457328786622 -15.589123487877579 0 -15.589123487877579 10.713175357870455 0 0 0 0 27.740692004961602 8.2396968804637254 0 8.2396968804637254 1.2993029909479219 0 0 0 0 71.613510095878155 -20.889539596483587 0 -20.889539596483587 -8.0538954572849377 0 0 0 0 69.014024127136508 -26.193821646548031 0 -26.193821646548031 -6.6114459595852395 0 0 0 0 2.7734974173694411 1.8979015333250906 0 1.8979015333250906 1.2362742245075078 0 0 0 0 0.087500055611599237 51.949047952416457 0 51.949047952416457 129.83237767514748 0 0 0 0 59.001409614022123 -35.502342383243558 0 -35.502342383243558 52.228993880687199 0 0 0 0 1.6516159174653353 4.7743117578859611 0 4.7743117578859611 2.7559330575508958 0 0 0 0 11.108708859057515 7.3358246707638273 0 7.3358246707638273 1.3091981574589227 0 0 0 0 -24.362217975929525 5.1757090501001244 0 5.1757090501001244 34.839537469346709 0 0 0 0 216.20104331608718 -26.891226679534384 0 -26.891226679534384 -297.78567477695196 0 0 0 0 87.741802967429976 54.883287090876763 0 54.883287090876763 -96.508807631954056 0 0 0 0 35.21549204015173 17.793967292054802 0 17.793967292054802 -18.137761691946025 0 0 0 0 67.711255497946127 1.3535890052566839 0 1.3535890052566839 -1.8242414881036082 0 0 0 0 2.8126703447083945 1.2210006403723539 0 1.2210006403723539 0.50066311742739211 0 0 0 0 118.62723129644223 106.80027571097634 0 106.80027571097634 -106.53673578282871 0 0 0 0 217.74920429054464 -192.47650389541968 0 -192.47650389541968 -194.52389129451058 0 0 0 0 23.590499252725976 -178.482510959774 0 -178.482510959774 266.04615841663622 0 0 0 0 104.93550088826669 70.470926852028242 0 70.470926852028242 -54.396645611472195 0 0 0 0 49.29437905717532 62.411856079323343 0 62.411856079323343 110.47446809552957 0 0 0 0 -33.817102303721185 94.404118886700644 0 94.404118886700644 -58.519044814044491 0 0 0 0 10.745216313873964 -1.4413203663323944 0 -1.4413203663323944 -1.2054324868072575 0 0 0 0 -123.43951907934115 -59.065554092842831 0 -59.065554092842831 -17.231860809884893 0 0 0 0 48.659101237954474 3.2319301262540421 0 3.2319301262540421 -149.97013161720668 0 0 0 0 -15.503314163131563 -70.568851904780786 0 -70.568851904780786 53.829332470298823 0 0 0 0 -68.110901254624878 -97.463364687529975 0 -97.463364687529975 -6.7298634946150742 0 0 0 0 -6.5542599571049323 -108.40255849054279 0 -108.40255849054279 -4.7862668194375146 0 0 0 0 80.97205743965867 -50.23427152718304 0 -50.23427152718304 -25.669297904558334 0 0 0 0 -2.3234393782572624 -79.293570287254454 0 -79.293570287254454 -73.738083919109954 0 0 0 0 14.963713494701061 -0.74815992235991047 0 -0.74815992235991047 1.1222194524429634 0 0 0 0 11.472366487457014 9.7889428234658133 0 9.7889428234658133 1.9198917887824856 0 0 0 0 17.182845142207498 -69.020166194703052 0 -69.020166194703052 -72.956346650967362 0 0 0 0 32.925051940857884 10.009762527732448 0 10.009762527732448 5.5373670090966698 0 0 0 0 32.938928060906619 9.9979060719870745 0 9.9979060719870745 4.6466895466595801 0 0 0 0 39.514958412404916 5.0887470541540019 0 5.0887470541540019 2.0298602176532916 0 0 0 0 0.011313504994177492 -22.309232709844991 0 -22.309232709844991 37.105700241109162 0 0 0 0 147.45928456857655 82.786600158088049 0 82.786600158088049 76.486702901139324 0 0 0 0 -53.373567080030625 -204.94407981619838 0 -204.94407981619838 428.54768800259808 0 0 0 0 27.757599260965019 -7.6103233355915796 0 -7.6103233355915796 0.85451955028055215 0 0 0 0 3.5265012601976196 -70.099973914350244 0 -70.099973914350244 -97.685060116760496 0 0 0 0 54.815058550355388 21.740069284281844 0 21.740069284281844 8.4620292092054115 0 0 0 0 13.151183619606993 -7.2959769378357855 0 -7.2959769378357855 -0.8182536540245211 0 0 0 0 -12.315781367514774 -69.661454019167024 0 -69.661454019167024 95.885647359273889 0 0 0 0 31.226091912022028 -0.40493837491846563 0 -0.40493837491846563 -1.557561576220003 0 0 0 0 -62.267286035413235 22.289748089975973 0 22.289748089975973 168.40331827478076 0 0 0 0 9.4199753265843356 43.265299837502198 0 43.265299837502198 -66.138328781627706 0 0 0 0 24.888463255952956 -4.2667722410670024 0 -4.2667722410670024 -14.945264922968818 0 0 0 0 19.212267354454539 -3.4606149780614954 0 -3.4606149780614954 -0.10523844443784469 0 0 0 0 22.423245248555759 -3.7677311284078314 0 -3.7677311284078314 -13.692389196048566 0 0 0 0 21.77544747100751 -7.8006265213877839 0 -7.8006265213877839 1.5126908962786274 0 0 0 0 23.068170376466398 1.3932741113544305 0 1.3932741113544305 -0.46733120290138708 0 0 0 0 3.7312705578348471 0.28254135490965271 0 0.28254135490965271 0.099318947067327135 0 0 0 0 56.505443957819807 -83.475439592538805 0 -83.475439592538805 73.347185836354129 0 0 0 0 -62.923872498853598 -3.0887257582833172 0 -3.0887257582833172 104.7455273150718 0 0 0 0 216.98266388704542 258.92358423360088 0 258.92358423360088 -250.1152554990681 0 0 0 0 212.54560247528661 -57.744288467869609 0 -57.744288467869609 -20.614055670760536 0 0 0 0 25.673053298675313 -2.7570538271194778 0 -2.7570538271194778 0.74390087379617853 0 0 0 0 5.4226988444938797 -12.27785873924816 0 -12.27785873924816 1.751182375043129 0 0 0 0 12.300280465634376 -9.2078928088382703 0 -9.2078928088382703 1.9372978735918023 0 0 0 0 -6.270799531863986 9.7238166338312766 0 9.7238166338312766 1.3928203037865217 0 0 0 0 7.1697283608039895 -8.7187324853187764 0 -8.7187324853187764 2.2308852879774892 0 0 0 0 27.783056493683489 -2.8392708026937896 0 -2.8392708026937896 0.74129184925588731 0 0 0 0 0.20453203832402278 -0.61619196769254803 0 -0.61619196769254803 0.92156776461369261 0 0 0 0 1.1342131591388807 -29.907885379820613 0 -29.907885379820613 -20.624041191039339 0 0 0 0 70.962408947843642 -78.359190426314811 0 -78.359190426314811 4.8174269506780645 0 0 0 0 46.029111927722624 -40.513088361438435 0 -40.513088361438435 89.653217035106309 0 0 0 0 0.91959639276233673 0.30374106102098652 0 0.30374106102098652 -0.17414171831265968 0 0 0 0 5.6016962264372738 -0.20729284806729309 0 -0.20729284806729309 -0.050410572607640869 0 0 0 0 5.437434485076551 1.7193201222540848 0 1.7193201222540848 2.3390527820090199 0 0 0 0 2.8188482301706683 2.2044268078006866 0 2.2044268078006866 2.9736125205976633 0 0 0 0 -185.61202779477458 6.0136178974154291 0 6.0136178974154291 110.99324769112707 0 0 0 0 -75.065742710930181 -87.141011204102824 0 -87.141011204102824 85.509514798077589 0 0 0 0 45.277360242537547 -53.514515422463667 0 -53.514515422463667 -18.428324802811659 0 0 0 0 43.391483262269048 -78.749598345404337 0 -78.749598345404337 -78.647953576021166 0 0 0 0 -5.9172606464680939 -143.06036558288389 0 -143.06036558288389 -68.834959446404767 0 0 0 0 29.921868110496575 -81.626344909941395 0 -81.626344909941395 4.1405777194269149 0 0 0 0 7.1672583631424231 -39.247362763727978 0 -39.247362763727978 -14.622873154773401 0 0 0 0 33.994388851127042 -74.203544411594976 0 -74.203544411594976 -3.4401174712097031 0 0 0 0 21.089968393499561 -65.966042445643325 0 -65.966042445643325 -22.371961426994318 0 0 0 0 164.64427171570009 20.32732171460276 0 20.32732171460276 -43.764761259536385 0 0 0 0 -60.706827803849706 17.527908143507318 0 17.527908143507318 -43.789150609208718 0 0 0 0 117.95778458734941 75.078221094600337 0 75.078221094600337 -37.529537051540785 0 0 0 0 168.02775717055738 81.42962014430077 0 81.42962014430077 -41.015520505926901 0 0 0 0 197.15214037025692 93.896205632372371 0 93.896205632372371 -41.755490453842185 0 0 0 0 298.7536898222296 -129.74293724704978 0 -129.74293724704978 -4.9133666158354572 0 0 0 0 576.75559603504405 76.977792863503424 0 76.977792863503424 -43.828264055852401 0 0 0 0 7.8311079959644223 1.0324642051640103 0 1.0324642051640103 0.36265773810782154 0 0 0 0 161.68001255054367 180.88526255413046 0 180.88526255413046 27.864418162470429 0 0 0 0 415.16451007541855 -431.47277103343987 0 -431.47277103343987 371.84714562678096 0 0 0 0 435.16651859179223 -479.00700454195726 0 -479.00700454195726 332.8204481781313 0 0 0 0 773.70474918636341 90.79692018531739 0 90.79692018531739 -244.76402674774226 0 0 0 0 62.301527456990016 116.9939202155781 0 116.9939202155781 -43.133417405847311 0 0 0 0 128.06000076860778 -113.29284999447566 0 -113.29284999447566 219.14197370932106 0 0 0 0 444.26571350874644 15.905209707026906 0 15.905209707026906 -58.869124603837733 0 0 0 0 16.113341687306825 14.497057253312661 0 14.497057253312661 2.2163847191701498 0 0 0 0 39.515010764181397 2.7717865055130062 0 2.7717865055130062 6.8523249795853189 0 0 0 0 -83.556948230827203 96.415599910996377 0 96.415599910996377 37.715706162508695 0 0 0 0 -61.278211958289717 277.22821436669818 0 277.22821436669818 -97.071741924323533 0 0 0 0 42.374884292830757 4.2260396470586556 0 4.2260396470586556 -2.7223974239138897 0 0 0 0 -107.0490304897437 -122.7504309992562 0 -122.7504309992562 256.45116805636007 0 0 0 0 -5.2580033005408966 3.9288731194195563 0 3.9288731194195563 2.8421833616344507 0 0 0 0 -240.88057772600314 3.6891550016448491 0 3.6891550016448491 41.064001133748206 0 0 0 0 -257.06758943784348 -131.56938089531809 0 -131.56938089531809 632.17571434343176 0 0 0 0 -395.18158265468594 370.23072492205165 0 370.23072492205165 -274.23212121215113 0 0 0 0 13.476191636979568 1.9863016091510119 0 1.9863016091510119 0.71993239893035776 0 0 0 0 24.912381263863608 -0.24680516676227171 0 -0.24680516676227171 6.5350105622498518 0 0 0 0 40.006959285465314 -3.5566534983951064 0 -3.5566534983951064 3.589959360201135 0 0 0 0 21.89575070158935 -2.6171522866080181 0 -2.6171522866080181 -0.74809791943238224 0 0 0 0 27.906567396667469 -1.2495178288841942 0 -1.2495178288841942 3.8847067137210729 0 0 0 0 16.159038079756051 0.51542171795684766 0 0.51542171795684766 -1.1984728221145098 0 0 0 0 26.700321518511373 -1.5799682941516267 0 -1.5799682941516267 8.1568796932981797 0 0 0 0 8.2688860973473197 0.318744436527723 0 0.318744436527723 -1.0249723712967462 0 0 0 0 21.592885121871859 -4.1029546456851058 0 -4.1029546456851058 3.934723967846594 0 0 0 0 18.344732184824402 0.31063699200531758 0 0.31063699200531758 0.3053595183804042 0 0 0 0 28.127755929330306 -8.5728240252608998 0 -8.5728240252608998 5.6253780481736158 0 0 0 0 17.026964519879357 -1.9944994432563057 0 -1.9944994432563057 5.9821622445485048 0 0 0 0 16.239904340734029 -3.7887499782316922 0 -3.7887499782316922 8.4921061713076824 0 0 0 0 10.611577540157668 -5.9535142359159181 0 -5.9535142359159181 -1.1384981314295146 0 0 0 0 11.83836599107962 -5.4594072311150539 0 -5.4594072311150539 4.4514711792526427 0 0 0 0 30.770154814585084 -13.681818626972996 0 -13.681818626972996 18.531790456516291 0 0 0 0 31.260116684531567 -33.165764007056623 0 -33.165764007056623 3.2201462561873768 0 0 0 0 -1.132240990641868 -0.80923927065677326 0 -0.80923927065677326 -4.3719445648527682 0 0 0 0 66.514842244032479 25.557780425624969 0 25.557780425624969 -28.496375300749008 0 0 0 0 -51.325516923680766 29.384265870741444 0 29.384265870741444 25.647970062865284 0 0 0 0 65.376224347070092 -9.1396104523371946 0 -9.1396104523371946 -46.899115370284676 0 0 0 0 65.028447327190179 -7.6629359279058491 0 -7.6629359279058491 1.0963295812611733 0 0 0 0 74.678741253185763 -40.703185468373221 0 -40.703185468373221 108.21005012258723 0 0 0 0 242.5566682794182 11.661226174945156 0 11.661226174945156 -35.983367310607207 0 0 0 0 215.04768534941923 71.194031941821081 0 71.194031941821081 -94.151601843856398 0 0 0 0 175.48429814834043 56.746781116905538 0 56.746781116905538 -6.1615656243438366 0 0 0 0 -8.3819257495945294 26.702594527060683 0 26.702594527060683 45.870585629833727 0 0 0 0 70.853462503894889 -20.401055642401104 0 -20.401055642401104 -54.730119501569334 0 0 0 0 35.273419802289936 25.450165195795535 0 25.450165195795535 -84.370751566049478 0 0 0 0 22.33069281229427 3.6046485093054521 0 3.6046485093054521 0.65176218733104685 0 0 0 0 106.1037103624185 -39.963776704161489 0 -39.963776704161489 64.115107020483947 0 0 0 0 62.805506959701006 -47.755545164352029 0 -47.755545164352029 52.806685851800523 0 0 0 0 71.537433223200878 -92.55640484066106 0 -92.55640484066106 135.71407717975924 0 0 0 0 71.676713539564389 -39.123143610312582 0 -39.123143610312582 49.203223699164369 0 0 0 0 35.52496056551071 6.6735085925548763 0 6.6735085925548763 -0.40691179309763337 0 0 0 0 39.102789940154253 -18.47574524505103 0 -18.47574524505103 -26.064694978677608 0 0 0 0 56.963183991545066 -12.150787755999545 0 -12.150787755999545 -42.983248963386814 0 0 0 0 46.685754775803616 -5.8213761561938782 0 -5.8213761561938782 -11.743368034364494 0 0 0 0 -3.8447343352918324 30.437445133303584 0 30.437445133303584 -8.717417091559355 0 0 0 0 9.788427794154984 -1.4687946996781172 0 -1.4687946996781172 -8.6911321695076502 0 0 0 0 58.095750102189413 -6.7914860301668796 0 -6.7914860301668796 -32.517626171628763 0 0 0 0 19.062066236957435 38.839737069167484 0 38.839737069167484 -23.101212498497262 0 0 0 0 11.07876087295881 17.566867158840978 0 17.566867158840978 -13.354704325691728 0 0 0 0 9.1199068174482818 25.903384269876256 0 25.903384269876256 -21.585415080579423 0 0 0 0 38.55275725780848 12.443276623243094 0 12.443276623243094 -34.393739445969004 0 0 0 0 11.183493793535149 20.367182188359084 0 20.367182188359084 -23.682298667150462 0 0 0 0 13.591330929529395 0.99003223443408039 0 0.99003223443408039 -0.068788667124868308 0 0 0 0 12.033278868188063 22.114964644704742 0 22.114964644704742 -22.970683706116233 0 0 0 0 86.960746720646057 -34.50435195862201 0 -34.50435195862201 34.27587654236595 0 0 0 0 78.205601269512044 -7.0924059746827197 0 -7.0924059746827197 -10.384616689278914 0 0 0 0 42.724609174162993 7.728910552278391 0 7.728910552278391 -6.6963919679919535 0 0 0 0 12.610163335924881 26.492263475536447 0 26.492263475536447 -31.129865946831842 0 0 0 0 4.1521223191407417 0.35437700264965866 0 0.35437700264965866 -1.9908376594171591 0 0 0 0 -1.7747704181106787 4.4866039343509172 0 4.4866039343509172 0.92795094506611708 0 0 0 0 50.393165965222579 3.5156885225359247 0 3.5156885225359247 -26.633491691541565 0 0 0 0 77.387985816903893 6.8464673312007562 0 6.8464673312007562 -32.62441263653659 0 0 0 0 37.767804341171995 11.401715808436336 0 11.401715808436336 -11.262864358782508 0 0 0 0 35.947223958886752 7.0312728667386182 0 7.0312728667386182 -21.371704170253452 0 0 0 0 2.6089519825927709 16.35393118777688 0 16.35393118777688 -15.790197503101808 0 0 0 0 -4.6218002796895234 2.2429414522357831 0 2.2429414522357831 -19.286750531724465 0 0 0 0 -16.524935192097473 15.541298557431674 0 15.541298557431674 -22.918486891028806 0 0 0 0 4.2939908623739029 33.176482580356151 0 33.176482580356151 -32.542452817758203 0 0 0 0 -83.177057400867852 70.515754130078903 0 70.515754130078903 -47.845584687754126 0 0 0 0 85.202866130050325 17.35474065496777 0 17.35474065496777 -18.740779359201497 0 0 0 0 82.803932210196024 30.345578865298549 0 30.345578865298549 -12.827621536440006 0 0 0 0 154.98481021869793 22.90847014335634 0 22.90847014335634 -20.31014509608724 0 0 0 0 82.509741203657541 -8.6225407340895117 0 -8.6225407340895117 -13.711367161586168 0 0 0 0 74.741632717878929 25.686431534937697 0 25.686431534937697 5.2977668496848764 0 0 0 0 16.484334213862894 21.692347654124774 0 21.692347654124774 -16.045114920055994 0 0 0 0 38.194712106898805 11.156943756433748 0 11.156943756433748 -17.433422434889991 0 0 0 0 40.376211368411532 -1.3837366957402537 0 -1.3837366957402537 -12.073716750268886 0 0 0 0 61.445915612086537 13.056363144167051 0 13.056363144167051 -6.9691472427934968 0 0 0 0 61.40806637382957 -11.357641830687271 0 -11.357641830687271 -7.6468125970529712 0 0 0 0 48.136880012204529 2.6766537170306037 0 2.6766537170306037 -22.481313645623231 0 0 0 0 50.213958289747097 7.2591556757329272 0 7.2591556757329272 -12.578552708550376 0 0 0 0 80.357530776460408 -10.148292070729056 0 -10.148292070729056 -21.603369561514228 0 0 0 0 65.250617926393716 -32.203531933211934 0 -32.203531933211934 -53.788428387658541 0 0 0 0 43.358599174925985 19.600585792844186 0 19.600585792844186 -4.166228124545114 0 0 0 0 91.319418379736817 6.8168650989706521 0 6.8168650989706521 -5.2251318019201562 0 0 0 0 32.53849424328746 -4.4965329086444399 0 -4.4965329086444399 -48.196669684895255 0 0 0 0 55.685198913726254 23.034745308804588 0 23.034745308804588 -35.540646747279652 0 0 0 0 -5.5303678757873058 -14.182022913051924 0 -14.182022913051924 -16.854557872105204 0 0 0 0 7.8718675870237007 4.6129246499538175 0 4.6129246499538175 -0.061111923832934512 0 0 0 0 103.91104941914477 76.618652192982978 0 76.618652192982978 27.410689798900648 0 0 0 0 22.75276479970853 -63.470768499874566 0 -63.470768499874566 -64.626560844266635 0 0 0 0 0.0064364304266604222 -0.46094864018700576 0 -0.46094864018700576 0.50213738141356412 0 0 0 0 29.992899720639077 6.40368548256453 0 6.40368548256453 0.51705038442744011 0 0 0 0 44.392273088290494 24.152012332373261 0 24.152012332373261 -25.270483991262154 0 0 0 0 30.909754614394387 8.8246434475329067 0 8.8246434475329067 2.027565433166584 0 0 0 0 43.078640469025686 14.014884596056334 0 14.014884596056334 -16.430132402554932 0 0 0 0 41.692709816867364 61.031450451867755 0 61.031450451867755 68.198967566081933 0 0 0 0 34.261472292074359 13.955357962104074 0 13.955357962104074 23.918520288766331 0 0 0 0 26.427811309380559 7.9800963041656132 0 7.9800963041656132 -42.714038753511204 0 0 0 0 4.558608396258041 2.2068016109422617 0 2.2068016109422617 -0.57297068499961989 0 0 0 0 29.758833708930069 37.810580042953973 0 37.810580042953973 8.5999895779698363 0 0 0 0 22.411300622612544 39.73603640412091 0 39.73603640412091 0.19476951575495605 0 0 0 0 0.15885463862506555 -0.31341996015335116 0 -0.31341996015335116 -0.27275834346435168 0 0 0 0 5.1733884323944039 -4.267024524571724 0 -4.267024524571724 -10.958303769593272 0 0 0 0 112.02156565474297 101.41381360677536 0 101.41381360677536 50.462397880847448 0 0 0 0 49.682417406772402 -43.759978997098642 0 -43.759978997098642 -92.718027276473265 0 0 0 0 82.698211907671975 10.816931774078625 0 10.816931774078625 -19.084124245233738 0 0 0 0 21.503376197123544 41.303804310459498 0 41.303804310459498 -2.461384663174158 0 0 0 0 71.440126460169267 59.888792211054465 0 59.888792211054465 -1.4558005712910607 0 0 0 0 54.627800835159633 38.268311363103095 0 38.268311363103095 -5.5316445599362396 0 0 0 0 86.491516289584069 91.774996346122919 0 91.774996346122919 3.6075420016680511 0 0 0 0 46.275950844064937 95.278645184370021 0 95.278645184370021 3.3793906404668945 0 0 0 0 116.38211966952076 70.321579313250652 0 70.321579313250652 -97.383856738116947 0 0 0 0 20.058700894236608 -0.58754799289147286 0 -0.58754799289147286 14.717618702407322 0 0 0 0 -8.6376139181902545 9.4806013500191284 0 9.4806013500191284 171.93834886186465 0 0 0 0 74.782918424487434 166.02148494133684 0 166.02148494133684 160.63390588009122 0 0 0 0 32.992642024698853 46.933406233528103 0 46.933406233528103 -9.0611590680923655 0 0 0 0 23.333316641862439 57.40003290370862 0 57.40003290370862 90.755928799499088 0 0 0 0 2706.7684169528366 676.97726006050971 0 676.97726006050971 169.76789438249295 0 0 0 0 109.86622133300261 -62.339319488939964 0 -62.339319488939964 -360.14241421747175 0 0 0 0 108.12174278822386 128.23160608881813 0 128.23160608881813 -362.2794455923472 0 0 0 0 -284.76821413550897 136.40383984762332 0 136.40383984762332 -77.089925936155737 0 0 0 0 292.94928960514153 197.36549735976394 0 197.36549735976394 -147.63552476862995 0 0 0 0 126.9233663670484 55.044924137553039 0 55.044924137553039 -159.07763593550749 0 0 0 0 144.88691030043537 109.83042465456396 0 109.83042465456396 -43.81597732683781 0 0 0 0 208.1415448841999 83.201949029340767 0 83.201949029340767 -228.73557480956595 0 0 0 0 189.06156981368804 177.16540981074911 0 177.16540981074911 -43.137039289249913 0 0 0 0 749.25476811115914 199.48005542622434 0 199.48005542622434 103.37015345036025 0 0 0 0 166.7901249967781 157.06471214987184 0 157.06471214987184 136.7537735294668 0 0 0 0 2502.995159479362 -1192.5324756743994 0 -1192.5324756743994 1356.811188107936 0 0 0 0 -564.14558808333686 -626.61872787512687 0 -626.61872787512687 483.03669574650212 0 0 0 0 4.3613578618184921 -4.5754173392078386 0 -4.5754173392078386 1.8287961679943256 0 0 0 0 182.04643983952974 -267.05457337959666 0 -267.05457337959666 129.20362381033601 0 0 0 0 -45.026670350165659 -232.91291817638995 0 -232.91291817638995 174.53131967219679 0 0 0 0 1275.8070081076708 -1008.1069227891754 0 -1008.1069227891754 612.90025208732163 0 0 0 0 3137.8757187475931 -1803.7513935176567 0 -1803.7513935176567 776.06752840283411 0 0 0 0 816.59684115754044 -1117.6895337112326 0 -1117.6895337112326 870.96689977882011 0 0 0 0 425.84479742130998 -1290.4317512921311 0 -1290.4317512921311 743.4392447685791 0 0 0 0 2498.896633342536 -661.51395448080223 0 -661.51395448080223 51.547581147891059 0 0 0 0 1414.9069991080933 -739.10907023168829 0 -739.10907023168829 863.69167425830733 0 0 0 0 7.7394704044694791 1.2146801610978102 0 1.2146801610978102 0.56921677875957122 0 0 0 0 1378.1800026111046 -858.62954681471297 0 -858.62954681471297 536.76810935315325 0 0 0 0 127.79975501831541 203.74075204735004 0 203.74075204735004 319.02625776671579 0 0 0 0 437.52465228340589 -679.9093870882798 0 -679.9093870882798 582.07066291182309 0 0 0 0 1186.8593938249869 -503.17609870583971 0 -503.17609870583971 451.38325957243649 0 0 0 0 1099.4316383473069 92.985368666700708 0 92.985368666700708 -332.37144959721502 0 0 0 0 18.386935978011024 4.767673616919069 0 4.767673616919069 21.75029031896014 0 0 0 0 25.066113592303736 17.543345168610131 0 17.543345168610131 -12.509460651283803 0 0 0 0 17.625558332069197 3.9804090146799505 0 3.9804090146799505 0.80594582306966456 0 0 0 0 586.56390162134971 -43.747088943701769 0 -43.747088943701769 6.8222094737077441 0 0 0 0 7.5228574821670833 0.29613423090041024 0 0.29613423090041024 1.349566676127631 0 0 0 0 444.66865876373595 711.08427241327593 0 711.08427241327593 -414.25719389232415 0 0 0 0 309.28577472414872 -880.74687762704639 0 -880.74687762704639 28.995144133357826 0 0 0 0 602.15488283459456 -606.58032443487502 0 -606.58032443487502 -244.07829545813786 0 0 0 0 14.25485350465388 -5.5025701114125427 0 -5.5025701114125427 1.0938482753041725 0 0 0 0 1517.4330610046673 206.01701770067586 0 206.01701770067586 -838.47399413800167 0 0 0 0 597.30453506523099 -1129.6032428796416 0 -1129.6032428796416 -154.40040044131996 0 0 0 0 113.42743793236878 840.93175524655396 0 840.93175524655396 639.35837468033424 0 0 0 0 2004.3985722229882 284.14659769699063 0 284.14659769699063 -827.24114645325699 0 0 0 0 2364.8111171301425 -712.88094134797518 0 -712.88094134797518 -651.59688642507922 0 0 0 0 2008.5668004689269 661.12037195332402 0 661.12037195332402 104.65375971075559 0 0 0 0 628.97025087442125 558.84403655511767 0 558.84403655511767 -297.34370554408792 0 0 0 0 10.655186525318882 -1.0769426228432177 0 -1.0769426228432177 -0.41016542407530177 0 0 0 0 349.48428249354038 -442.76659050375838 0 -442.76659050375838 633.05834074276618 0 0 0 0 1.473126408334231 3.5146402402823895 0 3.5146402402823895 -1.7299318246491713 0 0 0 0 1452.3772143201568 983.05797171867118 0 983.05797171867118 -102.41970963242602 0 0 0 0 2495.5501706069099 111.43050488426364 0 111.43050488426364 -588.94542178267216 0 0 0 0 -775.052698651014 -13.633722017668333 0 -13.633722017668333 331.92719072151277 0 0 0 0 -571.70045191243298 -341.90821563406149 0 -341.90821563406149 784.11937025490784 0 0 0 0 1630.5006328190129 674.22006262358502 0 674.22006262358502 -578.83461700661189 0 0 0 0 14.005010020614151 -5.6722533327796771 0 -5.6722533327796771 2.0671147583502925 0 0 0 0 549.13581009148038 -1335.8941011070633 0 -1335.8941011070633 657.88714060610982 0 0 0 0 1446.0887093749518 -825.99431480118335 0 -825.99431480118335 -68.656266148303288 0 0 0 0 2493.7159519186916 -1407.5959504895607 0 -1407.5959504895607 70.286643721222845 0 0 0 0 1458.2595245539305 -756.42043290314348 0 -756.42043290314348 261.92771804358586 0 0 0 0 900.275620049586 -552.62952251128218 0 -552.62952251128218 805.87313634984105 0 0 0 0 1381.280207722597 -282.50286469476015 0 -282.50286469476015 -103.17994467125925 0 0 0 0 1696.3273287190677 -513.75610605450504 0 -513.75610605450504 -80.990658970388722 0 0 0 0 1209.4703009532877 -483.526325764136 0 -483.526325764136 -25.551348640620049 0 0 0 0 1665.5284011235185 -754.31159140133559 0 -754.31159140133559 -89.616095079154178 0 0 0 0 808.59334596654662 -278.77810667142933 0 -278.77810667142933 -53.557705234939867 0 0 0 0 -37.769791159935266 -397.17896949896817 0 -397.17896949896817 -129.02059399270999 0 0 0 0 542.35507160893985 -111.17063465878738 0 -111.17063465878738 -62.089287182301405 0 0 0 0 1343.1564720623501 -166.29067678861881 0 -166.29067678861881 -50.435729618709331 0 0 0 0 607.98249952546621 -564.62658809114373 0 -564.62658809114373 -85.413948439938849 0 0 0 0 577.18294904806316 -86.81686123451945 0 -86.81686123451945 230.29332036522175 0 0 0 0 953.21952876768046 198.08421318919801 0 198.08421318919801 -22.521330577583129 0 0 0 0 1210.9162765690562 -440.55392276090407 0 -440.55392276090407 266.91713229940387 0 0 0 0 811.93715872901885 -300.92649151583544 0 -300.92649151583544 19.883532204128493 0 0 0 0 1219.4774142549522 -376.81549912763467 0 -376.81549912763467 9.7752401331406986 0 0 0 0 994.66711564733123 -193.79350146789687 0 -193.79350146789687 9.6985632555443999 0 0 0 0 851.24743319669142 -143.61774138402583 0 -143.61774138402583 -23.535159611395748 0 0 0 0 860.30625631906787 -117.98791311585633 0 -117.98791311585633 28.754975536622624 0 0 0 0 367.22357879558149 -155.24662374770719 0 -155.24662374770719 111.15936590610335 0 0 0 0 392.46768739832419 -17.637665528656946 0 -17.637665528656946 -26.486781668792105 0 0 0 0 120.99051246243835 11.89628828728506 0 11.89628828728506 125.38817028614562 0 0 0 0 11.252597034894279 -92.560927696377917 0 -92.560927696377917 -40.280418472395837 0 0 0 0 26.040971335063659 133.53910769327371 0 133.53910769327371 -85.598949934712323 0 0 0 0 72.008356781268958 -5.2808559322311339 0 -5.2808559322311339 9.7617779878722786 0 0 0 0 114.65409458771501 81.490963425376833 0 81.490963425376833 111.16476188042078 0 0 0 0 19.3868681431195 124.97803821030456 0 124.97803821030456 65.654983998271206 0 0 0 0 -16.914746523392751 11.968116779812455 0 11.968116779812455 39.379380038911847 0 0 0 0 -17.697812946913473 -2.1218866740280902 0 -2.1218866740280902 141.88383303775981 0 0 0 0 18.192599360041186 46.160697775728565 0 46.160697775728565 -38.531221835281997 0 0 0 0 14.96916865628009 68.171777053709192 0 68.171777053709192 -12.352678837293297 0 0 0 0 2.5296781986835413 86.773181213614293 0 86.773181213614293 -65.257683420135493 0 0 0 0 10.705836462094339 17.198706379889359 0 17.198706379889359 5.7286623858983603 0 0 0 0 77.953970970162118 13.861540062863625 0 13.861540062863625 -287.43401969043867 0 0 0 0 54.616110270460922 41.071180766871095 0 41.071180766871095 -145.70876340067568 0 0 0 0 40.115228787082742 -7.1573193430567699 0 -7.1573193430567699 -20.820657923558684 0 0 0 0 30.44097316220109 5.1892157993572328 0 5.1892157993572328 0.11587791777486101 0 0 0 0 31.683015935260638 2.9442105963404757 0 2.9442105963404757 0.014698638014811749 0 0 0 0 100.69681318393145 -31.499987272515142 0 -31.499987272515142 -0.79754057749096319 0 0 0 0 43.674324728693136 7.2532108514964193 0 7.2532108514964193 -26.396617932131448 0 0 0 0 28.876015036522716 9.0776637827878943 0 9.0776637827878943 2.3607982005288042 0 0 0 0 55.096908790601447 32.353372066667987 0 32.353372066667987 -4.3369579310169684 0 0 0 0 27.977491760029807 -5.9896384297084069 0 -5.9896384297084069 12.690271017950238 0 0 0 0 -334.91333572097938 51.060937580514064 0 51.060937580514064 3.5629159891239226 0 0 0 0 9.059501468033929 1.7245447332046311 0 1.7245447332046311 1.3539898043681196 0 0 0 0 34.054796773991939 17.283300824392697 0 17.283300824392697 8.9088223623548402 0 0 0 0 -336.32217828961438 32.643586689130544 0 32.643586689130544 652.29650261649522 0 0 0 0 262.59606286246162 10.400918740667507 0 10.400918740667507 -371.84267947338685 0 0 0 0 8.3958381907089006 -1.6351649031854976 0 -1.6351649031854976 0.66674034194901743 0 0 0 0 15.026450755870322 1.0244820576770906 0 1.0244820576770906 -0.37919636866329798 0 0 0 0 22.461130073290406 7.3720954025648098 0 7.3720954025648098 -2.5545085056678545 0 0 0 0 4.982030731101986 -0.15069931047105456 0 -0.15069931047105456 7.0523023551796769 0 0 0 0 23.90140215990445 1.6789034503429408 0 1.6789034503429408 -0.63098959629413942 0 0 0 0 40.161947242195311 3.3133680024191108 0 3.3133680024191108 -18.234193547091763 0 0 0 0 336.83673048620028 -165.00673115090467 0 -165.00673115090467 265.65249764722012 0 0 0 0 691.85889253183097 -3.0191322820760433 0 -3.0191322820760433 -209.77862518607253 0 0 0 0 1025.7530280861638 309.34872241755517 0 309.34872241755517 -25.543224494208516 0 0 0 0 977.39621154864767 -265.18621400994471 0 -265.18621400994471 26.326726845186386 0 0 0 0 883.29793499004813 -7.9670830252880478 0 -7.9670830252880478 -89.167294978869904 0 0 0 0 616.57456109854229 -5.5653704281467071 0 -5.5653704281467071 -62.604284027034737 0 0 0 0 674.51502460662732 -26.14712357033568 0 -26.14712357033568 -42.744381740663812 0 0 0 0 826.97536662741049 -113.64009513777091 0 -113.64009513777091 -234.66025619265201 0 0 0 0 738.11069143814359 -171.79339103226994 0 -171.79339103226994 -269.49578171343092 0 0 0 0 518.38542407860098 -0.010826543979987946 0 -0.010826543979987946 36.757503982695198 0 0 0 0 471.55653384947152 -140.97017077449163 0 -140.97017077449163 -110.48858143527468 0 0 0 0 587.91354246152764 -82.123663743416728 0 -82.123663743416728 -30.480273361927175 0 0 0 0 644.40629738417852 -73.706865236742033 0 -73.706865236742033 -89.040047830054391 0 0 0 0 -23.312682104952273 -17.546507146551448 0 -17.546507146551448 102.42178604073888 0 0 0 0 83.910683660660197 -41.97981020064617 0 -41.97981020064617 46.379643133790523 0 0 0 0 34.759396722701695 22.292899209261122 0 22.292899209261122 63.31050969160151 0 0 0 0 60.077179317157857 -11.860344953815684 0 -11.860344953815684 43.350908949121731 0 0 0 0 -24.284276369140166 17.278753619293802 0 17.278753619293802 34.327162449020761 0 0 0 0 -6.8828059904235488 -0.62672705092973047 0 -0.62672705092973047 48.638409099242836 0 0 0 0 -2.2779975895991811 12.649114664941408 0 12.649114664941408 18.028893991200221 0 0 0 0 -5.989831500915983 3.782190115274684 0 3.782190115274684 2.9713220030806431 0 0 0 0 -61.123037820664365 -70.080754344200926 0 -70.080754344200926 -37.017890713056659 0 0 0 0 -1.5480752721760513 0.72213236131499237 0 0.72213236131499237 -0.83341896603691623 0 0 0 0 312.7737948261497 -63.716199091853468 0 -63.716199091853468 -154.14040117443506 0 0 0 0 -66.839645186389816 -20.640286923828626 0 -20.640286923828626 185.85137789208329 0 0 0 0 258.11589732356924 183.4931182567243 0 183.4931182567243 123.77457895325529 0 0 0 0 -142.65585016213447 43.774989419717485 0 43.774989419717485 95.617076495041147 0 0 0 0 284.32496860076856 213.96113573055482 0 213.96113573055482 19.71349919712577 0 0 0 0 5.8327424436955653 -56.721683049845296 0 -56.721683049845296 -31.065791375366643 0 0 0 0 341.29003709354242 87.989465811628861 0 87.989465811628861 76.59194764662152 0 0 0 0 480.17920396479497 331.3932776041529 0 331.3932776041529 455.5879433202681 0 0 0 0 551.29344897792816 -328.09103476980545 0 -328.09103476980545 389.44109399741501 0 0 0 0 869.34262337144901 34.804784828508218 0 34.804784828508218 34.433471021576224 0 0 0 0 666.74428012516023 -377.77667532092494 0 -377.77667532092494 92.021608819701214 0 0 0 0 171.26963701352906 -255.97973502456625 0 -255.97973502456625 138.45060600830948 0 0 0 0 74.180395136148036 -211.72366604548597 0 -211.72366604548597 144.11326481058677 0 0 0 0 143.7875429220494 -294.76180150974187 0 -294.76180150974187 166.58675104175882 0 0 0 0 -29.894943442394606 -119.04421796240308 0 -119.04421796240308 105.67942457884965 0 0 0 0 -13.62463508608289 -224.11644157560568 0 -224.11644157560568 250.69053893677483 0 0 0 0 -32.505473149269619 -54.304362424150895 0 -54.304362424150895 61.479752697023287 0 0 0 0 45.022778130884262 -73.48704877671571 0 -73.48704877671571 -207.07930016689079 0 0 0 0 76.78622359948713 -350.01832451279643 0 -350.01832451279643 342.43774634347938 0 0 0 0 0.41449747804108483 -88.099478945130159 0 -88.099478945130159 153.72354431842541 0 0 0 0 38.785145542517967 -97.504757043278005 0 -97.504757043278005 85.319172427336753 0 0 0 0 -23.964561840305578 -117.44535602771066 0 -117.44535602771066 80.163647496373869 0 0 0 0 5.2546769691589361 -144.8403551751444 0 -144.8403551751444 138.96858875770886 0 0 0 0 5.0737383834739376 -199.45455326038154 0 -199.45455326038154 183.70374995093243 0 0 0 0 25.231010810653061 -135.22628294749393 0 -135.22628294749393 88.486702920203243 0 0 0 0 8.816032464820637 -144.47531682234148 0 -144.47531682234148 19.686343391802438 0 0 0 0 -31.474328023356975 -96.706134290271621 0 -96.706134290271621 3.7620964073576033 0 0 0 0 6.5004869502417932 -122.38566641224315 0 -122.38566641224315 -150.66098769991368 0 0 0 0 3.9731349794928974 -101.50449005138444 0 -101.50449005138444 -16.159531467246779 0 0 0 0 -34.001892613918244 -124.80567198958215 0 -124.80567198958215 91.522950518823336 0 0 0 0 -54.205762665575094 -108.19464789513495 0 -108.19464789513495 -16.548877262359724 0 0 0 0 -29.185128398569759 -87.328888014811582 0 -87.328888014811582 -42.1147092637475 0 0 0 0 1.509971185174436 -118.50585185936689 0 -118.50585185936689 -26.094640640270882 0 0 0 0 5.3476922858621947 -69.714176133904857 0 -69.714176133904857 23.526807544178155 0 0 0 0 7.4459942501207479 -119.05871765082293 0 -119.05871765082293 -291.1595403254978 0 0 0 0 -31.090708242190885 -101.45771219021481 0 -101.45771219021481 -148.4127497246763 0 0 0 0 -3.5208984004902959 -106.1881268370048 0 -106.1881268370048 -148.22852380892073 0 0 0 0 -32.399633319174427 -56.931585794712191 0 -56.931585794712191 -287.80775599527442 0 0 0 0 -91.689885065838098 -120.10874655416046 0 -120.10874655416046 -148.20079519443061 0 0 0 0 89.429089304981062 154.65238876692956 0 154.65238876692956 -191.51583197566288 0 0 0 0 71.969227684377074 -131.39258352678007 0 -131.39258352678007 183.02467756814394 0 0 0 0 -108.02638093545647 297.17817509804718 0 297.17817509804718 396.47198169068179 0 0 0 0 26.138223069981905 -159.94810921569388 0 -159.94810921569388 -366.87966910414752 0 0 0 0 -18.45546727562396 -191.66182561459027 0 -191.66182561459027 -280.60844976382123 0 0 0 0 77.803077405984368 -142.26787751375196 0 -142.26787751375196 -178.72562473715789 0 0 0 0 2.172495225111982 -1.2363911001730257 0 -1.2363911001730257 0.7332208329019867 0 0 0 0 -151.92586296424034 -262.58569019404149 0 -262.58569019404149 371.97784981775749 0 0 0 0 29.607431898426508 -11.711988391586186 0 -11.711988391586186 3.9535641918858193 0 0 0 0 489.06421470653913 197.02714192154713 0 197.02714192154713 -44.716197988358999 0 0 0 0 9.9551365185752871 -3.4444025088963759 0 -3.4444025088963759 1.419540292670451 0 0 0 0 187.36462666616262 -54.364156606448887 0 -54.364156606448887 -283.39917712416354 0 0 0 0 15.74660024513696 -182.35853163625507 0 -182.35853163625507 -253.16473914431481 0 0 0 0 24.833796200734497 -9.3437559656530702 0 -9.3437559656530702 2.8935398638822214 0 0 0 0 114.70414794521139 47.149455212801058 0 47.149455212801058 131.49097834371241 0 0 0 0 104.36070032433008 -76.514086216343685 0 -76.514086216343685 -33.059334806625884 0 0 0 0 79.292437643606718 -23.569868178504748 0 -23.569868178504748 134.73800417158054 0 0 0 0 185.73673509973742 95.355659144838683 0 95.355659144838683 79.997062963732787 0 0 0 0 327.84618429886501 54.413482672884129 0 54.413482672884129 154.09039361009491 0 0 0 0 604.06802782105933 1.0661279967016526 0 1.0661279967016526 49.718277107554513 0 0 0 0 426.04816147111467 88.054303208416286 0 88.054303208416286 129.21609387281387 0 0 0 0 224.15743259860119 63.374358895162914 0 63.374358895162914 145.84238764210477 0 0 0 0 319.95454704002577 32.720192127572204 0 32.720192127572204 105.22753781573192 0 0 0 0 44.006171911617457 -43.909474836984373 0 -43.909474836984373 124.71241323351296 0 0 0 0 144.58910698956197 19.715753731082259 0 19.715753731082259 118.42331713274143 0 0 0 0 180.06705021841617 3.891960620523605 0 3.891960620523605 95.205453254993699 0 0 0 0 252.63709913188904 52.364409683914346 0 52.364409683914346 97.424337206768087 0 0 0 0 159.84466911955144 60.581327572318969 0 60.581327572318969 140.15253801051676 0 0 0 0 412.91948750559936 48.560281481913762 0 48.560281481913762 102.16448769670205 0 0 0 0 286.58980835258717 100.9877883759541 0 100.9877883759541 161.87141533256909 0 0 0 0 343.66388393777606 15.910755089890017 0 15.910755089890017 137.00235277960383 0 0 0 0 111.07899756963525 -35.938047113378161 0 -35.938047113378161 -12.35289896667382 0 0 0 0 -16.421303733647903 23.938797875135634 0 23.938797875135634 12.745380340818883 0 0 0 0 67.03144992419675 -3.8703760144653643 0 -3.8703760144653643 1.620482309851468 0 0 0 0 59.324792840591726 -12.34146621493619 0 -12.34146621493619 59.423930109022649 0 0 0 0 155.55749356031174 -101.91960550800331 0 -101.91960550800331 38.040047417398455 0 0 0 0 87.054215602425302 -35.53194562472936 0 -35.53194562472936 68.2129150170922 0 0 0 0 155.74379679868525 38.475405230680394 0 38.475405230680394 29.634007831921735 0 0 0 0 75.903638047222557 67.412642523062004 0 67.412642523062004 87.759606415670987 0 0 0 0 69.859347325811541 25.664399699579917 0 25.664399699579917 -11.178415508415583 0 0 0 0 42.588049434358254 56.609719812738149 0 56.609719812738149 -41.747238094691966 0 0 0 0 -0.56707609047654373 0.56136373304814846 0 0.56136373304814846 0.27555493285051247 0 0 0 0 49.9088160608012 34.420996279036444 0 34.420996279036444 -13.504395482108521 0 0 0 0 -17.127798480786623 9.825637733245685 0 9.825637733245685 -10.956793476083476 0 0 0 0 89.395651301741054 88.735513239883858 0 88.735513239883858 36.878671349017395 0 0 0 0 53.63922785783916 60.571560281944812 0 60.571560281944812 56.740236577115866 0 0 0 0 29.800008556569537 55.359372697427716 0 55.359372697427716 55.69180321332442 0 0 0 0 151.57474227125658 107.33832692853321 0 107.33832692853321 49.923301029539971 0 0 0 0 85.771240128692625 81.227426611685814 0 81.227426611685814 90.929789526876903 0 0 0 0 137.24122977228535 107.62892299243299 0 107.62892299243299 87.361062262518317 0 0 0 0 124.13127549423461 125.07449381824927 0 125.07449381824927 67.601385455507625 0 0 0 0 97.69179264928971 99.429386875078535 0 99.429386875078535 72.336750559061329 0 0 0 0 111.48517765894121 98.662652351032648 0 98.662652351032648 46.159309245869281 0 0 0 0 313.20359924051172 66.198218643489554 0 66.198218643489554 87.334549520594919 0 0 0 0 314.92663303403742 75.405152997254049 0 75.405152997254049 126.25874749361901 0 0 0 0 167.83042649015033 72.45883162443431 0 72.45883162443431 108.20490367970251 0 0 0 0 213.76851390517004 112.35718049533807 0 112.35718049533807 119.213098223712 0 0 0 0 140.54286789190155 115.51150922168972 0 115.51150922168972 99.067340201587285 0 0 0 0 207.51840809230589 84.396095186962157 0 84.396095186962157 90.286645602139288 0 0 0 0 215.96149711823546 109.71763566049049 0 109.71763566049049 75.715336562515404 0 0 0 0 233.66167477396266 98.732923130253766 0 98.732923130253766 86.037532486805503 0 0 0 0 265.74525933145605 21.080862597613304 0 21.080862597613304 90.120596051710436 0 0 0 0 215.99797740907343 76.194761269166065 0 76.194761269166065 109.99807272740691 0 0 0 0 268.51659114971244 -43.3965713830803 0 -43.3965713830803 81.123265493973918 0 0 0 0 355.37516964233902 -26.195584638518739 0 -26.195584638518739 76.021444848864121 0 0 0 0 412.10705473932831 -55.220803378676464 0 -55.220803378676464 76.145179461996008 0 0 0 0 360.58974288720219 47.266398025812123 0 47.266398025812123 66.497112320907945 0 0 0 0 348.24233020560177 -111.14036190810339 0 -111.14036190810339 74.838622738919753 0 0 0 0 380.66463536402443 -93.010630951855319 0 -93.010630951855319 63.879228672933095 0 0 0 0 429.80032638868397 -139.26614517022608 0 -139.26614517022608 82.391286688669652 0 0 0 0 394.2012775080384 -170.72709861825433 0 -170.72709861825433 79.038733149000109 0 0 0 0 447.51434217141332 -167.49918286025058 0 -167.49918286025058 61.80310735022158 0 0 0 0 454.25616001022854 -178.8458299703957 0 -178.8458299703957 79.361701699805963 0 0 0 0 536.3204854735086 -99.917788827671757 0 -99.917788827671757 63.246243141887135 0 0 0 0 541.72537757982309 -174.08068535507755 0 -174.08068535507755 61.173263883342315 0 0 0 0 519.6862603073514 -178.15620120540007 0 -178.15620120540007 65.054033330920902 0 0 0 0 431.04895244943691 35.720548030263672 0 35.720548030263672 67.937120244901053 0 0 0 0 437.02271008492426 -32.604578011492777 0 -32.604578011492777 74.92624666918357 0 0 0 0 434.5921810088139 -38.135377929749666 0 -38.135377929749666 64.520356660387733 0 0 0 0 613.67817861846561 -9.7462954842376348 0 -9.7462954842376348 65.878916828254205 0 0 0 0 472.88897565370462 118.87466481667934 0 118.87466481667934 162.80498081853693 0 0 0 0 555.43444720735852 -15.783110589938588 0 -15.783110589938588 143.68177465413021 0 0 0 0 547.26480166928332 -42.575266167879818 0 -42.575266167879818 261.68346430942665 0 0 0 0 533.47727716877603 -36.921189308350449 0 -36.921189308350449 97.10799878812486 0 0 0 0 753.48584401131939 94.15371050039812 0 94.15371050039812 155.42431168228904 0 0 0 0 711.88927155699821 -165.24710750202485 0 -165.24710750202485 124.82228725997811 0 0 0 0 796.5481111919089 -184.24070126445349 0 -184.24070126445349 60.254774214225563 0 0 0 0 449.0074920627967 -285.09108546202879 0 -285.09108546202879 133.88498484127194 0 0 0 0 1050.6749999232588 -463.57748843197624 0 -463.57748843197624 211.15125186506884 0 0 0 0 379.75902105062596 -477.43833971865115 0 -477.43833971865115 555.20556771576776 0 0 0 0 1037.203992460918 -395.16085866143476 0 -395.16085866143476 152.51000181909512 0 0 0 0 0.85562436247344209 1.3860293662073646 0 1.3860293662073646 0.58252709704138139 0 0 0 0 822.99492110797019 -87.778738779128162 0 -87.778738779128162 176.49563279796894 0 0 0 0 1234.172069132863 -264.0373962451431 0 -264.0373962451431 185.41470473463283 0 0 0 0 853.42998266241364 127.88608111335566 0 127.88608111335566 276.12201797442685 0 0 0 0 547.71755790077759 146.69501120878147 0 146.69501120878147 76.840794456716139 0 0 0 0 2.0915940582037065 0.75475185555119495 0 0.75475185555119495 1.7096028078750667 0 0 0 0 548.34224355490471 335.30332911598452 0 335.30332911598452 -4.1711118868033736 0 0 0 0 606.53848121484634 -59.059371937139076 0 -59.059371937139076 -23.660143001814504 0 0 0 0 1082.1904609849812 94.365476117452999 0 94.365476117452999 -48.285205398900871 0 0 0 0 746.17242260998489 -194.54980119702191 0 -194.54980119702191 190.77661377824916 0 0 0 0 7.5989389828039293 -11.308588146436023 0 -11.308588146436023 13.609143807702822 0 0 0 0 -0.69299633893251666 -11.23974504979833 0 -11.23974504979833 41.504864978991463 0 0 0 0 14.271594959955337 -24.042231537012412 0 -24.042231537012412 18.428686515791924 0 0 0 0 17.620043352123275 -20.990193770123824 0 -20.990193770123824 -0.34524204912531786 0 0 0 0 0.46624831939427219 -1.0820084608982192 0 -1.0820084608982192 1.5489344062834363 0 0 0 0 17.873441207823134 3.0646212160113464 0 3.0646212160113464 45.024861063964636 0 0 0 0 6.6607118744436775 -18.11451545863838 0 -18.11451545863838 43.903111722341123 0 0 0 0 80.359323581305944 -144.15931822292487 0 -144.15931822292487 9.7310940469451452 0 0 0 0 -1.5913321607923478 -5.5437920874304609 0 -5.5437920874304609 7.8919031998102582 0 0 0 0 40.682262159738229 -27.718515738479937 0 -27.718515738479937 171.20110262082562 0 0 0 0 2.9820476244959071 3.4165832162971368 0 3.4165832162971368 3.0541333708693768 0 0 0 0 3.2946371416589773 2.8961538146937258 0 2.8961538146937258 4.0460654977078843 0 0 0 0 4.0452203589258993 0.94756090368099133 0 0.94756090368099133 6.1264161030664601 0 0 0 0 0.4113691036843079 2.248684928566945 0 2.248684928566945 1.3010585475934704 0 0 0 0 445.91621727768529 -273.3996966832899 0 -273.3996966832899 106.8279372190209 0 0 0 0 359.11185699286398 -279.72973498255942 0 -279.72973498255942 131.46979075350828 0 0 0 0 1.8657012528930181 -17.096255256229142 0 -17.096255256229142 17.378824854409686 0 0 0 0 5.1380558218855814 -2.7952911507312193 0 -2.7952911507312193 1.674053296868045 0 0 0 0 1.7761469547940849 1.9588224464515211 0 1.9588224464515211 2.8621920370409164 0 0 0 0 -30.215123102885741 20.951864286866112 0 20.951864286866112 33.676653821013133 0 0 0 0 -3.8388797135879429 3.9063051511952835 0 3.9063051511952835 16.424635935532933 0 0 0 0 5.1472501066774026 3.5094913973817121 0 3.5094913973817121 4.4716985772942266 0 0 0 0 294.67955741001339 -132.41667456127101 0 -132.41667456127101 105.75498153821718 0 0 0 0 294.31059338811701 -237.14451674146176 0 -237.14451674146176 157.45518930965773 0 0 0 0 399.20471660989506 -205.54666116433054 0 -205.54666116433054 91.845257819346443 0 0 0 0 516.38879506384546 -265.98754815519288 0 -265.98754815519288 87.982866236205155 0 0 0 0 526.924190851405 -98.239285713445497 0 -98.239285713445497 -101.03788698259814 0 0 0 0 360.47268298729387 -164.23607752316957 0 -164.23607752316957 90.392543258340993 0 0 0 0 411.85483107660184 -208.64287174725905 0 -208.64287174725905 91.484974262237017 0 0 0 0 431.88191182570972 -180.8304960522064 0 -180.8304960522064 93.939066825773807 0 0 0 0 410.22913922774251 -190.25754444665131 0 -190.25754444665131 100.11523917756222 0 0 0 0 437.79589359274996 -170.91223853169231 0 -170.91223853169231 90.579550583733507 0 0 0 0 510.86096675195859 -260.92572532121949 0 -260.92572532121949 166.4715515942753 0 0 0 0 357.6774044278327 -164.80558390361148 0 -164.80558390361148 102.97990566398795 0 0 0 0 13.801845122450814 22.737626433003697 0 22.737626433003697 -12.676154012342749 0 0 0 0 36.344516248721902 -5.5776345312438025 0 -5.5776345312438025 -8.4540789680636408 0 0 0 0 12.352274936526531 4.8281324633724765 0 4.8281324633724765 1.9312034883474825 0 0 0 0 -0.35905357492960732 0.032498770513999631 0 0.032498770513999631 1.2950063473285089 0 0 0 0 53.259323173140046 38.202669037896612 0 38.202669037896612 -8.3771506729378871 0 0 0 0 0.97886186348283766 0.73581381093900866 0 0.73581381093900866 0.43404251968206076 0 0 0 0 -31.523417325362701 -38.210955272925446 0 -38.210955272925446 19.231674200556881 0 0 0 0 42.535635626059047 -29.803940455824431 0 -29.803940455824431 -20.69159079910014 0 0 0 0 51.938511254138689 14.705882082126664 0 14.705882082126664 -23.893426848515588 0 0 0 0 24.562814752646204 -35.048815222905887 0 -35.048815222905887 34.827033301669871 0 0 0 0 32.089760743183319 -17.73535835743769 0 -17.73535835743769 4.685712001290085 0 0 0 0 30.709369938992495 -41.11561548304735 0 -41.11561548304735 -1.5599254603466761 0 0 0 0 88.306155701136504 -39.740161542726128 0 -39.740161542726128 66.371791380581271 0 0 0 0 41.709859358936406 -3.4477756753940128 0 -3.4477756753940128 38.225406633175226 0 0 0 0 32.674840309316778 -8.641228094994176 0 -8.641228094994176 53.198619005071578 0 0 0 0 44.186729651044971 -24.055194112567278 0 -24.055194112567278 31.69766010683179 0 0 0 0 60.146374206876203 42.127983913929711 0 42.127983913929711 38.048397487913462 0 0 0 0 35.264645792151555 10.116411329684524 0 10.116411329684524 26.205985395267362 0 0 0 0 71.083564118493655 56.828594862791306 0 56.828594862791306 -25.188278842212185 0 0 0 0 31.428910779889009 15.221176250572512 0 15.221176250572512 150.50874445994941 0 0 0 0 51.659658999674434 106.67514931650476 0 106.67514931650476 67.623947516432054 0 0 0 0 52.190770176375764 35.136367315661687 0 35.136367315661687 34.316879235903798 0 0 0 0 62.67448848847846 11.586354030652274 0 11.586354030652274 -7.8301068212165319 0 0 0 0 46.667262166583043 18.620889587885358 0 18.620889587885358 53.838936776824994 0 0 0 0 -0.51756325992311802 -0.44035832011795772 0 -0.44035832011795772 -0.40225434136660354 0 0 0 0 14.700317665606377 -34.29319033232025 0 -34.29319033232025 45.623542709147841 0 0 0 0 50.159975165290319 31.117762585478431 0 31.117762585478431 -74.788135858030273 0 0 0 0 8.5684333761323472 -19.794064537117265 0 -19.794064537117265 33.737350698089131 0 0 0 0 -30.883223671775639 31.87547133487584 0 31.87547133487584 13.285871687750841 0 0 0 0 62.296909940475473 12.757136406085664 0 12.757136406085664 38.80044732933311 0 0 0 0 6.4067573316883681 26.264044304630261 0 26.264044304630261 -57.917995260718044 0 0 0 0 -0.74154187490925305 -3.2042392549016308 0 -3.2042392549016308 0.18368983927086724 0 0 0 0 4.3015595578124532 -21.446148756731873 0 -21.446148756731873 11.09943497866243 0 0 0 0 -11.725519563186253 -19.03220816657381 0 -19.03220816657381 -16.272810157380718 0 0 0 0 5.1351390254212674 13.827869052852293 0 13.827869052852293 16.101154724554362 0 0 0 0 -41.399670948003745 4.3389835434716133 0 4.3389835434716133 24.45052402752026 0 0 0 0 -8.7414272012815672 8.3990739299265442 0 8.3990739299265442 23.98504548831329 0 0 0 0 -10.553163050651165 13.180872612966368 0 13.180872612966368 40.22287155550066 0 0 0 0 -3.6959177737498976 24.41168609957117 0 24.41168609957117 37.273906601601084 0 0 0 0 4.273435473912059 7.7285566681507589 0 7.7285566681507589 42.159474568682981 0 0 0 0 29.983348690176172 -11.772144225894863 0 -11.772144225894863 34.513960936784315 0 0 0 0 1.1203250885873786 -12.015530374348032 0 -12.015530374348032 44.570769072872281 0 0 0 0 4.0416100727707089 11.129951320106557 0 11.129951320106557 114.69885166990275 0 0 0 0 123.33010751592252 -96.751500038099778 0 -96.751500038099778 2.7028004160938508 0 0 0 0 1.1651243810072174 16.46051293269602 0 16.46051293269602 16.264529217099835 0 0 0 0 -20.452549567995902 17.043704035319251 0 17.043704035319251 50.940228513177317 0 0 0 0 0.75869466953164988 -0.74749179693117185 0 -0.74749179693117185 71.727455578820809 0 0 0 0 17.265783140751893 39.626228672054367 0 39.626228672054367 52.732222374967932 0 0 0 0 -2.6401721914161271 28.166581191901059 0 28.166581191901059 45.505445814854966 0 0 0 0 -4.8579415812037041 31.290197584611178 0 31.290197584611178 54.60223030902489 0 0 0 0 -0.087000856718794428 0.045049038559629828 0 0.045049038559629828 1.5589190186504434 0 0 0 0 40.781366497101658 60.369933091767962 0 60.369933091767962 59.698410812776729 0 0 0 0 100.88938040528797 11.420953476170325 0 11.420953476170325 21.400023217272974 0 0 0 0 15.383149273509247 42.89623923374802 0 42.89623923374802 103.1820902719835 0 0 0 0 57.222991275403047 30.432930914896588 0 30.432930914896588 14.882986355119101 0 0 0 0 36.313802134610853 15.88827453811632 0 15.88827453811632 11.249570258967651 0 0 0 0 4.1931656562459239 5.1738566962071673 0 5.1738566962071673 -2.1616061356546652 0 0 0 0 37.238191616959426 39.31586915134514 0 39.31586915134514 27.266999264343212 0 0 0 0 -50.575476488560355 -9.0311127708046115 0 -9.0311127708046115 32.123193642680121 0 0 0 0 37.245140141134613 13.543593771498308 0 13.543593771498308 -6.5245410109341719 0 0 0 0 7.1522172913136499 0.41179757554493035 0 0.41179757554493035 3.1475780927058494 0 0 0 0 57.189816145672012 16.396538517620684 0 16.396538517620684 -15.795255233727403 0 0 0 0 8.2682158025467061 21.675377332016978 0 21.675377332016978 -15.911957045926101 0 0 0 0 7.5349747761637156 -0.44143415531435704 0 -0.44143415531435704 -1.92973546986142 0 0 0 0 59.102936275772663 -10.881549762103532 0 -10.881549762103532 24.315357378928184 0 0 0 0 22.428007938634209 -8.4092319233975559 0 -8.4092319233975559 33.818697538371907 0 0 0 0 1.0633214908261834 29.683460563956515 0 29.683460563956515 33.079606143726778 0 0 0 0 51.006037420960183 16.574588895994111 0 16.574588895994111 19.474889203784187 0 0 0 0 12.365578081393551 17.296365440938644 0 17.296365440938644 29.241349155819989 0 0 0 0 26.389059727921051 9.6789311910193874 0 9.6789311910193874 32.769982197869467 0 0 0 0 13.340902550615965 20.439780914523908 0 20.439780914523908 37.551087791304326 0 0 0 0 -44.190439708012491 35.611232717936446 0 35.611232717936446 38.781054179492912 0 0 0 0 16.024912933109817 17.858735501870797 0 17.858735501870797 14.032700105945878 0 0 0 0 86.514465102017311 42.432530037142669 0 42.432530037142669 0.10994867140925635 0 0 0 0 16.101592363888081 29.409897910575182 0 29.409897910575182 25.697106664744751 0 0 0 0 112.06927076897341 -2.560041105157552 0 -2.560041105157552 0.24028917892997015 0 0 0 0 88.704707505786473 -34.968167561565224 0 -34.968167561565224 19.387883078497907 0 0 0 0 43.82462748755654 -0.023660609482135442 0 -0.023660609482135442 18.474121095836381 0 0 0 0 23.042962560090018 1.3710498976715257 0 1.3710498976715257 5.2499349102556607 0 0 0 0 25.891485182396536 4.6595955982605801 0 4.6595955982605801 1.185449544111151 0 0 0 0 10.554786771987402 -4.2523185221159725 0 -4.2523185221159725 1.1340202898563332 0 0 0 0 275.14192855781027 -80.250925670332322 0 -80.250925670332322 -39.589949270597572 0 0 0 0 20.696197424939676 -1.7016857653272948 0 -1.7016857653272948 1.1052820457506591 0 0 0 0 15.246338826002329 54.70273263295735 0 54.70273263295735 11.567193034063166 0 0 0 0 38.772466123069535 6.903461036571457 0 6.903461036571457 6.8541384690413452 0 0 0 0 31.946027956317266 0.31343890523658047 0 0.31343890523658047 7.8546025722311299 0 0 0 0 44.955567590939012 5.719815971985895 0 5.719815971985895 1.3142105957067542 0 0 0 0 25.800348933360137 0.71800900055719463 0 0.71800900055719463 1.0606625884540732 0 0 0 0 26.109202824202839 4.3091388638198396 0 4.3091388638198396 8.9162697921033214 0 0 0 0 15.089838730141393 0.30399727631494233 0 0.30399727631494233 5.4725012087811216 0 0 0 0 35.186046106771187 -1.0001209652168654 0 -1.0001209652168654 -25.053536496140964 0 0 0 0 17.23367909875742 1.7958055981883945 0 1.7958055981883945 0.59677090479726758 0 0 0 0 15.337007029981246 0.73283419677843664 0 0.73283419677843664 1.8630530894277013 0 0 0 0 11.69425013590079 0.26163198625185657 0 0.26163198625185657 7.600168414624247 0 0 0 0 16.492378039850792 4.5686922997119837 0 4.5686922997119837 21.890780092814566 0 0 0 0 6.4765786451889653 -5.6279871362507947 0 -5.6279871362507947 22.34067123355419 0 0 0 0 11.46860463680917 -4.1559294612636126 0 -4.1559294612636126 2.0561085543395929 0 0 0 0 -1.6059059704409719 -7.6213423392404138 0 -7.6213423392404138 33.65546900435038 0 0 0 0 37.503322271573097 1.6929759463560003 0 1.6929759463560003 -10.634669782883975 0 0 0 0 13.35823972522337 -26.797770395260841 0 -26.797770395260841 37.661123512087215 0 0 0 0 3.5931882860102116 0.56998202170658452 0 0.56998202170658452 -0.6664480768463763 0 0 0 0 9.1839311186934793 -9.9759170793640237 0 -9.9759170793640237 26.070493814546353 0 0 0 0 29.032009527709306 4.9710420576557226 0 4.9710420576557226 13.406741159623834 0 0 0 0 71.942774410561469 -13.508473769999 0 -13.508473769999 21.364429770115748 0 0 0 0 33.132739340157912 7.3730078962505559 0 7.3730078962505559 -14.596560248397509 0 0 0 0 25.364679882488417 -11.00780265814501 0 -11.00780265814501 0.57062666370711668 0 0 0 0 30.271221473956075 -2.9557833211337083 0 -2.9557833211337083 5.6418064976628557 0 0 0 0 4.1810982243665054 0.77852823210782685 0 0.77852823210782685 -0.64216433706217879 0 0 0 0 18.612001123426126 -3.1244652730474627 0 -3.1244652730474627 7.25831634559745 0 0 0 0 30.771160028803934 -4.2669819487726954 0 -4.2669819487726954 3.4686126329771696 0 0 0 0 30.042335236248618 -2.7724280663089189 0 -2.7724280663089189 2.2883942780129019 0 0 0 0 19.36250751969823 -9.3992209776717033 0 -9.3992209776717033 5.169864875253614 0 0 0 0 1.3012104670442568 -28.99970146054136 0 -28.99970146054136 -2.98004805158007 0 0 0 0 18.596119003365857 -16.294524838378265 0 -16.294524838378265 -12.472336590577612 0 0 0 0 55.52555546274607 -7.0179343355616766 0 -7.0179343355616766 -13.459113500639887 0 0 0 0 115.47565802178724 155.89780963907833 0 155.89780963907833 139.8532994492034 0 0 0 0 10.584502977269249 -0.3840647255752474 0 -0.3840647255752474 1.3783175002943677 0 0 0 0 67.644536686034371 -28.122875697649079 0 -28.122875697649079 -5.1157294742979502 0 0 0 0 20.360445214703304 -2.9509674743701453 0 -2.9509674743701453 2.9923077453643145 0 0 0 0 -350.65123438918363 -228.70635283547222 0 -228.70635283547222 325.26063545064699 0 0 0 0 31.823541377474612 26.342262340518175 0 26.342262340518175 19.957355998461821 0 0 0 0 -69.30788536547152 -77.611620238685646 0 -77.611620238685646 -18.498628169060623 0 0 0 0 -6.323909694822305 10.21453393048364 0 10.21453393048364 96.10575659647202 0 0 0 0 -86.187851595389475 -26.360885185424763 0 -26.360885185424763 112.41776148163717 0 0 0 0 0.5370185373826839 -1.2110623822580462 0 -1.2110623822580462 1.7393973129286011 0 0 0 0 44.949415250582547 26.899207416429931 0 26.899207416429931 8.0959867356427822 0 0 0 0 -92.854543333748552 -22.854569910879036 0 -22.854569910879036 119.90178068649084 0 0 0 0 23.770403875468674 9.4518865532104428 0 9.4518865532104428 9.8565921501544835 0 0 0 0 12.528324160992042 -1.9982737368553671 0 -1.9982737368553671 0.31444379969775582 0 0 0 0 21.414219141735884 -1.4293238493758054 0 -1.4293238493758054 -0.1961430360435088 0 0 0 0 3.2022313015646242 -3.1450959513516028 0 -3.1450959513516028 2.2272267196683382 0 0 0 0 29.011168734602506 -85.660539114312087 0 -85.660539114312087 -75.135882253628552 0 0 0 0 -27.862244963695048 -8.901356804795455 0 -8.901356804795455 -11.272362004034221 0 0 0 0 1.7510543234741018 1.201867765886008 0 1.201867765886008 1.3008844266491968 0 0 0 0 5.0268898223864653 -14.543081208714739 0 -14.543081208714739 83.746459813605497 0 0 0 0 68.697022114308083 -44.405669065681423 0 -44.405669065681423 34.158153718212361 0 0 0 0 151.04023935313307 -44.356344241937222 0 -44.356344241937222 -94.74504509908104 0 0 0 0 55.77616104182016 42.642448627985686 0 42.642448627985686 10.445394568841266 0 0 0 0 48.505083282782607 -49.591771687752271 0 -49.591771687752271 58.862828030465153 0 0 0 0 23.47683803329528 -28.294587422136374 0 -28.294587422136374 42.894887090701332 0 0 0 0 67.677451191716045 -41.516716184699021 0 -41.516716184699021 32.017036333820215 0 0 0 0 1.0751052180555711 0.5168810268754318 0 0.5168810268754318 0.71675301353025445 0 0 0 0 46.757830694297809 -27.660748755317854 0 -27.660748755317854 27.627796619788569 0 0 0 0 57.721390522985985 -36.241271741991568 0 -36.241271741991568 33.910696944841675 0 0 0 0 58.201897193727746 -36.10422596267307 0 -36.10422596267307 30.017263549387735 0 0 0 0 9.7483907002546335 4.0833416059799346 0 4.0833416059799346 3.8372679367805991 0 0 0 0 24.23449343862606 0.4502703487012556 0 0.4502703487012556 -1.0291984708487409 0 0 0 0 -111.24538340481024 5.4740541158454903 0 5.4740541158454903 73.47621654390241 0 0 0 0 27.146388943761849 -2.5625672465833986 0 -2.5625672465833986 -3.4634693013130118 0 0 0 0 24.686711086794276 13.678922334342474 0 13.678922334342474 -7.8340603614456086 0 0 0 0 10.644308058783976 5.4902126138723819 0 5.4902126138723819 0.97362665640543611 0 0 0 0 29.208386169268579 2.3966185911776847 0 2.3966185911776847 -12.958407383042243 0 0 0 0 25.506875150797896 1.0617709728524005 0 1.0617709728524005 -2.2477381673433001 0 0 0 0 17.983099782455611 -4.4959095850341839 0 -4.4959095850341839 6.0331248542322697 0 0 0 0 20.883737156579627 2.0448417546152768 0 2.0448417546152768 5.2443991554624176 0 0 0 0 -2.7398690269805286 4.5415929442223177 0 4.5415929442223177 7.0348725232622655 0 0 0 0 0.4249660757680136 2.1533232916056719 0 2.1533232916056719 0.9326431432965373 0 0 0 0 14.05896419178733 1.088287310509382 0 1.088287310509382 -1.2066894869863753 0 0 0 0 8.8223610829623951 2.6347669716584718 0 2.6347669716584718 0.46119441341342893 0 0 0 0 12.853580170666191 -2.0380915831274251 0 -2.0380915831274251 -22.46697527147824 0 0 0 0 10.617280730009591 -1.0875525442424325 0 -1.0875525442424325 8.3147668482176869 0 0 0 0 10.97762161947071 3.5841140198419055 0 3.5841140198419055 7.785773005542822 0 0 0 0 17.720311765054021 -7.5605636806153314 0 -7.5605636806153314 4.1228213945633954 0 0 0 0 16.879824166848067 -2.1583999294839744 0 -2.1583999294839744 2.7504105669300998 0 0 0 0 16.704991768060609 2.2448037341736153 0 2.2448037341736153 5.3851278888280376 0 0 0 0 26.573918792669701 0.4324305701308333 0 0.4324305701308333 3.1196716552383918 0 0 0 0 24.907331987409634 -3.5572577899581574 0 -3.5572577899581574 1.8541059417826204 0 0 0 0 20.549943571435051 -4.9872520532900353 0 -4.9872520532900353 6.4546921809493867 0 0 0 0 19.245975915637842 0.97783152844466092 0 0.97783152844466092 -0.70757305421267058 0 0 0 0 20.310754551896011 -1.1767538725046556 0 -1.1767538725046556 0.18637099271561286 0 0 0 0 46.049518202738909 42.885118120480911 0 42.885118120480911 -37.35678086257758 0 0 0 0 20.193215612659749 1.5670055447823756 0 1.5670055447823756 -0.15846242618001857 0 0 0 0 19.605621941555455 2.2183846345943721 0 2.2183846345943721 5.1265606635765835 0 0 0 0 19.335003315315248 0.41693634429206838 0 0.41693634429206838 3.7341719062036418 0 0 0 0 18.259002128215798 0.045723888186330441 0 0.045723888186330441 -13.999090907375489 0 0 0 0 90.673430446266138 -61.726116145966898 0 -61.726116145966898 -161.22870893211206 0 0 0 0 -3.9412221199527266 -12.489733304669244 0 -12.489733304669244 6.0942324731772715 0 0 0 0 10.98417112410867 1.4483133227577532 0 1.4483133227577532 0.07684665101077548 0 0 0 0 17.300675275402682 -0.47618545902207643 0 -0.47618545902207643 -2.1298608691724894 0 0 0 0 18.738125304278128 17.172343658999438 0 17.172343658999438 -6.6068728196478332 0 0 0 0 15.909412458495453 4.3564097594561408 0 4.3564097594561408 0.98745918915982778 0 0 0 0 13.22649436188658 3.9761033988920644 0 3.9761033988920644 -0.78177263791701535 0 0 0 0 17.28875982667067 2.3062039483317243 0 2.3062039483317243 0.44691774720315891 0 0 0 0 21.949432308372252 0.17294728401296311 0 0.17294728401296311 1.2728257544567896 0 0 0 0 22.728584007432346 1.1844333436482373 0 1.1844333436482373 2.2483323255896153 0 0 0 0 18.244706135252557 1.5827141617611671 0 1.5827141617611671 -3.4375095780828815 0 0 0 0 17.267866039318008 -1.6577369528980528 0 -1.6577369528980528 -0.063027702230168875 0 0 0 0 30.000460388458279 1.601500690339078 0 1.601500690339078 2.885306970792044 0 0 0 0 29.943523682691648 1.27976337100921 0 1.27976337100921 1.3433609475050616 0 0 0 0 6.1101565102632049 -2.8006377806682217 0 -2.8006377806682217 2.0348405057243917 0 0 0 0 30.603833848759677 1.0939543447921096 0 1.0939543447921096 6.1041809175852393 0 0 0 0 28.599153942763223 0.86793614063253699 0 0.86793614063253699 6.1195990877008057 0 0 0 0 26.384778090352484 0.76798695327784117 0 0.76798695327784117 4.9601276397120273 0 0 0 0 29.018330938801682 2.6981299422354823 0 2.6981299422354823 6.3388785043744065 0 0 0 0 30.328437051455694 2.9629250613361364 0 2.9629250613361364 6.3607979586773808 0 0 0 0 28.896306536880729 3.2637697123825546 0 3.2637697123825546 6.6841331180028192 0 0 0 0 31.213001427910967 4.1483940986234984 0 4.1483940986234984 5.2251868934877166 0 0 0 0 11.371391167090463 2.8271881307753119 0 2.8271881307753119 2.9205610455537689 0 0 0 0 34.329609106183852 2.0628621808443768 0 2.0628621808443768 4.8816141217225777 0 0 0 0 16.360034603447275 4.1721060366326128 0 4.1721060366326128 2.4264940467783163 0 0 0 0 22.425863980582552 2.4514280919905573 0 2.4514280919905573 0.088637651920682181 0 0 0 0 20.068618491773339 4.7602531449886269 0 4.7602531449886269 0.83286131487295201 0 0 0 0 16.86540519994378 3.4536356660187266 0 3.4536356660187266 0.68291519533227074 0 0 0 0 8.6861668175188242 9.8524121820237269 0 9.8524121820237269 22.398229828815602 0 0 0 0 16.735514287678896 5.3075837618883419 0 5.3075837618883419 2.3760248303135256 0 0 0 0 22.123307434700109 9.9231226258898459 0 9.9231226258898459 25.148967468240699 0 0 0 0 18.449557808151468 4.4995117868991734 0 4.4995117868991734 6.7231045851344451 0 0 0 0 21.793697338151105 4.886708169762187 0 4.886708169762187 3.2394524996934706 0 0 0 0 17.71791842471066 3.7909171154876731 0 3.7909171154876731 4.9690371747865356 0 0 0 0 14.412079252925871 4.2656856486719921 0 4.2656856486719921 4.5773990925270329 0 0 0 0 20.204101874602202 5.024856203204763 0 5.024856203204763 3.8027047435339227 0 0 0 0 -200.05422699573609 39.029092207910274 0 39.029092207910274 28.570015485987824 0 0 0 0 10.027423000678228 3.9510327977727009 0 3.9510327977727009 5.6406991916215929 0 0 0 0 20.53790250277234 1.3938825524842287 0 1.3938825524842287 4.6314367896957265 0 0 0 0 12.198859307771365 -1.5321167486349125 0 -1.5321167486349125 2.0516167143163742 0 0 0 0 -9.125290486990707 -3.1156217472914705 0 -3.1156217472914705 -6.1893674232762805 0 0 0 0 30.709396364065469 5.1821631215723301 0 5.1821631215723301 -119.85751425265511 0 0 0 0 -0.65814860334467085 4.5075546949412342 0 4.5075546949412342 -35.77845980677057 0 0 0 0 4.7426974286414634 -2.298387621574804 0 -2.298387621574804 -1.0105633214923111 0 0 0 0 11.018527098703487 -1.3637112077137985 0 -1.3637112077137985 -0.53343110438572694 0 0 0 0 7.3833650583401322 -8.487458492570795 0 -8.487458492570795 -11.027309812854583 0 0 0 0 17.288902618980021 -3.2545808710471036 0 -3.2545808710471036 -4.8442457550487976 0 0 0 0 -14.298828272974788 -3.3304565457630133 0 -3.3304565457630133 -12.2443938816632 0 0 0 0 15.730331310922374 -2.5204345246548812 0 -2.5204345246548812 -4.8745875459329486 0 0 0 0 20.06479540182238 1.7532892374090521 0 1.7532892374090521 -0.5295071992263729 0 0 0 0 17.107448488830414 4.4349031681440465 0 4.4349031681440465 2.902878614433746 0 0 0 0 13.812221188110442 -0.18475099444692944 0 -0.18475099444692944 0.27214766673778312 0 0 0 0 -10.423077755203849 -18.612265121389555 0 -18.612265121389555 60.205999152972936 0 0 0 0 0.38664855960303157 0.11394893364592207 0 0.11394893364592207 1.0815936910477006 0 0 0 0 26.562432944632747 -54.058507797386142 0 -54.058507797386142 -43.135263928464155 0 0 0 0 10.54167576798136 7.752980058822402 0 7.752980058822402 11.867166966617106 0 0 0 0 0.59289804776517485 -4.5143399926748202 0 -4.5143399926748202 16.027081496709343 0 0 0 0 -1.8885228036378976 -15.189055491584213 0 -15.189055491584213 0.47701873493578262 0 0 0 0 13.534333036783579 -5.4820267312540487 0 -5.4820267312540487 -2.1762198016060634 0 0 0 0 9.303286314806158 -9.0975958436487545 0 -9.0975958436487545 -2.6262003086547088 0 0 0 0 132.04811322347086 -18.600722201547285 0 -18.600722201547285 3.5427220070301075 0 0 0 0 103.51654468320339 137.8999487408098 0 137.8999487408098 -196.91562717091324 0 0 0 0 7.8282564299024671 154.42447694688437 0 154.42447694688437 133.81931005070805 0 0 0 0 -174.96458621659258 73.557572401556172 0 73.557572401556172 75.828157183450116 0 0 0 0 11.095510551313055 126.24381748933115 0 126.24381748933115 -19.361422963652785 0 0 0 0 -134.6203338334235 24.130428822391195 0 24.130428822391195 -65.678994892736682 0 0 0 0 203.70785037224414 257.43100320253757 0 257.43100320253757 -69.509792677231985 0 0 0 0 -51.651172853886237 -119.19939395945016 0 -119.19939395945016 193.16194779471942 0 0 0 0 292.40579253502074 -153.08361962554352 0 -153.08361962554352 107.7880389072582 0 0 0 0 3.7360693525023549 -0.32102165550753625 0 -0.32102165550753625 0.13948402894653911 0 0 0 0 -6.7847715288044128 8.8617891845498207 0 8.8617891845498207 89.115373591583079 0 0 0 0 84.665809060337779 -229.52559744080833 0 -229.52559744080833 7.4073425672916073 0 0 0 0 -16.241921686265414 34.160727876883811 0 34.160727876883811 70.197026790459404 0 0 0 0 21.26538170769345 -71.757462134849902 0 -71.757462134849902 28.131205110204519 0 0 0 0 107.50088470277115 18.146780150329278 0 18.146780150329278 -75.387884498935819 0 0 0 0 21.125066509950557 16.784042471662474 0 16.784042471662474 38.820985485133519 0 0 0 0 61.677347121119965 45.472475044629277 0 45.472475044629277 9.0605802706014629 0 0 0 0 22.53063118395221 -1.0208764732717555 0 -1.0208764732717555 -39.773731058470275 0 0 0 0 16.759778262159671 22.331288018046905 0 22.331288018046905 32.19191229833109 0 0 0 0 20.223901686367753 16.107811513133697 0 16.107811513133697 8.1133191518137835 0 0 0 0 14.713345367210422 11.027539416618197 0 11.027539416618197 25.489484222648969 0 0 0 0 20.415338600410905 2.093343224693399 0 2.093343224693399 37.669028870831994 0 0 0 0 -23.064664141085814 17.19667430313919 0 17.19667430313919 48.953341470940984 0 0 0 0 -6.2458501048276958 -33.306584277833508 0 -33.306584277833508 39.017940351970424 0 0 0 0 38.835399893006979 16.363623644981089 0 16.363623644981089 16.669226513450667 0 0 0 0 8.3275795750087127 19.551091424351398 0 19.551091424351398 23.120159228715011 0 0 0 0 24.155800970838754 16.143767505206142 0 16.143767505206142 17.627261630227622 0 0 0 0 38.188923608264304 24.809496763503375 0 24.809496763503375 11.374568889343209 0 0 0 0 3.3463778427041007 3.1035162123338189 0 3.1035162123338189 0.76432270998526342 0 0 0 0 -17.484081907946937 25.594827133651531 0 25.594827133651531 20.378064457180027 0 0 0 0 -2.7277752259201407 11.925319138406849 0 11.925319138406849 22.936916648693114 0 0 0 0 2.4365019039632898 25.6175239259656 0 25.6175239259656 12.520350448965473 0 0 0 0 11.200069486734719 35.643504762508883 0 35.643504762508883 17.444808513362091 0 0 0 0 4.0313265983008719 15.638473559028021 0 15.638473559028021 17.864466454532305 0 0 0 0 4.6688062766388612 9.5591995556337679 0 9.5591995556337679 23.287777179105433 0 0 0 0 -9.0122805465871352 5.4282056371885119 0 5.4282056371885119 33.309841008987036 0 0 0 0 32.796778233097029 11.788976532672791 0 11.788976532672791 7.4848228021237446 0 0 0 0 34.810952625794243 21.417620296151881 0 21.417620296151881 17.998934078047114 0 0 0 0 12.85725941691755 13.662348126457355 0 13.662348126457355 17.842014815973677 0 0 0 0 7.032853928678378 7.3002469170733093 0 7.3002469170733093 22.606207313753998 0 0 0 0 28.423710831195422 8.2600121687912633 0 8.2600121687912633 8.7767220255120719 0 0 0 0 16.135527468663927 -5.0791408697508924 0 -5.0791408697508924 -1.8622110019920814 0 0 0 0 29.543480121046741 2.4298402454153347 0 2.4298402454153347 9.4673061497576327 0 0 0 0 26.309402514644248 4.2620567310080979 0 4.2620567310080979 7.3957942931265279 0 0 0 0 37.518540623482579 7.4649725514666017 0 7.4649725514666017 4.1483454348872328 0 0 0 0 7.8565925335151956 -5.438998772816575 0 -5.438998772816575 2.742847705525743 0 0 0 0 29.177591552296576 4.4192314749766979 0 4.4192314749766979 6.6114376801056096 0 0 0 0 46.787848680279694 22.127472097509155 0 22.127472097509155 23.102494869858674 0 0 0 0 14.699203399996513 -8.4505247916546224 0 -8.4505247916546224 -1.845019055135932 0 0 0 0 30.332418995210901 0.46374095806049809 0 0.46374095806049809 11.823068182824954 0 0 0 0 37.413955487558269 5.2697704454717496 0 5.2697704454717496 6.8362775045052331 0 0 0 0 45.610695590563409 -0.043017244820475753 0 -0.043017244820475753 10.228700043880963 0 0 0 0 27.115918788997078 7.0032254061106869 0 7.0032254061106869 35.438649633639216 0 0 0 0 -0.072522746090278645 0.11743880575912335 0 0.11743880575912335 2.2141966801246475 0 0 0 0 40.992485852366372 11.602557817680008 0 11.602557817680008 14.612922681898681 0 0 0 0 49.324191540259562 14.207656958098141 0 14.207656958098141 12.302813101533957 0 0 0 0 36.630683782252163 -123.17517270150472 0 -123.17517270150472 39.37320858596695 0 0 0 0 185.93858754100256 132.42025243954038 0 132.42025243954038 -33.571516771799452 0 0 0 0 41.00648612221994 6.6733656621599948 0 6.6733656621599948 23.814350780239693 0 0 0 0 36.075979701855466 3.9724160068895262 0 3.9724160068895262 -6.4336363348654277 0 0 0 0 52.608574154073722 -76.911196431717826 0 -76.911196431717826 -78.489875580684725 0 0 0 0 28.825184506422374 -4.3111299641459482 0 -4.3111299641459482 13.737255365711462 0 0 0 0 37.840115433657047 25.425861812886978 0 25.425861812886978 -8.3331368340386689 0 0 0 0 22.146702307929985 4.2519309553399669 0 4.2519309553399669 1.4614109690833565 0 0 0 0 4.2273019701275558 0.076477507604337802 0 0.076477507604337802 -2.5356227389222887 0 0 0 0 55.773391104594339 19.509314218106738 0 19.509314218106738 22.58092104203979 0 0 0 0 81.828983628380229 107.47662749566823 0 107.47662749566823 48.502458959020657 0 0 0 0 2.2592905707419817 0.25817471772150213 0 0.25817471772150213 -0.17505967814017653 0 0 0 0 2.8956291083450196 -24.744511316085038 0 -24.744511316085038 93.901989209450448 0 0 0 0 13.439397547597764 -14.982346507837747 0 -14.982346507837747 -22.770577292212465 0 0 0 0 124.44975567710208 -21.310762049124946 0 -21.310762049124946 33.875790946617968 0 0 0 0 35.036236905580154 100.05949197543555 0 100.05949197543555 124.85502716291762 0 0 0 0 -78.262390508298267 -0.71681138689962154 0 -0.71681138689962154 13.059219204224064 0 0 0 0 -11.115842666935475 36.536417511443496 0 36.536417511443496 23.738002566535741 0 0 0 0 45.160859649071718 7.6216776482992223 0 7.6216776482992223 -4.7133744982306016 0 0 0 0 5.6428749929973492 46.276416516187339 0 46.276416516187339 30.189411550969453 0 0 0 0 116.01024279209378 48.054756507069442 0 48.054756507069442 -104.25184636852509 0 0 0 0 -36.310451013962847 -8.8828427324488075 0 -8.8828427324488075 -2.17792927008486 0 0 0 0 -35.046592422336744 37.859612901075252 0 37.859612901075252 12.532691503384967 0 0 0 0 -1.0785396893424029 4.4244924660889797 0 4.4244924660889797 8.5223138733395736 0 0 0 0 -4.5414223610869158 9.9234880514641191 0 9.9234880514641191 -7.9697915677188576 0 0 0 0 -55.324503147873202 -10.50511616269614 0 -10.50511616269614 3.2184146626350412 0 0 0 0 48.007251820414012 158.22879614545786 0 158.22879614545786 57.778200835744428 0 0 0 0 -20.429749388308437 57.990967254316729 0 57.990967254316729 25.354513934680199 0 0 0 0 -10.073121496639622 37.438316110419024 0 37.438316110419024 21.987704779201017 0 0 0 0 -149.3963524716371 25.241772519206734 0 25.241772519206734 126.40671073405429 0 0 0 0 41.014380840531885 10.792833071259011 0 10.792833071259011 37.841061673564127 0 0 0 0 168.62764276364578 87.637709523026203 0 87.637709523026203 -15.254282256253759 0 0 0 0 185.88364629061834 32.125153505512202 0 32.125153505512202 -3.1488137297367587 0 0 0 0 82.719719475710008 57.238268613064577 0 57.238268613064577 -2.1347348256278735 0 0 0 0 96.50797231659817 70.152619002284382 0 70.152619002284382 -21.513719938372105 0 0 0 0 10.145173722456093 8.9541271839444789 0 8.9541271839444789 -11.338740239170988 0 0 0 0 94.342337160931493 77.437636508572055 0 77.437636508572055 -4.1174392666582094 0 0 0 0 116.73743082469446 60.127450090816751 0 60.127450090816751 2.8261780176618458 0 0 0 0 96.060690816854276 56.79888026477898 0 56.79888026477898 3.2581337358328284 0 0 0 0 113.97889954769562 67.459852715069133 0 67.459852715069133 0.92031211533856094 0 0 0 0 105.53845663641187 61.143656752880645 0 61.143656752880645 7.1517929569278067 0 0 0 0 135.49729626843327 38.151804962309711 0 38.151804962309711 -23.49602100665993 0 0 0 0 110.42442345936433 73.525806846982334 0 73.525806846982334 6.7591891256835765 0 0 0 0 45.996340229163252 62.232717890564345 0 62.232717890564345 11.760109027159984 0 0 0 0 103.41413578156516 100.37063488446904 0 100.37063488446904 13.195337681474712 0 0 0 0 167.56570069250665 67.434162022533542 0 67.434162022533542 -17.785060891681496 0 0 0 0 165.93602730047496 61.554292425551864 0 61.554292425551864 -32.104365032173064 0 0 0 0 153.64478037998924 61.591654705870241 0 61.591654705870241 -15.69899244644148 0 0 0 0 169.49306392415656 128.42588183952103 0 128.42588183952103 25.102502009788395 0 0 0 0 17.676468032015691 9.4393170096589074 0 9.4393170096589074 55.986885610207025 0 0 0 0 84.249105715477071 62.16297911865604 0 62.16297911865604 9.2820374801514163 0 0 0 0 85.351671833305318 105.60563164211271 0 105.60563164211271 16.684287012741038 0 0 0 0 125.47817074832278 84.771804087479268 0 84.771804087479268 -9.4600868758952856 0 0 0 0 170.46305329147617 155.5533066911471 0 155.5533066911471 70.872644679997393 0 0 0 0 216.05371347708251 68.458701610644312 0 68.458701610644312 18.409506618556406 0 0 0 0 174.6165718471234 153.00855266076724 0 153.00855266076724 -12.310994906155884 0 0 0 0 110.86735543702571 133.89182834290523 0 133.89182834290523 -18.008502309465257 0 0 0 0 -11.952435688593312 38.121978211774319 0 38.121978211774319 17.826805352393155 0 0 0 0 -76.491197757879434 84.166820788554617 0 84.166820788554617 62.176336493396775 0 0 0 0 28.526002576266364 -10.846146943725133 0 -10.846146943725133 -4.3229580837714252 0 0 0 0 -6.6530851776951749 -2.2422204704823798 0 -2.2422204704823798 -0.021294242904303928 0 0 0 0 23.096570824101946 19.706288591459526 0 19.706288591459526 -1.1184248688438529 0 0 0 0 2.5528135304921307 6.5958583513761369 0 6.5958583513761369 -20.58956296933502 0 0 0 0 2.5528135304921307 6.5958583513781832 0 6.5958583513781832 -20.589562969331382 0 0 0 0 30.65508504344325 20.676728682497014 0 20.676728682497014 -24.587517610958457 0 0 0 0 2.5528135304848547 6.5958583513777285 0 6.5958583513777285 -20.58956296932547 0 0 0 0 9.8795345946855377 -12.923218711129948 0 -12.923218711129948 -35.035341356066965 0 0 0 0 16.515560668893158 -1.9043801268076379 0 -1.9043801268076379 18.68727660973525 0 0 0 0 75.957041807840142 -23.920734204036648 0 -23.920734204036648 -99.534142072532859 0 0 0 0 29.473963004677955 -1.9642330296287174 0 -1.9642330296287174 -1.1245961179857473 0 0 0 0 29.428301375597584 -14.462289737192172 0 -14.462289737192172 -9.4403690995250713 0 0 0 0 12.634564690688421 -34.396385408767671 0 -34.396385408767671 -27.222727950659333 0 0 0 0 23.269965749510447 -13.557019635883393 0 -13.557019635883393 -9.1106796698211099 0 0 0 0 -158.97832386326627 35.178030773152955 0 35.178030773152955 -30.356756851613113 0 0 0 0 2.1694919684977947 -0.85603712648095254 0 -0.85603712648095254 0.14389386689299122 0 0 0 0 24.537669541649166 -33.266474465447871 0 -33.266474465447871 -28.737960079079926 0 0 0 0 26.262772386402503 -9.5942411111691399 0 -9.5942411111691399 2.8217466685145496 0 0 0 0 31.426501234760508 -6.2923428764586333 0 -6.2923428764586333 2.0392108445482222 0 0 0 0 29.379927493327401 -3.8442449058304344 0 -3.8442449058304344 -1.8888537050508203 0 0 0 0 43.86079417190922 -2.8963893300045243 0 -2.8963893300045243 3.4854974621003407 0 0 0 0 24.829128596757073 -0.87794029363703885 0 -0.87794029363703885 12.472930083001472 0 0 0 0 5.6548115394673744 -0.75694533159438038 0 -0.75694533159438038 -2.0166037405701465 0 0 0 0 41.29505364162469 -15.229048835550543 0 -15.229048835550543 -14.055875064763654 0 0 0 0 47.983318899969163 -13.684567125374684 0 -13.684567125374684 -18.118331996628456 0 0 0 0 29.082669178973447 -365.80673309593021 0 -365.80673309593021 114.25495631029764 0 0 0 0 51.927800822471909 -8.5675779681374564 0 -8.5675779681374564 -13.455838748313965 0 0 0 0 -202.87016220542864 -124.06676366420953 0 -124.06676366420953 106.89125189630823 0 0 0 0 3.6920505570250199 -0.7489957135246641 0 -0.7489957135246641 -1.5943155619075084 0 0 0 0 -74.394215263913793 16.63901948549767 0 16.63901948549767 -35.184403915940493 0 0 0 0 62.713957077838131 -26.749605398484391 0 -26.749605398484391 -88.870463892758949 0 0 0 0 70.543234162047156 39.201664643091675 0 39.201664643091675 -63.33585034555793 0 0 0 0 -7.8680085289815906 -86.634037069067205 0 -86.634037069067205 -27.3090711017079 0 0 0 0 77.552171964331137 16.012279258902005 0 16.012279258902005 -17.700194523395169 0 0 0 0 247.23687852972944 -65.059747791619316 0 -65.059747791619316 -26.427062951544528 0 0 0 0 196.8757038081385 57.797699113145086 0 57.797699113145086 -3.6612008255876276 0 0 0 0 147.0244894619027 -34.223987067540634 0 -34.223987067540634 -139.34254845988846 0 0 0 0 114.7579967851816 51.992361022336624 0 51.992361022336624 53.196688161658585 0 0 0 0 140.06286590517266 17.417677261467702 0 17.417677261467702 25.401828098615397 0 0 0 0 124.77147105906261 -17.895041790690357 0 -17.895041790690357 -52.41911101489336 0 0 0 0 200.25058552181144 43.226539322907229 0 43.226539322907229 -79.369891853314073 0 0 0 0 142.27641447777205 1.957217092549854 0 1.957217092549854 -57.220429181411646 0 0 0 0 299.9495643774826 16.277813834370249 0 16.277813834370249 -57.734258986121858 0 0 0 0 574.88940725320572 106.52088392384485 0 106.52088392384485 21.145686162066212 0 0 0 0 185.2024015251227 96.203411054664684 0 96.203411054664684 21.000978773583711 0 0 0 0 91.751623257245228 -31.189262193292734 0 -31.189262193292734 95.78141859674102 0 0 0 0 68.322672373920796 -111.86910737335347 0 -111.86910737335347 104.21944473660301 0 0 0 0 109.91314021313883 40.565824161284809 0 40.565824161284809 -103.27349373645779 0 0 0 0 -46.198292820963616 -122.73021895035069 0 -122.73021895035069 -48.459638429876804 0 0 0 0 4.8463895820427041 -2.6608770103187993 0 -2.6608770103187993 1.223143589253606 0 0 0 0 23.270398571758051 -31.688756736040204 0 -31.688756736040204 -28.529536394538923 0 0 0 0 -57.490656516503805 -22.963030522827808 0 -22.963030522827808 71.212012050506473 0 0 0 0 -66.806425618742651 7.333528297248904 0 7.333528297248904 53.831558265429294 0 0 0 0 -18.597314164777345 1.0429727489597553 0 1.0429727489597553 30.21529427558653 0 0 0 0 -54.596806510933675 -43.159139106679163 0 -43.159139106679163 -8.2631055368191255 0 0 0 0 6.2337381337418947 -3.7583176080082588 0 -3.7583176080082588 2.1479719216902775 0 0 0 0 14.980700582877034 -14.543003121333228 0 -14.543003121333228 -37.814096083468314 0 0 0 0 1.2828205016612628 6.9488954609929579 0 6.9488954609929579 -0.37504995655308448 0 0 0 0 -0.22508437037322437 14.018120120964568 0 14.018120120964568 -15.350665406060898 0 0 0 0 -48.466912199870421 27.179416674887761 0 27.179416674887761 7.3742243952401623 0 0 0 0 -46.955217510658258 37.605672718043024 0 37.605672718043024 79.19848016636638 0 0 0 0 -94.490981965121136 116.08910774708283 0 116.08910774708283 -32.926900665500398 0 0 0 0 25.268433877899952 24.588142331197787 0 24.588142331197787 -72.419645135555243 0 0 0 0 -0.21421354273253002 0.55771904858902843 0 0.55771904858902843 -1.2425996694597465 0 0 0 0 -145.7935438779823 46.750479032671933 0 46.750479032671933 21.435001641213603 0 0 0 0 51.799440290502389 177.37019510176356 0 177.37019510176356 -36.145873313044703 0 0 0 0 275.22056618332499 21.522836947019755 0 21.522836947019755 -63.105631450756846 0 0 0 0 99.873620593887608 -14.921534823785578 0 -14.921534823785578 -28.701901128668396 0 0 0 0 -121.58428023696433 38.446121597008698 0 38.446121597008698 163.08304529939142 0 0 0 0 -21.508815746863547 -75.723033094707716 0 -75.723033094707716 165.9049960215184 0 0 0 0 614.9209480636855 47.479808209545581 0 47.479808209545581 -78.437534872285596 0 0 0 0 196.11191356518975 -178.34689051045189 0 -178.34689051045189 303.23471581189051 0 0 0 0 220.38376838912518 193.42978614315007 0 193.42978614315007 309.48949398550792 0 0 0 0 263.42510917225809 4.5287941752563938 0 4.5287941752563938 -83.572524755766153 0 0 0 0 245.44683652430831 -86.147648566820749 0 -86.147648566820749 -41.426242215505908 0 0 0 0 13.823296920709254 -30.430976153081815 0 -30.430976153081815 -36.554788462097804 0 0 0 0 100.33136057577212 -0.38101194638102243 0 -0.38101194638102243 -95.202715341830981 0 0 0 0 19.759474650985709 3.245599181385499 0 3.245599181385499 0.61980580849486755 0 0 0 0 1.1911989690488554 26.026618153715162 0 26.026618153715162 -23.426949944560874 0 0 0 0 47.313135079348285 39.830067391499142 0 39.830067391499142 -23.462242256570335 0 0 0 0 78.228683653258486 55.008759313711494 0 55.008759313711494 -65.688160683390834 0 0 0 0 11.801633387905895 53.355543595887866 0 53.355543595887866 16.18266312222238 0 0 0 0 3.6202460513595724 38.150873120501956 0 38.150873120501956 -11.745352298951275 0 0 0 0 2.348879510596781 2.2941784831887588 0 2.2941784831887588 -3.4977520528198403 0 0 0 0 32.216421876146811 4.4255170763532972 0 4.4255170763532972 -2.4266191156211958 0 0 0 0 80.224029265591525 73.445959211738455 0 73.445959211738455 82.626246170409104 0 0 0 0 19.337676507933793 44.605306351435729 0 44.605306351435729 -27.393257372345943 0 0 0 0 44.917237831396051 10.811215550535962 0 10.811215550535962 -50.153511766081465 0 0 0 0 -7.1025549064797815 12.885140421528831 0 12.885140421528831 -1.7638326965079614 0 0 0 0 13.406092207974872 9.9856089692195553 0 9.9856089692195553 -3.5508433712251994 0 0 0 0 40.854628144559683 17.03521479477422 0 17.03521479477422 -0.93005667274974257 0 0 0 0 -2.071763816652691 0.52987333496586331 0 0.52987333496586331 0.60408520058802129 0 0 0 0 9.7386543951142812 0.59001331787294475 0 0.59001331787294475 -0.39430704444811226 0 0 0 0 21.611926302168285 3.9644319247627209 0 3.9644319247627209 -11.269413144087821 0 0 0 0 12.648466043265216 1.3555218574351784 0 1.3555218574351784 -0.9534299701585951 0 0 0 0 10.808188477611537 -0.2378772987984572 0 -0.2378772987984572 -0.4317945543987794 0 0 0 0 5.8651660241072392 4.8788180252589655 0 4.8788180252589655 -0.01692419179463478 0 0 0 0 9.3322177613663371 1.782971484841255 0 1.782971484841255 -0.65513573056591667 0 0 0 0 8.9326039940006012 9.7444204303883453 0 9.7444204303883453 0.012028044076032529 0 0 0 0 76.440724987932072 38.120615192564898 0 38.120615192564898 9.2910965445819578 0 0 0 0 111.60637898558343 34.616987932809081 0 34.616987932809081 -63.297877852567865 0 0 0 0 77.063843898623475 80.732476114735363 0 80.732476114735363 -15.616845173799447 0 0 0 0 94.153362146905238 31.999587180619528 0 31.999587180619528 -53.032967803572774 0 0 0 0 71.194911513205213 26.00626472811134 0 26.00626472811134 8.6619303755727017 0 0 0 0 84.395841600838338 31.220986651943235 0 31.220986651943235 -48.454075083090174 0 0 0 0 160.68420233863799 53.871447139572865 0 53.871447139572865 -42.393432296739775 0 0 0 0 90.84879174523121 84.745690847236801 0 84.745690847236801 -9.1493260773986549 0 0 0 0 54.691079609027838 84.895729268560444 0 84.895729268560444 8.4519465428547846 0 0 0 0 -0.14022912874723303 41.320226898942707 0 41.320226898942707 12.084660609306894 0 0 0 0 88.481969688861113 80.636316053733935 0 80.636316053733935 -16.120888853598444 0 0 0 0 -8.8338628484416404 36.043871560663092 0 36.043871560663092 29.290680504813736 0 0 0 0 6.4549435778752411 10.200191841967307 0 10.200191841967307 2.1046029707625866 0 0 0 0 4.8852930089819893 0.36407717033989684 0 0.36407717033989684 0.030710917374778379 0 0 0 0 365.39578294110834 -227.21208949535958 0 -227.21208949535958 99.118503025982818 0 0 0 0 74.350072878609353 186.85147935991313 0 186.85147935991313 258.46793643168303 0 0 0 0 355.5900541726769 -24.111621753958389 0 -24.111621753958389 -137.81190516285415 0 0 0 0 96.947857532431954 -71.669607087458417 0 -71.669607087458417 20.508950124792818 0 0 0 0 84.087063568659005 21.356101293602919 0 21.356101293602919 -14.545586018488393 0 0 0 0 -7.5894186777441064 72.121803587911245 0 72.121803587911245 -41.281574939475718 0 0 0 0 10.523176234065298 5.3058516390394175 0 5.3058516390394175 -13.419746902015504 0 0 0 0 240.24171259174545 78.896782175836506 0 78.896782175836506 -248.5363571489529 0 0 0 0 356.9890860373489 -62.228535404173044 0 -62.228535404173044 -136.34994236809339 0 0 0 0 6.6795090674617228 1.5547710591264134 0 1.5547710591264134 0.59796437684660353 0 0 0 0 234.81322083324267 -242.81884590666209 0 -242.81884590666209 161.87336761881375 0 0 0 0 719.17637855017529 -97.633834126663942 0 -97.633834126663942 -252.9600151434644 0 0 0 0 20.247419708410234 20.740801021536299 0 20.740801021536299 528.67245967168219 0 0 0 0 -207.69550214671835 -255.28574831971264 0 -255.28574831971264 787.27510744297933 0 0 0 0 -1.4536746278637764 -1.5227187027043456 0 -1.5227187027043456 -2.9314956673272814 0 0 0 0 42.826496612105984 194.89965436604643 0 194.89965436604643 138.34449018663713 0 0 0 0 148.55885181148915 173.39554970296587 0 173.39554970296587 -30.76207997436768 0 0 0 0 261.4086305207602 268.4764688518818 0 268.4764688518818 15.856939778524747 0 0 0 0 397.06086535299255 144.85210967240783 0 144.85210967240783 -155.86357662904425 0 0 0 0 73.465295954137218 -15.110802145041468 0 -15.110802145041468 -123.7158396710131 0 0 0 0 250.48175746832567 35.950600542517464 0 35.950600542517464 -207.17267308415813 0 0 0 0 60.13659925106731 84.384157270840319 0 84.384157270840319 -26.19837230239682 0 0 0 0 95.685255388896621 112.87596824662955 0 112.87596824662955 -63.22353831472374 0 0 0 0 65.981310603034217 75.620262926318105 0 75.620262926318105 -67.475209286534437 0 0 0 0 30.913711947886895 120.94904648425258 0 120.94904648425258 36.417793376708687 0 0 0 0 -29.93409130872169 99.761680555783641 0 99.761680555783641 46.526157074227513 0 0 0 0 -8.0908381932058546 74.645436462338012 0 74.645436462338012 49.747281442552776 0 0 0 0 4.2011506309972901 38.333632238308155 0 38.333632238308155 33.144490479252454 0 0 0 0 -13.699642314390076 59.962388889034031 0 59.962388889034031 18.061900944172748 0 0 0 0 1.84370353741906 30.247039748893712 0 30.247039748893712 9.1432687262238233 0 0 0 0 29.832960215637286 13.927046863946543 0 13.927046863946543 18.313621704021443 0 0 0 0 26.551485717851392 22.280962207459314 0 22.280962207459314 7.0931533914542015 0 0 0 0 25.269043517079808 19.091141131335377 0 19.091141131335377 0.41479603396822995 0 0 0 0 28.62329214784404 11.285654655688631 0 11.285654655688631 -0.00644659360091282 0 0 0 0 32.782273089324065 10.134645228278554 0 10.134645228278554 3.692429705082152 0 0 0 0 39.883547421675758 21.560667723624306 0 21.560667723624306 -7.8213428942736982 0 0 0 0 14.692272287566716 11.195531792835752 0 11.195531792835752 0.074119397973817058 0 0 0 0 45.433818133657041 40.832656592652313 0 40.832656592652313 -68.791710923554319 0 0 0 0 25.590865194028993 89.094593723765769 0 89.094593723765769 -7.4949822715469736 0 0 0 0 138.53987936985777 107.40389617528047 0 107.40389617528047 92.377401442967766 0 0 0 0 1.4640556823623605 -1.2732620681968498 0 -1.2732620681968498 0.59163007554180957 0 0 0 0 127.42813998415295 93.091381071451451 0 93.091381071451451 92.967872717465525 0 0 0 0 24.317342005300944 8.3212905051895287 0 8.3212905051895287 -0.64908892015021369 0 0 0 0 32.706564277516009 -44.930112650002684 0 -44.930112650002684 -13.281532985323793 0 0 0 0 4.6286560245630994 2.2581169815708577 0 2.2581169815708577 -2.1002013324638158 0 0 0 0 27.533342168528179 30.048707673252466 0 30.048707673252466 14.090819824854066 0 0 0 0 25.249484409498109 18.845730589125949 0 18.845730589125949 12.536650540253959 0 0 0 0 18.596714359511715 6.6746025196743233 0 6.6746025196743233 4.6782181597153674 0 0 0 0 14.343204002880157 7.5765309849173264 0 7.5765309849173264 -3.3655092857311502 0 0 0 0 34.267715303551995 14.863689052063819 0 14.863689052063819 0.45953112523829986 0 0 0 0 18.82647779503592 11.632570449663577 0 11.632570449663577 5.5941769334349321 0 0 0 0 20.659494191674028 14.400756089834431 0 14.400756089834431 7.9962846840246087 0 0 0 0 7.9149470931484949 1.6048130358447796 0 1.6048130358447796 2.2516941886083872 0 0 0 0 32.275283514062949 15.132755254155882 0 15.132755254155882 -7.3483200571181442 0 0 0 0 30.316555490968085 7.1755032603787186 0 7.1755032603787186 -6.5716347321913418 0 0 0 0 30.678859483441556 9.5362779861284253 0 9.5362779861284253 7.7667916317668642 0 0 0 0 22.186252257053567 9.1674495709578778 0 9.1674495709578778 2.9468180863173359 0 0 0 0 36.171085381834928 18.422627914206714 0 18.422627914206714 9.5365665088256719 0 0 0 0 34.497996656776309 15.650266067101597 0 15.650266067101597 -7.8524946715970145 0 0 0 0 32.804223404889854 13.22403545834959 0 13.22403545834959 -0.99920875761017669 0 0 0 0 36.18716331368023 22.650989665607653 0 22.650989665607653 1.9468930016173545 0 0 0 0 32.374348832077999 17.583807902201784 0 17.583807902201784 6.8055331797022518 0 0 0 0 35.612413673485804 23.346061106176251 0 23.346061106176251 9.7881332103543173 0 0 0 0 1.8551775943771638 1.066188751234483 0 1.066188751234483 0.40787311809383908 0 0 0 0 -4.6050509684127974 37.780367448813195 0 37.780367448813195 -67.748190122554661 0 0 0 0 4.8432082831423031 4.4066617692651562 0 4.4066617692651562 -71.497091160848242 0 0 0 0 33.617907959325748 75.533628503465025 0 75.533628503465025 45.479223683774762 0 0 0 0 25.11747439817691 21.95724811322907 0 21.95724811322907 36.362785888104554 0 0 0 0 25.725682801683433 38.532241296201391 0 38.532241296201391 2.690328428932844 0 0 0 0 66.855982194030503 -1.572486825617716 0 -1.572486825617716 -17.772333761215123 0 0 0 0 26.845172430454113 19.474270900384113 0 19.474270900384113 6.2378546628293634 0 0 0 0 33.495122763167899 5.3846359238076378 0 5.3846359238076378 -2.8267640314139459 0 0 0 0 3.3107921986041902 31.900458713024136 0 31.900458713024136 -117.15236102186464 0 0 0 0 2.795884317446732 -0.53991498223933743 0 -0.53991498223933743 -2.9133417550508085 0 0 0 0 9.0775571519980076 -62.112983634057855 0 -62.112983634057855 -31.011381741930563 0 0 0 0 108.86005546753404 -19.396842143783942 0 -19.396842143783942 -25.090948765478061 0 0 0 0 110.58529186508031 -12.075615175159328 0 -12.075615175159328 -105.84282497287313 0 0 0 0 402.16253578074156 80.984545476914718 0 80.984545476914718 -97.595531449349323 0 0 0 0 -83.091206756725114 -28.356611958663962 0 -28.356611958663962 -161.14323748023344 0 0 0 0 159.75336919522306 176.71763970001666 0 176.71763970001666 -100.88948911220723 0 0 0 0 307.73270398345767 -167.94826756556176 0 -167.94826756556176 -248.94285702204797 0 0 0 0 2.5723255480532137 -0.25191985366731373 0 -0.25191985366731373 -0.2048781294327775 0 0 0 0 229.56463708925594 140.98887864247899 0 140.98887864247899 -91.41308333501911 0 0 0 0 173.77326043586891 169.1610417883071 0 169.1610417883071 -34.422224721772636 0 0 0 0 151.00018573372449 194.51718178390456 0 194.51718178390456 25.676999950361278 0 0 0 0 172.38486610723112 194.53419621181365 0 194.53419621181365 -59.469660187578484 0 0 0 0 165.12397109734366 -2.2035115485564347 0 -2.2035115485564347 -10.463499987897194 0 0 0 0 212.14383831713303 209.60604479079666 0 209.60604479079666 -57.559679259892619 0 0 0 0 168.05083357813808 147.61862591747621 0 147.61862591747621 -92.9937438662364 0 0 0 0 -18.293807108454075 -77.790876704206255 0 -77.790876704206255 -175.51830143892767 0 0 0 0 -1.7335866773973976 -21.168409095208517 0 -21.168409095208517 -168.56020622963842 0 0 0 0 11.461164008340802 155.23067360809227 0 155.23067360809227 -66.854819761447743 0 0 0 0 22.902927152054872 -62.124114461251793 0 -62.124114461251793 -178.54648007633477 0 0 0 0 6.013835642912718 -0.96513767822948004 0 -0.96513767822948004 -0.44221289201905511 0 0 0 0 121.10524970050437 -22.549305982650367 0 -22.549305982650367 -392.56016613367456 0 0 0 0 4.388558694492076 -23.996788416326353 0 -23.996788416326353 -236.83601657932559 0 0 0 0 -0.43355832902404501 -0.20893649467608633 0 -0.20893649467608633 0.11785437511440477 0 0 0 0 -38.920514264966414 -130.32505718644398 0 -130.32505718644398 -138.50180245099727 0 0 0 0 40.182652410162518 -49.284112960779566 0 -49.284112960779566 -91.891320851874298 0 0 0 0 -24.199116431879361 64.376923888684217 0 64.376923888684217 -200.62712286947317 0 0 0 0 92.120067647310407 -147.89973656457551 0 -147.89973656457551 -21.564462454154636 0 0 0 0 88.002868080997359 88.263881142896935 0 88.263881142896935 -99.400179793909047 0 0 0 0 88.234695626805205 -64.885597738037177 0 -64.885597738037177 -106.17593735647279 0 0 0 0 93.274668493277659 20.337722793991816 0 20.337722793991816 -18.463882112370811 0 0 0 0 210.12053926125498 -43.05523297142895 0 -43.05523297142895 15.786408417894563 0 0 0 0 157.46599368340929 108.96037827758653 0 108.96037827758653 76.103514861178155 0 0 0 0 35.549381167978481 -123.11937993634638 0 -123.11937993634638 49.956974486677609 0 0 0 0 266.0306311889367 -161.83167411656905 0 -161.83167411656905 55.76683829401918 0 0 0 0 102.86080022935676 -73.867850372447265 0 -73.867850372447265 97.99706117750975 0 0 0 0 351.3701261484016 -48.313539184369347 0 -48.313539184369347 90.918870143115782 0 0 0 0 305.37271526499308 2.9577080912035854 0 2.9577080912035854 33.887363054375918 0 0 0 0 324.59083951992824 209.78743123794902 0 209.78743123794902 224.55848754948329 0 0 0 0 262.55664252596796 254.43834816042454 0 254.43834816042454 192.71353424309495 0 0 0 0 1.5781661781131886 1.7188133609044347 0 1.7188133609044347 2.9638756210060002 0 0 0 0 -5.4961639461865843 -31.926111120222231 0 -31.926111120222231 192.36740416922657 0 0 0 0 64.728609120680403 222.92761586958613 0 222.92761586958613 297.75487492060461 0 0 0 0 415.17225124179981 227.13418821360028 0 227.13418821360028 25.448134988811944 0 0 0 0 181.47824715201432 14.683501916708337 0 14.683501916708337 201.81304678889705 0 0 0 0 162.42032387387962 -170.28479919814026 0 -170.28479919814026 72.899436193136353 0 0 0 0 227.52819294671826 -77.766854157459875 0 -77.766854157459875 141.00116739762564 0 0 0 0 146.49888169049655 -10.826839385915264 0 -10.826839385915264 157.41801153938468 0 0 0 0 68.322429608359016 -113.24735790707655 0 -113.24735790707655 134.97455984740577 0 0 0 0 108.21479457099622 -61.330031502053316 0 -61.330031502053316 151.82911787937883 0 0 0 0 106.28951953685237 -136.11629577024701 0 -136.11629577024701 136.30343323087254 0 0 0 0 79.857373687348058 -212.4696761497712 0 -212.4696761497712 143.62427982188183 0 0 0 0 97.07261489902703 -213.5514973272584 0 -213.5514973272584 113.48353071893462 0 0 0 0 286.9013661715037 -251.4154877655281 0 -251.4154877655281 117.99062115499601 0 0 0 0 181.05597913676138 -207.67130429317012 0 -207.67130429317012 131.56336523946584 0 0 0 0 71.084531032392078 -233.46545610295198 0 -233.46545610295198 115.00427774803757 0 0 0 0 145.94433980558097 -254.0387542145877 0 -254.0387542145877 101.42541822646672 0 0 0 0 270.70992146977005 -264.58569510213761 0 -264.58569510213761 67.912219934405584 0 0 0 0 38.853669268116619 -220.03699650458401 0 -220.03699650458401 190.9030986310745 0 0 0 0 137.67229182682649 -167.32485967927505 0 -167.32485967927505 10.312369144854529 0 0 0 0 16.587053854147598 -145.84327772124743 0 -145.84327772124743 20.829427171562656 0 0 0 0 6.3921874845445927 1.9927188213264344 0 1.9927188213264344 -116.26856234379284 0 0 0 0 6.1578048562553978 -1.5697254848342297 0 -1.5697254848342297 -0.26935404663090257 0 0 0 0 36.769620242823294 0.25797167428390821 0 0.25797167428390821 -230.970324810683 0 0 0 0 95.284549817823518 -98.075468890279353 0 -98.075468890279353 -290.57904698685797 0 0 0 0 -24.545165579483182 -56.437008069687295 0 -56.437008069687295 -169.78832384725683 0 0 0 0 2.6731564467465407 -1.1490290092813975 0 -1.1490290092813975 0.16717221019249284 0 0 0 0 138.0912843438382 69.318836079046832 0 69.318836079046832 -41.499598744481318 0 0 0 0 -41.526458308491613 59.054645150977308 0 59.054645150977308 10.703057212684143 0 0 0 0 512.17132979854114 -34.489437496815981 0 -34.489437496815981 -120.6021906157921 0 0 0 0 471.56136171159415 -62.037457019319845 0 -62.037457019319845 132.22198022835448 0 0 0 0 407.97878945457023 -97.063076675736738 0 -97.063076675736738 94.730515204458243 0 0 0 0 259.02402030728308 -5.0270694921393897 0 -5.0270694921393897 162.03503098097963 0 0 0 0 251.58761554996727 -12.623205099844654 0 -12.623205099844654 156.8336160308412 0 0 0 0 327.3565280208968 30.718652424585798 0 30.718652424585798 119.66624411225848 0 0 0 0 129.81081519425788 -123.63946902248972 0 -123.63946902248972 -30.105076134382216 0 0 0 0 23.531947468558428 -124.04442765163458 0 -124.04442765163458 -29.851934770768594 0 0 0 0 1.7196576561454329 -0.65164985222220118 0 -0.65164985222220118 0.37103009367754503 0 0 0 0 570.14330552772572 220.75150944775669 0 220.75150944775669 36.798061046383282 0 0 0 0 524.12010681041011 -0.62387622389132957 0 -0.62387622389132957 44.74817090824763 0 0 0 0 374.73018995348957 84.631655860484216 0 84.631655860484216 12.673266104004142 0 0 0 0 45.593529462328661 53.387633122764782 0 53.387633122764782 -38.354009088339808 0 0 0 0 1.0728910216330405 42.742174622556831 0 42.742174622556831 6.9435714119499607 0 0 0 0 16.577401905925399 27.554610938443602 0 27.554610938443602 3.3463427854246675 0 0 0 0 61.388559440350036 104.40736234689575 0 104.40736234689575 -10.875350119854829 0 0 0 0 187.23581581100098 15.937384075639329 0 15.937384075639329 -34.515504295669416 0 0 0 0 -13.425353344501673 14.278257576563192 0 14.278257576563192 -34.21463050688277 0 0 0 0 28.396414311476292 43.104491085341351 0 43.104491085341351 -38.5509269820177 0 0 0 0 3.0901913065362194 -1.9248405415226646 0 -1.9248405415226646 0.72725895762402004 0 0 0 0 21.31931492826152 15.334262621673133 0 15.334262621673133 -3.5178563651807053 0 0 0 0 14.038569372083657 -11.609702757879404 0 -11.609702757879404 -56.412914629022225 0 0 0 0 -5.3805589506646356 14.080040365604873 0 14.080040365604873 1.1710487487616774 0 0 0 0 -3.866695647000256 -0.070674633648309282 0 -0.070674633648309282 58.458671405151108 0 0 0 0 185.97769455845082 -75.371061326101881 0 -75.371061326101881 36.245571856883544 0 0 0 0 110.8151097972268 27.268485882537789 0 27.268485882537789 19.883215479243518 0 0 0 0 5.9551229745860077 3.5895998492850723 0 3.5895998492850723 2.2848414019235861 0 0 0 0 27.494771505412245 -10.136983488459009 0 -10.136983488459009 48.403193401235512 0 0 0 0 439.91120154591135 -77.47038717399505 0 -77.47038717399505 -22.622713576772639 0 0 0 0 -71.11696011787717 -11.112926670225534 0 -11.112926670225534 28.650213195121978 0 0 0 0 21.107309912770191 8.7820680837522325 0 8.7820680837522325 3.5673305695848518 0 0 0 0 -1.2213291129810386 46.117897439309672 0 46.117897439309672 -6.6995498433391276 0 0 0 0 -14.332010263336997 48.841930869157295 0 48.841930869157295 40.74663385846543 0 0 0 0 300.21251270030916 348.94084836429101 0 348.94084836429101 -172.19669693653464 0 0 0 0 465.54598436578067 117.43814009425432 0 117.43814009425432 22.807971057508439 0 0 0 0 464.19870590680512 107.49993647654446 0 107.49993647654446 -41.06584235732771 0 0 0 0 302.99678426591163 147.97975525723632 0 147.97975525723632 24.786837396473402 0 0 0 0 601.52988400262439 242.47205980815806 0 242.47205980815806 48.66175137194341 0 0 0 0 282.23744184616589 113.8036053040978 0 113.8036053040978 203.81969726649049 0 0 0 0 326.41020368284887 21.627203519250823 0 21.627203519250823 53.047528401877571 0 0 0 0 327.19261990690853 58.978804394137796 0 58.978804394137796 539.7770514725762 0 0 0 0 812.45289606481856 -79.233162423321119 0 -79.233162423321119 -84.970651982058371 0 0 0 0 297.98371033807416 128.42946943694733 0 128.42946943694733 -151.58945426052378 0 0 0 0 438.14672837158241 4.6468237421106551 0 4.6468237421106551 -161.23682684073583 0 0 0 0 257.41921211360022 -88.194267474430262 0 -88.194267474430262 37.992293650424926 0 0 0 0 286.68841535812589 64.8951016802921 0 64.8951016802921 -164.85968032830533 0 0 0 0 255.72278413214644 56.927720066908478 0 56.927720066908478 -118.20601538745268 0 0 0 0 262.99399181587114 95.832328174593499 0 95.832328174593499 -203.22850176666361 0 0 0 0 282.61802355241434 60.886690109053689 0 60.886690109053689 -166.82228666726405 0 0 0 0 361.16392130252461 214.3756604577286 0 214.3756604577286 -128.55600587309527 0 0 0 0 388.99760026132572 112.06687870305996 0 112.06687870305996 -168.33464577674548 0 0 0 0 284.38445527029853 15.439281956178093 0 15.439281956178093 -119.09499531018264 0 0 0 0 28.427514423254017 25.558412562029925 0 25.558412562029925 -2.4741970253890821 0 0 0 0 91.353758784694946 42.843194948723976 0 42.843194948723976 -97.534512843349148 0 0 0 0 70.048035824878752 -9.0419705783206155 0 -9.0419705783206155 -25.884802861897469 0 0 0 0 169.50817746851862 13.861465702835176 0 13.861465702835176 -113.39299984288846 0 0 0 0 173.51052087497646 24.927684142710405 0 24.927684142710405 -130.60730738170878 0 0 0 0 250.49403140416234 149.1826459391059 0 149.1826459391059 12.96276998738449 0 0 0 0 88.024213432964117 17.055412403135961 0 17.055412403135961 -1.2839103724765084 0 0 0 0 219.52650085341156 -7.4850445468418911 0 -7.4850445468418911 -123.44157887476831 0 0 0 0 28.77041750483113 125.76234586614555 0 125.76234586614555 -79.81266902959851 0 0 0 0 35.606555107562485 -0.79844953968864019 0 -0.79844953968864019 -20.439973576790127 0 0 0 0 105.84197000422409 142.36068301414548 0 142.36068301414548 -155.92839829962031 0 0 0 0 85.96521484400364 -7.2899053871278738 0 -7.2899053871278738 -6.6499606675115501 0 0 0 0 227.10352701892407 -71.101314026508589 0 -71.101314026508589 -4.3256505493027362 0 0 0 0 299.93300778837693 -83.001361642790926 0 -83.001361642790926 85.061832313889681 0 0 0 0 358.8761996050016 -27.048968591271205 0 -27.048968591271205 -16.172823027471168 0 0 0 0 173.79399189184915 43.713222369555297 0 43.713222369555297 -155.76316384964912 0 0 0 0 -2.7913391026526657 -0.16388646667946993 0 -0.16388646667946993 -6.9637547649526184 0 0 0 0 -217.52500936548677 429.21875637439791 0 429.21875637439791 -128.6484640353292 0 0 0 0 -371.284575937716 -41.248728775641212 0 -41.248728775641212 672.82289096153045 0 0 0 0 -164.14605227380162 -21.61895833840299 0 -21.61895833840299 -170.2118136204767 0 0 0 0 276.34447810632901 485.89292840701432 0 485.89292840701432 398.50490405317214 0 0 0 0 0.18831745407024592 -0.016157695692353258 0 -0.016157695692353258 -1.3138527265571263 0 0 0 0 741.33101569426981 -52.026412506219458 0 -52.026412506219458 -80.847059684367196 0 0 0 0 -907.47809642838183 377.18580689832686 0 377.18580689832686 409.94294681255269 0 0 0 0 409.15902538230876 258.68544602864722 0 258.68544602864722 87.465121400530307 0 0 0 0 265.14189466414246 25.110965191777041 0 25.110965191777041 -28.049904891659025 0 0 0 0 17.218004737354931 51.511264091194789 0 51.511264091194789 63.888190357529311 0 0 0 0 145.07175745738277 85.34897044041054 0 85.34897044041054 127.36705879492456 0 0 0 0 139.215439611904 18.296227986971644 0 18.296227986971644 18.999404725999739 0 0 0 0 38.707420387252569 5.9607388463410302 0 5.9607388463410302 13.140485094480027 0 0 0 0 50.965884998924594 78.291279673591816 0 78.291279673591816 -33.513121055815645 0 0 0 0 71.821573696268388 42.033172188963817 0 42.033172188963817 -4.7785875570662029 0 0 0 0 330.57268713419353 73.2007609174143 0 73.2007609174143 -0.40021295511905919 0 0 0 0 179.12785764304863 11.608281840556174 0 11.608281840556174 27.504201253590054 0 0 0 0 120.42151762343747 100.97891661369476 0 100.97891661369476 48.143960229570439 0 0 0 0 -21.112196876452799 53.025377212514286 0 53.025377212514286 -11.853495954615937 0 0 0 0 -13.250491291390063 31.398738784673469 0 31.398738784673469 -120.44082020690985 0 0 0 0 -42.165820839470143 25.300384871272001 0 25.300384871272001 29.950463251390829 0 0 0 0 -3.8174998295689875 38.661701761055383 0 38.661701761055383 -52.733330196390853 0 0 0 0 -17.096003506951092 38.921465570724649 0 38.921465570724649 37.67577347147585 0 0 0 0 2.2457579137948258 0.73209764202318794 0 0.73209764202318794 -2.4028007301787122 0 0 0 0 4.2020045435383508 7.9843489269533165 0 7.9843489269533165 30.952798662157875 0 0 0 0 -0.021741456532254233 32.261716255120518 0 32.261716255120518 -70.490320632888142 0 0 0 0 -73.265231648303597 78.971516031360807 0 78.971516031360807 -36.413658488426336 0 0 0 0 -32.209606494390755 111.39162308835193 0 111.39162308835193 -100.71907299827399 0 0 0 0 161.55661889746989 -288.46766994834888 0 -288.46766994834888 97.973146634878503 0 0 0 0 8.5546007080234574 9.1864656337821451 0 9.1864656337821451 7.7190298361786169 0 0 0 0 38.931465026887963 71.547797060496691 0 71.547797060496691 140.66614404166376 0 0 0 0 171.15053146344053 -114.84116122346984 0 -114.84116122346984 -75.458446713163994 0 0 0 0 44.351829252374955 107.28965233919098 0 107.28965233919098 -80.562596933732948 0 0 0 0 33.378805130609393 9.0949770637241727 0 9.0949770637241727 7.080316197347857 0 0 0 0 182.50363387333346 14.895120425362109 0 14.895120425362109 -12.53705185682 0 0 0 0 109.46682574837499 19.478839919614174 0 19.478839919614174 3.5878316022989862 0 0 0 0 138.45969393368432 -11.951166288437321 0 -11.951166288437321 17.302910532438545 0 0 0 0 140.09613020848337 -19.947279658279172 0 -19.947279658279172 -9.7700676096569623 0 0 0 0 184.56068544431764 84.79278827376038 0 84.79278827376038 -13.028805481038944 0 0 0 0 120.03887831373265 39.268009077737986 0 39.268009077737986 -41.708720858267043 0 0 0 0 113.77820381174888 112.57961552805776 0 112.57961552805776 -47.984069723896027 0 0 0 0 37.79777748637207 77.733267684707243 0 77.733267684707243 -60.695383637370469 0 0 0 0 163.48084304481017 45.336478279148736 0 45.336478279148736 -55.592300150858875 0 0 0 0 84.314338288400961 19.021462927289221 0 19.021462927289221 -3.2497183238405203 0 0 0 0 123.53517525999087 92.17865833533051 0 92.17865833533051 -146.91116401582076 0 0 0 0 101.09108938809368 37.45404855597917 0 37.45404855597917 -60.560946829543354 0 0 0 0 105.21561809085324 115.52726423377953 0 115.52726423377953 -75.953043465246083 0 0 0 0 76.883089249893644 28.868902043033621 0 28.868902043033621 7.8340871579680176 0 0 0 0 75.733587281886045 32.279367386564829 0 32.279367386564829 5.7335171026428879 0 0 0 0 64.990437255697543 84.550223187072632 0 84.550223187072632 8.1463227547416182 0 0 0 0 89.063008697572513 -15.963695715192443 0 -15.963695715192443 -0.25729070862962544 0 0 0 0 215.86897512878932 31.235800736357248 0 31.235800736357248 -52.051162234423828 0 0 0 0 67.458507157003623 66.131338038252466 0 66.131338038252466 57.596317186917986 0 0 0 0 240.46657867491012 231.93581826008051 0 231.93581826008051 156.898803908834 0 0 0 0 -2.6956553780957222 -0.38363570624261456 0 -0.38363570624261456 0.80460289771312343 0 0 0 0 144.47180953428324 -738.9170904196053 0 -738.9170904196053 -771.03786114673494 0 0 0 0 -8.7167696213873569 120.03939490844277 0 120.03939490844277 -552.14416569698869 0 0 0 0 103.7661124637616 -116.13429285517344 0 -116.13429285517344 -272.97849884403968 0 0 0 0 3.5263015132199769 12.604245989285964 0 12.604245989285964 -0.83337730362762752 0 0 0 0 113.2330804511148 -246.02490093931738 0 -246.02490093931738 -775.57072435706823 0 0 0 0 131.83966910357412 -22.926808822681267 0 -22.926808822681267 -9.872217809161361 0 0 0 0 90.628348284088133 -7.042493543666275 0 -7.042493543666275 -74.161389084299657 0 0 0 0 116.08995709988085 -58.526575912298178 0 -58.526575912298178 -72.871093477315924 0 0 0 0 205.93733914797485 -3.1190525825170425 0 -3.1190525825170425 -69.801731844643314 0 0 0 0 156.76542902459187 -26.567787397520817 0 -26.567787397520817 -57.512761624130917 0 0 0 0 190.85004019524786 8.3055535441530992 0 8.3055535441530992 -67.715536963421982 0 0 0 0 222.26425057837878 -71.575759353282137 0 -71.575759353282137 -42.051313837023827 0 0 0 0 322.3724437469391 120.77257292807127 0 120.77257292807127 -141.6690878054394 0 0 0 0 241.85755021730438 -28.363249732759414 0 -28.363249732759414 -268.43440113488646 0 0 0 0 90.892230131677934 9.8297324917871265 0 9.8297324917871265 -85.551595637550577 0 0 0 0 157.17303812586761 -42.745791582351558 0 -42.745791582351558 -95.472258097698386 0 0 0 0 30.764445505810727 -17.552700851420013 0 -17.552700851420013 -23.052405723083211 0 0 0 0 101.60660284768528 40.766939974844036 0 40.766939974844036 -158.85201817054838 0 0 0 0 201.18585510569392 -177.03620522419669 0 -177.03620522419669 -1.3503114595796433 0 0 0 0 27.504527020399763 5.4923570733960716 0 5.4923570733960716 1.1187872594895492 0 0 0 0 274.04557094846678 -183.77192568149167 0 -183.77192568149167 -187.85793796146731 0 0 0 0 0.22673439775098814 18.949921399536834 0 18.949921399536834 32.702673903882896 0 0 0 0 54.453111267765053 -0.042380790725474071 0 -0.042380790725474071 -10.431600302431434 0 0 0 0 131.46255275202566 1.5495557198169081 0 1.5495557198169081 -11.179389864755024 0 0 0 0 191.52947841669811 429.74343284661063 0 429.74343284661063 661.73770346348465 0 0 0 0 835.76472311760881 284.66784774841153 0 284.66784774841153 -146.30028361709947 0 0 0 0 9.311100492692276 1.3201292691287705 0 1.3201292691287705 0.49395266143277539 0 0 0 0 211.80966307393101 -585.88847918646024 0 -585.88847918646024 449.73570740310811 0 0 0 0 12.306362389110291 114.29530196827204 0 114.29530196827204 -126.29961890576305 0 0 0 0 182.58620643934773 302.05674844309215 0 302.05674844309215 151.72316377135257 0 0 0 0 670.6750062340725 180.64112226508541 0 180.64112226508541 23.894417936735408 0 0 0 0 430.82555637024052 -135.63352884848223 0 -135.63352884848223 575.79551681454859 0 0 0 0 299.92747058368695 106.0035998095716 0 106.0035998095716 140.40311901011546 0 0 0 0 204.94371484899966 104.18702294970308 0 104.18702294970308 336.55860335292073 0 0 0 0 214.58863397534151 374.82255486861743 0 374.82255486861743 166.36333551584903 0 0 0 0 203.50323189698975 335.7797289711707 0 335.7797289711707 328.87196805702627 0 0 0 0 52.461778898592456 292.89773372901118 0 292.89773372901118 154.15756126602355 0 0 0 0 126.74138877962469 -82.800318764623512 0 -82.800318764623512 -94.447493823530749 0 0 0 0 4.8454354397185568 2.9484797853299156 0 2.9484797853299156 1.3630452841163736 0 0 0 0 753.63990331045352 305.90147552062263 0 305.90147552062263 114.61883688231046 0 0 0 0 409.3502157068724 318.9478395878923 0 318.9478395878923 121.81210827953271 0 0 0 0 335.31710191914317 259.60003766862906 0 259.60003766862906 146.66201734399419 0 0 0 0 229.97538986658037 340.85435480064996 0 340.85435480064996 130.76223578754343 0 0 0 0 66.004642786800105 98.794552750464959 0 98.794552750464959 111.91125576613513 0 0 0 0 227.03952027370906 83.239834432091811 0 83.239834432091811 63.777251030468506 0 0 0 0 -10.176937689735496 -70.665245519599239 0 -70.665245519599239 -7.2183940201142605 0 0 0 0 23.721292691399867 16.970035684973936 0 16.970035684973936 3.9282793616162053 0 0 0 0 -72.39528413106018 -19.929355552087827 0 -19.929355552087827 0.74378813640169028 0 0 0 0 30.678369819953417 -10.673239855599348 0 -10.673239855599348 -12.674918826846746 0 0 0 0 37.692207054045866 29.010461470926657 0 29.010461470926657 33.963546134697935 0 0 0 0 93.846430265948584 33.630749424232363 0 33.630749424232363 14.271022204265137 0 0 0 0 37.995798733820266 27.020555211577928 0 27.020555211577928 15.182806958868696 0 0 0 0 24.945035447097325 84.111665437783358 0 84.111665437783358 68.498672155401664 0 0 0 0 11.039024975017256 9.7801725397313959 0 9.7801725397313959 12.724317892619686 0 0 0 0 4.275724470540041 2.8122001090176525 0 2.8122001090176525 -3.7352353137162435 0 0 0 0 45.151534854667261 1.1872569732940974 0 1.1872569732940974 5.1839103426501651 0 0 0 0 -15.316804877907998 176.54413107028006 0 176.54413107028006 330.29009056605719 0 0 0 0 124.51913671803777 358.86594086393052 0 358.86594086393052 310.69041805589632 0 0 0 0 73.537218527373625 946.79313617304342 0 946.79313617304342 586.1778622107613 0 0 0 0 46.879631967327441 -25.316883482811818 0 -25.316883482811818 978.50664839634101 0 0 0 0 95.36226326070755 11.410811337181485 0 11.410811337181485 6.3731846609859986 0 0 0 0 42.771211665140527 30.560844421508101 0 30.560844421508101 22.365209211666752 0 0 0 0 181.39185115897453 -25.546236108595622 0 -25.546236108595622 -191.5984328430186 0 0 0 0 149.11358082290431 33.535316029465726 0 33.535316029465726 6.4530052296307625 0 0 0 0 31.082746239656927 12.56072886765169 0 12.56072886765169 1.8955485119696469 0 0 0 0 171.96766421994562 169.48318011348113 0 169.48318011348113 -6.1010943105902697 0 0 0 0 169.63134207414481 37.067518069569331 0 37.067518069569331 -2.1000783023022116 0 0 0 0 242.36119636426156 -0.94478923399310588 0 -0.94478923399310588 -170.31007398064867 0 0 0 0 185.39661518587673 553.92782527971849 0 553.92782527971849 -441.76420291087197 0 0 0 0 329.96611986767675 48.821218343378405 0 48.821218343378405 -466.50983800385075 0 0 0 0 144.2566880172235 91.339359502535444 0 91.339359502535444 -0.45790174447847676 0 0 0 0 273.00834683491848 80.641866316612322 0 80.641866316612322 -242.84687895586103 0 0 0 0 65.432740264772775 8.0921817507551594 0 8.0921817507551594 -17.004069014409595 0 0 0 0 335.67797475693806 -50.247551191176171 0 -50.247551191176171 -290.70955007289376 0 0 0 0 1123.0879261797818 -305.4305192399197 0 -305.4305192399197 -542.50973509146957 0 0 0 0 -11.415336055295484 533.89399379452857 0 533.89399379452857 -757.03079383737349 0 0 0 0 258.52100000769497 -132.76205453027842 0 -132.76205453027842 -370.25392144973739 0 0 0 0 252.18253301567165 -149.39363692881489 0 -149.39363692881489 -324.88043667107104 0 0 0 0 88.832929575466551 50.742174625383996 0 50.742174625383996 -16.633517417203393 0 0 0 0 92.765660009645927 9.5964534901926939 0 9.5964534901926939 -11.252346512874926 0 0 0 0 -334.9716814783751 -301.488533063668 0 -301.488533063668 -330.46774623541535 0 0 0 0 16.036058871203096 -4.0429337134637393 0 -4.0429337134637393 -15.189240795220565 0 0 0 0 -36.447265697075636 362.75193500131945 0 362.75193500131945 -184.774830136118 0 0 0 0 334.24133264132251 -40.149690588124713 0 -40.149690588124713 -583.872264396623 0 0 0 0 350.55012243069359 -168.04307756848311 0 -168.04307756848311 61.473499048192025 0 0 0 0 -248.16291446446849 -150.3920321989167 0 -150.3920321989167 -391.93652750546062 0 0 0 0 -5.5567001925810473 -29.192879883396472 0 -29.192879883396472 -841.91708808953081 0 0 0 0 213.33142742366545 339.77272575446767 0 339.77272575446767 -144.40346434108505 0 0 0 0 239.24174593536736 491.69264057794567 0 491.69264057794567 52.888279532219713 0 0 0 0 174.4888700023439 153.64660773317382 0 153.64660773317382 20.065888954050024 0 0 0 0 687.88066251545388 571.73977649963172 0 571.73977649963172 182.72685630579872 0 0 0 0 434.61170226839022 217.13035129403124 0 217.13035129403124 173.94959081679229 0 0 0 0 -1.4822879569204588 2.4504080467740437 0 2.4504080467740437 6.8209356669033987 0 0 0 0 1215.1096764596878 385.65257228301834 0 385.65257228301834 117.8096330842759 0 0 0 0 542.40987387629866 -509.509447190836 0 -509.509447190836 705.08308541101724 0 0 0 0 715.74996005263529 626.64639175929779 0 626.64639175929779 758.09159121535231 0 0 0 0 553.26800796025782 -189.28276476540577 0 -189.28276476540577 -367.54827056921533 0 0 0 0 344.08377982021193 332.07670419425085 0 332.07670419425085 64.333910321705844 0 0 0 0 65.673514796179006 -23.739875469771178 0 -23.739875469771178 4.039200073618531 0 0 0 0 2.7346786182110634 4.0280009501493481 0 4.0280009501493481 0.98334457239434592 0 0 0 0 48.025787734186451 -23.512184934301558 0 -23.512184934301558 16.558691625677056 0 0 0 0 57.734911296734936 -5.7194540151515412 0 -5.7194540151515412 6.6749760410330055 0 0 0 0 34.093593928482733 -21.310092850534375 0 -21.310092850534375 10.878090830452493 0 0 0 0 27.023103377083316 -13.504898649080133 0 -13.504898649080133 13.521773388819383 0 0 0 0 439.49797979974392 -37.495974518373032 0 -37.495974518373032 -67.399580082081457 0 0 0 0 209.39206147845107 4.0975098146482765 0 4.0975098146482765 49.963223021195859 0 0 0 0 169.77959730683506 -128.67807466536829 0 -128.67807466536829 -95.934722000172542 0 0 0 0 186.77677191339262 -257.5102442374411 0 -257.5102442374411 40.477598294399741 0 0 0 0 8.2400552621143248 2.5179332264222865 0 2.5179332264222865 3.9487389707687957 0 0 0 0 45.595503118427587 -16.277863362447988 0 -16.277863362447988 4.5261788978339155 0 0 0 0 608.14756550018501 821.72496296845748 0 821.72496296845748 1375.1566408717481 0 0 0 0 25.760628131698468 -4.6168869945124698 0 -4.6168869945124698 16.71878087631103 0 0 0 0 1881.551682108744 461.14664697401486 0 461.14664697401486 -1552.746629975014 0 0 0 0 -148.55002562810841 -412.71780565809058 0 -412.71780565809058 -525.27671017101784 0 0 0 0 8.2640943620150011 -10.077710240390367 0 -10.077710240390367 6.8854580834908603 0 0 0 0 35.302607758942031 -22.88560035135356 0 -22.88560035135356 9.2972881338941988 0 0 0 0 266.55013559230429 117.07305301411486 0 117.07305301411486 -64.058228069869983 0 0 0 0 13.219053251067869 -4.5083410840451421 0 -4.5083410840451421 -3.0918761108081743 0 0 0 0 5.3124889554783294 -3.0520819076136831 0 -3.0520819076136831 2.1454396968156288 0 0 0 0 10.750525442694197 7.1236297024261148 0 7.1236297024261148 19.910605619711305 0 0 0 0 67.648281751287868 23.499576741036549 0 23.499576741036549 -26.515920995017495 0 0 0 0 97.6411633257012 180.40574446341589 0 180.40574446341589 56.662336232061534 0 0 0 0 147.30170255916164 517.92067187561338 0 517.92067187561338 501.70222615382954 0 0 0 0 41.004309544288844 174.39358466321937 0 174.39358466321937 58.448485903443952 0 0 0 0 13.799821459486907 2.7991993744369319 0 2.7991993744369319 0.81993928615650713 0 0 0 0 85.71557835098065 153.17674888690181 0 153.17674888690181 -250.09746163282034 0 0 0 0 15.98191828646668 129.21194491864435 0 129.21194491864435 68.843071924237393 0 0 0 0 64.709004680475118 130.86833720159734 0 130.86833720159734 63.887368648624033 0 0 0 0 -2.9622774577583186 109.86153477050675 0 109.86153477050675 286.8111540642663 0 0 0 0 32.231316687779326 112.90358254328362 0 112.90358254328362 54.379015358237211 0 0 0 0 91.659712894248514 112.18170583749384 0 112.18170583749384 72.94294966919233 0 0 0 0 -5.3140991451073205 197.18476519965782 0 197.18476519965782 68.03060545578137 0 0 0 0 85.402692929332261 44.78980246685262 0 44.78980246685262 -88.438670387293087 0 0 0 0 39.713584074090789 7.1689374076812902 0 7.1689374076812902 0.97137804787315218 0 0 0 0 127.46689461111828 97.290171084869712 0 97.290171084869712 -22.991359291447452 0 0 0 0 299.09026543906657 54.669052856416442 0 54.669052856416442 -35.314532313535324 0 0 0 0 42.142737334981575 90.267786071635072 0 90.267786071635072 20.189171567966582 0 0 0 0 81.202160968248791 -13.806087327640455 0 -13.806087327640455 -15.529774944564224 0 0 0 0 61.882991844035075 9.4034462230579248 0 9.4034462230579248 0.93228791404845435 0 0 0 0 -1.1473872921233124 73.644821868466806 0 73.644821868466806 60.745998542236521 0 0 0 0 178.46220475848531 147.61866825458219 0 147.61866825458219 -498.30164918933019 0 0 0 0 13.720154182788974 30.154561088423634 0 30.154561088423634 34.602965429953656 0 0 0 0 150.80434097229954 -30.875267420778528 0 -30.875267420778528 -274.02291957093666 0 0 0 0 76.799253391262027 252.06940471460598 0 252.06940471460598 657.79307551274042 0 0 0 0 511.39788754548135 85.911548451267208 0 85.911548451267208 21.459677240435212 0 0 0 0 208.9567312355357 -76.453324503459726 0 -76.453324503459726 -124.04720154210509 0 0 0 0 -64.19668855006239 20.66559664998897 0 20.66559664998897 -119.33821580813128 0 0 0 0 146.19100081304651 -268.61909648304868 0 -268.61909648304868 276.31713433462392 0 0 0 0 138.52795873684227 23.636775675630815 0 23.636775675630815 147.11288883888847 0 0 0 0 2.9254372900936687 2.4771463910661566 0 2.4771463910661566 3.1867511274206315 0 0 0 0 353.41912356227658 -338.30826489279821 0 -338.30826489279821 243.94720931212032 0 0 0 0 473.33960169484271 -60.696502804764805 0 -60.696502804764805 126.07291090742137 0 0 0 0 -70.575289702166629 8.7858616631010591 0 8.7858616631010591 2.6504548642733425 0 0 0 0 -56.084333127218997 100.30279891708688 0 100.30279891708688 112.79736010630484 0 0 0 0 -52.248226552928827 62.188116334008043 0 62.188116334008043 65.059466527033692 0 0 0 0 261.07203460301389 -30.668214295451889 0 -30.668214295451889 -13.545348830631156 0 0 0 0 -23.114580162180573 -75.973407942916083 0 -75.973407942916083 -11.361896042811168 0 0 0 0 229.100065779734 -31.800998504688778 0 -31.800998504688778 -317.36655427284018 0 0 0 0 253.57538423022561 64.194805444775966 0 64.194805444775966 -457.82154091764824 0 0 0 0 80.713271328869794 10.846709232511536 0 10.846709232511536 1.070813003703563 0 0 0 0 122.45317582314601 26.031294308635893 0 26.031294308635893 5.0821166049438489 0 0 0 0 20.929666646239639 6.1922172646394529 0 6.1922172646394529 155.8280603193752 0 0 0 0 90.558613703717128 -70.523569245988824 0 -70.523569245988824 29.111006477022556 0 0 0 0 64.728353746264474 -30.602067221911625 0 -30.602067221911625 127.35508821937674 0 0 0 0 98.054110409176005 9.7988572665506091 0 9.7988572665506091 0.40806292200370109 0 0 0 0 -45.305373931390932 3.1270041487969138 0 3.1270041487969138 -82.18283199752284 0 0 0 0 52.428547855874058 -10.35714882550036 0 -10.35714882550036 18.734042172190104 0 0 0 0 66.123871567520837 -41.124086028462358 0 -41.124086028462358 -84.544741324251589 0 0 0 0 35.439146102967243 -20.882440922443077 0 -20.882440922443077 -110.52411974681186 0 0 0 0 14.927286844846094 20.404456751207679 0 20.404456751207679 7.3203242623156077 0 0 0 0 26.557038346683839 80.338963670036264 0 80.338963670036264 -149.67211186741366 0 0 0 0 9.6385936341830529 -22.303011725055853 0 -22.303011725055853 -254.40086930682446 0 0 0 0 41.916727570678631 -73.159531638041059 0 -73.159531638041059 24.814330276840991 0 0 0 0 1.9492916761676611 -7.3504169627585547 0 -7.3504169627585547 -3.0241135629014311 0 0 0 0 70.41840400224828 43.89547106965199 0 43.89547106965199 -203.14726726680124 0 0 0 0 46.884774637135422 7.2729236346683592 0 7.2729236346683592 -1.5428888439754429 0 0 0 0 78.166872180947394 -51.911873757195735 0 -51.911873757195735 -159.35919244913975 0 0 0 0 96.440463663388073 45.87013676582287 0 45.87013676582287 -172.67627416217806 0 0 0 0 7.5636947023012908 65.07843040091052 0 65.07843040091052 -85.328780090526152 0 0 0 0 7.9815356353127527 3.3073506769967622 0 3.3073506769967622 -2.1730968471588694 0 0 0 0 61.126232349561178 -41.63282146382744 0 -41.63282146382744 -57.771373413380388 0 0 0 0 70.810131488105981 -8.2158154090270727 0 -8.2158154090270727 -93.014916943780236 0 0 0 0 63.037427423398185 -38.353396788598275 0 -38.353396788598275 -10.561112391923416 0 0 0 0 90.866583432827611 -25.821458336082742 0 -25.821458336082742 -52.126843455063636 0 0 0 0 66.125956415729888 -31.922891594570729 0 -31.922891594570729 -39.20828561633607 0 0 0 0 38.615729611621646 -46.688978028020529 0 -46.688978028020529 -4.8531793898969227 0 0 0 0 83.794370369549142 -33.630600015567779 0 -33.630600015567779 -10.150153324278506 0 0 0 0 63.115826482007833 -24.475364603610615 0 -24.475364603610615 -37.661114189881118 0 0 0 0 46.287583571575368 -15.060273735076919 0 -15.060273735076919 -6.5064002887903918 0 0 0 0 51.946813926835603 -7.2511079528273967 0 -7.2511079528273967 -21.038694882144 0 0 0 0 80.474775866437994 -45.968899551452154 0 -45.968899551452154 -47.1019477261909 0 0 0 0 43.244218515683315 -66.028478201719963 0 -66.028478201719963 -15.781576752314777 0 0 0 0 43.041398524180778 -26.569938814142432 0 -26.569938814142432 -1.9165404000668591 0 0 0 0 -78.477219687214529 -65.165463018097171 0 -65.165463018097171 -13.882284750569568 0 0 0 0 -212.82611872836424 -10.351723172508287 0 -10.351723172508287 3.7646769135810985 0 0 0 0 50.587433309834523 3.1136932637087398 0 3.1136932637087398 -54.154984605017034 0 0 0 0 11.179383936206975 -4.0220473516434083 0 -4.0220473516434083 -4.1415345240703063 0 0 0 0 76.986496240140696 -33.469317635542126 0 -33.469317635542126 -81.650205567306912 0 0 0 0 -221.9202526446461 -120.17141184517469 0 -120.17141184517469 182.97428162833612 0 0 0 0 -0.22962551265837305 -1.1902852604147149 0 -1.1902852604147149 -0.84155901978932313 0 0 0 0 -28.7141331378225 -7.711580507677354 0 -7.711580507677354 -115.43602242384327 0 0 0 0 45.756335719255731 77.619836493197184 0 77.619836493197184 -40.803267200492819 0 0 0 0 36.201889129957635 78.893827090276517 0 78.893827090276517 -190.90077367420176 0 0 0 0 17.459476828080369 140.01974899358319 0 140.01974899358319 50.555464467594447 0 0 0 0 -61.422586831104127 14.022971677657003 0 14.022971677657003 -10.845736902397253 0 0 0 0 216.21516979619628 106.62254428795939 0 106.62254428795939 -14.051847258116936 0 0 0 0 217.0185547823894 127.15079606107336 0 127.15079606107336 108.95853309524313 0 0 0 0 371.68193295248784 33.129212703251824 0 33.129212703251824 76.634567123096019 0 0 0 0 467.33415605186019 154.09794737198388 0 154.09794737198388 154.32506110599661 0 0 0 0 387.77185453107086 -10.502543005586858 0 -10.502543005586858 264.7992995178206 0 0 0 0 570.08591073748539 181.93599424170407 0 181.93599424170407 159.57797702282323 0 0 0 0 186.53462958264572 121.81766917663765 0 121.81766917663765 144.97410945883598 0 0 0 0 234.56021102007071 -56.414181840222682 0 -56.414181840222682 84.72820106923416 0 0 0 0 -81.68532760555172 95.241788547233185 0 95.241788547233185 35.255730703601785 0 0 0 0 66.93969688047946 -12.593768423551523 0 -12.593768423551523 55.731591337151599 0 0 0 0 -83.678744522745546 -213.85966974721055 0 -213.85966974721055 23.690193045530805 0 0 0 0 81.26959224458551 -91.365235904856945 0 -91.365235904856945 -109.82870404158359 0 0 0 0 -211.15734196934068 -110.56890016438996 0 -110.56890016438996 52.440840612654938 0 0 0 0 83.719896486894868 -95.522578829381928 0 -95.522578829381928 -15.878035542282305 0 0 0 0 67.25361767486902 -165.82952350787878 0 -165.82952350787878 -10.565437100239251 0 0 0 0 -11.813529282162563 -110.5287716602495 0 -110.5287716602495 -25.909902996671917 0 0 0 0 -19.850191257661209 -133.39371042823359 0 -133.39371042823359 -10.884050102415131 0 0 0 0 149.89954528285307 -86.713497164930686 0 -86.713497164930686 -55.7696562566003 0 0 0 0 165.5856890383875 -106.6819687584059 0 -106.6819687584059 -30.552284489993326 0 0 0 0 309.50457511193235 -84.251079199624655 0 -84.251079199624655 -33.770176493639156 0 0 0 0 423.08003360572911 -21.133461155150144 0 -21.133461155150144 85.573590918799709 0 0 0 0 116.04029618535424 -148.27384807000954 0 -148.27384807000954 64.284814237468709 0 0 0 0 252.79513280975516 -86.595890483806443 0 -86.595890483806443 21.515419524499066 0 0 0 0 78.260436247327107 -43.771705784260639 0 -43.771705784260639 172.96602241148776 0 0 0 0 314.29910410597222 68.582746490007935 0 68.582746490007935 225.83553368720186 0 0 0 0 284.44052798689518 -161.69831716071303 0 -161.69831716071303 197.56432904017129 0 0 0 0 528.13436879764777 205.72362755418771 0 205.72362755418771 556.89744582386174 0 0 0 0 533.63338139890402 -189.08149809337147 0 -189.08149809337147 340.66296767861559 0 0 0 0 756.83446865967562 93.780751148405443 0 93.780751148405443 46.241839163473742 0 0 0 0 378.39805457170587 312.40898254220065 0 312.40898254220065 237.44774155688629 0 0 0 0 316.39684602680791 93.905293787664732 0 93.905293787664732 47.762717628169383 0 0 0 0 351.12237238944726 186.48155973989299 0 186.48155973989299 59.298399992946543 0 0 0 0 323.22673820727505 -116.44093159866452 0 -116.44093159866452 35.053019701001858 0 0 0 0 232.07442609399732 8.4649596151211881 0 8.4649596151211881 -41.4271027519992 0 0 0 0 427.01260966386326 46.767867950291816 0 46.767867950291816 -33.936451423216567 0 0 0 0 276.818986476188 48.51216430237605 0 48.51216430237605 -63.148743033473693 0 0 0 0 204.04868299248483 120.63239597581628 0 120.63239597581628 10.212142000488711 0 0 0 0 288.42613161406916 -31.117216093497518 0 -31.117216093497518 -75.438293839342805 0 0 0 0 102.22683458772372 88.18722249053917 0 88.18722249053917 1.6854879893551242 0 0 0 0 119.00321262691432 113.93208468392459 0 113.93208468392459 33.217367904435378 0 0 0 0 181.14474290341605 89.97440607050612 0 89.97440607050612 -28.752065353968533 0 0 0 0 176.27662165445508 105.52861949968292 0 105.52861949968292 23.305258638425585 0 0 0 0 177.15292030251294 134.59666644704384 0 134.59666644704384 39.837592844264236 0 0 0 0 64.979606064428481 109.41108939132262 0 109.41108939132262 116.75330552736796 0 0 0 0 102.37892041943269 147.09027826279316 0 147.09027826279316 178.66194534966053 0 0 0 0 111.28846444291412 110.81769698844664 0 110.81769698844664 104.95709197437441 0 0 0 0 14.882831587950932 74.943570011050952 0 74.943570011050952 178.08077047464553 0 0 0 0 6.3128809129266301 0.82365296202567606 0 0.82365296202567606 0.031648819009689078 0 0 0 0 5.8446877279431249 1.7714310803240991 0 1.7714310803240991 1.2617513547423527 0 0 0 0 45.235328702914558 15.904576340621816 0 15.904576340621816 -52.849977097149349 0 0 0 0 19.384340127318865 -53.976306134919696 0 -53.976306134919696 66.683928380479301 0 0 0 0 666.78453586726391 -157.79286292609322 0 -157.79286292609322 44.402907845965728 0 0 0 0 3.6536839873853921 1.8732843752469535 0 1.8732843752469535 0.78458071852031974 0 0 0 0 6.0131303469170234 115.46010398722638 0 115.46010398722638 302.27381919663043 0 0 0 0 121.96342404194729 39.476445897338181 0 39.476445897338181 -49.318928488804374 0 0 0 0 910.18589553200854 323.84883037494137 0 323.84883037494137 35.466090897154572 0 0 0 0 904.06821635115193 187.56169628707994 0 187.56169628707994 160.02949282842019 0 0 0 0 671.63250680232886 49.554925998329509 0 49.554925998329509 104.47992758983128 0 0 0 0 514.86073632689659 42.721936653594184 0 42.721936653594184 105.69619015712397 0 0 0 0 -0.477803762535018 0.15904393100235836 0 0.15904393100235836 0.94185943973181607 0 0 0 0 524.38920859053178 -79.147845105496913 0 -79.147845105496913 27.365356425708114 0 0 0 0 1.9921755586612022 1.8899010953536646 0 1.8899010953536646 -0.46909873529839718 0 0 0 0 759.75711586377656 -10.380816931895538 0 -10.380816931895538 -41.099236991818657 0 0 0 0 67.31885104795947 -58.688323264339431 0 -58.688323264339431 38.167797151274669 0 0 0 0 49.463202932078275 -17.89556502045879 0 -17.89556502045879 16.285879834601246 0 0 0 0 25.125192706051166 -16.694221162005164 0 -16.694221162005164 19.173777093661364 0 0 0 0 3.7572593973665107 1.7105800227752255 0 1.7105800227752255 0.49307597560695704 0 0 0 0 6.8110340743963036 -1.3518092893590676 0 -1.3518092893590676 0.065727479712907488 0 0 0 0 82.497112480326905 -219.08295383544166 0 -219.08295383544166 136.1549867087241 0 0 0 0 579.85189602192258 -320.27158777551847 0 -320.27158777551847 -368.22881920133977 0 0 0 0 23.765096405200893 -114.08118062964303 0 -114.08118062964303 -33.894411525351302 0 0 0 0 1.2940509940599441 -35.038401256778315 0 -35.038401256778315 -43.254579301263561 0 0 0 0 23.649846402542607 -38.409924744420806 0 -38.409924744420806 -127.52342544962698 0 0 0 0 90.220132268601446 38.044999147367207 0 38.044999147367207 -64.804913464296078 0 0 0 0 81.28821261250414 164.63386375812138 0 164.63386375812138 132.19511580278345 0 0 0 0 92.052342349692481 26.391446247695967 0 26.391446247695967 -50.078554206974331 0 0 0 0 82.174979904692009 -10.638780783533605 0 -10.638780783533605 -101.43145908098631 0 0 0 0 106.95260633320868 55.645464071737706 0 55.645464071737706 -48.706879457560717 0 0 0 0 134.60900459376717 44.303976680942242 0 44.303976680942242 -88.369629587489726 0 0 0 0 136.79091392370174 80.379094256982171 0 80.379094256982171 -29.300975639040161 0 0 0 0 103.97563902965339 88.951491581510709 0 88.951491581510709 1.6404340868172085 0 0 0 0 137.12198735140555 76.492467111592305 0 76.492467111592305 -45.358603850530017 0 0 0 0 197.2426779549096 -11.543904701763495 0 -11.543904701763495 -100.88569322074181 0 0 0 0 146.69482158105529 -47.793195665589337 0 -47.793195665589337 -74.203353686963851 0 0 0 0 180.99145761004183 50.538017295233203 0 50.538017295233203 -77.707771319294807 0 0 0 0 159.7221729009907 34.979640621694216 0 34.979640621694216 -59.795513228908305 0 0 0 0 111.38710416952381 23.511496867138703 0 23.511496867138703 -82.916903199825015 0 0 0 0 97.736590723419795 -19.367706472044802 0 -19.367706472044802 -94.921312036220115 0 0 0 0 64.290103548482875 2.1838131712729592 0 2.1838131712729592 -118.42056180006648 0 0 0 0 113.09368120508225 -10.214213255824916 0 -10.214213255824916 -167.00411583195091 0 0 0 0 72.28800661957203 -6.3550219601457592 0 -6.3550219601457592 -0.57975746218899893 0 0 0 0 45.886205368311494 -67.383969411692021 0 -67.383969411692021 -123.65869611926246 0 0 0 0 139.75343092974072 2.3461482094016901 0 2.3461482094016901 -121.84390352565515 0 0 0 0 58.703206498732641 -6.0927076082836216 0 -6.0927076082836216 -2.5766638205733603 0 0 0 0 80.879548907207209 -74.457725108425393 0 -74.457725108425393 -166.17075173440753 0 0 0 0 73.392693015572149 -20.418440551931781 0 -20.418440551931781 72.173466892527586 0 0 0 0 -153.96076280687703 -79.998935158524546 0 -79.998935158524546 474.47523847934099 0 0 0 0 13.142507907775212 2.9715227805167643 0 2.9715227805167643 -4.9557183322878231 0 0 0 0 27.342846197178005 -51.834530482787159 0 -51.834530482787159 -127.18618787058199 0 0 0 0 83.144091461239441 -70.556278993438809 0 -70.556278993438809 -95.678450565987077 0 0 0 0 125.56640926617547 -43.840211888470094 0 -43.840211888470094 -124.51588682610993 0 0 0 0 19.950247932531056 -101.46966116340536 0 -101.46966116340536 -72.854940316922523 0 0 0 0 90.319525172380963 -76.541305851426387 0 -76.541305851426387 -118.30521923799552 0 0 0 0 95.731675658942549 -114.78843128574954 0 -114.78843128574954 -57.208323106435813 0 0 0 0 77.799925730883842 -95.463228662073334 0 -95.463228662073334 -73.867929114186154 0 0 0 0 162.35792274544656 -59.502222518198096 0 -59.502222518198096 -98.289974492045076 0 0 0 0 -76.766224687802605 -106.90774500047951 0 -106.90774500047951 -16.922619844403926 0 0 0 0 29.995180155750859 -112.85194514237048 0 -112.85194514237048 -83.680200374262313 0 0 0 0 -19.307942426246882 -89.053068570474124 0 -89.053068570474124 -70.935436451130954 0 0 0 0 37.648220581861096 -137.77280076777015 0 -137.77280076777015 -34.759753798164638 0 0 0 0 -30.796800371870631 -47.519507613902988 0 -47.519507613902988 11.497872724479976 0 0 0 0 11.846862105710898 93.738929919408292 0 93.738929919408292 177.22942996833763 0 0 0 0 4.5904033532749793 -5.4997283349214996 0 -5.4997283349214996 0.78592416672119736 0 0 0 0 -6.7219108534864063 -105.66364815080652 0 -105.66364815080652 -84.61766702928935 0 0 0 0 26.44202762811463 -8.8911687940617199 0 -8.8911687940617199 2.7674524161927248 0 0 0 0 127.62171453866176 -96.040721840744482 0 -96.040721840744482 -153.32336563270837 0 0 0 0 36.258925797227846 -11.525784080378763 0 -11.525784080378763 -2.4979110436138914 0 0 0 0 10.449243677940103 -169.84506406887931 0 -169.84506406887931 16.396938762887658 0 0 0 0 25.313749303168152 -65.931456805872585 0 -65.931456805872585 -108.5347275599056 0 0 0 0 33.145104920346057 -55.81672763782899 0 -55.81672763782899 -116.55421701977002 0 0 0 0 30.091047491529025 -56.422737293888986 0 -56.422737293888986 -126.09049050576715 0 0 0 0 29.004150296139414 -47.239483873565632 0 -47.239483873565632 -104.15527819674617 0 0 0 0 31.102620908990502 -42.112612959148805 0 -42.112612959148805 -83.623690425879204 0 0 0 0 31.739477662922582 -34.24284148806305 0 -34.24284148806305 -110.08170898015828 0 0 0 0 14.752905434375862 -26.289468955453685 0 -26.289468955453685 -79.944691523910592 0 0 0 0 17.740036119474098 -43.951621288236765 0 -43.951621288236765 -100.13883354744075 0 0 0 0 27.468480933915998 -43.809854644328254 0 -43.809854644328254 -106.24414490445724 0 0 0 0 4.8857936929271091 -25.483372813714709 0 -25.483372813714709 -124.08567932095548 0 0 0 0 19.119812588091008 -35.64708999633649 0 -35.64708999633649 -130.64306484560052 0 0 0 0 30.52119083085563 -44.640432195890071 0 -44.640432195890071 -124.15219669281214 0 0 0 0 9.675541382690426 -33.560384634448837 0 -33.560384634448837 -112.02600717869655 0 0 0 0 91.105304081116628 35.330842059462952 0 35.330842059462952 -56.716299953306134 0 0 0 0 20.881174102745717 -76.999193471191347 0 -76.999193471191347 -133.1697652203917 0 0 0 0 8.9285302239004523 248.51918769071563 0 248.51918769071563 122.46631470825741 0 0 0 0 18.326564877036361 -5.6700604326084658 0 -5.6700604326084658 1.3096964100017037 0 0 0 0 -29.37248274940066 -64.207584574589532 0 -64.207584574589532 -91.573026950929489 0 0 0 0 -5.6864067964197602 -63.241331574960668 0 -63.241331574960668 -94.571176266557018 0 0 0 0 -29.976133090938674 -36.848420618232012 0 -36.848420618232012 -97.455940026522057 0 0 0 0 27.491173787981097 -33.516011315767884 0 -33.516011315767884 -78.311083043795406 0 0 0 0 12.204197394501534 -45.456194763581379 0 -45.456194763581379 -41.257732391251238 0 0 0 0 31.569968585274182 -25.127326759307323 0 -25.127326759307323 -58.798052865613244 0 0 0 0 9.8412733339646365 -33.874972337358997 0 -33.874972337358997 -28.87844859121526 0 0 0 0 27.737735905480804 -14.05655192604587 0 -14.05655192604587 -30.085330575950081 0 0 0 0 32.388819905158016 -26.133009638342344 0 -26.133009638342344 -80.629854049337609 0 0 0 0 21.902321764267981 -40.39319671325589 0 -40.39319671325589 -64.723403853355649 0 0 0 0 36.905310873058625 -41.503416965695919 0 -41.503416965695919 -23.854204361767586 0 0 0 0 34.217676187661709 -38.467527120837531 0 -38.467527120837531 -54.510367040139045 0 0 0 0 40.255457569524879 -30.335573579464324 0 -30.335573579464324 -72.87858593010742 0 0 0 0 27.77047347741609 -27.963847067945721 0 -27.963847067945721 -9.0968900845284679 0 0 0 0 43.70703646086622 -20.484831576008617 0 -20.484831576008617 -34.007267353489993 0 0 0 0 33.818798372827587 -14.161566093594331 0 -14.161566093594331 11.989576406840172 0 0 0 0 47.408069309894927 -49.801328373973774 0 -49.801328373973774 -24.150132408001127 0 0 0 0 43.697196872101927 9.7430924319387255 0 9.7430924319387255 -123.56516096557618 0 0 0 0 69.256503061838885 -36.724419836346328 0 -36.724419836346328 -114.40142131472544 0 0 0 0 44.069895508800982 -22.899773262866006 0 -22.899773262866006 -85.801796436179302 0 0 0 0 42.694515210925601 -27.760926806607358 0 -27.760926806607358 -94.179933420511134 0 0 0 0 41.860700201583313 -34.018735850706079 0 -34.018735850706079 -93.233062311945559 0 0 0 0 47.626671012490988 -29.027660142641935 0 -29.027660142641935 -94.832682409598078 0 0 0 0 49.197234925988596 -39.805025254336783 0 -39.805025254336783 -83.928965383684954 0 0 0 0 50.309221209397947 -35.213180409891379 0 -35.213180409891379 -93.834891668873297 0 0 0 0 35.858530489145778 -39.537147280231011 0 -39.537147280231011 -71.005390638497119 0 0 0 0 35.954280960759206 -33.420793414141485 0 -33.420793414141485 -93.060315736895518 0 0 0 0 28.91516651440179 -48.917128408952067 0 -48.917128408952067 -97.081540082932975 0 0 0 0 37.464071644411888 -33.87266674819989 0 -33.87266674819989 -88.556919563749943 0 0 0 0 28.994650945125613 -50.274334686343991 0 -50.274334686343991 -95.021610047859213 0 0 0 0 -22.173068073039758 -5.815728439967188 0 -5.815728439967188 118.12792208683913 0 0 0 0 145.59573308640392 353.60282197973083 0 353.60282197973083 -217.81982750845486 0 0 0 0 17.317294462089194 -63.365874346095552 0 -63.365874346095552 -101.13558195642872 0 0 0 0 1.646725317390036 0.36173209684640639 0 0.36173209684640639 -0.10916659312016952 0 0 0 0 -214.16358476153619 -204.14979318159965 0 -204.14979318159965 229.06981986136998 0 0 0 0 14.421254195214715 -47.383577818874301 0 -47.383577818874301 -84.957624128035491 0 0 0 0 28.184153666952625 -34.296730782715485 0 -34.296730782715485 -72.529642678905248 0 0 0 0 20.349048411713738 -88.180561110659255 0 -88.180561110659255 29.459530538451872 0 0 0 0 29.854208393997396 -91.619650025039846 0 -91.619650025039846 -54.456459159660881 0 0 0 0 -3.6329395816392207 23.398069307124047 0 23.398069307124047 21.892266402928726 0 0 0 0 27.100010173813956 -16.346121739327188 0 -16.346121739327188 -2.4417677076815849 0 0 0 0 33.388366599421715 -44.052994162213508 0 -44.052994162213508 13.374844458482585 0 0 0 0 132.97801475119559 188.7138537783419 0 188.7138537783419 -103.98558276865697 0 0 0 0 -1.4638141306789123 -16.844935796512161 0 -16.844935796512161 2.6704934064454502 0 0 0 0 33.048443175678926 -77.181858148633097 0 -77.181858148633097 67.68094884189486 0 0 0 0 -2.6051836922356131 -2.613742440084458 0 -2.613742440084458 3.3274590677846394 0 0 0 0 18.912225881998893 0.23004135824726291 0 0.23004135824726291 -59.859647785227253 0 0 0 0 317.0108885197551 -136.86094472189143 0 -136.86094472189143 -33.47612453777765 0 0 0 0 25.835681501548208 -12.992058008042278 0 -12.992058008042278 3.0009348232081123 0 0 0 0 -4.6145457730126509 29.308882043014364 0 29.308882043014364 -93.51947991346276 0 0 0 0 37.36551663375576 -45.769325959790535 0 -45.769325959790535 19.34468779992369 0 0 0 0 60.640337432952947 -112.19136530895662 0 -112.19136530895662 -36.072080413614344 0 0 0 0 1.4793444046444364 -3.0605267106151075 0 -3.0605267106151075 0.31218428915177121 0 0 0 0 116.14850864632172 -40.842363093309359 0 -40.842363093309359 7.1298202191123892 0 0 0 0 57.047090173822653 -53.098947218907597 0 -53.098947218907597 54.808569187675403 0 0 0 0 78.039627824473428 -29.569797185457446 0 -29.569797185457446 23.378374585534402 0 0 0 0 62.594687478354899 -41.845766493599058 0 -41.845766493599058 17.979992934057009 0 0 0 0 89.343251644182601 -46.450202762417121 0 -46.450202762417121 4.2479514167180241 0 0 0 0 73.076542826049263 -59.132560249823655 0 -59.132560249823655 -1.5552437725127675 0 0 0 0 64.620993700831605 -36.214061982173234 0 -36.214061982173234 15.44768788578267 0 0 0 0 118.56034312859992 -31.212576084294369 0 -31.212576084294369 15.665028995440935 0 0 0 0 156.09846759522225 -2.8934743902987634 0 -2.8934743902987634 20.239909817945318 0 0 0 0 62.749388792432001 -63.407615309855771 0 -63.407615309855771 19.468248001529901 0 0 0 0 139.28786032259814 -59.793554381812442 0 -59.793554381812442 -1.5272510536160553 0 0 0 0 228.23837174350774 58.374416987291767 0 58.374416987291767 25.71195094297218 0 0 0 0 211.62643458084494 -9.6710242144256995 0 -9.6710242144256995 -145.14559285036393 0 0 0 0 32.596702059308882 -47.275061159586386 0 -47.275061159586386 12.310500416549587 0 0 0 0 108.78556694612053 113.11535444315362 0 113.11535444315362 23.791261960276472 0 0 0 0 237.61001199135353 49.691285324502488 0 49.691285324502488 11.675225287997307 0 0 0 0 306.62479039752725 141.24077038740108 0 141.24077038740108 56.818250180205212 0 0 0 0 185.07058815797063 -6.7443117087421598 0 -6.7443117087421598 27.724617425003714 0 0 0 0 116.33089027077949 38.699626963719368 0 38.699626963719368 39.967402421206458 0 0 0 0 390.94776335301867 54.121125074311436 0 54.121125074311436 34.140062211142755 0 0 0 0 172.27135738516517 -63.96675169337432 0 -63.96675169337432 66.414712223810227 0 0 0 0 374.49101494055867 144.01841008864483 0 144.01841008864483 63.043323336061235 0 0 0 0 426.68899004825653 80.662040824727939 0 80.662040824727939 138.25751353316346 0 0 0 0 764.13072675702279 48.508179314646888 0 48.508179314646888 0.40778414161528287 0 0 0 0 356.43683754482481 203.75748311345021 0 203.75748311345021 29.646334790271169 0 0 0 0 1.3067784869408854 -0.073893428526162097 0 -0.073893428526162097 -0.00048794161063675512 0 0 0 0 0.97109299877774902 -40.162474634081462 0 -40.162474634081462 83.887149273285587 0 0 0 0 62.224861947150202 56.10027861185489 0 56.10027861185489 25.449979586337378 0 0 0 0 41.729987249651458 11.664867773788416 0 11.664867773788416 2.0889176159736138 0 0 0 0 37.633658742886837 37.236197942544379 0 37.236197942544379 61.508937729342847 0 0 0 0 2.0487916481865511 -0.33136969162391239 0 -0.33136969162391239 -0.046873776101047412 0 0 0 0 85.58803933656236 -35.824799714859424 0 -35.824799714859424 0.096738951498881079 0 0 0 0 30.768733809367404 7.4431597648616439 0 7.4431597648616439 -22.053756526443745 0 0 0 0 0.97768383847702012 -0.0043014580569575855 0 -0.0043014580569575855 -0.051711840523084321 0 0 0 0 -9.618706910918263 -20.535123245504479 0 -20.535123245504479 -0.041039348114336516 0 0 0 0 31.677131996468233 43.677828992837789 0 43.677828992837789 45.108010348862507 0 0 0 0 38.072732574233669 38.065165804635711 0 38.065165804635711 40.732107284572464 0 0 0 0 81.609872512548463 52.0220793832966 0 52.0220793832966 37.938698468539087 0 0 0 0 44.209789510590781 21.660303634952683 0 21.660303634952683 39.921484282323888 0 0 0 0 60.399282635480631 30.008450189292148 0 30.008450189292148 42.903812187346716 0 0 0 0 46.195693996312912 35.789090239781615 0 35.789090239781615 76.578608161121849 0 0 0 0 36.776791065523867 22.661196335125851 0 22.661196335125851 58.974965623071377 0 0 0 0 47.971919045245158 -24.201870200371744 0 -24.201870200371744 79.811710924706574 0 0 0 0 47.850814749879646 -8.720895970507371 0 -8.720895970507371 5.5710953466565343 0 0 0 0 28.439107746984519 -6.9727529669715551 0 -6.9727529669715551 47.537505463390801 0 0 0 0 43.531490697831032 -1.7896380822463982 0 -1.7896380822463982 -0.25446023878208734 0 0 0 0 30.282372515554016 -22.672650549309964 0 -22.672650549309964 8.6244245469865746 0 0 0 0 40.483335751785489 -19.49516717261659 0 -19.49516717261659 -25.161180250907591 0 0 0 0 39.989127608801937 -33.243555099005818 0 -33.243555099005818 -37.666585556115805 0 0 0 0 23.91600397957518 -27.576308328021909 0 -27.576308328021909 9.7544813982603955 0 0 0 0 49.847418405857752 -36.218878492084372 0 -36.218878492084372 12.092164351056503 0 0 0 0 60.035801352132694 -27.665797922604668 0 -27.665797922604668 19.252933483803417 0 0 0 0 54.864399233460972 -3.364629544786947 0 -3.364629544786947 20.995462547949387 0 0 0 0 52.602078486190294 -3.3326570504353867 0 -3.3326570504353867 23.130231317936065 0 0 0 0 79.47982808357483 -15.77822309845773 0 -15.77822309845773 10.434434393742009 0 0 0 0 103.38832267188991 3.9571855098126747 0 3.9571855098126747 23.321062540247127 0 0 0 0 223.48878368501391 -12.462338660263089 0 -12.462338660263089 1.599227518430439 0 0 0 0 126.32734425452509 100.90287151535161 0 100.90287151535161 73.579763188765156 0 0 0 0 113.77294261356292 -74.174411585107009 0 -74.174411585107009 0.31403598452888815 0 0 0 0 101.85210761309281 -36.701780571811526 0 -36.701780571811526 20.826975676069594 0 0 0 0 92.361668417201145 -53.038721038010692 0 -53.038721038010692 25.643636914202915 0 0 0 0 82.8889394263133 -56.664230095281134 0 -56.664230095281134 31.822437593688875 0 0 0 0 94.737428108179301 26.968067515046233 0 26.968067515046233 22.963742668097794 0 0 0 0 53.721841911072261 -55.998879781969947 0 -55.998879781969947 34.3843015933655 0 0 0 0 0.01418206345447004 -0.27003146332711481 0 -0.27003146332711481 -0.38292719047864288 0 0 0 0 53.541885754606483 -83.881766451738784 0 -83.881766451738784 20.975499627311969 0 0 0 0 -4.2755285873136017 6.0203058207884474 0 6.0203058207884474 -2.0944562821111554 0 0 0 0 -15.639240534059354 10.413513115747318 0 10.413513115747318 4.3627184693171124 0 0 0 0 0.38461325365739185 0.17239207225642872 0 0.17239207225642872 -0.0054967285395372753 0 0 0 0 73.176659388991538 -6.9610306794760266 0 -6.9610306794760266 -0.064609009514033255 0 0 0 0 -15.436877105297754 -3.96846852547392 0 -3.96846852547392 8.8660521581259957 0 0 0 0 38.782487293639861 11.036989773923921 0 11.036989773923921 27.036918548763865 0 0 0 0 80.153964279394131 -65.761733651600252 0 -65.761733651600252 23.863635058932459 0 0 0 0 0.21094669390662091 -0.51837654589263593 0 -0.51837654589263593 -1.8263027998550014 0 0 0 0 46.573789148205833 -46.830980219725276 0 -46.830980219725276 14.680788248911767 0 0 0 0 106.86901952084736 -72.577709811725882 0 -72.577709811725882 13.695310157767722 0 0 0 0 64.491758365202259 -62.985884618288345 0 -62.985884618288345 23.357279131178529 0 0 0 0 82.728064816517872 -54.813328865535851 0 -54.813328865535851 0.39601689278526919 0 0 0 0 22.149531344010029 -72.68417172496909 0 -72.68417172496909 4.0398784004887602 0 0 0 0 -1.4559864059136061 -1.0173275032437772 0 -1.0173275032437772 -2.7868543683406104 0 0 0 0 128.96728003627504 34.767948714791459 0 34.767948714791459 -257.20098423433802 0 0 0 0 154.54368775189687 -77.248742311386692 0 -77.248742311386692 -36.073651836832255 0 0 0 0 30.07205038228858 -4.5234920957607301 0 -4.5234920957607301 -24.655079257338684 0 0 0 0 34.383655593366711 11.00358071282858 0 11.00358071282858 -11.803103914714825 0 0 0 0 10.296455468848364 -3.1905285917716668 0 -3.1905285917716668 -8.2365725943115944 0 0 0 0 47.448470636882121 -9.5020473941750652 0 -9.5020473941750652 -6.840376098004981 0 0 0 0 19.13626200753788 -6.4619389343197327 0 -6.4619389343197327 -20.282511917973125 0 0 0 0 19.616103739324899 -5.1813407173024189 0 -5.1813407173024189 -17.084848357866122 0 0 0 0 22.541625975733041 -18.697820120960841 0 -18.697820120960841 -37.932402824541214 0 0 0 0 23.16229751976789 -15.899152268360467 0 -15.899152268360467 -62.411269533860604 0 0 0 0 8.4953126978944056 -36.446193263794612 0 -36.446193263794612 -54.90661764950562 0 0 0 0 17.306591771397507 -2.504361736302144 0 -2.504361736302144 -23.387604313455313 0 0 0 0 10.373323836452983 3.819113023083915 0 3.819113023083915 -39.030249147885115 0 0 0 0 25.87437434491585 0.98022241571379709 0 0.98022241571379709 -38.935713554144513 0 0 0 0 16.04348717859466 8.3643364031929082 0 8.3643364031929082 1.7667583057118463 0 0 0 0 12.962936447191169 1.6172352085977764 0 1.6172352085977764 9.5863531590111961 0 0 0 0 39.578449275926687 14.729275023610398 0 14.729275023610398 -0.23537298746850865 0 0 0 0 15.243837175527005 -2.7979775854682885 0 -2.7979775854682885 17.71652553998274 0 0 0 0 12.372553477733163 25.999857808827983 0 25.999857808827983 13.083110486623809 0 0 0 0 -0.45459197548740349 -0.042786216586776504 0 -0.042786216586776504 1.3117327435036028 0 0 0 0 9.9436461949869539 0.83096639797011562 0 0.83096639797011562 -0.62543510192391238 0 0 0 0 35.714834966620401 11.798225249040001 0 11.798225249040001 7.144765286016991 0 0 0 0 15.572789025205736 -4.2334999370624047 0 -4.2334999370624047 -1.6068222714637521 0 0 0 0 237.1809687822315 54.75375500899122 0 54.75375500899122 -20.347793093742894 0 0 0 0 11.746034440339088 -5.4398396679860781 0 -5.4398396679860781 -5.7941246531241557 0 0 0 0 13.226352257370309 -26.133775769939916 0 -26.133775769939916 9.5395406480834026 0 0 0 0 272.83151369619736 85.279971083816918 0 85.279971083816918 -22.346153007959401 0 0 0 0 224.45682668189693 30.295686553309338 0 30.295686553309338 154.37266384105715 0 0 0 0 440.14041060291129 158.75586638436573 0 158.75586638436573 -21.187824910688505 0 0 0 0 332.97849288166617 242.96334232857043 0 242.96334232857043 35.849231967949748 0 0 0 0 280.98416505364003 180.67717073412371 0 180.67717073412371 -8.117090206901139 0 0 0 0 362.14592666013777 203.40133393720851 0 203.40133393720851 -1.8825675007859104 0 0 0 0 230.28885760028788 149.80595265157422 0 149.80595265157422 -14.01220853187175 0 0 0 0 326.51098821949881 190.73503153907708 0 190.73503153907708 -10.499527777269122 0 0 0 0 114.32061165430059 -30.027216794958122 0 -30.027216794958122 18.055504394724267 0 0 0 0 166.1436494221125 -14.464800280760301 0 -14.464800280760301 -10.563158273121644 0 0 0 0 255.24673339774017 180.40088560339473 0 180.40088560339473 81.311874991190564 0 0 0 0 133.38547629061941 73.726454520338052 0 73.726454520338052 27.175179610403575 0 0 0 0 370.70334972584533 94.260227312481334 0 94.260227312481334 -1.291074728363526 0 0 0 0 251.37223172102949 60.4211761755884 0 60.4211761755884 47.517426028605996 0 0 0 0 269.6155342944985 -7.2794800275132729 0 -7.2794800275132729 -43.808035548063572 0 0 0 0 385.02609064157878 117.16920492515578 0 117.16920492515578 18.37874750241204 0 0 0 0 463.43077545483538 330.43608369068437 0 330.43608369068437 238.88756533384597 0 0 0 0 451.99448684222443 -7.0271061248035949 0 -7.0271061248035949 243.56937399871077 0 0 0 0 303.8802005459147 184.53855156532154 0 184.53855156532154 142.54056547232571 0 0 0 0 306.94264699891937 15.396987795785947 0 15.396987795785947 38.06165468857148 0 0 0 0 137.0645876427152 175.98057008937144 0 175.98057008937144 121.98760497030889 0 0 0 0 599.55714357183024 266.42649151710572 0 266.42649151710572 5.697505579778209 0 0 0 0 328.34110459157091 210.98985144403127 0 210.98985144403127 5.6754295673358683 0 0 0 0 124.62337686112733 227.97704017596237 0 227.97704017596237 317.44218716861167 0 0 0 0 4.6592879090117663 1.5882605489970913 0 1.5882605489970913 -0.23071539913368366 0 0 0 0 10.315347222901977 -0.17319749919040817 0 -0.17319749919040817 -12.247493045497393 0 0 0 0 59.836126229929505 13.536774340401848 0 13.536774340401848 26.210037291516585 0 0 0 0 14.474793058150681 -9.3293457549764511 0 -9.3293457549764511 -4.363076481621988 0 0 0 0 9.6829967522506593 -3.8050349874742579 0 -3.8050349874742579 -8.4782660929856757 0 0 0 0 263.2959516843257 -95.054522268690619 0 -95.054522268690619 17.885504974496538 0 0 0 0 532.01391106047959 -41.042388465939979 0 -41.042388465939979 -11.146783974546167 0 0 0 0 8.3493027687060248 -4.2528902583457864 0 -4.2528902583457864 -0.56643519991189439 0 0 0 0 9.4191971469772398 -3.1827224037323258 0 -3.1827224037323258 -2.1100082387982404 0 0 0 0 14.532111016094859 -8.9188992869385579 0 -8.9188992869385579 -2.1941669665839854 0 0 0 0 464.67676603017753 229.59858270496301 0 229.59858270496301 45.978527949809873 0 0 0 0 379.52616016899265 189.80901890498171 0 189.80901890498171 34.061657075507497 0 0 0 0 287.89746280324471 174.1290312052584 0 174.1290312052584 33.770541767993507 0 0 0 0 653.51757070475651 226.54195803241703 0 226.54195803241703 8.8048589034574434 0 0 0 0 469.72175140645413 215.00164765873677 0 215.00164765873677 47.22945699803784 0 0 0 0 431.87573970135418 251.05139613742159 0 251.05139613742159 42.42478841207501 0 0 0 0 391.47518565938663 114.74787252715154 0 114.74787252715154 30.389710529742729 0 0 0 0 498.8595803358221 287.06277330590166 0 287.06277330590166 195.32031513224976 0 0 0 0 618.97456054668874 93.638463119629421 0 93.638463119629421 57.364869513264154 0 0 0 0 5.2344769272365568 -2.7301668499454905 0 -2.7301668499454905 -0.20795952609061474 0 0 0 0 0.17693463764589978 -4.9013569584878853 0 -4.9013569584878853 -0.0024304102482737922 0 0 0 0 852.7500321221014 445.20453866614071 0 445.20453866614071 156.41004815531755 0 0 0 0 2.7704212681943829 -0.58435101823390312 0 -0.58435101823390312 -0.37923162940996652 0 0 0 0 10.390681103443058 -6.3106187358503112 0 -6.3106187358503112 7.1314216345619599 0 0 0 0 19.897337560818414 -3.1212537765154273 0 -3.1212537765154273 -0.90784142441126292 0 0 0 0 4.1929499004545505 -7.0010200251073718 0 -7.0010200251073718 -0.93122639345427149 0 0 0 0 4.6274076091867755 -1.9216539247501576 0 -1.9216539247501576 -0.70633333113589047 0 0 0 0 9.6341441812546691 -5.4172819126456693 0 -5.4172819126456693 0.00063689810904342566 0 0 0 0 12.136416876433941 -4.1676035486180698 0 -4.1676035486180698 -1.0350034420297565 0 0 0 0 13.641816627496155 -6.0564803106502634 0 -6.0564803106502634 -0.010210330658553275 0 0 0 0 7.0643036104738712 -7.6179048768547242 0 -7.6179048768547242 0.91805570508695666 0 0 0 0 6.5698971687979792 -3.5063994667541767 0 -3.5063994667541767 -2.8346953202363157 0 0 0 0 4.7586673235746275 -10.417133917886062 0 -10.417133917886062 1.5208396843926018 0 0 0 0 18.578398937548627 -11.551230281342626 0 -11.551230281342626 0.94152034338585722 0 0 0 0 15.626945033232914 -12.486115052876674 0 -12.486115052876674 0.10975230320880414 0 0 0 0 5.4002811710379319 -7.0829350391515966 0 -7.0829350391515966 10.150145959770899 0 0 0 0 20.226743729785085 3.0719079434127039 0 3.0719079434127039 -7.2319852968145213 0 0 0 0 8.3608918152524438 -3.4690832794119899 0 -3.4690832794119899 -4.5565866302404778 0 0 0 0 1.8408182553408778 0.48690273273345497 0 0.48690273273345497 -1.8589011919749638 0 0 0 0 5.9444176622782834 -9.350365317229695 0 -9.350365317229695 7.5172818628643601 0 0 0 0 8.4455628416172317 -8.8412364154714282 0 -8.8412364154714282 5.3247634598549087 0 0 0 0 0.89249816031596652 -1.2461730535492279 0 -1.2461730535492279 0.93827398448995525 0 0 0 0 6.5651761502958834 -11.472349496346162 0 -11.472349496346162 7.5538395944869245 0 0 0 0 15.371085067752574 -20.638862159473319 0 -20.638862159473319 7.426016852929024 0 0 0 0 13.3444508419052 -13.231524998832811 0 -13.231524998832811 -14.570401192155259 0 0 0 0 24.306632351599546 -11.925952130339397 0 -11.925952130339397 -15.03723528552382 0 0 0 0 1.4225298593737534 -3.7290427110380726 0 -3.7290427110380726 2.5001874739176131 0 0 0 0 11.158237284020288 -2.3504506710746682 0 -2.3504506710746682 -17.235559433230605 0 0 0 0 15.518177421214205 -8.644038350149458 0 -8.644038350149458 -8.6864029665575799 0 0 0 0 -10.822681036899667 -34.446074235129942 0 -34.446074235129942 15.742269337519474 0 0 0 0 -4.3478394848208666 -3.6339177121305468 0 -3.6339177121305468 1.8002005514288633 0 0 0 0 13.06476024193384 -8.6028421890037805 0 -8.6028421890037805 4.867077213062724 0 0 0 0 5.9614508130034665 -11.779104382900641 0 -11.779104382900641 -34.583715330593805 0 0 0 0 4.1775255650209147 -6.2429215829372886 0 -6.2429215829372886 4.5524184271115331 0 0 0 0 9.1415904690948082 -9.5062315661077434 0 -9.5062315661077434 4.1104260139553022 0 0 0 0 -4.8490189191215904 -6.4134508682575238 0 -6.4134508682575238 6.9889683338691206 0 0 0 0 2.438931247103028 -6.9178199570929877 0 -6.9178199570929877 5.3157477004657139 0 0 0 0 -4.6026071594023961 -18.872272824651525 0 -18.872272824651525 -5.441641245723261 0 0 0 0 -1.2406780115343281 -10.166641754136659 0 -10.166641754136659 17.049264749211261 0 0 0 0 -0.18133156786169025 0.056366959066764366 0 0.056366959066764366 -0.047171887707490839 0 0 0 0 4.8041548556211637 -8.2791671403742164 0 -8.2791671403742164 -17.377803210182414 0 0 0 0 -10.642361988975608 -15.798049908152004 0 -15.798049908152004 -0.0043780915942214747 0 0 0 0 -10.61211371767422 -16.926966513478781 0 -16.926966513478781 -10.529967287142661 0 0 0 0 -10.52177506883163 -21.313238373689675 0 -21.313238373689675 -0.0067960903523577865 0 0 0 0 -10.527727922402846 -33.489827619799428 0 -33.489827619799428 -27.052631606452131 0 0 0 0 -7.6904218347190181 -26.107613828485466 0 -26.107613828485466 -8.7749506123392109 0 0 0 0 -3.5634159275941784 -13.267858112253272 0 -13.267858112253272 -24.883300961961169 0 0 0 0 -3.6408864039549371 -19.072140943227502 0 -19.072140943227502 -19.023758138144274 0 0 0 0 -3.150484328973107 -17.069342620410502 0 -17.069342620410502 -11.044892106342711 0 0 0 0 -4.9530094832516625 -12.473721800205816 0 -12.473721800205816 -10.535619455463717 0 0 0 0 -2.4278111524836277 -50.083527777158174 0 -50.083527777158174 -46.057043154795807 0 0 0 0 -15.164980165027373 -39.193756456902364 0 -39.193756456902364 -0.041891152029134134 0 0 0 0 -10.730411351061775 -18.387894303773223 0 -18.387894303773223 -42.95388653573621 0 0 0 0 35.721822333616728 -9.3689361777828282 0 -9.3689361777828282 -165.91022244635658 0 0 0 0 112.7187228146322 -97.315201660156859 0 -97.315201660156859 88.520488084823256 0 0 0 0 0.076013603778847028 -20.881453048141172 0 -20.881453048141172 -58.916512099928909 0 0 0 0 -1.3932252223808632 -1.0067720708886725 0 -1.0067720708886725 -0.31937013653186785 0 0 0 0 20.074808584518905 0.15753032481731566 0 0.15753032481731566 35.125125202757545 0 0 0 0 23.477159642774495 4.5004828345669239 0 4.5004828345669239 30.275414868765665 0 0 0 0 3.9732232348906109 -5.2139591407218404 0 -5.2139591407218404 56.056543135458924 0 0 0 0 58.367058281393838 -42.149052049886791 0 -42.149052049886791 58.941237026049592 0 0 0 0 -3.4005965659821413 -1.2188630753920968 0 -1.2188630753920968 -0.68060509997193175 0 0 0 0 -6.0223131862258015 -11.175906377804084 0 -11.175906377804084 -11.721352295393757 0 0 0 0 -16.318407103644859 1.9177785035213901 0 1.9177785035213901 48.968686866516578 0 0 0 0 -17.841623444182915 -19.905571037458913 0 -19.905571037458913 43.169732113663514 0 0 0 0 -4.1394403169824727 -0.73038265447567596 0 -0.73038265447567596 9.7869919120913664 0 0 0 0 -34.691341115576506 -59.587262393024218 0 -59.587262393024218 -10.403054975027885 0 0 0 0 110.25658662829665 -33.348028272625925 0 -33.348028272625925 -108.88032361001841 0 0 0 0 -2.2465842495084871 -98.840213754795414 0 -98.840213754795414 -109.32355416594237 0 0 0 0 12.161677330983764 -7.8608802363154524 0 -7.8608802363154524 4.720408025543076 0 0 0 0 -15.835667184217527 -3.4717869932278234 0 -3.4717869932278234 -29.426790758776406 0 0 0 0 2.0211305047705537 -46.214010234661828 0 -46.214010234661828 50.514788705960598 0 0 0 0 140.15365395166009 0.50195463907391513 0 0.50195463907391513 50.021847221697271 0 0 0 0 163.15847208323248 -67.834625018401255 0 -67.834625018401255 41.474024109325228 0 0 0 0 79.05340899714065 6.8375797783349981 0 6.8375797783349981 3.7212640859886505 0 0 0 0 -15.183932278356224 -56.760823189538314 0 -56.760823189538314 22.662613219760487 0 0 0 0 14.351463227896602 -105.82773374836461 0 -105.82773374836461 -60.148966407250953 0 0 0 0 9.4294435322430843 -6.351433196232378 0 -6.351433196232378 3.7392092625799744 0 0 0 0 357.14431521071674 -33.11606847679127 0 -33.11606847679127 -75.024158063137293 0 0 0 0 196.53262386382266 17.144106755583607 0 17.144106755583607 -72.323116511840908 0 0 0 0 3.8743303017885751 -2.5382408495568001 0 -2.5382408495568001 1.5134341866421614 0 0 0 0 -43.406914880306431 -201.32140735570806 0 -201.32140735570806 146.4449975460725 0 0 0 0 89.548627142707119 -364.29110832160131 0 -364.29110832160131 133.01070621622216 0 0 0 0 22.461859847662708 1.8666363853715211 0 1.8666363853715211 -108.49261114762612 0 0 0 0 -97.344971989678015 -95.081693413285166 0 -95.081693413285166 35.108287298413416 0 0 0 0 48.72827891279303 55.376558492917866 0 55.376558492917866 -24.392071963470244 0 0 0 0 28.86835822314606 -27.531928950719248 0 -27.531928950719248 -51.764600724605316 0 0 0 0 115.35766972244892 -11.738014955064045 0 -11.738014955064045 -14.533207923199598 0 0 0 0 49.306499479753256 52.482439082682276 0 52.482439082682276 -19.042262992723408 0 0 0 0 26.024066711630439 21.827328370923169 0 21.827328370923169 -17.792094168539336 0 0 0 0 83.113947166955768 40.973745869909408 0 40.973745869909408 -58.29483159047777 0 0 0 0 -50.337879771708685 -11.885959338829707 0 -11.885959338829707 5.7954138356799376 0 0 0 0 -35.3695660346566 -127.54817539159171 0 -127.54817539159171 -147.78499230867965 0 0 0 0 245.40300106920768 -107.18985849603837 0 -107.18985849603837 14.727481467928556 0 0 0 0 141.63427324985969 -236.43956826384442 0 -236.43956826384442 -98.708387890556878 0 0 0 0 209.58032331531285 32.515142124321869 0 32.515142124321869 18.128290170924373 0 0 0 0 1.4014033608491161 0.12752248110926701 0 0.12752248110926701 -0.9654806523749988 0 0 0 0 -84.718873566176626 -31.078689196189544 0 -31.078689196189544 -117.61111024814772 0 0 0 0 1.7407330223795725 4.8455917221399432 0 4.8455917221399432 -14.081797450001886 0 0 0 0 44.656828375605983 43.028985943637053 0 43.028985943637053 19.869389802297974 0 0 0 0 166.68072356142511 -7.8204723252556505 0 -7.8204723252556505 -35.976597239557123 0 0 0 0 317.81399937528477 -103.91790237905661 0 -103.91790237905661 -6.0665779867831588 0 0 0 0 187.98044474172639 -56.577881650984864 0 -56.577881650984864 -20.482414319719737 0 0 0 0 179.25631465078914 -85.825459898340796 0 -85.825459898340796 74.499259253330365 0 0 0 0 137.11678449876126 -64.43867845829169 0 -64.43867845829169 37.886894853476406 0 0 0 0 -0.12698412937288595 -2.0537133946122168 0 -2.0537133946122168 1.3626255984065523 0 0 0 0 338.03711834316346 -148.00762346178783 0 -148.00762346178783 14.771611744013171 0 0 0 0 174.71863546752138 -121.7276057482668 0 -121.7276057482668 475.88093289691096 0 0 0 0 128.82487657629099 -64.461495977342906 0 -64.461495977342906 43.494797435628982 0 0 0 0 224.84483511577128 -96.291163168772982 0 -96.291163168772982 11.635070594886656 0 0 0 0 228.37377998043667 -75.266934806943709 0 -75.266934806943709 32.939232727729177 0 0 0 0 175.90021014324157 -84.519666390409384 0 -84.519666390409384 -12.393369406930901 0 0 0 0 162.16415514574328 -113.00907658615506 0 -113.00907658615506 49.422455918092055 0 0 0 0 -0.16412651902001585 -2.1257455971000496 0 -2.1257455971000496 0.66503363348383449 0 0 0 0 388.41341459244723 -91.933974262158358 0 -91.933974262158358 -49.024822173662869 0 0 0 0 440.22563345568051 -71.200259089074052 0 -71.200259089074052 -12.749746156152298 0 0 0 0 198.06727025537839 -20.015583064910061 0 -20.015583064910061 47.787226652127856 0 0 0 0 -46.568176863511326 -106.17832048807259 0 -106.17832048807259 14.260908510969273 0 0 0 0 133.14404017067864 -87.931470407672577 0 -87.931470407672577 -9.9100280837885748 0 0 0 0 0.009501945559975411 -1.0513152980220895 0 -1.0513152980220895 0.13983525572315791 0 0 0 0 128.96318967346269 -143.83618750752331 0 -143.83618750752331 -8.658134183456923 0 0 0 0 216.8680869586824 -157.53075726099473 0 -157.53075726099473 -24.109356129049957 0 0 0 0 166.92378623981494 -108.09381948886892 0 -108.09381948886892 -72.939927326105135 0 0 0 0 178.96069339763562 -206.75147910248234 0 -206.75147910248234 46.923303055894621 0 0 0 0 1.0784477128309788 0.44228679771440227 0 0.44228679771440227 0.2289808345627331 0 0 0 0 -28.903856501347036 2.1784802801562364 0 2.1784802801562364 -138.77005937974968 0 0 0 0 152.23435463739952 -155.85283128601645 0 -155.85283128601645 26.989217830029929 0 0 0 0 178.52237295356463 -143.27597418130824 0 -143.27597418130824 -34.154468227951838 0 0 0 0 189.9929311036758 -167.60897721603308 0 -167.60897721603308 13.004274028882321 0 0 0 0 146.79982657110668 -126.06047231808407 0 -126.06047231808407 -26.608702170584309 0 0 0 0 132.85157747727499 -166.66026478304232 0 -166.66026478304232 -10.1007894775056 0 0 0 0 158.4726125170273 -128.06728630381286 0 -128.06728630381286 -12.390088251780412 0 0 0 0 154.07092428961187 -102.9360749843958 0 -102.9360749843958 45.090771151491609 0 0 0 0 228.0158413076133 -132.57416915569308 0 -132.57416915569308 38.155100294803219 0 0 0 0 134.49203453049995 -131.54419182589413 0 -131.54419182589413 5.1033046974376077 0 0 0 0 145.41198625246761 -138.7476082284787 0 -138.7476082284787 -17.196426965119826 0 0 0 0 121.31165894569858 -145.3969749602137 0 -145.3969749602137 -3.696636396686074 0 0 0 0 -0.25203742804575313 -0.27262902722828741 0 -0.27262902722828741 -0.1275703527351541 0 0 0 0 100.86861039235373 -123.11782792950081 0 -123.11782792950081 38.281676448741592 0 0 0 0 80.813996869102994 -81.805437295210893 0 -81.805437295210893 -76.454737283164008 0 0 0 0 86.777630867583866 -56.822644513039862 0 -56.822644513039862 27.944102226089512 0 0 0 0 2.6574529590361635 -65.394012776461452 0 -65.394012776461452 0.031591540132652106 0 0 0 0 211.09248488135927 -148.49902355940387 0 -148.49902355940387 81.303287335884761 0 0 0 0 154.15747165948778 -90.658193723398327 0 -90.658193723398327 -0.056865824716626823 0 0 0 0 205.3377634439239 -4.2204113078292513 0 -4.2204113078292513 113.96623878403298 0 0 0 0 321.35176150445477 -15.343476953287929 0 -15.343476953287929 0.33076232775087588 0 0 0 0 373.51021172399487 -129.62780996048897 0 -129.62780996048897 224.82878952562857 0 0 0 0 443.15266822004196 192.61109482071328 0 192.61109482071328 305.09966422975418 0 0 0 0 663.21010428418958 166.19014332466983 0 166.19014332466983 -0.32020828571507881 0 0 0 0 293.5563295951797 -113.63157523055833 0 -113.63157523055833 -116.28278984007879 0 0 0 0 -1.9045010536829068 83.416192885069776 0 83.416192885069776 0.25057554205933041 0 0 0 0 233.34885304197087 369.70467168474909 0 369.70467168474909 533.6226844049761 0 0 0 0 5.917635297420901 1.3050361784426929 0 1.3050361784426929 0.19892589543894323 0 0 0 0 600.77566155243403 274.54863835743402 0 274.54863835743402 127.20539340520628 0 0 0 0 59.369222380071733 122.44958133239228 0 122.44958133239228 184.43653758766553 0 0 0 0 299.66679823288359 210.03765594235776 0 210.03765594235776 145.89954431757209 0 0 0 0 64.631037984341674 125.5081606578832 0 125.5081606578832 90.086066560443925 0 0 0 0 247.59481768990372 302.65456724337309 0 302.65456724337309 -9.1899350731285949 0 0 0 0 223.78793568560286 -94.191131376547219 0 -94.191131376547219 -83.482715826019103 0 0 0 0 206.34063494805741 -113.58549928900281 0 -113.58549928900281 -24.786245463197702 0 0 0 0 139.73348367740982 -112.05941928374315 0 -112.05941928374315 75.766799288885466 0 0 0 0 298.30343206823818 -23.209080354474423 0 -23.209080354474423 74.432374977735662 0 0 0 0 68.291670936305309 -17.495931467532387 0 -17.495931467532387 -0.045480798028911286 0 0 0 0 88.907653033937095 -6.7282980957451102 0 -6.7282980957451102 -21.314588481887284 0 0 0 0 45.644119449774735 -8.7120630866267366 0 -8.7120630866267366 1.9896277650544718 0 0 0 0 42.165998864005815 5.2767813709739819 0 5.2767813709739819 -12.649200642451159 0 0 0 0 -0.2523473303005801 -1.5551833837621007 0 -1.5551833837621007 -0.19718311502034344 0 0 0 0 1.5761228168788222 0.63249459600696412 0 0.63249459600696412 -0.2530844403109998 0 0 0 0 7.0214010960262385 -12.786544702773163 0 -12.786544702773163 0.018266485171846415 0 0 0 0 -35.552494769508485 46.678730755164608 0 46.678730755164608 -37.650154281502722 0 0 0 0 15.092609406458195 0.54040303646575261 0 0.54040303646575261 -1.0048750225935157 0 0 0 0 131.32515358188539 94.940987753296469 0 94.940987753296469 88.826376512180303 0 0 0 0 132.50965792280476 143.73767026228529 0 143.73767026228529 158.85977384967214 0 0 0 0 159.16375819915265 131.78856690891854 0 131.78856690891854 83.462135757276329 0 0 0 0 53.555754738030373 37.949767134027852 0 37.949767134027852 102.93244946264252 0 0 0 0 11.427661144520911 -7.9136948911377658 0 -7.9136948911377658 -1.8059764359692645 0 0 0 0 68.105862721022277 36.750037495122399 0 36.750037495122399 -20.654165972190555 0 0 0 0 13.231453395528661 -21.989011680750913 0 -21.989011680750913 9.9997426578700548 0 0 0 0 -31.260191392502747 28.563165844520881 0 28.563165844520881 142.1287587194372 0 0 0 0 10.708317389912025 -10.78475676745694 0 -10.78475676745694 0.62534622281894126 0 0 0 0 144.56744634715506 117.70544234114283 0 117.70544234114283 74.659605357526402 0 0 0 0 197.36402590617945 -47.463792025314405 0 -47.463792025314405 -2.8480462689761765 0 0 0 0 1.1930429557590685 0.7560431631710145 0 0.7560431631710145 0.45445739632483662 0 0 0 0 185.61997360800615 -139.69679979885026 0 -139.69679979885026 68.532758742882379 0 0 0 0 93.226655330996437 -55.734845351908916 0 -55.734845351908916 57.612410897402555 0 0 0 0 116.47044864312193 -33.629021746242152 0 -33.629021746242152 0.6934141815274586 0 0 0 0 290.85748900392764 -5.6742841027177917 0 -5.6742841027177917 11.569341444878319 0 0 0 0 14.256071200106746 -10.23949350965384 0 -10.23949350965384 2.6265113160799136 0 0 0 0 133.15124577238748 -31.275519508882041 0 -31.275519508882041 -83.423191524160302 0 0 0 0 214.86620510468492 159.32270965952478 0 159.32270965952478 70.088347497975178 0 0 0 0 273.82622755731427 221.1149520012973 0 221.1149520012973 124.22268978973216 0 0 0 0 149.56304269138764 142.79308686979704 0 142.79308686979704 55.300224124939177 0 0 0 0 152.19908147408569 180.72920709743198 0 180.72920709743198 128.86514430769125 0 0 0 0 202.06272992875165 200.07914040967421 0 200.07914040967421 116.85471889099665 0 0 0 0 120.38320332537114 109.59880097855535 0 109.59880097855535 94.731457518517573 0 0 0 0 165.96383983933629 57.424222172619011 0 57.424222172619011 -25.72713216018883 0 0 0 0 76.842081138616777 1.8701271252548395 0 1.8701271252548395 -25.298364706047778 0 0 0 0 102.76832262497192 -29.176646499933668 0 -29.176646499933668 -155.98054109310033 0 0 0 0 39.900272143670009 -6.9975757899874225 0 -6.9975757899874225 -44.360566562321651 0 0 0 0 115.31803996507006 55.563406364655634 0 55.563406364655634 -25.54132952513919 0 0 0 0 94.275014858751092 33.820841404275143 0 33.820841404275143 -124.18279266885474 0 0 0 0 155.51486191531876 36.973607589931362 0 36.973607589931362 -9.7466574632026095 0 0 0 0 53.313816981368291 57.720575428242455 0 57.720575428242455 -11.516747334055253 0 0 0 0 99.168693048784917 49.382263529722195 0 49.382263529722195 -0.66257043146197248 0 0 0 0 102.2022888566903 107.9962260473371 0 107.9962260473371 110.49564279430751 0 0 0 0 147.86481274830294 103.90558245799389 0 103.90558245799389 88.159103917230027 0 0 0 0 172.68347005036776 173.32107214279881 0 173.32107214279881 145.94703634114012 0 0 0 0 228.78282765309268 89.102565786724654 0 89.102565786724654 266.04993772092439 0 0 0 0 331.2122668223019 38.622708515606064 0 38.622708515606064 110.51022769103338 0 0 0 0 148.00950914219675 125.30254022615475 0 125.30254022615475 71.389928714739654 0 0 0 0 135.79209958600404 13.349258860516329 0 13.349258860516329 -103.32634693539421 0 0 0 0 117.32571310427738 99.696055863206311 0 99.696055863206311 -54.646416647056412 0 0 0 0 223.79853433613607 42.707364519136263 0 42.707364519136263 -24.428613656862581 0 0 0 0 245.11258228116276 149.86765465692588 0 149.86765465692588 56.012289099491682 0 0 0 0 304.45202826052264 138.39871932763299 0 138.39871932763299 53.045142956294512 0 0 0 0 256.64207512898429 58.188378335923971 0 58.188378335923971 -60.111955538480288 0 0 0 0 271.90875916026562 139.57889877797646 0 139.57889877797646 131.14580955891415 0 0 0 0 286.57615675390662 210.9827667346658 0 210.9827667346658 166.59877090361897 0 0 0 0 193.04810826522589 192.13158385637405 0 192.13158385637405 203.16257465529952 0 0 0 0 225.93938962293032 165.3236957931756 0 165.3236957931756 132.04993818894673 0 0 0 0 550.75333248570678 169.4165754014025 0 169.4165754014025 115.30814571638984 0 0 0 0 258.57247486351844 302.18523560890981 0 302.18523560890981 387.13322237527109 0 0 0 0 2.0882713515272826 -2.7970271495948147 0 -2.7970271495948147 3.2357205837604446 0 0 0 0 30.598698694026098 22.094632831552303 0 22.094632831552303 -71.662324711773408 0 0 0 0 0.17813559439673554 31.439897758132645 0 31.439897758132645 -123.11870010298071 0 0 0 0 80.083136611625378 -89.997848685918143 0 -89.997848685918143 -13.453334236803585 0 0 0 0 2.807222386115285 1.1864193078479417 0 1.1864193078479417 0.27731392988019721 0 0 0 0 139.41539071386978 32.528882376730849 0 32.528882376730849 -190.74957692757471 0 0 0 0 1.324381150014176 1.0750683870846842 0 1.0750683870846842 0.56032927480346917 0 0 0 0 218.95125129476946 -80.799805683547334 0 -80.799805683547334 -39.267170664195078 0 0 0 0 324.27628584605918 109.37212429875507 0 109.37212429875507 -21.610836802723043 0 0 0 0 125.9128774584824 12.504246257902423 0 12.504246257902423 -35.05598394434125 0 0 0 0 26.673033740044048 -6.5363740981650835 0 -6.5363740981650835 4.0289441958536827 0 0 0 0 120.54676069670404 -35.555765565277142 0 -35.555765565277142 -86.02148316409648 0 0 0 0 129.72200274873467 14.248494698584864 0 14.248494698584864 -47.210001325413032 0 0 0 0 94.644838301210257 14.528603135277081 0 14.528603135277081 -78.634425880116396 0 0 0 0 86.327373192485538 -31.947206928788262 0 -31.947206928788262 -83.030299932729577 0 0 0 0 83.364981004902802 -31.822856707184201 0 -31.822856707184201 -74.913236621545366 0 0 0 0 102.79277954684221 -28.920733588145595 0 -28.920733588145595 -112.62431294652046 0 0 0 0 62.007475616290321 4.7641144615051871 0 4.7641144615051871 -46.353070717533228 0 0 0 0 25.061180170283478 -43.151174488835068 0 -43.151174488835068 -77.380895508208368 0 0 0 0 -1.3958998935995623 32.626053699679005 0 32.626053699679005 -66.827620616906643 0 0 0 0 -61.546001597482245 5.0405590831694553 0 5.0405590831694553 -88.823099388031778 0 0 0 0 2.1395199195907537 0.3554964886642864 0 0.3554964886642864 -1.6698211814727042 0 0 0 0 10.135930262906186 -10.724209252436822 0 -10.724209252436822 -124.24945325654949 0 0 0 0 4.0897591616594582 23.477328265816595 0 23.477328265816595 -89.471822064976095 0 0 0 0 1.5250332246505423 -27.836191566518551 0 -27.836191566518551 -120.30000586033975 0 0 0 0 39.980630618534633 60.794904638475145 0 60.794904638475145 -209.20444473643238 0 0 0 0 207.76184842735529 251.15338142782943 0 251.15338142782943 -196.8627413430761 0 0 0 0 60.62093578767599 18.415541217166833 0 18.415541217166833 -263.61550000787247 0 0 0 0 62.585332306243799 15.50367728219419 0 15.50367728219419 -279.74370704798457 0 0 0 0 168.33397004794097 205.36947133900139 0 205.36947133900139 -162.2639336305142 0 0 0 0 67.953632821213262 5.0657976975411376 0 5.0657976975411376 0.020254477078167299 0 0 0 0 28.24630011125555 -18.088561078460998 0 -18.088561078460998 -312.5242277566349 0 0 0 0 -9.4513969229301438 -223.75310127550438 0 -223.75310127550438 -108.8280534847857 0 0 0 0 -2.4305097508186009 -72.529503756283248 0 -72.529503756283248 -254.92616974933065 0 0 0 0 1.2838575056860009 0.40360327696892995 0 0.40360327696892995 -1.3832269841463187 0 0 0 0 21.254952857252647 -87.410978686504905 0 -87.410978686504905 -351.74489741933576 0 0 0 0 122.58639759810467 80.424075630197422 0 80.424075630197422 -35.528992521036514 0 0 0 0 155.34253767704649 54.220149008824137 0 54.220149008824137 -190.40662078617697 0 0 0 0 91.638587067980552 23.804173837042072 0 23.804173837042072 -111.15877807934518 0 0 0 0 107.30700254805924 3.5327598902762247 0 3.5327598902762247 -273.46170079886724 0 0 0 0 97.6029828562896 -9.0777540647677597 0 -9.0777540647677597 -174.70068686009563 0 0 0 0 149.2964191344945 13.434249380811252 0 13.434249380811252 -301.38543377107635 0 0 0 0 62.410645378946171 -8.3343288661234993 0 -8.3343288661234993 -2.5352301997205577 0 0 0 0 24.908772832000977 -24.868457280995244 0 -24.868457280995244 -82.975722551473609 0 0 0 0 66.059714884541592 12.128772798152056 0 12.128772798152056 -0.76885346458175796 0 0 0 0 133.74198374692787 26.656871130072886 0 26.656871130072886 -375.99195163603099 0 0 0 0 7.3992282575372883 -156.74915296535713 0 -156.74915296535713 -188.60532247731703 0 0 0 0 62.283955571940169 -5.576640003774628 0 -5.576640003774628 -343.4746142263669 0 0 0 0 84.433276222232962 54.703657559767635 0 54.703657559767635 -290.51067151660641 0 0 0 0 69.918022188729083 41.324088428355026 0 41.324088428355026 -255.95579710377206 0 0 0 0 5.4303918258010526 23.52366315445488 0 23.52366315445488 -155.56227865204164 0 0 0 0 9.9402333971193002 9.9866814170352427 0 9.9866814170352427 -115.04489855764587 0 0 0 0 26.223153159011417 -25.238629349375515 0 -25.238629349375515 -128.18176935968222 0 0 0 0 24.045623420461197 -15.290039415246611 0 -15.290039415246611 -166.51152965281949 0 0 0 0 45.963354019586404 -48.468996356309162 0 -48.468996356309162 -128.73534961182304 0 0 0 0 29.188450567002292 -33.108464264027134 0 -33.108464264027134 -136.32565381958057 0 0 0 0 52.96193958877484 -40.728277828331557 0 -40.728277828331557 -108.08155265728055 0 0 0 0 38.040777081085253 -19.008686961029071 0 -19.008686961029071 -130.99770193262702 0 0 0 0 28.009293439492467 98.511550205138064 0 98.511550205138064 -117.30040971350797 0 0 0 0 8.5029592497711661 0.084931022961338698 0 0.084931022961338698 -0.30654799086472573 0 0 0 0 32.392241680092411 -22.054500589928466 0 -22.054500589928466 -151.20029419981302 0 0 0 0 27.778356688573695 -25.462844072683083 0 -25.462844072683083 -126.39712795915057 0 0 0 0 3.1442067938140923 -0.086087599675888526 0 -0.086087599675888526 -0.026595693901540596 0 0 0 0 87.885924768452242 -141.63425977751376 0 -141.63425977751376 54.101867747451934 0 0 0 0 297.13698927738551 -110.7818020384872 0 -110.7818020384872 -195.09225210635032 0 0 0 0 82.45610566094183 -30.592260650759727 0 -30.592260650759727 143.95061869600477 0 0 0 0 259.15861119250144 197.94687532703082 0 197.94687532703082 -42.121625468545062 0 0 0 0 119.07269502857525 44.087221287871216 0 44.087221287871216 -149.69106204642412 0 0 0 0 159.17212181890864 -119.38552260478673 0 -119.38552260478673 -280.48983105437583 0 0 0 0 -49.226219638498151 160.42351263008106 0 160.42351263008106 -183.35978021229766 0 0 0 0 66.591624497214042 2.825060624052302 0 2.825060624052302 -1.4977320383028072 0 0 0 0 192.97893537458731 -94.090737955324585 0 -94.090737955324585 -325.23096608765672 0 0 0 0 179.65054228877125 -13.763160490785594 0 -13.763160490785594 -353.56595461739744 0 0 0 0 166.8308525410248 -58.559460719434355 0 -58.559460719434355 -250.97876840148763 0 0 0 0 162.27629241189061 -33.308524007834194 0 -33.308524007834194 -267.2008927931729 0 0 0 0 141.82426383451093 -93.205965883431418 0 -93.205965883431418 -186.8242824786862 0 0 0 0 93.49657023173495 -144.99950373381296 0 -144.99950373381296 -54.673650495160473 0 0 0 0 31.648945790271682 64.151702652880431 0 64.151702652880431 -201.68916981424718 0 0 0 0 -1265.5228282454773 136.6222245026529 0 136.6222245026529 491.7713235730389 0 0 0 0 -171.65885378900566 -131.32371376550918 0 -131.32371376550918 -18.180505358833216 0 0 0 0 441.31663916181424 -472.09003217993359 0 -472.09003217993359 108.13229492362325 0 0 0 0 236.25591326706854 -42.357722846035131 0 -42.357722846035131 -11.050461166204514 0 0 0 0 258.33959763732855 -12.178199823008981 0 -12.178199823008981 -28.425302853535413 0 0 0 0 260.42429816008371 52.297744968005645 0 52.297744968005645 -234.70623203806645 0 0 0 0 359.20471382659161 -41.853197000969885 0 -41.853197000969885 -203.13916341504682 0 0 0 0 507.32177745064837 -99.962779635135121 0 -99.962779635135121 -447.64531319490197 0 0 0 0 555.01478740360471 -160.63045330035993 0 -160.63045330035993 -379.14053504695585 0 0 0 0 425.70403767991229 9.8151920742138827 0 9.8151920742138827 -566.15861045295787 0 0 0 0 237.86164442889822 46.57049550462375 0 46.57049550462375 -309.57661594092133 0 0 0 0 243.33247803722043 98.801411988715699 0 98.801411988715699 -373.83612975805408 0 0 0 0 232.17703950004943 7.8470074746928731 0 7.8470074746928731 -149.87924566657603 0 0 0 0 108.21696014411282 120.5306302883464 0 120.5306302883464 -242.59777267557638 0 0 0 0 115.34031767977194 26.53968413799285 0 26.53968413799285 -223.90907155909372 0 0 0 0 101.32977476262022 135.93195813820967 0 135.93195813820967 -356.20894180583582 0 0 0 0 130.24678932312236 107.11741779159865 0 107.11741779159865 -379.80846503482644 0 0 0 0 186.61879546602722 59.725261122723168 0 59.725261122723168 -373.28115132101084 0 0 0 0 250.54378844043822 171.23939781098306 0 171.23939781098306 -632.153244730501 0 0 0 0 -50.23792400630191 229.11728625206251 0 229.11728625206251 -479.70918432944563 0 0 0 0 8.8104310209266714 2.9834285344766229 0 2.9834285344766229 -0.040135273171319152 0 0 0 0 254.51388630330621 43.377284084793246 0 43.377284084793246 -374.87189003473395 0 0 0 0 283.20765809497971 3.7636392152589906 0 3.7636392152589906 -351.01662931934243 0 0 0 0 99.987215544872441 -1.4558151807113617 0 -1.4558151807113617 -1.1716870734099156 0 0 0 0 -665.13903213461163 252.45356732208165 0 252.45356732208165 62.772451546770753 0 0 0 0 1064.0367288019625 -626.68694623323563 0 -626.68694623323563 -608.42846481144989 0 0 0 0 286.77481639105827 148.51060738259548 0 148.51060738259548 -629.2864189202428 0 0 0 0 88.920614206377579 3.8793982911939651 0 3.8793982911939651 -1.9636067387132439 0 0 0 0 78.294991847200436 -16.44605430701813 0 -16.44605430701813 -497.94128448653373 0 0 0 0 530.26235537582397 -209.70304633036017 0 -209.70304633036017 -348.30847359330164 0 0 0 0 33.512166521660049 -7.6384710120070309 0 -7.6384710120070309 -1.7982700222090235 0 0 0 0 56.888162905932404 96.369187139420319 0 96.369187139420319 -148.60499440982744 0 0 0 0 41.421022155875107 112.91613406181023 0 112.91613406181023 -122.20183500360872 0 0 0 0 29.281315396838181 103.05970083403963 0 103.05970083403963 -108.53156076296909 0 0 0 0 -185.05141405393442 -17.88383973926625 0 -17.88383973926625 -319.85457300513553 0 0 0 0 -52.766629353776807 97.37253897248047 0 97.37253897248047 -251.23446183836768 0 0 0 0 46.733937844910542 -22.907670082284767 0 -22.907670082284767 -319.79611642647706 0 0 0 0 16.994982763659209 63.954795889781053 0 63.954795889781053 -124.80961097075578 0 0 0 0 67.625291321935947 -33.808250724282971 0 -33.808250724282971 -167.95917367184484 0 0 0 0 4.9137803261401132 30.316922040942245 0 30.316922040942245 -209.45700835721073 0 0 0 0 47.277082975575468 -3.017190360798395 0 -3.017190360798395 -162.42274811917582 0 0 0 0 78.862626209105656 -53.33002144421107 0 -53.33002144421107 -303.59146391496051 0 0 0 0 61.135534176559304 -5.9457963795598516 0 -5.9457963795598516 -275.03184983438655 0 0 0 0 59.004887238930678 58.104126920256931 0 58.104126920256931 -353.02110863282519 0 0 0 0 116.52600645998245 -4.2745359015409576 0 -4.2745359015409576 -140.37378681164228 0 0 0 0 80.322083091379682 80.05801794122749 0 80.05801794122749 -138.28702435664854 0 0 0 0 38.808922990967403 57.815934072054006 0 57.815934072054006 -125.82752628414266 0 0 0 0 1.6937179645210563 22.157472110606591 0 22.157472110606591 -146.28166431539557 0 0 0 0 51.565763265520218 32.644756392363888 0 32.644756392363888 -184.7618269538093 0 0 0 0 555.42651904997183 175.47339163448169 0 175.47339163448169 -303.7894718232468 0 0 0 0 10.290801675220195 -0.38489325163488353 0 -0.38489325163488353 -0.50506659446511293 0 0 0 0 -63.149103775402182 -281.61441097214083 0 -281.61441097214083 215.33005871156365 0 0 0 0 -205.83887424021668 -128.19178328321732 0 -128.19178328321732 430.07379481880525 0 0 0 0 20.625291392076178 75.190564087028179 0 75.190564087028179 -44.947419388279741 0 0 0 0 32.884667904829257 102.53340178328199 0 102.53340178328199 -63.635401401495074 0 0 0 0 8.7918809901311761 18.137974465966181 0 18.137974465966181 -131.29001887442246 0 0 0 0 0.7663271140991128 42.344637974213128 0 42.344637974213128 -96.747045029469518 0 0 0 0 31.14312783800051 85.89297699856013 0 85.89297699856013 -107.02885407601934 0 0 0 0 41.957287698896835 92.568381075537218 0 92.568381075537218 -107.09396312671197 0 0 0 0 401.98557746106235 76.220135722330269 0 76.220135722330269 -205.71830657671308 0 0 0 0 308.46870019154449 37.242700192204211 0 37.242700192204211 -199.66850064630376 0 0 0 0 94.790911667587352 147.40338107886782 0 147.40338107886782 -50.621190695379482 0 0 0 0 91.591966858904925 -8.0403139613968051 0 -8.0403139613968051 -190.72612183679848 0 0 0 0 187.39892488042824 192.02505528250595 0 192.02505528250595 35.34838108283202 0 0 0 0 5.0242950281639622 -1.1868819070825847 0 -1.1868819070825847 -0.1316625356187302 0 0 0 0 242.33365593678172 -341.19254586212128 0 -341.19254586212128 168.56930540399264 0 0 0 0 432.36591940076687 -89.305771250730004 0 -89.305771250730004 78.934490811559954 0 0 0 0 144.54279689520627 44.038025270897379 0 44.038025270897379 278.96501096171414 0 0 0 0 413.66283584452674 -174.62434959474996 0 -174.62434959474996 -83.370733617010046 0 0 0 0 102.52736783915316 -186.86029234258308 0 -186.86029234258308 238.50706936939969 0 0 0 0 134.2199444595899 -37.333293979856535 0 -37.333293979856535 -112.89153204420836 0 0 0 0 104.26499872063414 -107.44996182553712 0 -107.44996182553712 66.065691474695541 0 0 0 0 161.93896748069528 -78.540988789221785 0 -78.540988789221785 -21.963852418373449 0 0 0 0 255.80324691453279 -155.88578689048654 0 -155.88578689048654 80.161737843510309 0 0 0 0 176.37080730916932 -59.498936639608019 0 -59.498936639608019 77.488113704643752 0 0 0 0 186.65111320952201 -213.07264870751783 0 -213.07264870751783 228.17730571816173 0 0 0 0 197.19304102569004 -95.160291999107926 0 -95.160291999107926 36.964391852673202 0 0 0 0 155.01058260014543 -104.34936520878085 0 -104.34936520878085 44.02163848591033 0 0 0 0 223.27337493740924 -86.129969423344235 0 -86.129969423344235 36.42639510961807 0 0 0 0 192.49670929480362 -108.93713530004084 0 -108.93713530004084 131.18174320761818 0 0 0 0 195.80378545205895 -57.788836956208115 0 -57.788836956208115 40.729012918826925 0 0 0 0 39.341264504597348 -94.32905735848135 0 -94.32905735848135 136.61492939032996 0 0 0 0 114.67612264573472 31.799227006555839 0 31.799227006555839 344.29926415893624 0 0 0 0 227.23290076322519 -265.28153282508947 0 -265.28153282508947 172.61529973436245 0 0 0 0 2.4524105384660544 2.6903953635465072 0 2.6903953635465072 3.7763326638117096 0 0 0 0 -193.35127170703709 -123.66121709559411 0 -123.66121709559411 265.28868665819573 0 0 0 0 177.98524757865016 28.511724103996698 0 28.511724103996698 84.786832936727706 0 0 0 0 171.75037152872392 -85.51422226443016 0 -85.51422226443016 17.132135014978445 0 0 0 0 196.42274611755784 -58.528891224520407 0 -58.528891224520407 4.8775629000017489 0 0 0 0 185.55340713605165 -22.853811173137814 0 -22.853811173137814 28.521403075380022 0 0 0 0 164.37828117028039 -65.408765144795382 0 -65.408765144795382 51.727478848040391 0 0 0 0 192.13158339852089 -52.299459657367152 0 -52.299459657367152 103.48881688948359 0 0 0 0 321.1994724431861 -38.256029786561612 0 -38.256029786561612 49.54673087858805 0 0 0 0 249.01493751760427 -158.75182685853929 0 -158.75182685853929 98.192912790309947 0 0 0 0 202.01512445905973 -114.12781499847836 0 -114.12781499847836 57.715541331784834 0 0 0 0 222.05975493734513 -115.01988211951618 0 -115.01988211951618 55.208590621691656 0 0 0 0 241.51236906266422 -95.89850955070392 0 -95.89850955070392 25.695455265889763 0 0 0 0 193.05744966940983 -64.932441337382699 0 -64.932441337382699 31.510859529723405 0 0 0 0 217.8497590443294 -82.656454688795989 0 -82.656454688795989 57.045852913283937 0 0 0 0 222.06924508985321 -84.408357897895229 0 -84.408357897895229 4.1748638133844906 0 0 0 0 28.947739692288451 -131.88618346985322 0 -131.88618346985322 113.97783179193038 0 0 0 0 0.61957001314802085 0.39803346881700463 0 0.39803346881700463 0.8294491288336765 0 0 0 0 223.18749770997965 -121.60611259969346 0 -121.60611259969346 73.652680452489221 0 0 0 0 284.95135399112769 -98.093665329571991 0 -98.093665329571991 31.612304088482233 0 0 0 0 6.8168015723092594 3.7377847711851615 0 3.7377847711851615 -0.15734302973847747 0 0 0 0 210.14297707776859 -70.552581331799274 0 -70.552581331799274 27.787050951449828 0 0 0 0 10.557092514086435 -8.2534601229160103 0 -8.2534601229160103 -2.9166811354098172 0 0 0 0 12.108913211770414 14.391132224114472 0 14.391132224114472 -34.650797701315241 0 0 0 0 3.8033660754139618 -2.3137356758486618 0 -2.3137356758486618 -1.2807084336625456 0 0 0 0 24.269687301261001 -7.4769584259772728 0 -7.4769584259772728 -1.8725935724773564 0 0 0 0 30.00783335223241 -0.46128776874417099 0 -0.46128776874417099 -2.6262313563973976 0 0 0 0 2.6958587482963026 -1.1453928133162989 0 -1.1453928133162989 -2.8165882358971692 0 0 0 0 61.213837707946368 0.10696144576706956 0 0.10696144576706956 12.381494700462099 0 0 0 0 143.97728181108323 0.19521628564143612 0 0.19521628564143612 65.938336840884404 0 0 0 0 157.43743030621226 -14.858012189083411 0 -14.858012189083411 16.284382627100968 0 0 0 0 147.10813979832528 -24.25729364505446 0 -24.25729364505446 9.5570675222379577 0 0 0 0 137.35657871561125 -20.536961391392651 0 -20.536961391392651 9.9869223580421931 0 0 0 0 229.10025528359779 -72.052057059916791 0 -72.052057059916791 30.000605280604759 0 0 0 0 212.36030135545298 100.65623339230478 0 100.65623339230478 -1.7058388426350461 0 0 0 0 37.854990345371334 -36.024503419381062 0 -36.024503419381062 62.85325345493311 0 0 0 0 27.126014819052216 38.963047534392899 0 38.963047534392899 55.18668528227272 0 0 0 0 24.041931060726711 -17.130870222895055 0 -17.130870222895055 107.28150878749966 0 0 0 0 108.11153705996912 -87.831559806292717 0 -87.831559806292717 123.92899943210193 0 0 0 0 94.931525418007368 -24.782781383967517 0 -24.782781383967517 55.648027329761135 0 0 0 0 81.749743350586868 -44.409336113519771 0 -44.409336113519771 75.851293380098468 0 0 0 0 49.319233784926837 -11.931246351844322 0 -11.931246351844322 47.840146539427394 0 0 0 0 4.8845980612488091 7.5498993168191006 0 7.5498993168191006 12.724476117192554 0 0 0 0 77.535502770046151 -69.368615186760735 0 -69.368615186760735 91.662747028734657 0 0 0 0 49.421630867867862 -26.950372591313112 0 -26.950372591313112 83.059268326766414 0 0 0 0 7.4327496742535075 12.254275337908574 0 12.254275337908574 20.95491067418148 0 0 0 0 93.228388703078963 -61.183406280255895 0 -61.183406280255895 73.909756104599239 0 0 0 0 101.21747716374375 -81.035569716279042 0 -81.035569716279042 39.745572106319969 0 0 0 0 156.87851984784356 -57.803475288473919 0 -57.803475288473919 49.026559822930722 0 0 0 0 178.77753958008179 -32.779496551871944 0 -32.779496551871944 19.375933401607881 0 0 0 0 153.42485568805387 -6.8234979107387517 0 -6.8234979107387517 6.7426652332733283 0 0 0 0 200.33630844304571 -60.408527237967064 0 -60.408527237967064 -31.60277130639497 0 0 0 0 246.55589686747771 -18.331326334158121 0 -18.331326334158121 6.7017512689672003 0 0 0 0 166.86369604314677 42.79585061394755 0 42.79585061394755 5.2586327896648299 0 0 0 0 117.99182314724021 59.135286480743616 0 59.135286480743616 56.523455628250304 0 0 0 0 135.86856190902836 40.950351982431584 0 40.950351982431584 35.723885714139215 0 0 0 0 112.4920947445371 38.881041667082854 0 38.881041667082854 50.834825745664602 0 0 0 0 108.06139229840483 31.369620339448829 0 31.369620339448829 39.501472649636185 0 0 0 0 152.54563475461327 -0.057725045665165453 0 -0.057725045665165453 26.296389965236358 0 0 0 0 113.05840771705152 2.2835918282835337 0 2.2835918282835337 26.721405755442902 0 0 0 0 91.879429843982507 -6.758233324750563 0 -6.758233324750563 26.123233238934063 0 0 0 0 63.319324033864177 41.744306265526802 0 41.744306265526802 28.227523370890594 0 0 0 0 79.262352370169538 23.155714759095645 0 23.155714759095645 46.702528612704555 0 0 0 0 76.983267537943902 10.873637760262227 0 10.873637760262227 -27.532793214070352 0 0 0 0 48.225968313221529 26.571719495053458 0 26.571719495053458 6.4793135227314451 0 0 0 0 106.20739000347385 -39.943850039157951 0 -39.943850039157951 37.698472211956869 0 0 0 0 106.25473117009824 30.283997507023741 0 30.283997507023741 -55.753156816821956 0 0 0 0 95.093049018316378 58.257771228254569 0 58.257771228254569 23.928865593127739 0 0 0 0 158.05869147888006 81.438592361517749 0 81.438592361517749 8.2331590980602414 0 0 0 0 36.650456607523665 58.027551606973702 0 58.027551606973702 -32.30086436935062 0 0 0 0 81.824272882862715 25.221296324531068 0 25.221296324531068 -15.558457066159008 0 0 0 0 58.048072961689286 28.626963944153431 0 28.626963944153431 28.340730810019522 0 0 0 0 62.863663279713364 61.462313532078497 0 61.462313532078497 26.151180606837443 0 0 0 0 84.21034110342589 39.994779339150682 0 39.994779339150682 63.262425500366589 0 0 0 0 86.4596555649332 50.935181521336744 0 50.935181521336744 19.830887135561852 0 0 0 0 101.44052656722852 64.977652138705935 0 64.977652138705935 69.117459076968771 0 0 0 0 107.25786296324441 62.365950160351076 0 62.365950160351076 24.66894712118085 0 0 0 0 129.10093678665726 59.862614395508899 0 59.862614395508899 107.15553596648533 0 0 0 0 138.04019517925917 52.358658810863744 0 52.358658810863744 68.652113423944684 0 0 0 0 126.38057077188205 56.387217259936961 0 56.387217259936961 58.871748238384498 0 0 0 0 144.23184014454819 109.57230643258026 0 109.57230643258026 108.22378140604633 0 0 0 0 150.6634063707279 100.2599087193862 0 100.2599087193862 71.053830779381656 0 0 0 0 48.438390267799889 -16.156565485947858 0 -16.156565485947858 -23.840904084346555 0 0 0 0 96.338371813482809 48.983692381224955 0 48.983692381224955 51.798468764592144 0 0 0 0 103.6814681577016 69.632115513424196 0 69.632115513424196 68.214278830429294 0 0 0 0 109.74440795624469 65.735361034235211 0 65.735361034235211 60.5709085831881 0 0 0 0 110.93955225081663 69.413787362454059 0 69.413787362454059 47.995260445557506 0 0 0 0 44.205537083774935 -17.189330648751781 0 -17.189330648751781 -27.371135328944476 0 0 0 0 36.415202123775089 -64.181400931008284 0 -64.181400931008284 -90.62816733145165 0 0 0 0 7.4390074053617354 -24.634260591152724 0 -24.634260591152724 11.612266407945071 0 0 0 0 32.807432985955074 -90.873674160855217 0 -90.873674160855217 -36.903082309717774 0 0 0 0 21.443311036217892 -61.988673589121845 0 -61.988673589121845 -100.07837473556947 0 0 0 0 -59.953772310787826 -123.94379319715267 0 -123.94379319715267 -87.880269245012471 0 0 0 0 129.10093678659177 59.862614395511628 0 59.862614395511628 107.15553596648425 0 0 0 0 263.71321153796453 43.689561883895067 0 43.689561883895067 63.513631529746817 0 0 0 0 187.55879085343258 -45.047719909801344 0 -45.047719909801344 12.839899810163388 0 0 0 0 110.89731962341648 -37.830392595379408 0 -37.830392595379408 -86.417797101481938 0 0 0 0 101.61339967501954 -33.262193705888308 0 -33.262193705888308 29.424714660094651 0 0 0 0 223.92258470107299 -14.742094681965682 0 -14.742094681965682 -98.999835715193626 0 0 0 0 245.92410651609703 -41.572025627871028 0 -41.572025627871028 -130.88037035933121 0 0 0 0 142.64512791483867 -61.558632087555907 0 -61.558632087555907 -87.952184210438645 0 0 0 0 74.75727244592872 -29.324205633414749 0 -29.324205633414749 -77.244549366673709 0 0 0 0 78.742328402020945 -107.44979548396769 0 -107.44979548396769 -180.03534818993739 0 0 0 0 55.580723203016603 -8.9982772273897211 0 -8.9982772273897211 -18.157507489660599 0 0 0 0 95.332303277267783 23.420864375993347 0 23.420864375993347 28.000281670628681 0 0 0 0 28.123308121651604 5.8114739140440577 0 5.8114739140440577 -10.19126405834389 0 0 0 0 80.99203822707382 -2.3614810383073817 0 -2.3614810383073817 -7.0526748077086161 0 0 0 0 151.63375901965264 -33.882976658552252 0 -33.882976658552252 -145.73333451226813 0 0 0 0 148.02571804991112 -2.4410470660029659 0 -2.4410470660029659 -129.98797029556636 0 0 0 0 20.20401415589464 -5.5974481657905848 0 -5.5974481657905848 1.3751133749179854 0 0 0 0 171.42735439736862 60.806635300001517 0 60.806635300001517 40.01103703872559 0 0 0 0 40.458446225487691 -6.0425834650737027 0 -6.0425834650737027 -24.586444284713032 0 0 0 0 163.92783480139042 142.32993410018048 0 142.32993410018048 59.677290001697656 0 0 0 0 129.10093678664998 59.862614395522542 0 59.862614395522542 107.15553596649261 0 0 0 0 71.240558156059706 26.308616480549063 0 26.308616480549063 66.94700991910122 0 0 0 0 -7.5683490056517257 -63.123857418536318 0 -63.123857418536318 -56.768064879574922 0 0 0 0 -14.497996255325234 -148.67891498885024 0 -148.67891498885024 -151.31692249571779 0 0 0 0 81.326317935192492 66.902501355498771 0 66.902501355498771 6.1883075031082626 0 0 0 0 100.15971571946648 52.629806558575183 0 52.629806558575183 39.813028866340176 0 0 0 0 115.52271834656403 16.608533217904153 0 16.608533217904153 -102.66144099747544 0 0 0 0 118.95620090193829 10.531633163541869 0 10.531633163541869 -0.50479658026685836 0 0 0 0 147.65228586523881 82.882379164634699 0 82.882379164634699 -51.392027489224347 0 0 0 0 520.95209639120731 340.63308879011288 0 340.63308879011288 -311.27762708750583 0 0 0 0 12.232629574847664 1.7348035387412875 0 1.7348035387412875 0.39078160170975773 0 0 0 0 -38.870184585619427 47.054140332011485 0 47.054140332011485 229.07096553667043 0 0 0 0 6.6423219845546555 117.50091832785722 0 117.50091832785722 -48.794531992155953 0 0 0 0 93.371628721761226 13.809180536025451 0 13.809180536025451 9.7454788591121542 0 0 0 0 95.127042023916147 11.236869040215424 0 11.236869040215424 7.255214077164851 0 0 0 0 70.921143363154883 8.168745075116508 0 8.168745075116508 2.0202002568004511 0 0 0 0 60.193236004894899 -17.466649590631448 0 -17.466649590631448 -0.45143354610462971 0 0 0 0 19.323140416265232 -745.65116571353008 0 -745.65116571353008 -14.616798110014315 0 0 0 0 33.671882683215259 -20.215311300140698 0 -20.215311300140698 -5.7316054377103534 0 0 0 0 -296.41488578358258 -148.60730721903246 0 -148.60730721903246 13.353152627787495 0 0 0 0 588.47726117054117 151.4073192185183 0 151.4073192185183 -65.999522809263908 0 0 0 0 -89.713579810937517 361.85574992031798 0 361.85574992031798 391.76291960368508 0 0 0 0 88.666581018434954 79.062243353575468 0 79.062243353575468 -61.693689628709535 0 0 0 0 221.50531500460784 -1.849570833294365 0 -1.849570833294365 -53.390344654427281 0 0 0 0 -15.71554517558252 82.377836653840632 0 82.377836653840632 76.178424455778554 0 0 0 0 76.319899356411042 62.981285013239471 0 62.981285013239471 -16.102921266464818 0 0 0 0 85.669069549330743 -282.07619580738174 0 -282.07619580738174 10.896048936111583 0 0 0 0 1.3305577271676157 -178.18282829257464 0 -178.18282829257464 -95.034011952327546 0 0 0 0 -67.532199803976255 32.511703129409113 0 32.511703129409113 -274.96158872943579 0 0 0 0 -23.575976971136697 -115.13197494122096 0 -115.13197494122096 58.714487850645128 0 0 0 0 489.66448364808821 -254.37618081234086 0 -254.37618081234086 -34.304379311101457 0 0 0 0 162.37966094967851 -253.80620734262084 0 -253.80620734262084 160.43471444045133 0 0 0 0 208.10240706949844 -163.52935353901375 0 -163.52935353901375 -36.135228951683985 0 0 0 0 105.26818702961464 -172.40477012226643 0 -172.40477012226643 -34.755785693293092 0 0 0 0 57.448522836450138 -180.4501491455344 0 -180.4501491455344 25.116164253972926 0 0 0 0 48.42548907539549 -257.57885408642386 0 -257.57885408642386 1.9967330171011781 0 0 0 0 12.573065388787654 -166.07133848419994 0 -166.07133848419994 -81.991234062877083 0 0 0 0 117.37309520927374 -268.22451532541618 0 -268.22451532541618 -34.262975805231235 0 0 0 0 496.80735433128575 -91.919649862341316 0 -91.919649862341316 -257.88221723790821 0 0 0 0 585.26188155403361 -334.55740895699 0 -334.55740895699 -259.14214834604354 0 0 0 0 0.22829212607343408 -0.39510097644308928 0 -0.39510097644308928 0.63465861348581498 0 0 0 0 90.790797576474688 -77.611354780384943 0 -77.611354780384943 -221.23459491353788 0 0 0 0 -87.626350837002974 -86.39112102494073 0 -86.39112102494073 -86.586110118003944 0 0 0 0 284.48240047222498 76.073934869634513 0 76.073934869634513 65.951739888424527 0 0 0 0 231.4504183925601 -156.80585724554453 0 -156.80585724554453 133.11735245706541 0 0 0 0 214.81408280058531 -26.837620035619238 0 -26.837620035619238 -375.57622811363717 0 0 0 0 339.73024380021161 -219.11826230357605 0 -219.11826230357605 -305.93043451910489 0 0 0 0 137.68210078228731 -240.39239000061661 0 -240.39239000061661 -271.86812932083694 0 0 0 0 6.6208362698962446 184.02083138442686 0 184.02083138442686 -357.9693981901446 0 0 0 0 -129.73854543693596 -1.4836240420545437 0 -1.4836240420545437 -202.11793168589486 0 0 0 0 171.11730532385991 -51.201411331876443 0 -51.201411331876443 -205.03906087052181 0 0 0 0 24.082822747572209 53.913687291315 0 53.913687291315 -132.2693903130139 0 0 0 0 247.31750014188583 33.426073347659894 0 33.426073347659894 -127.89012618974084 0 0 0 0 113.51895536328084 62.450430084051732 0 62.450430084051732 -297.96991492218876 0 0 0 0 100.83955652665463 60.815165423186045 0 60.815165423186045 -61.803138778877837 0 0 0 0 165.54020901258627 -62.286023009811288 0 -62.286023009811288 -93.830303706022733 0 0 0 0 190.72796911545447 -8.4308672728780039 0 -8.4308672728780039 -130.12143126263294 0 0 0 0 92.363434321858222 -43.092709055831619 0 -43.092709055831619 20.64840949746258 0 0 0 0 112.61837834746984 18.784064043152284 0 18.784064043152284 -103.36629383467243 0 0 0 0 47.891754743483034 6.4385348936089031 0 6.4385348936089031 -24.03751965309516 0 0 0 0 67.574866164468403 31.407416443325474 0 31.407416443325474 -192.33265456428308 0 0 0 0 121.09754963539308 28.51875927585661 0 28.51875927585661 -200.42394571922847 0 0 0 0 42.730889945582021 36.250933873442136 0 36.250933873442136 -92.586035393766906 0 0 0 0 66.237924950779416 26.680066556094857 0 26.680066556094857 -127.41459950762601 0 0 0 0 25.517899577469507 70.281670660532995 0 70.281670660532995 -134.14163763344277 0 0 0 0 22.489604767761193 36.905838207190754 0 36.905838207190754 -180.57732016759292 0 0 0 0 64.015163063220342 6.6330481931123266 0 6.6330481931123266 -0.0406787040693396 0 0 0 0 63.879380841506645 55.140434919924701 0 55.140434919924701 -301.08037608701807 0 0 0 0 47.493175757736026 56.165457524979274 0 56.165457524979274 -251.3111245401069 0 0 0 0 -29.917946898051014 22.661145773095768 0 22.661145773095768 -270.42155014713444 0 0 0 0 13.713729485752992 77.028422254716133 0 77.028422254716133 -252.32100340563838 0 0 0 0 136.5583212536294 88.858354612616495 0 88.858354612616495 -481.38894957265416 0 0 0 0 54.057380580235986 5.6010619852101424 0 5.6010619852101424 -0.24911645708758412 0 0 0 0 67.358279996726196 64.050379067947233 0 64.050379067947233 -199.18452948891968 0 0 0 0 92.80207669941592 67.550184816395358 0 67.550184816395358 -334.17458648219508 0 0 0 0 17.520012362772832 44.959849879237481 0 44.959849879237481 -192.01499938645139 0 0 0 0 50.686024621740216 63.474725568147278 0 63.474725568147278 -265.2092818043875 0 0 0 0 60.769348330279172 -22.890552705479422 0 -22.890552705479422 -391.05238040097902 0 0 0 0 87.731313901924295 74.756791144905492 0 74.756791144905492 -218.55709557022283 0 0 0 0 192.7578261128574 232.77411082323411 0 232.77411082323411 -210.87565423321416 0 0 0 0 149.8973286494147 131.22204582488212 0 131.22204582488212 -359.3922225024462 0 0 0 0 96.122667244577315 32.755157653270544 0 32.755157653270544 -304.52110601922459 0 0 0 0 76.58736172676636 4.2493414732824331 0 4.2493414732824331 -0.94375072190774079 0 0 0 0 -21.237697725213366 -222.96789586389605 0 -222.96789586389605 -15.865603156661564 0 0 0 0 12.443550484182197 3.8137346596045063 0 3.8137346596045063 -185.7757425555892 0 0 0 0 72.023706027517619 20.929572948386976 0 20.929572948386976 -75.391500598870152 0 0 0 0 12.545484801019484 81.995209213474027 0 81.995209213474027 -75.786265237872612 0 0 0 0 113.85222015567183 149.47572523117998 0 149.47572523117998 -210.92277620995446 0 0 0 0 48.974332772435446 52.475169858090794 0 52.475169858090794 5.0803607249570177 0 0 0 0 14.692758327166302 79.168734096024536 0 79.168734096024536 -62.21751543909977 0 0 0 0 60.913575148180826 35.015263112197772 0 35.015263112197772 -114.61481112368892 0 0 0 0 2.5078809748156345 85.419532227027503 0 85.419532227027503 -143.5733650434322 0 0 0 0 91.40443896233046 21.16445619106662 0 21.16445619106662 -190.63906595863091 0 0 0 0 72.280720540227776 20.335032598814905 0 20.335032598814905 -78.486921149761656 0 0 0 0 62.840579041280989 71.888550860061983 0 71.888550860061983 -123.41679777061745 0 0 0 0 59.389795302515267 19.8268939364998 0 19.8268939364998 -121.9215317656566 0 0 0 0 95.475246231129859 50.294696374197656 0 50.294696374197656 -113.85622957267151 0 0 0 0 76.349658180981351 68.504086408799139 0 68.504086408799139 -85.119756826099547 0 0 0 0 127.83291662402189 56.709059751088034 0 56.709059751088034 -152.59632254803068 0 0 0 0 61.047010416637931 45.26083438755586 0 45.26083438755586 -94.101814006361565 0 0 0 0 103.4205190120544 12.315369438811677 0 12.315369438811677 1.0429881406944346 0 0 0 0 35.896380368745469 3.8383924268026686 0 3.8383924268026686 -0.10717133645592725 0 0 0 0 107.47389370235032 152.23228563522252 0 152.23228563522252 -99.845459994948669 0 0 0 0 -18.276251667673932 -114.39076871064572 0 -114.39076871064572 25.322577959838782 0 0 0 0 88.45770247582756 8.2034633770270879 0 8.2034633770270879 0.11491015282301964 0 0 0 0 370.17965258857657 137.44311992501108 0 137.44311992501108 177.73542850463247 0 0 0 0 328.34262265102734 -1134.8802870537736 0 -1134.8802870537736 579.41419964975614 0 0 0 0 2493.9926747952049 -592.24871687365749 0 -592.24871687365749 -243.10271228520807 0 0 0 0 6.4886536718221421 0.9527687276615211 0 0.9527687276615211 0.95732667195741594 0 0 0 0 841.97906388057163 -220.11232133427117 0 -220.11232133427117 395.70619813471706 0 0 0 0 35.588728419912513 -8.4161228664105181 0 -8.4161228664105181 239.68841545522235 0 0 0 0 67.68003703418799 -45.391398763394875 0 -45.391398763394875 35.57399672230369 0 0 0 0 66.865843609150033 -14.986822546968142 0 -14.986822546968142 47.389621058842181 0 0 0 0 28.570482954102772 75.685036429739583 0 75.685036429739583 181.61651124882837 0 0 0 0 27.331430170208478 86.229994434050127 0 86.229994434050127 278.83184462159642 0 0 0 0 214.57987984545616 157.68932139202326 0 157.68932139202326 86.988501097975018 0 0 0 0 46.063907812611433 -12.033209510021308 0 -12.033209510021308 116.12053186953608 0 0 0 0 113.09212829040189 -70.104148519361956 0 -70.104148519361956 -158.78970382494276 0 0 0 0 268.3874232446542 365.91944193066081 0 365.91944193066081 -331.11423050613541 0 0 0 0 52.004506787722988 3.5635189268870846 0 3.5635189268870846 -0.30998878806996411 0 0 0 0 24.098057729017455 123.76893993158183 0 123.76893993158183 -445.49537555375377 0 0 0 0 120.5589823030532 11.251731404450197 0 11.251731404450197 -267.0862223073126 0 0 0 0 12.06119788514593 2.7423020649818852 0 2.7423020649818852 -5.7295811720421783 0 0 0 0 208.83514917669527 466.28590711452028 0 466.28590711452028 936.083216095186 0 0 0 0 18.256764854547839 -6.0204267121512061 0 -6.0204267121512061 4.5259981672838911 0 0 0 0 64.381529769059853 -507.60222992568458 0 -507.60222992568458 440.18918678773053 0 0 0 0 80.194567877864756 47.306872172793675 0 47.306872172793675 -49.029734672745434 0 0 0 0 233.61340652987997 -88.288962917913551 0 -88.288962917913551 -165.88196741882689 0 0 0 0 -4.1661634304673498 -205.13131185352336 0 -205.13131185352336 -185.49837878876951 0 0 0 0 6.6536522946783236 -4.3600335916709696 0 -4.3600335916709696 2.6625382072548276 0 0 0 0 2497.9618474269009 604.27792514128942 0 604.27792514128942 -252.51617177117032 0 0 0 0 959.86320061649894 502.15499700756709 0 502.15499700756709 -255.77102311017114 0 0 0 0 2495.0090932169155 -18.552208020642809 0 -18.552208020642809 -279.68685456366404 0 0 0 0 13.51800098607859 1.5123433451303008 0 1.5123433451303008 2.1033693266513804 0 0 0 0 863.96180696081137 -466.07115282856279 0 -466.07115282856279 296.83104993879795 0 0 0 0 2485.5430536582135 876.65024302782967 0 876.65024302782967 -40.245225330134971 0 0 0 0 571.6148494093286 53.783525150102655 0 53.783525150102655 0.575818884915689 0 0 0 0 -215.50057948984613 347.3497843250434 0 347.3497843250434 652.27417689751712 0 0 0 0 -50.573582171236922 615.50920304561953 0 615.50920304561953 501.76881881669533 0 0 0 0 665.56564979720497 -154.89557897052563 0 -154.89557897052563 -587.47126425280567 0 0 0 0 5.8280404377712216 2.2790949294291805 0 2.2790949294291805 -0.58360099741688709 0 0 0 0 2490.1465956529755 1283.9557021016794 0 1283.9557021016794 -30.006691645862325 0 0 0 0 881.25737158663105 60.837232271880666 0 60.837232271880666 -57.636334201831339 0 0 0 0 625.14720265031792 224.56952912877887 0 224.56952912877887 -149.30226386385283 0 0 0 0 561.52023627522976 -101.68656589342623 0 -101.68656589342623 126.46278516023617 0 0 0 0 471.62565283128788 278.16378714563837 0 278.16378714563837 408.54118120628073 0 0 0 0 -34.021613351229462 607.87929758475445 0 607.87929758475445 467.18797485076357 0 0 0 0 5.768002200980078 1.9047962849979569 0 1.9047962849979569 0.086846499314242015 0 0 0 0 -55.077886684051919 157.42708761250302 0 157.42708761250302 -24.596349066797075 0 0 0 0 -72.320726326608565 -68.819545791924583 0 -68.819545791924583 -99.944341396742914 0 0 0 0 485.12039028780418 601.33818087476629 0 601.33818087476629 189.50969460578193 0 0 0 0 345.90784800321853 109.55579918229716 0 109.55579918229716 -71.384250224360244 0 0 0 0 67.159458395246475 -103.44263251266216 0 -103.44263251266216 150.48066236355612 0 0 0 0 235.26776585001789 -190.10049646538189 0 -190.10049646538189 -65.902162799918187 0 0 0 0 -22.645694667568023 -31.870847604283966 0 -31.870847604283966 -106.38076623283334 0 0 0 0 288.73222839013215 -61.921110853217577 0 -61.921110853217577 -111.36280266888429 0 0 0 0 261.27651899969896 -101.89048972890512 0 -101.89048972890512 -2.3401326769854336 0 0 0 0 312.69723935368529 61.428229123298316 0 61.428229123298316 204.43388725408647 0 0 0 0 223.604194651125 54.084913068262324 0 54.084913068262324 238.63346281967361 0 0 0 0 235.87811272384715 -4.4443681210865194 0 -4.4443681210865194 159.08046332664392 0 0 0 0 223.14052261356119 43.589298528052218 0 43.589298528052218 158.66474328780424 0 0 0 0 147.15431824777625 142.99289623341218 0 142.99289623341218 33.713966140664809 0 0 0 0 1.0570025710235029 0.056291473552148474 0 0.056291473552148474 0.041961517534402949 0 0 0 0 -10.634502460685326 63.618693507486611 0 63.618693507486611 25.707691116651901 0 0 0 0 59.766968906209513 -19.920363574613482 0 -19.920363574613482 -40.152075482846627 0 0 0 0 2.9787964578242168 -0.39887708999934723 0 -0.39887708999934723 0.039121977380406639 0 0 0 0 -50.62705456346248 -65.052597955983856 0 -65.052597955983856 33.721979533419358 0 0 0 0 7.9005370421145926 -68.604307099682615 0 -68.604307099682615 15.649787796644148 0 0 0 0 32.269432447836152 -76.904837513449877 0 -76.904837513449877 -12.612450166639064 0 0 0 0 2.2686510156364648 -1.661713324623487 0 -1.661713324623487 0.031546564278971005 0 0 0 0 1.0578029256035961 -0.7102319356932365 0 -0.7102319356932365 0.13903800313439299 0 0 0 0 5.5240551951137604 -133.70005092827913 0 -133.70005092827913 277.13684026882254 0 0 0 0 35.492219879131881 -50.715271105467934 0 -50.715271105467934 13.512359793562382 0 0 0 0 8.3805208595731528 -98.814104943431801 0 -98.814104943431801 29.015966976039266 0 0 0 0 24.543446154188132 -76.606440110080712 0 -76.606440110080712 -11.680176881055473 0 0 0 0 27.114817200388643 -107.6224161839893 0 -107.6224161839893 -57.661782013930008 0 0 0 0 36.071719261373801 -45.913501844380036 0 -45.913501844380036 -93.896402072436359 0 0 0 0 36.032320852558769 -54.79517304491916 0 -54.79517304491916 -33.560409307403233 0 0 0 0 30.932097810938558 24.900646338182231 0 24.900646338182231 -23.7431982100303 0 0 0 0 46.338957710562681 77.640410143674956 0 77.640410143674956 -121.08896488872712 0 0 0 0 89.992930293490645 -164.09644277207639 0 -164.09644277207639 -163.55538813329127 0 0 0 0 57.035406939042588 2.4623442850987924 0 2.4623442850987924 -0.60196494615361262 0 0 0 0 111.15392823822185 -55.975716047178054 0 -55.975716047178054 -303.4520357183352 0 0 0 0 155.4950817953395 71.04547317168857 0 71.04547317168857 -205.11904796313888 0 0 0 0 278.26228447166795 10.95510664541149 0 10.95510664541149 -581.04184079200013 0 0 0 0 58.304848772540282 3.8030595042771509 0 3.8030595042771509 -0.69821778990154437 0 0 0 0 19.901140656056668 107.49021081334348 0 107.49021081334348 90.29229322620597 0 0 0 0 11.529757071824861 -32.233514758487672 0 -32.233514758487672 162.89734648516577 0 0 0 0 142.81089841778157 -30.648762378780901 0 -30.648762378780901 35.606277148625338 0 0 0 0 108.81969565608597 64.450199898437745 0 64.450199898437745 172.49543826159768 0 0 0 0 1.5149490882476471 0.94588078192169434 0 0.94588078192169434 0.94688419554965364 0 0 0 0 15.000125210521219 -11.422608324393082 0 -11.422608324393082 54.029822232429979 0 0 0 0 14.614461918637971 -6.8209294018580522 0 -6.8209294018580522 29.028881017601179 0 0 0 0 29.192954188122712 17.772595380378988 0 17.772595380378988 27.586708667046196 0 0 0 0 -6.5222534904314671 15.800225241974772 0 15.800225241974772 35.097011527608174 0 0 0 0 38.151169641147135 7.3895542553852636 0 7.3895542553852636 12.896675904058981 0 0 0 0 39.626425288413884 1.93437576435295 0 1.93437576435295 13.023345610123322 0 0 0 0 29.641624359042908 7.8947897411892427 0 7.8947897411892427 14.311615033018711 0 0 0 0 43.754385866004668 -5.4457757330523862 0 -5.4457757330523862 22.384643901557183 0 0 0 0 21.836708558059001 -18.398969036342294 0 -18.398969036342294 1.4497434231750379 0 0 0 0 49.659396650647977 9.1062937253805103 0 9.1062937253805103 11.86641471691911 0 0 0 0 -81.91330180686964 -457.02926481014993 0 -457.02926481014993 -340.90316723541309 0 0 0 0 174.82533974116814 117.78101935217657 0 117.78101935217657 -79.368500219793759 0 0 0 0 110.02650483833622 42.004688091951323 0 42.004688091951323 -143.73972518913757 0 0 0 0 69.788678833872837 -26.946699840521433 0 -26.946699840521433 -108.34247093423483 0 0 0 0 30.356029586288273 -7.0674364067607485 0 -7.0674364067607485 -8.0359603399124282 0 0 0 0 48.08447256301983 -0.44903970051561082 0 -0.44903970051561082 -0.50775910378581124 0 0 0 0 53.216114748625841 12.237208910460566 0 12.237208910460566 -15.463463488239711 0 0 0 0 28.311610434873728 -9.7186147054783945 0 -9.7186147054783945 48.59476174713032 0 0 0 0 94.086655341245205 10.396258098151293 0 10.396258098151293 -3.8473758601008967 0 0 0 0 62.607548111009777 11.892034862774352 0 11.892034862774352 0.075208751356759862 0 0 0 0 80.986925451525167 10.475245707960767 0 10.475245707960767 -31.824698071349758 0 0 0 0 17.775871979637216 3.4593343012205935 0 3.4593343012205935 1.8819031610180321 0 0 0 0 0.031521931405109171 0.052917927334647175 0 0.052917927334647175 1.8755593797283865 0 0 0 0 83.797727504912473 33.435507712114287 0 33.435507712114287 40.951069229109763 0 0 0 0 7.8129557662905427 4.0159414227985621 0 4.0159414227985621 38.073209330656354 0 0 0 0 37.483920982202108 -21.251653820005558 0 -21.251653820005558 -11.849209887360786 0 0 0 0 21.672736185078975 3.8686151771037771 0 3.8686151771037771 35.927135439583495 0 0 0 0 57.462281526677543 -33.891687895401361 0 -33.891687895401361 -30.293815574072227 0 0 0 0 52.305148592143212 2.2230808062920282 0 2.2230808062920282 -0.27711978160137501 0 0 0 0 35.973350024549291 -52.144146339480031 0 -52.144146339480031 -37.043077368225852 0 0 0 0 25.344754750971333 -68.806659475575657 0 -68.806659475575657 -46.072405838091925 0 0 0 0 4.1693926290936361 -13.002114154599639 0 -13.002114154599639 -0.12752314665483183 0 0 0 0 16.068049355901167 -46.222903805375061 0 -46.222903805375061 -19.732471893189199 0 0 0 0 25.618862857787462 -78.071585886847288 0 -78.071585886847288 -36.49329842021541 0 0 0 0 10.355062177870423 -67.936874870234206 0 -67.936874870234206 -46.506778762919282 0 0 0 0 2.1354482511929405 -1.5442833433010901 0 -1.5442833433010901 -0.096662762972684238 0 0 0 0 29.732319178008765 -48.428271794956601 0 -48.428271794956601 -155.87606651088933 0 0 0 0 -7.0887830008869059 -14.311632289091676 0 -14.311632289091676 -70.788451794920746 0 0 0 0 -0.32943129280465655 -47.458435704023259 0 -47.458435704023259 -11.664174665788408 0 0 0 0 27.071786671993323 -5.0086291672183165 0 -5.0086291672183165 -67.634825879148025 0 0 0 0 6.6527932460303418 -2.732480977848379 0 -2.732480977848379 -11.594615979650127 0 0 0 0 -4.7026397782246931 -22.971581507091535 0 -22.971581507091535 -13.742835360731789 0 0 0 0 -10.099793131972547 -25.224310541560129 0 -25.224310541560129 -6.1732691022409938 0 0 0 0 4.9537189444927492 -0.69774712476049494 0 -0.69774712476049494 0.041786004018981179 0 0 0 0 6.7368228482064296 -7.6793472823546542 0 -7.6793472823546542 6.9657223368878025 0 0 0 0 8.7212934985000174 -5.4198421586788772 0 -5.4198421586788772 -8.2042937139691841 0 0 0 0 6.8985282892050179 -0.77196381029235006 0 -0.77196381029235006 -0.0069268627305745303 0 0 0 0 42.307911433876143 -21.563728655715593 0 -21.563728655715593 -80.60251817706218 0 0 0 0 -47.932943813910242 -26.540524741990275 0 -26.540524741990275 70.207486858340431 0 0 0 0 0.92545232446468617 -0.57499618488040838 0 -0.57499618488040838 -0.11958075745804231 0 0 0 0 -4.2688137579971226 39.530409912491848 0 39.530409912491848 -98.527937206529685 0 0 0 0 160.56352866574889 -22.872280069081658 0 -22.872280069081658 -244.98955852429953 0 0 0 0 -41.245096749182267 -71.062174898500714 0 -71.062174898500714 -57.779194983644942 0 0 0 0 -1.9493225182695824 -11.555090939540369 0 -11.555090939540369 -13.989673410765675 0 0 0 0 97.349197392817587 -88.652327955527369 0 -88.652327955527369 16.923516708814219 0 0 0 0 63.287911918247119 58.943528666430424 0 58.943528666430424 74.730987069458052 0 0 0 0 215.26496465872697 52.397202428560625 0 52.397202428560625 -84.744378807936357 0 0 0 0 37.101942062159651 2.8822053051351588 0 2.8822053051351588 118.71180087412495 0 0 0 0 34.32847564061376 36.447393365527773 0 36.447393365527773 -33.313034544916036 0 0 0 0 30.329966427196268 68.979000752109982 0 68.979000752109982 -128.90950010645673 0 0 0 0 -42.144243208014814 22.334701181325201 0 22.334701181325201 -21.407071497366132 0 0 0 0 39.658027179990313 -15.439446431915687 0 -15.439446431915687 -93.043322189147048 0 0 0 0 51.402719251556846 10.201405262164112 0 10.201405262164112 -39.786612889301125 0 0 0 0 154.21853103408648 -43.04447710700952 0 -43.04447710700952 -151.40673846804876 0 0 0 0 8.0356410079566558 -0.20805976770247625 0 -0.20805976770247625 -0.21572424411176394 0 0 0 0 8.1689883889630437 0.98319167778512906 0 0.98319167778512906 4.2641472830796427 0 0 0 0 67.858365292078815 -45.112652032489905 0 -45.112652032489905 -141.68113394961514 0 0 0 0 26.944502485595876 -7.7415473686869563 0 -7.7415473686869563 0.061328157516896818 0 0 0 0 1.2636052793133103 -0.35217812566315843 0 -0.35217812566315843 -0.83595204222471775 0 0 0 0 -75.483083217754029 50.714426895585326 0 50.714426895585326 -76.621347774767727 0 0 0 0 58.515974393179931 87.982046051680626 0 87.982046051680626 -82.790351233848327 0 0 0 0 5.7317610594756445 2.5506627158696489 0 2.5506627158696489 0.36113914873954622 0 0 0 0 49.020759637758601 -21.976655559628938 0 -21.976655559628938 12.543582059336956 0 0 0 0 -34.440317028329446 134.33283521086389 0 134.33283521086389 -105.51443571980533 0 0 0 0 41.868125205292017 -23.329685603301414 0 -23.329685603301414 20.737627237704956 0 0 0 0 5.7409318790305406 -0.22095651942214545 0 -0.22095651942214545 14.116352226923022 0 0 0 0 0.29882770635182965 1.9389138009357136 0 1.9389138009357136 -0.028638580704483087 0 0 0 0 48.394517230117344 -20.030277719892659 0 -20.030277719892659 7.0893872610553759 0 0 0 0 75.565271145387669 -19.973192660979706 0 -19.973192660979706 -5.8930100750176813 0 0 0 0 57.025712549642776 -26.697915202961735 0 -26.697915202961735 12.236669658995329 0 0 0 0 59.420395342600386 -32.083521910981609 0 -32.083521910981609 13.692313557399139 0 0 0 0 51.964302330918144 -28.918539726017247 0 -28.918539726017247 16.950459948347092 0 0 0 0 90.819612965924989 -36.262828328236253 0 -36.262828328236253 7.9434404022894114 0 0 0 0 82.172563863015966 -33.937859638462399 0 -33.937859638462399 18.808343750658693 0 0 0 0 81.729027525303536 -52.649849259043087 0 -52.649849259043087 34.712751408507806 0 0 0 0 3.7347871590823729 2.0514073316654446 0 2.0514073316654446 0.50717653867982193 0 0 0 0 -51.98535220547592 115.70777185118348 0 115.70777185118348 -121.12905879035998 0 0 0 0 -27.236074338085018 12.540399049988082 0 12.540399049988082 -38.983057658594902 0 0 0 0 -75.005084942567919 139.04886117619128 0 139.04886117619128 -66.111150272771454 0 0 0 0 79.467311411757692 51.107189334169036 0 51.107189334169036 -31.362382270863122 0 0 0 0 31.804378064057232 8.6865454274949379 0 8.6865454274949379 3.1390741771722275 0 0 0 0 -6.6635607994467136 23.53066090238525 0 23.53066090238525 61.299455282372719 0 0 0 0 51.022578364565561 -6.9476059310854339 0 -6.9476059310854339 14.689328844070246 0 0 0 0 -18.72647385266464 39.59157978859389 0 39.59157978859389 2.049750559253539 0 0 0 0 10.199345646673464 -23.897787704042628 0 -23.897787704042628 38.353694221229262 0 0 0 0 75.761615635885391 -21.268552182859708 0 -21.268552182859708 25.607392320047325 0 0 0 0 213.44580805665464 0.65097156103720977 0 0.65097156103720977 10.356038282749068 0 0 0 0 65.664451739554352 6.4519141954467614 0 6.4519141954467614 11.795100069588386 0 0 0 0 26.72864564322299 -19.936880450538609 0 -19.936880450538609 45.382606195295011 0 0 0 0 46.593861428865068 12.264228439079387 0 12.264228439079387 2.2588627379678368 0 0 0 0 47.552249182255764 30.443496318303573 0 30.443496318303573 -11.230100677271096 0 0 0 0 29.148536807988421 26.057243234187695 0 26.057243234187695 12.356899588256965 0 0 0 0 53.589047615474556 36.525750039207082 0 36.525750039207082 -55.690313186263438 0 0 0 0 56.97253842860664 84.114111154805414 0 84.114111154805414 -40.07516891898922 0 0 0 0 100.40658607282603 68.898873212546903 0 68.898873212546903 -34.748917735402301 0 0 0 0 -27.478525496509974 57.421544403741791 0 57.421544403741791 17.586002249808473 0 0 0 0 37.599344751492026 99.085927716014112 0 99.085927716014112 -2.3149522105150027 0 0 0 0 1.8887418036174495 8.4512161556465344 0 8.4512161556465344 98.124116318577762 0 0 0 0 22.808087446937861 1.4759943060635123 0 1.4759943060635123 15.293830603369486 0 0 0 0 2.1858686915895476 -2.0210193249688189 0 -2.0210193249688189 1.2698606325961794 0 0 0 0 428.9097891769743 399.83641787823092 0 399.83641787823092 162.21298783969632 0 0 0 0 294.37939272422227 139.49688980097017 0 139.49688980097017 117.41829196275921 0 0 0 0 22.958240828513226 10.625948673183757 0 10.625948673183757 13.742433879541807 0 0 0 0 7.1868408787392326 -2.9278476560752438 0 -2.9278476560752438 7.4976689740453404 0 0 0 0 29.0754269553901 13.9030784079133 0 13.9030784079133 13.574733529270361 0 0 0 0 65.027448269938759 -50.001254740830518 0 -50.001254740830518 35.413833582344353 0 0 0 0 68.982713357165295 2.9488462371320701 0 2.9488462371320701 -0.23797520415582207 0 0 0 0 88.996932582260342 463.93562275662362 0 463.93562275662362 -890.08275779221367 0 0 0 0 126.04500764462864 -79.789525864190182 0 -79.789525864190182 -187.66420250155011 0 0 0 0 92.021863619961579 2.5798119586244912 0 2.5798119586244912 -1.0247991647720949 0 0 0 0 60.099600004422427 -26.274733659943763 0 -26.274733659943763 -25.143581404548058 0 0 0 0 121.58157975255745 -183.31845401775081 0 -183.31845401775081 -120.32783896334877 0 0 0 0 242.72472835685767 62.663163565011018 0 62.663163565011018 -665.7057860836926 0 0 0 0 20.904846881428966 -17.706917460743171 0 -17.706917460743171 98.765428996305673 0 0 0 0 89.037104784110852 314.26762652504681 0 314.26762652504681 272.41066556315855 0 0 0 0 8.5097020522262028 289.91905795804217 0 289.91905795804217 65.006443937548283 0 0 0 0 14.811383050211589 97.156644734381189 0 97.156644734381189 -1.9670125353175081 0 0 0 0 65.655636550523923 145.98602367119747 0 145.98602367119747 -329.7871085550205 0 0 0 0 51.120258266986639 123.83042395701295 0 123.83042395701295 3.397408373775761 0 0 0 0 42.505417661969176 2.3540062323341147 0 2.3540062323341147 0.33182426831708667 0 0 0 0 62.510352560017054 -54.219561935419051 0 -54.219561935419051 139.04728441778207 0 0 0 0 56.430573686431671 -49.621826049851961 0 -49.621826049851961 40.514754651552721 0 0 0 0 54.73462732061671 -38.988769133183496 0 -38.988769133183496 109.86499953037492 0 0 0 0 79.701443061877399 -86.183975529699552 0 -86.183975529699552 129.99853217313284 0 0 0 0 79.196682191879518 -79.483323561904172 0 -79.483323561904172 65.949972165284635 0 0 0 0 55.361446397695545 -62.257187592769242 0 -62.257187592769242 54.259267495416452 0 0 0 0 54.684139753051568 -61.573074436373645 0 -61.573074436373645 97.035060492748016 0 0 0 0 36.644771313869569 -79.688201451904661 0 -79.688201451904661 80.478941665309776 0 0 0 0 71.305316997197224 -130.98216406365736 0 -130.98216406365736 25.931135567994943 0 0 0 0 82.281511972352746 -88.802773904627884 0 -88.802773904627884 -15.173321564417165 0 0 0 0 42.08133220029049 -39.58037560562957 0 -39.58037560562957 109.10318595058493 0 0 0 0 36.562442088606531 -77.453055767486433 0 -77.453055767486433 130.66037753331693 0 0 0 0 62.769014828430954 41.877521180535837 0 41.877521180535837 79.380792431816644 0 0 0 0 60.347322006658942 -69.303685344853193 0 -69.303685344853193 135.1773671801725 0 0 0 0 49.114697159944626 -42.784574408676917 0 -42.784574408676917 59.73053392366819 0 0 0 0 64.176045821179287 -23.411384057819419 0 -23.411384057819419 70.122807800269243 0 0 0 0 1.3667908826792541 0.084420505053046213 0 0.084420505053046213 -1.5910850984514857 0 0 0 0 77.674697330261552 -13.014174168414684 0 -13.014174168414684 2.2039448174595009 0 0 0 0 66.860341573294136 -24.471648138346865 0 -24.471648138346865 0.61840992365896597 0 0 0 0 31.867197023573681 -7.1115546501767284 0 -7.1115546501767284 -4.5168865574629535 0 0 0 0 77.089632232326039 -6.481843033390227 0 -6.481843033390227 -16.862485519214999 0 0 0 0 75.27162927167592 -3.0580620511015013 0 -3.0580620511015013 -16.668236559215593 0 0 0 0 70.228045040175857 -1.3146182155309702 0 -1.3146182155309702 -3.8413407399511925 0 0 0 0 61.885293411032762 -11.477079649343295 0 -11.477079649343295 -5.3382779031343262 0 0 0 0 32.287322794021748 6.9296619724465245 0 6.9296619724465245 -0.83252268560636367 0 0 0 0 76.95276897538497 -0.49447983721347555 0 -0.49447983721347555 -20.358962005900366 0 0 0 0 77.797373567911563 -16.241392768639685 0 -16.241392768639685 7.1665238638433948 0 0 0 0 85.371622743135958 -9.5839690082302695 0 -9.5839690082302695 -33.426543038846489 0 0 0 0 70.566693509597826 22.990120672056918 0 22.990120672056918 -61.637983279486356 0 0 0 0 63.639128113354673 3.0717571773422492 0 3.0717571773422492 -18.889132857821011 0 0 0 0 71.667498900340433 -8.1775895997221824 0 -8.1775895997221824 -13.70477461239966 0 0 0 0 70.638595550670289 -29.663783475874709 0 -29.663783475874709 1.9969738156530639 0 0 0 0 81.088165939421742 -56.180903398997771 0 -56.180903398997771 55.59664860102589 0 0 0 0 103.98501646119439 -39.041992603357016 0 -39.041992603357016 -18.510778111106674 0 0 0 0 90.931979468237842 -31.649349822833074 0 -31.649349822833074 -0.15082212708477982 0 0 0 0 124.91830228554682 -24.655685432368017 0 -24.655685432368017 -49.004623244281902 0 0 0 0 98.065516207941982 32.696036884197383 0 32.696036884197383 -36.385482136494829 0 0 0 0 97.592725235801481 34.660928046747472 0 34.660928046747472 -38.484584955355785 0 0 0 0 65.989468843385112 2.075943368541175 0 2.075943368541175 -69.168444029652164 0 0 0 0 79.344958341163874 55.85216948885423 0 55.85216948885423 -119.04160843343607 0 0 0 0 50.361623258497275 20.76929615844146 0 20.76929615844146 -48.936187422778914 0 0 0 0 80.556263517286425 -8.6877220373483866 0 -8.6877220373483866 -47.823224832297029 0 0 0 0 74.615055792477506 -41.395457425042878 0 -41.395457425042878 98.36461561318697 0 0 0 0 57.936130555510275 9.8935409775348901 0 9.8935409775348901 -11.158758737794994 0 0 0 0 67.356823871937195 -32.092985196435279 0 -32.092985196435279 93.311682816374287 0 0 0 0 59.881357367706009 9.6615575908669413 0 9.6615575908669413 -11.362409019881854 0 0 0 0 93.867843662241285 -71.851828873031081 0 -71.851828873031081 101.58996295263842 0 0 0 0 41.641597460758931 -12.942039490982097 0 -12.942039490982097 92.788850592997505 0 0 0 0 49.749394097696495 -13.484922051873355 0 -13.484922051873355 92.622053412678042 0 0 0 0 69.942777655411192 -17.095677393573169 0 -17.095677393573169 59.398325694721279 0 0 0 0 64.917729625965876 -22.859548331736505 0 -22.859548331736505 77.17406219188797 0 0 0 0 69.32871957118914 -21.188374187416002 0 -21.188374187416002 67.649234308349151 0 0 0 0 63.194667167248554 -14.682735601775676 0 -14.682735601775676 72.432430696561823 0 0 0 0 56.110465574340196 -1.5873678555390143 0 -1.5873678555390143 52.217389501225625 0 0 0 0 67.711786504471092 -18.259536328371723 0 -18.259536328371723 59.606939394697065 0 0 0 0 70.986769083052423 -14.228612616256669 0 -14.228612616256669 53.853789893441899 0 0 0 0 58.498424061823556 6.7090232676757537 0 6.7090232676757537 -9.4782095336939527 0 0 0 0 19.177447228313213 112.75123467756012 0 112.75123467756012 11.63758390889825 0 0 0 0 57.969166841270635 45.205446595623471 0 45.205446595623471 -123.56213312776072 0 0 0 0 0.99769799915480917 5.0475141032654056 0 5.0475141032654056 -1.9997525945756505 0 0 0 0 110.85983829254837 109.37983049927334 0 109.37983049927334 -64.94454415621658 0 0 0 0 -0.44449561990768416 22.089845200826403 0 22.089845200826403 -29.56210482294955 0 0 0 0 -0.57954532494181876 26.342957329259569 0 26.342957329259569 5.4612519158699797 0 0 0 0 -19.505261000434984 51.283418722762235 0 51.283418722762235 57.335264668118725 0 0 0 0 1.3627030285279034 69.375135559841056 0 69.375135559841056 -8.0674065672872075 0 0 0 0 -160.12746623207204 36.148749561447403 0 36.148749561447403 57.88369078694177 0 0 0 0 -56.053819304275748 -5.9738705054304546 0 -5.9738705054304546 14.819252791260624 0 0 0 0 -51.502029473445873 164.65825272452639 0 164.65825272452639 122.86069776262684 0 0 0 0 -489.04559297475498 124.83358079232221 0 124.83358079232221 120.00950653697168 0 0 0 0 28.474781420678482 445.34999018618737 0 445.34999018618737 -9.8483062919458462 0 0 0 0 402.27355889460159 98.370736039973963 0 98.370736039973963 -66.66715370943075 0 0 0 0 73.835753290131834 102.48682219766738 0 102.48682219766738 -9.9292582317939377 0 0 0 0 7.9985024471370707 79.59728433657699 0 79.59728433657699 -17.885307795536391 0 0 0 0 124.80895127302938 145.63621946880926 0 145.63621946880926 -35.358555951293056 0 0 0 0 152.59282289651128 -48.413178287114306 0 -48.413178287114306 8.7928778522291395 0 0 0 0 249.35578149618959 9.1816893653008265 0 9.1816893653008265 -59.409148570915477 0 0 0 0 178.37217194052209 -79.910819495527448 0 -79.910819495527448 10.184505611885811 0 0 0 0 80.548332425452827 -57.836555467056314 0 -57.836555467056314 112.46638021758872 0 0 0 0 445.00031430651143 -156.27878167119479 0 -156.27878167119479 30.693948763861044 0 0 0 0 303.56005229084258 43.353871996429916 0 43.353871996429916 -8.5968934207785423 0 0 0 0 1080.2969007935098 -176.16709624866144 0 -176.16709624866144 3.2626602990370088 0 0 0 0 14.503540161367539 1.1651797753797837 0 1.1651797753797837 0.70030882360927293 0 0 0 0 369.83415574204264 -396.69465213089416 0 -396.69465213089416 537.7910012546854 0 0 0 0 77.852511342527578 -131.67242265959203 0 -131.67242265959203 304.52691390361178 0 0 0 0 110.70728234302806 111.3559347316509 0 111.3559347316509 -28.747258627066913 0 0 0 0 107.47679352376144 76.649560861823375 0 76.649560861823375 -50.98982101867341 0 0 0 0 342.19458746165037 401.63418547483479 0 401.63418547483479 357.98282073006158 0 0 0 0 749.10065240653785 -213.41112673129328 0 -213.41112673129328 -425.303725187488 0 0 0 0 -629.40711881357129 -431.12452193983381 0 -431.12452193983381 882.29586556268896 0 0 0 0 -627.34583637980541 -507.25627305702938 0 -507.25627305702938 230.74594172487014 0 0 0 0 35.406460618840356 -0.96369459791435474 0 -0.96369459791435474 21.50886570318238 0 0 0 0 22.54654379523005 -20.126303309917091 0 -20.126303309917091 9.7836273191665697 0 0 0 0 -129.47765451002851 -206.91717885413414 0 -206.91717885413414 -48.517466500392402 0 0 0 0 6.6442460832342221 -7.5944653803198321 0 -7.5944653803198321 2.1379826288072454 0 0 0 0 -779.12705234927125 349.74858587325934 0 349.74858587325934 -164.49644068592352 0 0 0 0 -251.56946802073799 -111.38771233463285 0 -111.38771233463285 -106.18810730159566 0 0 0 0 444.27224079126245 582.05116211240556 0 582.05116211240556 549.86789055508416 0 0 0 0 36.937144800685928 -18.533500373429717 0 -18.533500373429717 22.53953114553503 0 0 0 0 23.704955992507166 -13.888570936413913 0 -13.888570936413913 23.643709510914654 0 0 0 0 15.931638829730218 -17.152066517638417 0 -17.152066517638417 25.79338557813767 0 0 0 0 22.931624627854035 -16.56791670832817 0 -16.56791670832817 25.254453956354794 0 0 0 0 10.284383207582408 1.1702299395888289 0 1.1702299395888289 6.7102057593355564 0 0 0 0 33.443138198633278 -10.613832545224753 0 -10.613832545224753 29.727698315260568 0 0 0 0 3.3941435892500351 3.4483502130357309 0 3.4483502130357309 2.4148408445749228 0 0 0 0 35.99644863006688 -24.762160982105129 0 -24.762160982105129 31.758699870666817 0 0 0 0 36.564749287070299 -22.964379289634635 0 -22.964379289634635 31.255214302206269 0 0 0 0 41.794587006255824 -34.379949816063444 0 -34.379949816063444 48.751391490929166 0 0 0 0 83.933289783431974 -45.321830662893774 0 -45.321830662893774 20.376099273458152 0 0 0 0 54.825223919426207 -24.952576114362216 0 -24.952576114362216 12.018744526305113 0 0 0 0 85.850430098642391 -10.282665329572758 0 -10.282665329572758 -20.231809260309603 0 0 0 0 68.154998416466697 -24.776111924044692 0 -24.776111924044692 8.8864970737836018 0 0 0 0 53.8116495315262 -22.299892208798127 0 -22.299892208798127 13.830110443513291 0 0 0 0 53.958118914153602 -15.786883777315873 0 -15.786883777315873 3.1991480154463225 0 0 0 0 50.931218986530439 -19.099633796165413 0 -19.099633796165413 14.499283520437976 0 0 0 0 41.262446995919163 -12.948846119142921 0 -12.948846119142921 12.573127067403902 0 0 0 0 36.01317190759859 4.888605227509359 0 4.888605227509359 -7.1075330793524065 0 0 0 0 48.353468028217321 -8.1894591438043562 0 -8.1894591438043562 6.8570008951740391 0 0 0 0 46.412430944325024 -12.853594858775311 0 -12.853594858775311 12.219300445100259 0 0 0 0 23.753986213334429 4.2204560474153823 0 4.2204560474153823 4.3613901661642558 0 0 0 0 52.460919577001732 4.7561575368172786 0 4.7561575368172786 -14.463932222770609 0 0 0 0 13.562997642502904 -2.6380945903140969 0 -2.6380945903140969 0.31187494943775773 0 0 0 0 64.954901957447873 -10.41546627649933 0 -10.41546627649933 5.8228066172169264 0 0 0 0 10.22925292296889 -1.1719771435834332 0 -1.1719771435834332 9.5481828675935567 0 0 0 0 17.484252563284826 3.0177580988753476 0 3.0177580988753476 19.377500167282506 0 0 0 0 20.643861850257963 -1.4750668910172635 0 -1.4750668910172635 8.0049352291028981 0 0 0 0 44.53047293718555 -11.03736896980854 0 -11.03736896980854 19.681704897666805 0 0 0 0 44.171036372106755 -4.7889739616973657 0 -4.7889739616973657 11.827374132396017 0 0 0 0 52.134569561957051 -11.097212808566468 0 -11.097212808566468 16.821582117897378 0 0 0 0 36.674412153799494 -10.836326919502277 0 -10.836326919502277 16.476971791174797 0 0 0 0 35.378500135461991 5.2495276900190788 0 5.2495276900190788 -7.3627989660811366 0 0 0 0 22.573050753213465 -7.5382865855955572 0 -7.5382865855955572 16.291792484283505 0 0 0 0 35.57091609548479 -14.242069872962979 0 -14.242069872962979 14.80611787214734 0 0 0 0 12.949447676701084 -14.554279441722116 0 -14.554279441722116 18.32882253795848 0 0 0 0 -42.114166750194272 -46.396099911038618 0 -46.396099911038618 20.691740301193704 0 0 0 0 7.9064225064212224 -11.301912588718096 0 -11.301912588718096 14.943278394411891 0 0 0 0 14.350976878797965 -11.920651965178983 0 -11.920651965178983 14.365050353188161 0 0 0 0 12.619930346882029 2.7575245949358305 0 2.7575245949358305 7.0553577447290081 0 0 0 0 -24.418972588449833 27.046084415841506 0 27.046084415841506 8.1824584637201951 0 0 0 0 36.390319482903578 -6.9828236867706437 0 -6.9828236867706437 -11.195700366680285 0 0 0 0 42.316816144031947 -5.3219978125123326 0 -5.3219978125123326 -1.8211202260653687 0 0 0 0 23.32548523975322 1.1266243142139487 0 1.1266243142139487 2.5152433267423016 0 0 0 0 21.996641160005908 -0.18945609842782574 0 -0.18945609842782574 -0.75607324714884783 0 0 0 0 50.242267370784248 -4.8387918362759592 0 -4.8387918362759592 -13.90562967035612 0 0 0 0 41.641374796310629 2.2845091681318195 0 2.2845091681318195 -2.3643773551330014 0 0 0 0 38.356576145080908 -20.01931775931439 0 -20.01931775931439 9.9851752393910829 0 0 0 0 40.815277120811515 -0.97901890819639448 0 -0.97901890819639448 10.586054812863949 0 0 0 0 32.489607093171799 2.8751346206558992 0 2.8751346206558992 53.757955128194681 0 0 0 0 58.625934434454393 4.8240355545744933 0 4.8240355545744933 24.701413073100866 0 0 0 0 40.598376061720046 10.779423283208416 0 10.779423283208416 82.896908121608703 0 0 0 0 53.540984260835103 44.415772866861971 0 44.415772866861971 95.914337259636795 0 0 0 0 41.419034403708793 16.742090201297287 0 16.742090201297287 48.592904944773636 0 0 0 0 11.282943733222055 29.000519360177577 0 29.000519360177577 102.00488823715 0 0 0 0 -6.2368182542340946 4.7528216157591032 0 4.7528216157591032 108.144284611427 0 0 0 0 35.10868489168206 -3.3610820306798814 0 -3.3610820306798814 95.576666218758419 0 0 0 0 64.79994146111494 -36.610198181450073 0 -36.610198181450073 130.50412749053817 0 0 0 0 -0.38462692265444431 2.1494198696094458 0 2.1494198696094458 1.6242472305707736 0 0 0 0 32.795589592700708 78.109151365225557 0 78.109151365225557 213.9203730342897 0 0 0 0 130.52037103511975 87.159573673453565 0 87.159573673453565 76.000932569716497 0 0 0 0 73.085899771437653 11.553438367579133 0 11.553438367579133 1.8237369587313879 0 0 0 0 32.711563077595201 -8.8222553541199886 0 -8.8222553541199886 27.241152151567803 0 0 0 0 93.947208000619867 3.4182836433226385 0 3.4182836433226385 -11.589810575458159 0 0 0 0 47.192069532706228 -15.213288523452547 0 -15.213288523452547 -17.864512258375726 0 0 0 0 40.631910410247656 -4.0738658870809559 0 -4.0738658870809559 3.3055393174045093 0 0 0 0 27.508434921514606 -11.465827026652686 0 -11.465827026652686 5.9498922076516108 0 0 0 0 54.442569756996818 -8.7918454846599161 0 -8.7918454846599161 -13.064602355627358 0 0 0 0 7.1041673716457128 -0.090961773168331206 0 -0.090961773168331206 5.093677052389582 0 0 0 0 33.062562710631028 -11.214818933242668 0 -11.214818933242668 14.220438201460638 0 0 0 0 30.271646894627381 -2.6053087326250495 0 -2.6053087326250495 4.036608637450839 0 0 0 0 45.590373878949322 -16.405726779645192 0 -16.405726779645192 -13.167642969922781 0 0 0 0 49.584393675237152 -8.7936895011246179 0 -8.7936895011246179 11.785971658207018 0 0 0 0 33.600925746378891 -10.862129118168678 0 -10.862129118168678 3.0507127002388739 0 0 0 0 2.6651439834022597 6.0184824777069554 0 6.0184824777069554 -3.1533175244171141 0 0 0 0 43.64694870735002 -8.6816744790430675 0 -8.6816744790430675 8.0412190091601587 0 0 0 0 47.961865174074774 -9.7599265632802599 0 -9.7599265632802599 -6.3244601267570033 0 0 0 0 48.352711386163719 -12.059950129761546 0 -12.059950129761546 7.1317027419966053 0 0 0 0 48.666552092578058 1.0567091931040977 0 1.0567091931040977 1.2289034159766743 0 0 0 0 24.18069984087424 -13.077931137952717 0 -13.077931137952717 21.290680757146447 0 0 0 0 25.674204885930521 -16.60879833768638 0 -16.60879833768638 14.723824949459299 0 0 0 0 7.2398205672524725 -2.0009066961537911 0 -2.0009066961537911 9.7408422370896872 0 0 0 0 25.231127249870042 -1.5863228217170899 0 -1.5863228217170899 38.904445690402611 0 0 0 0 35.553218555942294 -24.928877941045698 0 -24.928877941045698 25.87181532515217 0 0 0 0 23.250767904552049 -10.164954152823384 0 -10.164954152823384 12.653191901055152 0 0 0 0 43.58437523021712 -40.32285487231627 0 -40.32285487231627 64.028053098650389 0 0 0 0 0.5592683452086078 0.50391518032887461 0 0.50391518032887461 0.67535995091258583 0 0 0 0 41.834471944053803 -8.3017860535211838 0 -8.3017860535211838 5.3386275019533969 0 0 0 0 18.401592832509323 -5.6127727515932282 0 -5.6127727515932282 3.6014636957169137 0 0 0 0 -128.74540126739885 -61.375444989333175 0 -61.375444989333175 117.14701104523738 0 0 0 0 7.0398521373749219 -2.3511133564144586 0 -2.3511133564144586 2.8362353423791595 0 0 0 0 26.928458374772163 -8.1532293624014756 0 -8.1532293624014756 7.248109626336884 0 0 0 0 23.978665421826932 -10.305674124203755 0 -10.305674124203755 4.8030195235155926 0 0 0 0 27.441911830785102 -19.552666111349936 0 -19.552666111349936 8.2215655213683476 0 0 0 0 36.272634168257355 -14.273521030191148 0 -14.273521030191148 1.5424857915757002 0 0 0 0 28.434426315092423 -13.21705527834547 0 -13.21705527834547 -3.3224770863039339 0 0 0 0 -6.9409258095329278 -30.715214156995899 0 -30.715214156995899 8.6234546938367203 0 0 0 0 4.4745714777020211 -0.15079942305209215 0 -0.15079942305209215 9.1414052490006572 0 0 0 0 216.96185869417241 -186.37152631840041 0 -186.37152631840041 -28.697673725323739 0 0 0 0 49.134867534450677 -7.7093456888606227 0 -7.7093456888606227 352.64134391631433 0 0 0 0 482.93374556247727 -280.96193424796763 0 -280.96193424796763 -68.771842490346103 0 0 0 0 374.51455791147964 -318.24126032914103 0 -318.24126032914103 419.13922380430279 0 0 0 0 -30.244821482872794 70.914513719934064 0 70.914513719934064 148.72631100820291 0 0 0 0 0.17685094059346795 0.94012285917895611 0 0.94012285917895611 3.4924918856269671 0 0 0 0 558.8130634254594 -475.92339485653008 0 -475.92339485653008 428.78644338838853 0 0 0 0 68.811633692374016 -53.408344990608498 0 -53.408344990608498 -28.828243180420031 0 0 0 0 1470.3650157772863 -432.90216652018489 0 -432.90216652018489 61.543766940044605 0 0 0 0 1218.4267270078926 -69.871221349484287 0 -69.871221349484287 357.24077965893053 0 0 0 0 494.57158698381681 -604.43970650415099 0 -604.43970650415099 630.06332343737665 0 0 0 0 219.96275245172728 -34.827127340748802 0 -34.827127340748802 337.64281450432145 0 0 0 0 971.84882088837185 -1224.0627366853778 0 -1224.0627366853778 1045.7054845116115 0 0 0 0 2587.723991894185 -435.35027701691183 0 -435.35027701691183 34.9455069552167 0 0 0 0 2500.2711649407793 -544.82595885829426 0 -544.82595885829426 947.94662914675644 0 0 0 0 2639.0835427935417 -795.79703500746666 0 -795.79703500746666 112.55894266603364 0 0 0 0 2331.2464461071067 -276.80605253462102 0 -276.80605253462102 -165.43056174340452 0 0 0 0 -37.431325997858949 -4.6092026212718906 0 -4.6092026212718906 530.90264712369162 0 0 0 0 1343.0896810108643 513.77067517210298 0 513.77067517210298 -105.78570889708541 0 0 0 0 -18.050680209526035 -105.11319510630997 0 -105.11319510630997 -42.376197777750093 0 0 0 0 8.3192632680986378 -2.554294054423659 0 -2.554294054423659 1.0532067117970572 0 0 0 0 82.827838327124482 193.0391251362667 0 193.0391251362667 33.221041163758457 0 0 0 0 130.95154676960738 121.65370242513904 0 121.65370242513904 36.747119470655662 0 0 0 0 371.95057680978061 278.00270146112291 0 278.00270146112291 72.589036505077956 0 0 0 0 2501.4194057039786 -607.42633786905481 0 -607.42633786905481 458.77871482583566 0 0 0 0 -219.91939020422433 -200.55424209127909 0 -200.55424209127909 106.62960399191184 0 0 0 0 4.673771371546863 -3.9520837758760905 0 -3.9520837758760905 1.9464490013337048 0 0 0 0 739.86710776503605 -512.72325929470867 0 -512.72325929470867 141.53277120459487 0 0 0 0 3200.6724998603568 552.16098259111254 0 552.16098259111254 230.29874590002734 0 0 0 0 2339.2969165441609 727.28238858324789 0 727.28238858324789 244.17430200691055 0 0 0 0 9.2775453845039451 -11.551838115012458 0 -11.551838115012458 4.4855825912230758 0 0 0 0 2232.3637674877682 534.0415872541563 0 534.0415872541563 122.67314707442185 0 0 0 0 2370.0121253833931 518.25246073617745 0 518.25246073617745 13.411206846551666 0 0 0 0 2499.5720295798237 618.11508561401627 0 618.11508561401627 50.077339861273195 0 0 0 0 -23.498639552250097 -92.420419038702391 0 -92.420419038702391 -35.176193957848682 0 0 0 0 50.818374102342204 -8.982934032893354 0 -8.982934032893354 -13.911240034848788 0 0 0 0 93.723670161536575 -24.147432080140305 0 -24.147432080140305 18.677271902653729 0 0 0 0 122.02174657477008 -44.875190580675053 0 -44.875190580675053 -143.05264834991681 0 0 0 0 121.95156728382426 79.831673215083015 0 79.831673215083015 -58.857171961831682 0 0 0 0 96.270279914457205 108.15543879648158 0 108.15543879648158 67.684789285801799 0 0 0 0 90.064978563386831 68.173130298658862 0 68.173130298658862 59.565258379224019 0 0 0 0 150.73952959101007 16.862641409083494 0 16.862641409083494 -42.429450160231681 0 0 0 0 34.937840256519848 21.423469246277136 0 21.423469246277136 120.52418372164539 0 0 0 0 21.725170414109016 -6.599012937110956 0 -6.599012937110956 32.269430423621998 0 0 0 0 29.230177835846916 -3.604105713466538 0 -3.604105713466538 39.168835574262175 0 0 0 0 29.634213628414727 17.82221750108306 0 17.82221750108306 53.881514658460219 0 0 0 0 29.378643270400062 14.034703494239807 0 14.034703494239807 14.386454517607945 0 0 0 0 35.81219308765867 17.172210330645271 0 17.172210330645271 1.6609459656202716 0 0 0 0 36.004098215919043 8.4999793080443382 0 8.4999793080443382 -2.1693350886633831 0 0 0 0 41.562424593728792 27.660704736697653 0 27.660704736697653 -5.9076887545442673 0 0 0 0 70.449171590022161 35.472409970536887 0 35.472409970536887 7.2701782328551872 0 0 0 0 69.697359206853434 -1.865442188572672 0 -1.865442188572672 -15.96793796374277 0 0 0 0 56.716890725190751 -14.857785607223263 0 -14.857785607223263 -18.874539401172342 0 0 0 0 36.32465751767532 7.8690345397807775 0 7.8690345397807775 -2.7905115184606517 0 0 0 0 54.311238695045176 -5.1347071452960336 0 -5.1347071452960336 -13.969188761841679 0 0 0 0 87.201855093833956 6.4517270254015404 0 6.4517270254015404 38.009954467687805 0 0 0 0 43.04349645502225 -29.08479716150643 0 -29.08479716150643 12.014655738031962 0 0 0 0 58.770112985175729 53.545229348022986 0 53.545229348022986 -10.662600504506656 0 0 0 0 558.10628212467418 204.43595896721297 0 204.43595896721297 85.843752086640507 0 0 0 0 1386.2435375939385 229.32710708338092 0 229.32710708338092 -252.55969998560397 0 0 0 0 3.2859807703731576 -2.3393740130457559 0 -2.3393740130457559 -1.5724447378532824 0 0 0 0 1790.80911131428 164.13459568759745 0 164.13459568759745 -325.3837517913467 0 0 0 0 1097.1546867864672 176.93655857537553 0 176.93655857537553 297.21793483035765 0 0 0 0 1556.1235852276623 -144.51225720677388 0 -144.51225720677388 -325.3857210531574 0 0 0 0 2039.906840887721 -152.05855045000044 0 -152.05855045000044 -339.20304748109379 0 0 0 0 1856.4823975355685 281.39301430320648 0 281.39301430320648 -118.89576817313207 0 0 0 0 1729.5794622366934 177.1775426521265 0 177.1775426521265 -32.185313503072166 0 0 0 0 2500.8905704939571 172.4008902230311 0 172.4008902230311 -355.21007883873381 0 0 0 0 1990.780246378552 395.54734111705505 0 395.54734111705505 6.3596534851190354 0 0 0 0 1734.020700813373 236.91712640652329 0 236.91712640652329 -34.242341819219746 0 0 0 0 49.660996197293571 -11.694843013064769 0 -11.694843013064769 -12.804558007047262 0 0 0 0 14.633267840356837 -16.661400855242249 0 -16.661400855242249 6.4364814193225026 0 0 0 0 68.407321197610145 150.77022849411208 0 150.77022849411208 -260.62217639009941 0 0 0 0 85.516752400704718 -58.46433041197497 0 -58.46433041197497 -80.895636655395037 0 0 0 0 16.24238079557815 13.397850732161213 0 13.397850732161213 5.2129994277986089 0 0 0 0 860.37507728472337 -472.83907645776981 0 -472.83907645776981 291.24974123234318 0 0 0 0 -0.17790283775185856 9.119025285081598 0 9.119025285081598 -0.061959884868552625 0 0 0 0 2499.3731122988938 -1216.0468869373562 0 -1216.0468869373562 398.40395450473869 0 0 0 0 1340.8014106072442 -450.61096320951748 0 -450.61096320951748 -37.573722264602452 0 0 0 0 1270.1349925358918 -237.55578033388991 0 -237.55578033388991 -67.468597665428248 0 0 0 0 2493.8403286728117 -93.770313056332341 0 -93.770313056332341 -464.4086551472468 0 0 0 0 1543.6572612463387 364.97750469420112 0 364.97750469420112 -22.037519303682704 0 0 0 0 460.11526856168712 29.688902611470283 0 29.688902611470283 248.77022757769427 0 0 0 0 1547.9790551892147 -307.02402861428789 0 -307.02402861428789 -85.691595387467814 0 0 0 0 1596.868508981519 -527.1062204098148 0 -527.1062204098148 -47.545122533169206 0 0 0 0 370.12633337335865 -364.81716370213803 0 -364.81716370213803 171.76697541504578 0 0 0 0 324.65169669569332 -113.75586023017111 0 -113.75586023017111 84.185333052966882 0 0 0 0 5.9436456661278498 25.381680899590947 0 25.381680899590947 -15.440402989907263 0 0 0 0 19.130076917805965 5.9953581819753126 0 5.9953581819753126 -7.1468403780829703 0 0 0 0 5.9958110202569515 3.5240376734898291 0 3.5240376734898291 -11.580251559968474 0 0 0 0 13.659968783700606 13.596499790366209 0 13.596499790366209 0.9153605172555217 0 0 0 0 -593.26084316967172 322.86030315867811 0 322.86030315867811 -179.98811510925225 0 0 0 0 -948.28898375372955 55.278009580317757 0 55.278009580317757 96.556919521348391 0 0 0 0 -258.43689736929809 402.99104126381508 0 402.99104126381508 -271.55712576293399 0 0 0 0 55.497581084913691 -5.4769043419735226 0 -5.4769043419735226 -52.720861464434392 0 0 0 0 2.3383547010093082 -0.68780172605863754 0 -0.68780172605863754 -1.6269519613744921 0 0 0 0 33.758366702029889 -15.973764239158072 0 -15.973764239158072 -56.992672140065679 0 0 0 0 5.8403788820421596 -3.8278810459105301 0 -3.8278810459105301 -17.604475699332959 0 0 0 0 21.090713937440455 7.8242556416542648 0 7.8242556416542648 -4.5668173697752623 0 0 0 0 29.904864312411519 19.65225399580504 0 19.65225399580504 -9.8821979696008384 0 0 0 0 9.2211836205502209 12.359471761353092 0 12.359471761353092 1.446054938579364 0 0 0 0 63.450508877191169 -15.600628248956582 0 -15.600628248956582 -143.29853220715677 0 0 0 0 -20.891488179469889 -12.128538383605701 0 -12.128538383605701 -28.959648903230345 0 0 0 0 -20.30874626296918 -13.276655085583513 0 -13.276655085583513 -50.314297796858227 0 0 0 0 31.651751562661957 -38.760766513502062 0 -38.760766513502062 -39.642960652105842 0 0 0 0 -56.814923779136734 -99.857574956305825 0 -99.857574956305825 -75.885068047414507 0 0 0 0 100.51090156047212 -45.559427806690422 0 -45.559427806690422 -112.99070383516892 0 0 0 0 82.089610031434859 23.744832374035269 0 23.744832374035269 -138.01136264304159 0 0 0 0 -1.6558399920539344 -1.8492460898928584 0 -1.8492460898928584 -5.0675801545877306 0 0 0 0 -341.84499541009427 965.73366316008173 0 965.73366316008173 -733.59185672942112 0 0 0 0 -76.583884591862443 -120.1527881774897 0 -120.1527881774897 -89.745579113008148 0 0 0 0 -0.76052770547539694 404.4486181737193 0 404.4486181737193 -437.66179059197486 0 0 0 0 -55.774892642103225 -13.060022467134267 0 -13.060022467134267 23.783924564394056 0 0 0 0 112.61206587258494 278.72212147841628 0 278.72212147841628 -449.86455731955721 0 0 0 0 258.15539095945132 370.79281846052163 0 370.79281846052163 -679.45936499524782 0 0 0 0 -657.83102131084888 686.73310389379105 0 686.73310389379105 -514.72778006503745 0 0 0 0 139.53577961595056 379.2316222528483 0 379.2316222528483 -67.453471762046604 0 0 0 0 144.2156349677316 388.6167204229738 0 388.6167204229738 -656.97623826599499 0 0 0 0 35.50821167036338 -153.46536127287158 0 -153.46536127287158 -480.85965840913633 0 0 0 0 904.29298838870091 648.21854958170707 0 648.21854958170707 -101.73582645054668 0 0 0 0 720.02208800018707 199.39071889769582 0 199.39071889769582 -387.38910400623536 0 0 0 0 781.0305486469515 371.58916491123341 0 371.58916491123341 -194.21602506446527 0 0 0 0 215.46760039722358 265.6659581269119 0 265.6659581269119 453.00227565383091 0 0 0 0 265.68600250035888 47.050355026097463 0 47.050355026097463 -109.80370421406155 0 0 0 0 24.923737887583229 -23.25532976624919 0 -23.25532976624919 -1.6614517344773958 0 0 0 0 7.1315380269293058 3.6967153883946189 0 3.6967153883946189 4.1579690217847372 0 0 0 0 205.08542334610684 -43.174373315139064 0 -43.174373315139064 -90.534153705667336 0 0 0 0 -130.94468971326205 639.97460134399194 0 639.97460134399194 990.2768808138128 0 0 0 0 1142.2577513318174 1374.0201601565623 0 1374.0201601565623 647.42574717638252 0 0 0 0 2495.6499409223784 974.45500686625201 0 974.45500686625201 -430.34135832869413 0 0 0 0 1314.2896753433852 329.41012492987176 0 329.41012492987176 -652.2269656278512 0 0 0 0 2500.8338548535503 226.969800927791 0 226.969800927791 -752.35208538072141 0 0 0 0 583.93748279152624 463.92456574249326 0 463.92456574249326 -474.20248288005899 0 0 0 0 742.56873621582054 -274.81753947046047 0 -274.81753947046047 -342.9003833254601 0 0 0 0 2495.1861275367555 -826.4289486281009 0 -826.4289486281009 -172.10320323386867 0 0 0 0 892.57284749708197 743.46818814102983 0 743.46818814102983 -78.998575270119474 0 0 0 0 9.2312622237164987 2.4108396716166851 0 2.4108396716166851 0.052013155676684408 0 0 0 0 192.77247250961773 -206.45491728938575 0 -206.45491728938575 340.48723197091442 0 0 0 0 2494.923463333067 69.14372648141115 0 69.14372648141115 -235.67384755942135 0 0 0 0 338.8578644108311 -422.2527375159105 0 -422.2527375159105 649.34827560407575 0 0 0 0 349.723943297613 -371.991381892562 0 -371.991381892562 444.26977743784198 0 0 0 0 361.66061305942912 -479.23922176516589 0 -479.23922176516589 190.45108464288197 0 0 0 0 626.31756214633788 -328.6585390949075 0 -328.6585390949075 173.50551183684837 0 0 0 0 551.76203919319232 -283.72510908313438 0 -283.72510908313438 178.54989520925619 0 0 0 0 548.55640086061248 -360.53793009744908 0 -360.53793009744908 381.8069148768343 0 0 0 0 382.40662047738078 -369.11415547895029 0 -369.11415547895029 192.17682098999239 0 0 0 0 344.60440739344267 -52.721451914205431 0 -52.721451914205431 -114.06967065965637 0 0 0 0 14.398675449556336 5.4594772329589283 0 5.4594772329589283 -0.09015446636644564 0 0 0 0 6.8807574144520913 183.05386783705569 0 183.05386783705569 -228.24013821694149 0 0 0 0 -382.9728833803274 488.11487375062222 0 488.11487375062222 -169.06940553978814 0 0 0 0 -460.86236678371824 230.74335695292683 0 230.74335695292683 -285.24903207291686 0 0 0 0 632.07189537208978 -451.7946774921877 0 -451.7946774921877 216.35235985652014 0 0 0 0 6.2765243202763941 2.239581481701844 0 2.239581481701844 0.04395334495966452 0 0 0 0 698.80559246630946 -299.49370428826353 0 -299.49370428826353 98.460774705268136 0 0 0 0 512.9414013620808 -255.38319485812002 0 -255.38319485812002 283.53658869775245 0 0 0 0 443.34721958473165 -366.51473436547349 0 -366.51473436547349 130.73349485523551 0 0 0 0 458.75755064020632 -174.11502241489475 0 -174.11502241489475 61.071361489421932 0 0 0 0 7.0318970882690337 22.069033858746025 0 22.069033858746025 -24.160532359182753 0 0 0 0 3.0078682580618405 0.16515691123169063 0 0.16515691123169063 -4.2020573711805227 0 0 0 0 503.18705233676155 -327.15318910545534 0 -327.15318910545534 148.62894375986878 0 0 0 0 534.95014911200269 -298.12177920114084 0 -298.12177920114084 192.02981672763178 0 0 0 0 558.09348051131087 -345.09462646954677 0 -345.09462646954677 152.73667643180212 0 0 0 0 -9.185623606403567 79.305174185053659 0 79.305174185053659 117.89913397272039 0 0 0 0 2.1533362495024022 0.30125975369021063 0 0.30125975369021063 -1.8736300418231031 0 0 0 0 36.660126065486111 -16.262031004952632 0 -16.262031004952632 -38.167462487464604 0 0 0 0 -8.7327458617510274 -59.669222059900903 0 -59.669222059900903 76.002921252594774 0 0 0 0 11.365518380272988 -33.914408905597156 0 -33.914408905597156 197.73668721526633 0 0 0 0 122.33273309631477 -17.859657787150127 0 -17.859657787150127 87.449076561236325 0 0 0 0 102.09246273424651 74.120394574304783 0 74.120394574304783 236.65337592530705 0 0 0 0 36.266382813322707 -78.386970437249488 0 -78.386970437249488 476.80956206625842 0 0 0 0 136.35066710275441 130.18460443321328 0 130.18460443321328 135.12799373337907 0 0 0 0 7.0116570981863333 27.063414537714777 0 27.063414537714777 122.17023679601334 0 0 0 0 1.1259003723826027 -15.702957489291236 0 -15.702957489291236 104.7106413848766 0 0 0 0 15.035084155595541 -3.8704446396237131 0 -3.8704446396237131 71.62281091499716 0 0 0 0 26.216051240939123 -41.640224401205842 0 -41.640224401205842 44.435358047771842 0 0 0 0 3.8547784683141799 6.1748250376891178 0 6.1748250376891178 43.589091729349093 0 0 0 0 2.1626861209242634 -6.2743886409898977 0 -6.2743886409898977 -1.1405804466952389 0 0 0 0 0.5017104833968915 -8.8917407093567817 0 -8.8917407093567817 -6.7932376387370823 0 0 0 0 16.87524288826171 -23.466611551962956 0 -23.466611551962956 -0.18285334982829227 0 0 0 0 24.777086861657153 -6.0324280836609603 0 -6.0324280836609603 -6.872339729536975 0 0 0 0 16.030598752033256 -11.260689304143909 0 -11.260689304143909 -9.7846573560398724 0 0 0 0 11.689338921751187 -7.2382843755146951 0 -7.2382843755146951 -10.66550214691398 0 0 0 0 3.4519005451173399 -2.1798290178390474 0 -2.1798290178390474 -6.5623995978989411 0 0 0 0 237.44332644027691 51.066289083035542 0 51.066289083035542 2.3679240724027295 0 0 0 0 11.238786319801875 -7.3436955004117408 0 -7.3436955004117408 -5.4007152490530643 0 0 0 0 7.6281633367034374 -11.040347786671589 0 -11.040347786671589 -7.091332777275511 0 0 0 0 5.8839660250141606 -8.746983704632612 0 -8.746983704632612 -2.6291854489500111 0 0 0 0 16.657155319483081 -7.9110292433553298 0 -7.9110292433553298 -4.4891845053284669 0 0 0 0 23.039424159156624 -3.4046103275131827 0 -3.4046103275131827 -6.9218795057895477 0 0 0 0 7.812284106053994 -4.8004537322578926 0 -4.8004537322578926 1.3269804850970104 0 0 0 0 7.7483893778644415 -10.102100488992789 0 -10.102100488992789 -3.0600075591096356 0 0 0 0 2.8251141331336669 -1.7294539688605184 0 -1.7294539688605184 -5.7048226449286572 0 0 0 0 12.803737858548629 3.2130833370051732 0 3.2130833370051732 -10.137883382893051 0 0 0 0 7.0216438774042871 -3.6451047605951827 0 -3.6451047605951827 -2.996359350638512 0 0 0 0 0.02470444753789991 -0.008019539201399084 0 -0.008019539201399084 -0.9311562625384231 0 0 0 0 31.393615221837536 -5.0629498413927649 0 -5.0629498413927649 -11.336582037549306 0 0 0 0 191.18818155580084 -78.409062631343204 0 -78.409062631343204 -6.6862928919726272 0 0 0 0 240.03012718441096 -178.47276772578937 0 -178.47276772578937 -4.2919946367633202 0 0 0 0 13.594002710762652 3.304391175659589 0 3.304391175659589 16.741671639087144 0 0 0 0 445.61072804674404 -159.2825478526189 0 -159.2825478526189 -137.26674530444052 0 0 0 0 3.2910834811298173 -1.2256048870603244 0 -1.2256048870603244 -2.2338537010009509 0 0 0 0 347.46940484893639 -446.83971271468874 0 -446.83971271468874 466.10975677059264 0 0 0 0 255.95824295408238 -260.97587706044476 0 -260.97587706044476 199.93429730890148 0 0 0 0 575.01180332331569 -374.6156791834527 0 -374.6156791834527 94.3959291577371 0 0 0 0 495.90557533012179 -86.141137481747364 0 -86.141137481747364 -107.5648482055044 0 0 0 0 341.63348315211624 -217.21850932777375 0 -217.21850932777375 278.51460590186844 0 0 0 0 663.28276322718011 -165.85871607574001 0 -165.85871607574001 -402.23882892087909 0 0 0 0 113.13034643373976 282.42113465700413 0 282.42113465700413 -438.19494614655866 0 0 0 0 352.12499935639789 152.35952606832689 0 152.35952606832689 -421.61601354396453 0 0 0 0 -89.885700001061196 192.50822188877646 0 192.50822188877646 -274.14948627352851 0 0 0 0 260.38709681840555 -184.80044176197089 0 -184.80044176197089 -123.3350854846567 0 0 0 0 285.67122578074759 -77.96973307880134 0 -77.96973307880134 -87.124681764459638 0 0 0 0 353.05344282017177 3.6994163751458018 0 3.6994163751458018 -312.34695705515924 0 0 0 0 217.86168554947471 -188.5910601904485 0 -188.5910601904485 -366.63556320095859 0 0 0 0 25.746509476120991 56.464366233248256 0 56.464366233248256 -231.27430554827947 0 0 0 0 2.5001356378528357 0.96310674061251333 0 0.96310674061251333 -2.8263419591372654 0 0 0 0 160.3896288097676 166.65048979275753 0 166.65048979275753 -372.02312149418049 0 0 0 0 -109.79753948871075 90.616181797679474 0 90.616181797679474 -330.45181840998157 0 0 0 0 23.983222582259586 7.0447582451295654 0 7.0447582451295654 -26.350050770903017 0 0 0 0 110.8719653049302 -41.846218454366408 0 -41.846218454366408 16.204617785091394 0 0 0 0 5.8162557036708975 0.52878752845015242 0 0.52878752845015242 -1.1243110056936549 0 0 0 0 11.723744536184967 6.5757492087789231 0 6.5757492087789231 -12.956423516549478 0 0 0 0 -13.875594527213252 3.6588725156952933 0 3.6588725156952933 -13.468335355087476 0 0 0 0 125.62655745350639 -40.754147016592924 0 -40.754147016592924 -27.692458418148817 0 0 0 0 21.230395533315459 1.6722425970252175 0 1.6722425970252175 -18.233293317162861 0 0 0 0 -7.1915707601292524 -20.425000544346631 0 -20.425000544346631 57.323141545325598 0 0 0 0 206.6477250372991 165.73721963681032 0 165.73721963681032 63.403801019687307 0 0 0 0 497.0496912472081 35.692174238772623 0 35.692174238772623 -39.636025486942344 0 0 0 0 0.284243941105359 -1.2296142774761947 0 -1.2296142774761947 1.2787486466646136 0 0 0 0 510.65192307918551 165.05268740751626 0 165.05268740751626 0.77755293338486808 0 0 0 0 156.90730831743076 48.387341251361931 0 48.387341251361931 -15.299946225899475 0 0 0 0 389.34416058251736 -79.867673962175559 0 -79.867673962175559 -310.47426318914631 0 0 0 0 405.56484611584528 9.0484705933286023 0 9.0484705933286023 -48.065152759378179 0 0 0 0 1.446586203975599 -1.3903180982608028 0 -1.3903180982608028 -0.067284644888093659 0 0 0 0 10.238289735471881 2.110988993681417 0 2.110988993681417 0.55306455997015291 0 0 0 0 5.6832336757803148 -4.0465069017278701 0 -4.0465069017278701 1.3191994493131105 0 0 0 0 -76.594509878859753 -210.27326234423185 0 -210.27326234423185 -293.7167646105587 0 0 0 0 -190.79461116306447 -201.10103664819417 0 -201.10103664819417 -197.0694902614332 0 0 0 0 3.5207647277817031 -0.74641978957208011 0 -0.74641978957208011 -5.6704366519238185 0 0 0 0 120.49753418880482 -25.030868448760998 0 -25.030868448760998 -13.188750986594641 0 0 0 0 1.6297442953218706 -19.703108985091603 0 -19.703108985091603 -12.522888348579727 0 0 0 0 140.34333367963518 25.158092226712142 0 25.158092226712142 18.73565320389207 0 0 0 0 16.173551921752733 -5.5455634509961556 0 -5.5455634509961556 -8.2599454995151973 0 0 0 0 -30.61097508111925 -163.99619130472638 0 -163.99619130472638 -472.09774549176655 0 0 0 0 -23.984147947627207 -103.72343454213387 0 -103.72343454213387 -271.00874568747213 0 0 0 0 3.052005812357919 -0.29281766985102209 0 -0.29281766985102209 -1.9198532459908186 0 0 0 0 2.8003464069583401 -1.7420596904268777 0 -1.7420596904268777 0.39968833904318579 0 0 0 0 -43.907150797938812 -169.64853198111086 0 -169.64853198111086 -310.89751307400093 0 0 0 0 -223.71307726050145 -167.68691918948298 0 -167.68691918948298 -201.92769091031732 0 0 0 0 -115.58717070254352 -161.06014384818263 0 -161.06014384818263 -209.33327742021629 0 0 0 0 -81.075861464072659 -55.52057960642378 0 -55.52057960642378 -224.18221191312477 0 0 0 0 -89.346055110969246 -103.58993310803635 0 -103.58993310803635 -82.642155060644654 0 0 0 0 -156.63965231352995 -60.645721042056039 0 -60.645721042056039 -211.66913531620048 0 0 0 0 4.411595116449007 -125.57024510901158 0 -125.57024510901158 -40.064125891514777 0 0 0 0 -14.391018213445932 -64.20039144000566 0 -64.20039144000566 -180.31867783237453 0 0 0 0 7.1651297256175894 -106.69537417551328 0 -106.69537417551328 79.954865346059705 0 0 0 0 316.85085962672565 -144.82946089299912 0 -144.82946089299912 -166.23697550928978 0 0 0 0 6.939558194989786 -112.23496451860024 0 -112.23496451860024 -166.70817482795428 0 0 0 0 -105.81256775907241 -171.55261390109763 0 -171.55261390109763 -127.59336791766964 0 0 0 0 33.245626706860094 -149.38818397134878 0 -149.38818397134878 -289.91196818989692 0 0 0 0 7.4431760674633551 -6.7389435732593483 0 -6.7389435732593483 -13.146112752456247 0 0 0 0 -0.8758756819734117 -1.1145699569287899 0 -1.1145699569287899 -14.722650130366674 0 0 0 0 5.4991567530691725 -2.7015516042421339 0 -2.7015516042421339 0.86765512611804674 0 0 0 0 5.6365519711107481 -4.0225035092507824 0 -4.0225035092507824 -17.216893189362963 0 0 0 0 6.1883326404931722 -1.7544044546330042 0 -1.7544044546330042 -13.190671534292377 0 0 0 0 3.1199848770520475 0.60739852097367475 0 0.60739852097367475 -14.970330315669344 0 0 0 0 -22.758984850574052 7.3351502351561066 0 7.3351502351561066 -17.872387469370892 0 0 0 0 -15.062114339141772 -19.722889022420304 0 -19.722889022420304 23.938160259388951 0 0 0 0 28.512249384008101 -4.1083633935842272 0 -4.1083633935842272 -25.194997474391812 0 0 0 0 16.651819202277693 3.6885335164947719 0 3.6885335164947719 11.317653943487358 0 0 0 0 0.73707802479566453 -1.3673399866397586 0 -1.3673399866397586 -0.56007277833057456 0 0 0 0 0.8741179716453189 0.10255978505756502 0 0.10255978505756502 -14.912128253980427 0 0 0 0 3.3716515540261298 -4.1730095926813311 0 -4.1730095926813311 -0.084389466031820487 0 0 0 0 2.8424580379287363 1.9149117958495481 0 1.9149117958495481 -13.243955799002833 0 0 0 0 1.9603039920257288 -4.4237075510097839 0 -4.4237075510097839 -4.5142016076506479 0 0 0 0 -3.4240084363391361 -11.581527781817272 0 -11.581527781817272 18.411482715348484 0 0 0 0 1.8224825005070642 -1.9519003801162809 0 -1.9519003801162809 0.097874241939680307 0 0 0 0 8.9075963224167936 6.9305112781830758 0 6.9305112781830758 -19.671375144324642 0 0 0 0 4.0964980208221675 -3.8094231440817237 0 -3.8094231440817237 -0.32746884856720576 0 0 0 0 4.6716660989477532 -1.5093864290547572 0 -1.5093864290547572 -9.1690269232694845 0 0 0 0 7.349472302448703 -3.9392420973035769 0 -3.9392420973035769 -9.1379008164894913 0 0 0 0 5.1179133074765559 -3.9994491273646418 0 -3.9994491273646418 0.71176380932324435 0 0 0 0 6.2470563961251173 -4.4879681824604631 0 -4.4879681824604631 -9.3269736451852054 0 0 0 0 7.8745818932948168 -6.149398230186307 0 -6.149398230186307 -8.1719253986921103 0 0 0 0 2.508133482420817 -9.3566867766649011 0 -9.3566867766649011 -9.0065698855478331 0 0 0 0 11.61784471143983 -6.3279056950709673 0 -6.3279056950709673 -9.4442480179368431 0 0 0 0 5.6938386396686838 -8.1677894285969614 0 -8.1677894285969614 -5.4557467839895253 0 0 0 0 0.9364911496929329 0.9283531910087035 0 0.9283531910087035 0.034120936274405267 0 0 0 0 -6.0178887746442342 -13.182413314764972 0 -13.182413314764972 -5.7005032568615661 0 0 0 0 4.9591753484201035 -11.768209467329143 0 -11.768209467329143 -10.580550899353511 0 0 0 0 -0.23764512579145958 -6.4513552673449794 0 -6.4513552673449794 -6.1839003270795274 0 0 0 0 -2.5210346639942145 -7.5239611158272055 0 -7.5239611158272055 -5.3282524672986256 0 0 0 0 12.48991243951059 -1.0978194332910789 0 -1.0978194332910789 0.68340644191403044 0 0 0 0 6.3421212851184521 -4.1912557937086934 0 -4.1912557937086934 -0.85014578558771747 0 0 0 0 -2.2541810455841187 -10.40192315095635 0 -10.40192315095635 -1.3484280348386619 0 0 0 0 1.581325062110313 0.71030183049895612 0 0.71030183049895612 0.5598260446721639 0 0 0 0 -0.48679414780781372 2.3850772551191994 0 2.3850772551191994 -5.4213741140915772 0 0 0 0 -0.9204357994676684 11.016021101899128 0 11.016021101899128 11.342729553576874 0 0 0 0 7.0795112085870642 13.675076737958648 0 13.675076737958648 -5.3423757393912865 0 0 0 0 1.0280035501564271 -10.710853163458893 0 -10.710853163458893 20.390842248049388 0 0 0 0 -0.40859659120029512 1.6960649505443044 0 1.6960649505443044 1.0901692719444758 0 0 0 0 -33.207736076990841 -17.654639134607635 0 -17.654639134607635 16.798934731939184 0 0 0 0 28.347187524872425 -34.404312778686489 0 -34.404312778686489 70.173282496104093 0 0 0 0 45.844917424929008 -10.967838076946236 0 -10.967838076946236 -2.0363727031674443 0 0 0 0 43.144926072747694 -40.805497235772179 0 -40.805497235772179 92.33408352202116 0 0 0 0 42.363258949074861 -22.614884712518712 0 -22.614884712518712 127.28227530547383 0 0 0 0 -0.24165167446594626 1.4210748467839878 0 1.4210748467839878 0.69845118097025649 0 0 0 0 -44.007064598987199 21.633543366617801 0 21.633543366617801 105.78371106260147 0 0 0 0 53.902638020819722 -61.266510154926664 0 -61.266510154926664 63.157260336594618 0 0 0 0 17.703233548107164 -23.077158780722129 0 -23.077158780722129 123.23052422852652 0 0 0 0 71.777985779022856 -48.574840238133788 0 -48.574840238133788 92.896987175647894 0 0 0 0 54.658082367135648 -31.250224505036954 0 -31.250224505036954 70.297510393878383 0 0 0 0 64.940062054018199 -59.193303759566447 0 -59.193303759566447 78.010329091296171 0 0 0 0 43.017985554954066 -48.106416867475893 0 -48.106416867475893 48.671301349693266 0 0 0 0 68.507258171435751 -66.294776829265487 0 -66.294776829265487 61.864602375706966 0 0 0 0 36.888503107824363 -43.178948934573 0 -43.178948934573 73.926919352791188 0 0 0 0 26.428752355870529 -51.410823476601429 0 -51.410823476601429 66.913980138099987 0 0 0 0 49.166853232640278 -44.461648742716193 0 -44.461648742716193 39.156633434334807 0 0 0 0 30.805090055418987 -15.789021180074542 0 -15.789021180074542 18.479321572963045 0 0 0 0 11.399598763766107 -18.407622133750188 0 -18.407622133750188 19.065397896313925 0 0 0 0 14.381531266590173 6.4832729023056572 0 6.4832729023056572 -27.717543467218892 0 0 0 0 1.8692047823351459 -36.223072513256483 0 -36.223072513256483 45.897306494379791 0 0 0 0 -18.330085010016774 -52.029896087251018 0 -52.029896087251018 105.66435467175279 0 0 0 0 37.408638405755482 -9.0309437074122343 0 -9.0309437074122343 -20.861285038751703 0 0 0 0 122.23265901761988 -79.046494381389607 0 -79.046494381389607 68.948039211521518 0 0 0 0 115.04192617591798 -128.6870903010464 0 -128.6870903010464 73.805282348738274 0 0 0 0 35.609152021932459 -72.789458885056092 0 -72.789458885056092 100.46700411934543 0 0 0 0 109.7970531815954 -100.56577772811602 0 -100.56577772811602 73.142738943796076 0 0 0 0 61.260755377946225 -72.401972836822694 0 -72.401972836822694 69.473296203929976 0 0 0 0 125.05061202952311 -82.825942571293965 0 -82.825942571293965 60.482946764770759 0 0 0 0 122.15234430902638 -85.891125311728075 0 -85.891125311728075 58.588135471632427 0 0 0 0 60.966869236029851 10.13338700267968 0 10.13338700267968 -11.321126907986189 0 0 0 0 109.87396119546474 -80.227440447270112 0 -80.227440447270112 56.858964797768294 0 0 0 0 113.46593586169183 -71.607058517712602 0 -71.607058517712602 67.980169731208548 0 0 0 0 68.047729467070894 -11.773289455600434 0 -11.773289455600434 4.4604748515791925 0 0 0 0 18.772697567136902 -1.6111126401267128 0 -1.6111126401267128 -3.7384872142441798 0 0 0 0 71.467239588384473 0.46616373955012591 0 0.46616373955012591 -3.7039585514417013 0 0 0 0 62.737462391240243 10.138045978340273 0 10.138045978340273 -11.534075412285329 0 0 0 0 138.30927674935185 11.808229437978831 0 11.808229437978831 -10.739971488718993 0 0 0 0 272.31814080749973 -34.982805156443987 0 -34.982805156443987 2.4926254489840574 0 0 0 0 93.249008587265507 76.163995715093606 0 76.163995715093606 64.26238043824037 0 0 0 0 14.43183238068589 2.0792771220179525 0 2.0792771220179525 -1.4462960912925698 0 0 0 0 101.48303688218584 -71.067140549971782 0 -71.067140549971782 129.62485824989631 0 0 0 0 93.205484586722378 19.40144872470114 0 19.40144872470114 -154.24498321669989 0 0 0 0 157.27527152434232 -120.52003358858906 0 -120.52003358858906 100.90511161870222 0 0 0 0 300.12632963511351 -25.045378202961274 0 -25.045378202961274 102.89030221123417 0 0 0 0 376.69197292483295 -77.676465408382683 0 -77.676465408382683 -15.056893039238275 0 0 0 0 354.96380432258684 -119.34714805215737 0 -119.34714805215737 -19.867432710452704 0 0 0 0 326.43092754355894 -188.40416630562322 0 -188.40416630562322 88.308229349435578 0 0 0 0 124.90069703156405 -88.914226588503197 0 -88.914226588503197 7.6223978654784332 0 0 0 0 47.663605794500654 -226.507872086497 0 -226.507872086497 -82.008078077350092 0 0 0 0 4.5210517220689326 -66.195695370398823 0 -66.195695370398823 -1.2844744137978523 0 0 0 0 39.101895202991273 -161.54179862704416 0 -161.54179862704416 138.4790309193595 0 0 0 0 103.09144117331562 -47.157449058032853 0 -47.157449058032853 -120.60254318464467 0 0 0 0 126.18352054486877 -90.001533482758305 0 -90.001533482758305 -110.60844393136449 0 0 0 0 261.91382303025568 -0.42426886250381912 0 -0.42426886250381912 -186.35682960824397 0 0 0 0 264.93870235130271 -216.28729804089562 0 -216.28729804089562 -10.152757040754295 0 0 0 0 79.907191525184317 -129.93794504816424 0 -129.93794504816424 224.84191965346736 0 0 0 0 69.052265788210207 8.0014072889734962 0 8.0014072889734962 -67.620407373700971 0 0 0 0 3.5878227714599404 -2.2840277490188612 0 -2.2840277490188612 -0.63308732485444086 0 0 0 0 -0.84081529479416872 -0.20228457307003112 0 -0.20228457307003112 0.24930352505920794 0 0 0 0 1.9511270443299651 -4.7107553299971574 0 -4.7107553299971574 -0.42944868703292849 0 0 0 0 4.7915512003887315 -1.0497756529543736 0 -1.0497756529543736 -0.91914917936142793 0 0 0 0 19.611111820417136 -27.423471041638322 0 -27.423471041638322 -0.17142370468809531 0 0 0 0 119.95714732309716 -43.204837738811875 0 -43.204837738811875 -263.57456280551082 0 0 0 0 -22.940084425916211 17.718327424834342 0 17.718327424834342 -208.44934429934483 0 0 0 0 -52.171941035818236 -48.598003503418113 0 -48.598003503418113 -84.633296953428726 0 0 0 0 135.28227367167528 -72.471338331681636 0 -72.471338331681636 -214.62659345333986 0 0 0 0 10.681601303293064 112.52154364416674 0 112.52154364416674 -201.66935456054628 0 0 0 0 -0.096636233759781476 0.25117430038200794 0 0.25117430038200794 -2.1017709732827896 0 0 0 0 8.1659948464302943 7.7529646266696091 0 7.7529646266696091 -108.86161418249139 0 0 0 0 243.69712599848572 217.95727842205588 0 217.95727842205588 19.638581006326604 0 0 0 0 25.328914240784798 25.476624034234192 0 25.476624034234192 -104.39765472182762 0 0 0 0 6.4491375846671239 -1.6573582209886126 0 -1.6573582209886126 -5.9496672973210813 0 0 0 0 -131.07617844572724 142.28158289211001 0 142.28158289211001 202.31419779968928 0 0 0 0 59.218910571373272 16.923863162743146 0 16.923863162743146 -32.195764738211437 0 0 0 0 86.896385192801972 2.7793944381628535 0 2.7793944381628535 -68.869817045635955 0 0 0 0 94.307083364353275 -11.693968481112734 0 -11.693968481112734 -50.108921989207374 0 0 0 0 81.550867280720922 -21.471920066189341 0 -21.471920066189341 -54.977548064310213 0 0 0 0 90.379719261118225 -9.6424069337767833 0 -9.6424069337767833 -26.497963585063189 0 0 0 0 93.598075999934736 -21.301444200339574 0 -21.301444200339574 -32.170195654211057 0 0 0 0 103.63120934436392 -14.246599843533318 0 -14.246599843533318 -75.594451765457052 0 0 0 0 109.7107877548151 -1.6326654818662973 0 -1.6326654818662973 -70.11066414396646 0 0 0 0 88.301058895027381 -7.5063935083389879 0 -7.5063935083389879 -2.0488424723853313 0 0 0 0 20.529024399245635 13.194459665648722 0 13.194459665648722 -3.3999388718412789 0 0 0 0 40.389012829274506 -4.6834484534408176 0 -4.6834484534408176 -3.3408092570349339 0 0 0 0 4.387364048913291 2.6596008191476521 0 2.6596008191476521 1.2549794035682069 0 0 0 0 31.700523167294705 52.275057539661475 0 52.275057539661475 47.996088972702637 0 0 0 0 36.385331988958569 4.7220000825764146 0 4.7220000825764146 -1.5561291760104723 0 0 0 0 51.892951704800375 6.926255169707944 0 6.926255169707944 1.5501668188435644 0 0 0 0 9.2170564928617917 0.44881345667413441 0 0.44881345667413441 -1.4412558025019706 0 0 0 0 42.355305177995433 -32.392069116678158 0 -32.392069116678158 66.746779931771016 0 0 0 0 13.107529387162685 12.283043998823359 0 12.283043998823359 22.239568106462684 0 0 0 0 90.223307721418678 -28.576959989925399 0 -28.576959989925399 -36.323632844630993 0 0 0 0 74.419618427687965 -10.487060890622161 0 -10.487060890622161 -26.148978763062587 0 0 0 0 81.708433951684128 -29.122772535414697 0 -29.122772535414697 10.950620981238899 0 0 0 0 71.984149228004753 -8.4412363190413089 0 -8.4412363190413089 1.6397947271252633 0 0 0 0 86.481685702541654 -4.3867663354399156 0 -4.3867663354399156 2.7521491861043614 0 0 0 0 85.505558470304095 -10.138782412281785 0 -10.138782412281785 0.75028932897475897 0 0 0 0 75.731388094718568 -13.734589581759792 0 -13.734589581759792 -0.57125944917061133 0 0 0 0 23.19253858011804 -14.112054198836379 0 -14.112054198836379 -6.892773096712034 0 0 0 0 -26.929583697932685 -122.54152159044452 0 -122.54152159044452 -83.820971736571664 0 0 0 0 -24.596027960686115 -152.74030289261282 0 -152.74030289261282 305.65991494092123 0 0 0 0 282.11082827861901 -21.371769195289744 0 -21.371769195289744 -163.43236262271421 0 0 0 0 378.47624960222902 154.16797814271195 0 154.16797814271195 -65.916157773393934 0 0 0 0 48.33357024587508 6.0704153535966725 0 6.0704153535966725 3.1441600398247829 0 0 0 0 140.07367465744665 97.713971808459291 0 97.713971808459291 -56.141037097944718 0 0 0 0 45.634247242221136 -6.9616535454561017 0 -6.9616535454561017 -0.92188045008356312 0 0 0 0 15.333610160556418 -122.68574030316267 0 -122.68574030316267 -63.105453267548 0 0 0 0 35.11438745721297 -12.508293749326302 0 -12.508293749326302 -3.3242530938782942 0 0 0 0 37.860656046798454 -7.2043292092565459 0 -7.2043292092565459 -1.819169627043749 0 0 0 0 49.824405212071156 2.0220239519126153 0 2.0220239519126153 0.22053802141908818 0 0 0 0 45.147598644798563 112.60625571445598 0 112.60625571445598 -38.873499603254459 0 0 0 0 39.048671798864234 -148.50879858339977 0 -148.50879858339977 -189.8404370008484 0 0 0 0 5.548490629691468 2.9999986221755068 0 2.9999986221755068 -0.46821683198292163 0 0 0 0 91.540877712242946 -123.98775922751338 0 -123.98775922751338 -193.06935819028877 0 0 0 0 47.802693866196933 -126.81763637149834 0 -126.81763637149834 -178.44738711116588 0 0 0 0 -26.448657248880409 -93.848818445657798 0 -93.848818445657798 -134.0698240696529 0 0 0 0 114.85407387682426 -40.291027509443666 0 -40.291027509443666 -142.51162604025012 0 0 0 0 51.368737849338686 -93.808860072037533 0 -93.808860072037533 -185.77914987886834 0 0 0 0 97.725372869640523 -5.4131878185007736 0 -5.4131878185007736 -213.4071470638537 0 0 0 0 83.040272809435919 31.541538854549799 0 31.541538854549799 -198.51828941726399 0 0 0 0 161.04656157642785 59.699525285951495 0 59.699525285951495 -192.74543258639369 0 0 0 0 73.337370972723875 36.246729441942989 0 36.246729441942989 -160.83572377968449 0 0 0 0 52.406806100860194 -23.37305436564202 0 -23.37305436564202 -169.17448698917906 0 0 0 0 148.85777281236551 -14.470029484305087 0 -14.470029484305087 -256.87846937425093 0 0 0 0 42.624773269310566 -4.4796681780204395 0 -4.4796681780204395 -4.2207728224258911 0 0 0 0 63.529239593437524 -0.58099260598646651 0 -0.58099260598646651 2.8948833171452861 0 0 0 0 5.9734306221864202 2.6360002152820083 0 2.6360002152820083 -0.99901236634890012 0 0 0 0 41.434826477836395 -76.689996135391993 0 -76.689996135391993 -209.29037960614551 0 0 0 0 72.373904418494021 -9.1210373072744915 0 -9.1210373072744915 -166.56712966088526 0 0 0 0 -28.056525490348577 -34.519708580672159 0 -34.519708580672159 -96.917585070234054 0 0 0 0 -42.851777476800635 61.065191959207368 0 61.065191959207368 43.451452255991171 0 0 0 0 37.47380542015344 5.7835770637957467 0 5.7835770637957467 -1.8876868694264886 0 0 0 0 6.1656362266941382 1.268914999912969 0 1.268914999912969 -1.667259556196008 0 0 0 0 39.272063149937289 8.7646830076316782 0 8.7646830076316782 2.9937767915970248 0 0 0 0 55.391112811515768 29.432511035172865 0 29.432511035172865 25.472541820050537 0 0 0 0 44.051590567519725 31.651950163908623 0 31.651950163908623 -47.271251241989376 0 0 0 0 13.748290817121521 2.4851035043173599 0 2.4851035043173599 0.95378127570343452 0 0 0 0 35.460072460767158 -6.2474578085536585 0 -6.2474578085536585 -5.209630365672826 0 0 0 0 62.36849125298977 1.7199580157994205 0 1.7199580157994205 1.5993649187948904 0 0 0 0 71.306396814105028 -5.5405021175120055 0 -5.5405021175120055 -109.30115341624878 0 0 0 0 70.607694671812169 73.523237672235155 0 73.523237672235155 -142.94736752186691 0 0 0 0 66.114911075435884 35.757739356413367 0 35.757739356413367 -104.28230897855246 0 0 0 0 -85.237683696375825 265.06188326044958 0 265.06188326044958 -178.76467330057585 0 0 0 0 96.426725334524235 83.422386287084919 0 83.422386287084919 -196.67623849206211 0 0 0 0 245.08817771539179 85.648119482687434 0 85.648119482687434 -209.51340546895926 0 0 0 0 343.91401647365001 -3.3767599820707801 0 -3.3767599820707801 -152.0288364716771 0 0 0 0 335.30307948054724 71.893823552638423 0 71.893823552638423 -42.178995441171537 0 0 0 0 110.59823544532401 202.99011140892958 0 202.99011140892958 21.658562754904779 0 0 0 0 52.566162322797027 80.53341689939657 0 80.53341689939657 -185.37097005598116 0 0 0 0 237.08275751152632 234.43648443424377 0 234.43648443424377 351.46717734124059 0 0 0 0 530.60749789839247 325.31629446190618 0 325.31629446190618 52.443990113988775 0 0 0 0 983.30366591450183 224.31019947267328 0 224.31019947267328 84.216229016191392 0 0 0 0 473.4993541091543 3.6000884513044866 0 3.6000884513044866 -8.9263208829997893 0 0 0 0 461.78700464610529 483.31807452866246 0 483.31807452866246 596.43684416309134 0 0 0 0 385.22501383430608 50.639009506253387 0 50.639009506253387 738.09079399651262 0 0 0 0 35.763559386698034 25.270594986050128 0 25.270594986050128 73.621498474984037 0 0 0 0 32.93918045204191 44.272359673881056 0 44.272359673881056 152.71481467210151 0 0 0 0 1.2751427392922778 -58.130383134025124 0 -58.130383134025124 265.41864302773865 0 0 0 0 577.98556862607984 -319.36307688708121 0 -319.36307688708121 208.14165501838215 0 0 0 0 105.2405541566377 -124.50451709792424 0 -124.50451709792424 446.74269830607454 0 0 0 0 200.59217167256156 -84.475090371498936 0 -84.475090371498936 92.628203626332834 0 0 0 0 132.75616008509132 -181.8655578544151 0 -181.8655578544151 110.10492035009884 0 0 0 0 25.13972243567332 -102.10807885218856 0 -102.10807885218856 52.152896308059098 0 0 0 0 123.03780033816929 -92.258071660309724 0 -92.258071660309724 -62.426038683335719 0 0 0 0 59.687198794398682 -183.26162011098859 0 -183.26162011098859 -25.313240597026379 0 0 0 0 199.62959768948349 -187.98891053785792 0 -187.98891053785792 57.030361065609668 0 0 0 0 414.88998649096447 -112.33195923810035 0 -112.33195923810035 -111.90055358399513 0 0 0 0 180.82219299358621 -72.29611694337018 0 -72.29611694337018 -117.96725731009587 0 0 0 0 260.37537991728652 -80.849592574962315 0 -80.849592574962315 -197.91857132492078 0 0 0 0 130.51737883850546 -53.984207878035704 0 -53.984207878035704 -201.50225475325897 0 0 0 0 157.92102572997464 -77.896816904298248 0 -77.896816904298248 -186.0417200896708 0 0 0 0 187.64811914216807 -34.165426295079669 0 -34.165426295079669 -205.56559236016983 0 0 0 0 43.963211461810715 -106.31854656628184 0 -106.31854656628184 -156.404186203672 0 0 0 0 166.55210606640685 -167.55992495857845 0 -167.55992495857845 -133.8344223907925 0 0 0 0 97.545692145085013 -140.34332036590877 0 -140.34332036590877 -183.17345451067195 0 0 0 0 -175.04659672630441 -144.62238992256971 0 -144.62238992256971 -80.763485218783899 0 0 0 0 -185.30452409277132 -316.00727303718577 0 -316.00727303718577 -122.00216586365423 0 0 0 0 41.494547152105042 -90.292304529836258 0 -90.292304529836258 -209.65743202962403 0 0 0 0 325.40407885052264 152.10519123728409 0 152.10519123728409 17.578877371398448 0 0 0 0 0.90778552848860272 -125.7323576387198 0 -125.7323576387198 50.182848989144986 0 0 0 0 18.791636202714507 -1.8488946237745756 0 -1.8488946237745756 3.3240733316136257 0 0 0 0 0.51673915775138113 -1.6316263915524729 0 -1.6316263915524729 0.45838787687313243 0 0 0 0 53.003153563106025 58.784976893661224 0 58.784976893661224 91.756954680561648 0 0 0 0 364.17198924418256 -172.32393637055299 0 -172.32393637055299 -164.34120143582368 0 0 0 0 -206.38318297442493 36.287430946767927 0 36.287430946767927 34.738717896027083 0 0 0 0 118.71132716624015 -96.766139572537213 0 -96.766139572537213 -58.736814540429805 0 0 0 0 -1.2716738910639833 -218.19079874047111 0 -218.19079874047111 -124.15510335443629 0 0 0 0 29.015109619080249 -136.10514861995034 0 -136.10514861995034 -96.439315730464386 0 0 0 0 -77.254818271147997 -173.14657816512818 0 -173.14657816512818 -2.4548822079104866 0 0 0 0 -20.972940686599031 -101.86800522568501 0 -101.86800522568501 77.991155415386856 0 0 0 0 9.5595137302243529 -156.76093081218528 0 -156.76093081218528 -17.560719858769517 0 0 0 0 -94.640631834134183 -106.59461389955959 0 -106.59461389955959 -10.379355426068287 0 0 0 0 -20.631641752972428 -105.02276268669766 0 -105.02276268669766 -70.683155251587323 0 0 0 0 -132.72577703265597 -140.28305238567646 0 -140.28305238567646 -57.718653185023868 0 0 0 0 -99.349990358652576 -100.59859020152908 0 -100.59859020152908 -49.589496741668427 0 0 0 0 -113.56360343361303 -68.843879600067339 0 -68.843879600067339 -85.110173802229838 0 0 0 0 -41.782202286067331 -23.247198395813484 0 -23.247198395813484 -6.0554791292906884 0 0 0 0 -129.28835611651994 -51.800428891736374 0 -51.800428891736374 31.132787834058753 0 0 0 0 6.5386444285481957 -73.195246893075932 0 -73.195246893075932 43.12211734585253 0 0 0 0 -33.858439705958517 -42.036862816002213 0 -42.036862816002213 37.498117910095289 0 0 0 0 -7.2038091854428785 5.1596721139162582 0 5.1596721139162582 116.14296203325921 0 0 0 0 594.96460442800344 -257.19375313394312 0 -257.19375313394312 -261.74671296859924 0 0 0 0 1.9300288237099075 -2.263333925306207 0 -2.263333925306207 1.5348626331287427 0 0 0 0 258.50541609063299 30.523795735004654 0 30.523795735004654 6.0893595507004648 0 0 0 0 260.05182856526881 -2.7115416073374945 0 -2.7115416073374945 6.1449983866041293 0 0 0 0 620.27948297343937 86.250267687682936 0 86.250267687682936 -145.40906077896761 0 0 0 0 -321.17649144731536 -184.23059954322116 0 -184.23059954322116 46.599539468748844 0 0 0 0 -179.7845330438231 -65.696928869309886 0 -65.696928869309886 34.582917403787178 0 0 0 0 -125.68048559076851 -97.442784439519528 0 -97.442784439519528 -8.7603575489138166 0 0 0 0 -258.47349443107305 -19.251309266609496 0 -19.251309266609496 -36.622629434181363 0 0 0 0 158.75419838177368 13.118355706434158 0 13.118355706434158 120.23560457890198 0 0 0 0 -114.51804892600194 -76.708904428144706 0 -76.708904428144706 -149.10914837935161 0 0 0 0 -130.72313913005564 -137.07260031999158 0 -137.07260031999158 -116.61229915239164 0 0 0 0 243.63970962770691 108.55274128488418 0 108.55274128488418 83.587968467771134 0 0 0 0 404.25983667994524 4.4739528423098136 0 4.4739528423098136 29.054791531787487 0 0 0 0 388.17276502732057 78.804902158734876 0 78.804902158734876 47.276433363185788 0 0 0 0 67.332920728732915 -59.982583579116408 0 -59.982583579116408 3.2899233594471298 0 0 0 0 385.9497891713894 23.84995651458928 0 23.84995651458928 -76.328433367631078 0 0 0 0 143.76089320438678 145.50433476432227 0 145.50433476432227 48.661617035624658 0 0 0 0 2.9653255837103458 -1.6062877891975766 0 -1.6062877891975766 1.5139764276056304 0 0 0 0 407.80449612757911 -29.833333507845964 0 -29.833333507845964 58.761642276655039 0 0 0 0 0.22899831427432993 -2.8091508085869261 0 -2.8091508085869261 5.1609469715254974 0 0 0 0 363.05455280543356 13.246952039480675 0 13.246952039480675 53.320837804672919 0 0 0 0 498.92188814069414 -0.18452673060619418 0 -0.18452673060619418 -63.014475002237305 0 0 0 0 16.284171691882875 -54.702119579564169 0 -54.702119579564169 41.58803281316068 0 0 0 0 316.68515179107453 -42.648005357136299 0 -42.648005357136299 -18.869275954391924 0 0 0 0 339.59813863633826 46.898544204249447 0 46.898544204249447 34.689806893447098 0 0 0 0 448.59160983590846 22.114695617518009 0 22.114695617518009 -21.531108371174923 0 0 0 0 -291.41703529514052 -124.79428516290591 0 -124.79428516290591 27.149428469077975 0 0 0 0 154.04937734052987 -66.969469561450353 0 -66.969469561450353 60.039493378671978 0 0 0 0 1.4345743552138082 -5.7375471985759736 0 -5.7375471985759736 3.9751968706546776 0 0 0 0 242.58878790235394 -17.698982179503219 0 -17.698982179503219 -51.244058925241916 0 0 0 0 240.46498669462198 -39.734368394239937 0 -39.734368394239937 22.290974511635795 0 0 0 0 9.2791033907137717 73.857951242397803 0 73.857951242397803 -25.52272500079016 0 0 0 0 -30.741688173356124 51.056212677697658 0 51.056212677697658 101.23610757200277 0 0 0 0 51.672351631399579 -223.4348187604237 0 -223.4348187604237 153.147236282628 0 0 0 0 -4.4098213585220947 51.396961627646306 0 51.396961627646306 8.2715310630010208 0 0 0 0 -181.50878303168918 -77.888439876040366 0 -77.888439876040366 12.420157928514527 0 0 0 0 487.12124932472943 -126.8329680844281 0 -126.8329680844281 -46.131753488822142 0 0 0 0 308.53791299828663 -84.272705494857291 0 -84.272705494857291 -25.286623546169722 0 0 0 0 -166.41129336482481 158.97418875509902 0 158.97418875509902 30.737560203080648 0 0 0 0 -405.28911717023584 133.76959968653682 0 133.76959968653682 108.13870197540382 0 0 0 0 -7.2110323184179634 -14.051636203870125 0 -14.051636203870125 7.9600609826946496 0 0 0 0 72.549125522578834 -50.642465516037191 0 -50.642465516037191 -107.77356578738545 0 0 0 0 45.094461825023586 -55.326215774190644 0 -55.326215774190644 9.954091005909504 0 0 0 0 63.796480794624884 -9.5668677190520199 0 -9.5668677190520199 0.34979056858733326 0 0 0 0 58.037114912884135 -15.787977093768859 0 -15.787977093768859 -45.259039462936926 0 0 0 0 33.486244298487236 -54.372190541536384 0 -54.372190541536384 12.406156866780293 0 0 0 0 27.097245922212821 -14.419219227807694 0 -14.419219227807694 14.324141265368837 0 0 0 0 813.54261192620106 -160.97295218592717 0 -160.97295218592717 -283.728018479208 0 0 0 0 -21.012734814925352 -47.016020867286898 0 -47.016020867286898 9.411883940352709 0 0 0 0 18.930988204643654 -41.450214390071778 0 -41.450214390071778 6.4090827411455393 0 0 0 0 7.1271203296437307 -20.72646501455165 0 -20.72646501455165 -3.2226763058861252 0 0 0 0 71.384015592533302 -1.38758405500141 0 -1.38758405500141 -3.7661501887229267 0 0 0 0 93.119252584530841 -8.1426000169328745 0 -8.1426000169328745 13.449714643762491 0 0 0 0 102.38497109117088 0.12528867362198071 0 0.12528867362198071 -11.274508118260655 0 0 0 0 74.776537874506175 29.489408305176312 0 29.489408305176312 34.661276051846471 0 0 0 0 57.181615461289766 73.222247385426272 0 73.222247385426272 35.219228599806229 0 0 0 0 24.363213403920987 3.6408478584255093 0 3.6408478584255093 -0.98092268250347558 0 0 0 0 60.160440577437839 -15.351378030722117 0 -15.351378030722117 25.009114245105593 0 0 0 0 -9.6942053761648594 -243.94894508474664 0 -243.94894508474664 -22.501197900062834 0 0 0 0 78.155736563311422 -4.709000747854347 0 -4.709000747854347 -4.0482984634967547 0 0 0 0 110.41429550750763 1.402045983422795 0 1.402045983422795 -65.557780941820965 0 0 0 0 18.811945486023493 1.4227831297879865 0 1.4227831297879865 0.79930100719556307 0 0 0 0 125.2041640466432 45.23406873978638 0 45.23406873978638 -71.756022815421602 0 0 0 0 124.89149674471628 10.789989475239963 0 10.789989475239963 -24.772763510578443 0 0 0 0 43.9048733407692 -141.71058249103578 0 -141.71058249103578 -216.44817778827564 0 0 0 0 173.51755235193014 13.881057833616978 0 13.881057833616978 -10.238763231206576 0 0 0 0 170.65909519950674 45.467261791236297 0 45.467261791236297 -57.138523127624467 0 0 0 0 10.77943352793389 -10.088133128382346 0 -10.088133128382346 8.3885461822239584 0 0 0 0 102.54646548402889 109.04341201199395 0 109.04341201199395 106.6839093173844 0 0 0 0 144.21041833527852 97.651624601904132 0 97.651624601904132 7.9473112285528487 0 0 0 0 -11.502080945872876 14.783484360972579 0 14.783484360972579 13.614394563641326 0 0 0 0 -41.882018571199296 -0.15161246679690521 0 -0.15161246679690521 19.257334093410464 0 0 0 0 119.5292205234764 89.558089584831578 0 89.558089584831578 179.37417625552371 0 0 0 0 296.88793275940679 291.65255959295382 0 291.65255959295382 142.368477724679 0 0 0 0 20.737278495260398 9.8348612340378168 0 9.8348612340378168 64.069234096309629 0 0 0 0 3.886234275164334 -2.7027052531710325 0 -2.7027052531710325 2.7264918079997322 0 0 0 0 -37.354298649124758 -46.635810984420004 0 -46.635810984420004 -27.991173924616305 0 0 0 0 24.476094579487835 6.7152581995113678 0 6.7152581995113678 -36.539736272738082 0 0 0 0 -46.555222937640792 -14.046047519834246 0 -14.046047519834246 -74.311540539512862 0 0 0 0 -107.39024187082032 -49.23529737054605 0 -49.23529737054605 -33.249836506647625 0 0 0 0 -84.216823398106499 -76.202125462161348 0 -76.202125462161348 -121.6348439412377 0 0 0 0 -96.108968166434352 -103.60487273718354 0 -103.60487273718354 -94.447264045578777 0 0 0 0 -76.181435471155055 -117.44826738182201 0 -117.44826738182201 -87.099939986259415 0 0 0 0 -55.220123615290504 -94.052079533171309 0 -94.052079533171309 -112.20149415627111 0 0 0 0 -59.707242103835597 -74.25446205060689 0 -74.25446205060689 -15.822808328499377 0 0 0 0 -1.8228357624939235 -77.566560158240918 0 -77.566560158240918 -67.064172635209616 0 0 0 0 9.7866590558976156 -100.11870176023746 0 -100.11870176023746 -25.70006202238983 0 0 0 0 9.4731095911098038 -45.120875242748262 0 -45.120875242748262 -4.6046462373560644 0 0 0 0 -60.661684073929791 -36.908204733789717 0 -36.908204733789717 3.6762083806042938 0 0 0 0 -38.990606226096133 -44.652353963659152 0 -44.652353963659152 -44.537086877231559 0 0 0 0 190.58049110552201 -23.197873324508237 0 -23.197873324508237 -42.597517035143028 0 0 0 0 182.24126729476484 -50.81735982090845 0 -50.81735982090845 -118.89326394254567 0 0 0 0 47.593871376451716 -173.44924522808151 0 -173.44924522808151 -105.48413512222578 0 0 0 0 198.31568475481981 -80.954772029826017 0 -80.954772029826017 -69.662086420885316 0 0 0 0 -14.565309589397657 -82.36995570401632 0 -82.36995570401632 -32.085576019809196 0 0 0 0 262.87016332798521 -143.79417183569012 0 -143.79417183569012 -172.06295514005387 0 0 0 0 -68.501963817997421 -264.029124355389 0 -264.029124355389 -214.58669379278854 0 0 0 0 177.67981053227777 42.215787197731515 0 42.215787197731515 16.986551090037665 0 0 0 0 337.80298870712795 25.902388339891559 0 25.902388339891559 -91.116776737846521 0 0 0 0 64.953780623294733 44.929923686085203 0 44.929923686085203 -21.911986248843277 0 0 0 0 8.6349149913732717 5.9923673467738041 0 5.9923673467738041 -15.419657397607835 0 0 0 0 181.11239800186695 54.535566993837676 0 54.535566993837676 -33.005567395187427 0 0 0 0 116.725851227975 -48.437750024225352 0 -48.437750024225352 63.669099729682785 0 0 0 0 -0.65894398638920393 8.4999961621110742 0 8.4999961621110742 -1.3621391427752769 0 0 0 0 0.23500866479641047 0.89371766479966652 0 0.89371766479966652 -0.79383870215194641 0 0 0 0 -9.9114611439108558 24.376390227251363 0 24.376390227251363 -28.60416078518665 0 0 0 0 120.50131805208366 -63.781691211455836 0 -63.781691211455836 8.5907365396833484 0 0 0 0 8.098990089603916 5.1782022422267246 0 5.1782022422267246 -19.255202647131938 0 0 0 0 172.69250462069249 -51.386236630214626 0 -51.386236630214626 -54.539631495042158 0 0 0 0 100.58106858935207 7.850004109568772 0 7.850004109568772 -48.912017019786617 0 0 0 0 16.798994067306921 -25.267920559299455 0 -25.267920559299455 -7.578264672696605 0 0 0 0 15.129689638198066 1.3256689192653788 0 1.3256689192653788 -12.361498943450364 0 0 0 0 17.540119430035475 16.142135576328329 0 16.142135576328329 -39.286884805869704 0 0 0 0 116.67560733443861 -62.986400446485987 0 -62.986400446485987 -19.426400348752814 0 0 0 0 33.325034530927951 22.088996904143471 0 22.088996904143471 16.002681244920041 0 0 0 0 99.307676393354996 6.2368036621052454 0 6.2368036621052454 -12.943836233225085 0 0 0 0 12.796512930700096 1.2671530787731378 0 1.2671530787731378 -17.496295636370881 0 0 0 0 31.083176429798186 -1.3137305784648561 0 -1.3137305784648561 -8.1325670618015948 0 0 0 0 12.773786932702592 -1.1209140028171589 0 -1.1209140028171589 -18.707144062302774 0 0 0 0 91.106685127433593 -105.36893126902396 0 -105.36893126902396 4.7388311438161281 0 0 0 0 148.53439127641468 -47.065438403382359 0 -47.065438403382359 -1.0176620168931549 0 0 0 0 136.72183118922294 -70.065357821649286 0 -70.065357821649286 -29.453899796135374 0 0 0 0 75.269408422420383 -63.183816932103582 0 -63.183816932103582 22.477723112525041 0 0 0 0 79.605767931621813 -69.436349587504083 0 -69.436349587504083 -16.79392434516194 0 0 0 0 89.334998868893308 -100.89671591958358 0 -100.89671591958358 -48.837980325432 0 0 0 0 60.045731486310615 -84.928175508749973 0 -84.928175508749973 -6.2571376002670149 0 0 0 0 164.79894933097967 -100.49863745096809 0 -100.49863745096809 -16.321246241339395 0 0 0 0 13.565715088674281 -2.5745481023689081 0 -2.5745481023689081 0.4759336033581647 0 0 0 0 45.419524052193537 -50.738317116697203 0 -50.738317116697203 8.4518173039286921 0 0 0 0 206.71861277399512 -60.537132996072614 0 -60.537132996072614 -25.476701790572406 0 0 0 0 106.17297221234185 -98.672458010874834 0 -98.672458010874834 25.492968008476282 0 0 0 0 141.36844163931892 -53.415160978131098 0 -53.415160978131098 -30.854625554813538 0 0 0 0 123.96568015140656 -70.738728539647127 0 -70.738728539647127 4.1385709362730267 0 0 0 0 58.701012081743102 -19.50501739068568 0 -19.50501739068568 -25.009120677525061 0 0 0 0 68.591972954891389 -48.345711713925994 0 -48.345711713925994 -19.026011057299911 0 0 0 0 172.20593426172854 -59.571607019341172 0 -59.571607019341172 -54.887751641446812 0 0 0 0 108.18476614094106 -83.27488117565008 0 -83.27488117565008 53.119060849119705 0 0 0 0 27.231984741782071 -28.021647149769706 0 -28.021647149769706 -12.062427859847958 0 0 0 0 71.845602481161563 -38.834309564995678 0 -38.834309564995678 13.997195896791332 0 0 0 0 105.77415619694511 -86.906340439454652 0 -86.906340439454652 30.407617728320474 0 0 0 0 -395.51874062469653 -201.3104907956066 0 -201.3104907956066 -24.32368406689784 0 0 0 0 23.356932524511095 -0.2728022103260983 0 -0.2728022103260983 -10.701299388216597 0 0 0 0 161.22949988879373 -100.25338058798343 0 -100.25338058798343 5.4996498883047025 0 0 0 0 148.71923093650548 11.572202045903396 0 11.572202045903396 14.849709362875728 0 0 0 0 27.260308735149351 -23.892440438285448 0 -23.892440438285448 3.1393964874320943 0 0 0 0 16.969202083280834 -9.8838684660659055 0 -9.8838684660659055 -6.0018559801756055 0 0 0 0 -3.7881069581397924 -91.118615494413348 0 -91.118615494413348 0.49684542048998992 0 0 0 0 47.56223868955523 -21.722415184226431 0 -21.722415184226431 -1.2005260458034179 0 0 0 0 81.564365637428409 -46.22198976988193 0 -46.22198976988193 -0.0097782840856126541 0 0 0 0 -59.233128099976966 -121.99524333817135 0 -121.99524333817135 -70.123442164400331 0 0 0 0 -4.7279928885309346 -32.649216993278969 0 -32.649216993278969 22.000568276860577 0 0 0 0 -23.992888317647157 -111.29409749338993 0 -111.29409749338993 32.239870434630575 0 0 0 0 -1.8165431145826005 -73.297748020209838 0 -73.297748020209838 -29.149860175621143 0 0 0 0 53.89890355757052 -32.792155911099144 0 -32.792155911099144 21.739395985317969 0 0 0 0 43.117130303930026 -12.203002874310187 0 -12.203002874310187 -10.16424381266188 0 0 0 0 74.329085590346949 -8.09695093522771 0 -8.09695093522771 -43.2815441146372 0 0 0 0 32.207955827751462 3.2919557993132358 0 3.2919557993132358 -25.559128424392522 0 0 0 0 22.669628433709612 -11.593349325165644 0 -11.593349325165644 -20.352600688039875 0 0 0 0 65.885324019200198 3.221485218117607 0 3.221485218117607 -56.283892528261049 0 0 0 0 21.410624644625386 -5.9123755748082658 0 -5.9123755748082658 -9.8333722747165666 0 0 0 0 48.256111853599577 9.4331963554944878 0 9.4331963554944878 -29.610912435683645 0 0 0 0 17.678252305848659 -9.5388334009834086 0 -9.5388334009834086 -4.8368446025248328 0 0 0 0 34.625813848325492 -14.159823990058612 0 -14.159823990058612 -3.5216271903964298 0 0 0 0 30.152753636744364 4.5671442082975773 0 4.5671442082975773 -1.7339119428716003 0 0 0 0 18.904588972542555 -1.7079197932387871 0 -1.7079197932387871 -8.1289455981179231 0 0 0 0 25.27774183425273 2.0609112258375717 0 2.0609112258375717 -5.7693835261295376 0 0 0 0 36.982251303397788 -0.2894611605247519 0 -0.2894611605247519 -13.275088783862884 0 0 0 0 21.807390008572838 -1.0782734964054725 0 -1.0782734964054725 -32.100097887427182 0 0 0 0 11.129029471892864 -8.1694858652990661 0 -8.1694858652990661 -14.394304665853269 0 0 0 0 15.474289886982355 -13.078002798999924 0 -13.078002798999924 -17.008037278574065 0 0 0 0 51.349690416769413 -9.6389862576579812 0 -9.6389862576579812 -11.800625164548073 0 0 0 0 27.158591171843 -2.3702337175363937 0 -2.3702337175363937 -25.986905334168114 0 0 0 0 20.390507892963878 -1.5751615113595925 0 -1.5751615113595925 -12.885298417947485 0 0 0 0 27.632434191044013 -7.5374536119707045 0 -7.5374536119707045 -13.541522715478095 0 0 0 0 -29.646236861926809 -72.198156277481758 0 -72.198156277481758 97.772720977041899 0 0 0 0 -0.37200379414582585 -12.45298481540906 0 -12.45298481540906 -0.73766999188602145 0 0 0 0 20.276817927320053 -48.311463534837912 0 -48.311463534837912 -3.9249348691919295 0 0 0 0 8.8419976174282056 -52.931481844119844 0 -52.931481844119844 -21.533102670669905 0 0 0 0 34.253127011490506 -6.2597496690686967 0 -6.2597496690686967 -2.7440268786467641 0 0 0 0 35.396375148518928 -25.458068043424646 0 -25.458068043424646 -1.6478969396565049 0 0 0 0 24.240225339397174 -38.499511074624571 0 -38.499511074624571 -5.9612045043015698 0 0 0 0 31.641420414514869 -23.056329996841669 0 -23.056329996841669 -16.82302240509307 0 0 0 0 28.525356653668659 -25.378532348550468 0 -25.378532348550468 -23.204736095689203 0 0 0 0 38.385797420761051 -6.2525770840355293 0 -6.2525770840355293 -25.256042733030668 0 0 0 0 44.96558340912452 -8.8961871621213504 0 -8.8961871621213504 -25.47153845372668 0 0 0 0 51.77617672253109 -16.511052412606659 0 -16.511052412606659 -27.323318923314218 0 0 0 0 43.767132090579253 -16.401765433045512 0 -16.401765433045512 -26.143533679729444 0 0 0 0 42.917380396981336 -14.137009112475729 0 -14.137009112475729 -13.922612198952429 0 0 0 0 38.940007195225917 -13.643001894208282 0 -13.643001894208282 -18.487030943731952 0 0 0 0 19.009960789632835 -12.676376402640962 0 -12.676376402640962 -19.239214323349195 0 0 0 0 9.119156129032211 -6.3927702889747628 0 -6.3927702889747628 -7.4564220136060761 0 0 0 0 10.828408728768409 -10.044658722363238 0 -10.044658722363238 -17.903812590383268 0 0 0 0 51.866087452526806 -11.749186995501482 0 -11.749186995501482 -9.6755477701411969 0 0 0 0 16.458671003378754 -10.863550419234613 0 -10.863550419234613 -2.5744246890930178 0 0 0 0 23.062166835124877 1.4712393538323965 0 1.4712393538323965 -5.1160585913099226 0 0 0 0 4.3451769926906962 -13.727088376776729 0 -13.727088376776729 -5.8103393497512172 0 0 0 0 30.853634951736694 -16.824419835742447 0 -16.824419835742447 -1.6220077454927377 0 0 0 0 10.747735131516411 -2.8563267658140266 0 -2.8563267658140266 -5.9979814439717316 0 0 0 0 47.43948667146924 -10.204873219669935 0 -10.204873219669935 -4.0466290302174457 0 0 0 0 5.2028707319436123 -11.779827901441177 0 -11.779827901441177 0.13391824346649628 0 0 0 0 28.761501404094815 -18.658216390708731 0 -18.658216390708731 -2.0704267930882452 0 0 0 0 4.1268097044551606 -6.2890436458036945 0 -6.2890436458036945 -3.807291427968007 0 0 0 0 19.013997176024986 -1.3842843965376233 0 -1.3842843965376233 -5.390715196818519 0 0 0 0 48.30405967160263 -14.472645639688551 0 -14.472645639688551 -10.77574002298752 0 0 0 0 20.395899540037135 -3.2733145369741123 0 -3.2733145369741123 -7.8396559054289696 0 0 0 0 5.0970152427519722 -2.0074837556334764 0 -2.0074837556334764 -1.8952746211897278 0 0 0 0 28.859049943981518 -9.7072331048984779 0 -9.7072331048984779 -1.230732764244749 0 0 0 0 48.977704085360983 -11.661331970105039 0 -11.661331970105039 -10.701034934097606 0 0 0 0 4.7069582147739935 -10.712320169559229 0 -10.712320169559229 -1.4444763669423608 0 0 0 0 36.443412938257097 -10.376801574892397 0 -10.376801574892397 -3.392498430227306 0 0 0 0 6.2698429851310857 -3.7697484700867898 0 -3.7697484700867898 -6.4867184502825346 0 0 0 0 17.732450617724467 -6.4934072676922003 0 -6.4934072676922003 -0.48527999558398438 0 0 0 0 21.101826720617964 -1.4038167167205984 0 -1.4038167167205984 1.2345106465552362 0 0 0 0 29.931032537297369 -20.080905148887453 0 -20.080905148887453 -3.7727752711184621 0 0 0 0 23.957865614010302 -2.7256793114506195 0 -2.7256793114506195 -11.691633178358074 0 0 0 0 14.233745982488017 -14.526563300566693 0 -14.526563300566693 -11.354495667143965 0 0 0 0 13.732262041363299 -5.5086496309051718 0 -5.5086496309051718 -10.984250292293712 0 0 0 0 26.549977898746874 4.4896556931784275 0 4.4896556931784275 -5.2720077212262524 0 0 0 0 16.687919659769769 2.227647181847102 0 2.227647181847102 -5.9451317519345297 0 0 0 0 19.96782647072471 -3.5782412292487322 0 -3.5782412292487322 -7.835860300097611 0 0 0 0 13.825082506046783 -4.2004465217723919 0 -4.2004465217723919 2.9099079000493475 0 0 0 0 30.869146689575246 -0.88505078370121737 0 -0.88505078370121737 -5.4581439079911434 0 0 0 0 24.457168234013807 1.173864341691143 0 1.173864341691143 -0.16066958507894924 0 0 0 0 18.367679021372226 -0.9534475397341069 0 -0.9534475397341069 0.97705383726261452 0 0 0 0 13.200822961580913 -3.7116205667568734 0 -3.7116205667568734 -2.9474494345834756 0 0 0 0 24.795309657122914 -4.666328409403226 0 -4.666328409403226 -4.1396872498523862 0 0 0 0 25.028529085789046 5.2851948096818848 0 5.2851948096818848 -4.7174834073384773 0 0 0 0 18.692007235887928 -1.1514131149202811 0 -1.1514131149202811 -1.0218065953640882 0 0 0 0 18.210009634844447 -2.7848158366797211 0 -2.7848158366797211 -5.4100069296732078 0 0 0 0 29.820183054800509 3.4709282206081298 0 3.4709282206081298 -7.8252726124042056 0 0 0 0 51.411799486445489 -4.4613660958747801 0 -4.4613660958747801 -42.833005982081659 0 0 0 0 25.402508984539963 -44.917305368030839 0 -44.917305368030839 -11.615664221409361 0 0 0 0 32.545168119118898 24.689037774076041 0 24.689037774076041 -38.543859205974513 0 0 0 0 6.6257958975785129 2.3832308330257916 0 2.3832308330257916 -0.65208476517635994 0 0 0 0 -4.5259506409347523 -61.171130807704685 0 -61.171130807704685 -71.189300829327181 0 0 0 0 46.565316210050696 -56.592285991697764 0 -56.592285991697764 -32.784451521487426 0 0 0 0 47.20014414403704 -28.676464594503273 0 -28.676464594503273 -110.5134632864894 0 0 0 0 121.43341351657546 77.381606537276639 0 77.381606537276639 -88.322702526596913 0 0 0 0 1.9227552833853068 0.685768185885685 0 0.685768185885685 0.29748501815834394 0 0 0 0 0.35151857436721912 24.376719733722894 0 24.376719733722894 39.605894785290189 0 0 0 0 15.378775082768698 15.623975501743985 0 15.623975501743985 -50.447705544684766 0 0 0 0 27.779668081146156 100.50521443293121 0 100.50521443293121 50.216297020088291 0 0 0 0 31.42044147440356 -9.7156177869422606 0 -9.7156177869422606 -40.75491415089806 0 0 0 0 2.8585474086476879 0.93783907013834877 0 0.93783907013834877 -0.85744516753382438 0 0 0 0 37.150024042071891 -1.5520257847159797 0 -1.5520257847159797 -0.58494254373880006 0 0 0 0 37.585955064505256 -0.17518274582370275 0 -0.17518274582370275 -2.4595576144995674 0 0 0 0 46.751361543210805 2.2244986359610266 0 2.2244986359610266 -0.46679234878820353 0 0 0 0 20.001521356646844 6.002476519261343 0 6.002476519261343 -2.9427028635113048 0 0 0 0 52.555690646929406 -6.9690381564117416 0 -6.9690381564117416 2.5911531444241973 0 0 0 0 16.297896249825811 2.5923654987071121 0 2.5923654987071121 -1.9366196341122237 0 0 0 0 92.558703677557787 30.995658243102071 0 30.995658243102071 -133.4157904012003 0 0 0 0 21.179581401124352 2.9588449991225603 0 2.9588449991225603 -0.36638163078194363 0 0 0 0 -44.723602925529121 77.373901141760143 0 77.373901141760143 -10.577296905443291 0 0 0 0 7.6010750170430157 -0.79969786438033097 0 -0.79969786438033097 -3.9174027067454871 0 0 0 0 32.523421399482686 1.2063405896325605 0 1.2063405896325605 -2.2670313714656061 0 0 0 0 33.191612428624012 3.4270401937273505 0 3.4270401937273505 -0.25286167083891087 0 0 0 0 25.233610540084555 -4.2446669586211527 0 -4.2446669586211527 -2.1773686766024407 0 0 0 0 37.371291555098651 1.0038274688569544 0 1.0038274688569544 -2.3961484886633997 0 0 0 0 43.240889527686704 2.5084609337471697 0 2.5084609337471697 -2.9623719604034449 0 0 0 0 9.4473216710697603 -0.84193006379462076 0 -0.84193006379462076 -0.93418177327527196 0 0 0 0 37.622369083351032 2.8708651026540841 0 2.8708651026540841 1.4355692098534973 0 0 0 0 45.779662829731706 -3.1318048597316022 0 -3.1318048597316022 -0.57823761517022376 0 0 0 0 26.178472758203355 6.7538371578907457 0 6.7538371578907457 -1.5120207836737771 0 0 0 0 7.409479693467989 0.27281586683449754 0 0.27281586683449754 -0.0019056797318158097 0 0 0 0 7.2775064392740321 -0.53569293764220927 0 -0.53569293764220927 3.0049948245402351 0 0 0 0 36.584265150106148 -1.0138243321848464 0 -1.0138243321848464 4.4926120139474826 0 0 0 0 37.639399870222405 3.9307173060880274 0 3.9307173060880274 1.4873226268384769 0 0 0 0 21.243120379970584 -3.4717877731509255 0 -3.4717877731509255 0.69326276231312622 0 0 0 0 18.750964503161516 2.973685156103584 0 2.973685156103584 0.092504007085881579 0 0 0 0 12.255103250847242 -1.7665453340650572 0 -1.7665453340650572 0.5661797494979055 0 0 0 0 13.979833340484493 2.5469354133798907 0 2.5469354133798907 2.3998569751662266 0 0 0 0 37.964633148154462 1.5792246493097508 0 1.5792246493097508 0.55085325833884191 0 0 0 0 19.168093413658539 1.9416710728855833 0 1.9416710728855833 0.50245273526979872 0 0 0 0 17.039108614641773 -6.1613551213631634 0 -6.1613551213631634 -0.40732070546168919 0 0 0 0 29.620551943176906 3.1524417935125513 0 3.1524417935125513 1.5767244597845291 0 0 0 0 1074.6386845055888 -435.85850770403385 0 -435.85850770403385 41.205636261171257 0 0 0 0 18.534066249780324 5.8056633637108348 0 5.8056633637108348 -5.0686403935342739 0 0 0 0 1075.443024905836 -421.3165547004636 0 -421.3165547004636 143.86692397779689 0 0 0 0 539.59976504105953 -195.53847952687133 0 -195.53847952687133 187.82519735597646 0 0 0 0 752.58838335342807 -313.48500750727919 0 -313.48500750727919 110.46228388391145 0 0 0 0 16.185919667035026 3.9012754225269992 0 3.9012754225269992 -0.72955079776088816 0 0 0 0 -34.32516317360114 -45.090110928783062 0 -45.090110928783062 -42.358407009509463 0 0 0 0 -17.928453703473679 4.2844279895901742 0 4.2844279895901742 51.606474751745587 0 0 0 0 8.2926787117067526 3.5987494548114931 0 3.5987494548114931 0.33567025750352769 0 0 0 0 297.12137515647009 171.94703443249028 0 171.94703443249028 -136.82010590584125 0 0 0 0 8.3285576233331788 0.27731416900783179 0 0.27731416900783179 -0.47078123802722799 0 0 0 0 -36.259224450544934 0.46043850258274688 0 0.46043850258274688 98.584977711268749 0 0 0 0 2496.2705677012477 -1375.6866692884523 0 -1375.6866692884523 565.26081477457217 0 0 0 0 138.07435968561549 -609.46997855477514 0 -609.46997855477514 229.20806618009613 0 0 0 0 2480.2324599752683 99.295646620001421 0 99.295646620001421 -157.24876878572292 0 0 0 0 12.091126735353484 3.9493383941552294 0 3.9493383941552294 -0.61065627372484643 0 0 0 0 286.81986853233843 254.74218944960606 0 254.74218944960606 160.70977807151206 0 0 0 0 3.091293892831338 5.8818853214225726 0 5.8818853214225726 0.18112589329099804 0 0 0 0 853.99548983545719 1726.9340636123743 0 1726.9340636123743 1116.9999804196177 0 0 0 0 4.8854976124282707 0.81627404902022871 0 0.81627404902022871 1.653330654802579 0 0 0 0 10.347124977255589 5.6397794500901455 0 5.6397794500901455 -3.3551448750182544 0 0 0 0 36.482647208793878 1.1746880197481993 0 1.1746880197481993 -0.028412738073825494 0 0 0 0 73.15444649265828 14.219934374291427 0 14.219934374291427 -109.45488959033392 0 0 0 0 21.43731809407004 -0.26347243172225276 0 -0.26347243172225276 -1.4134680580747505 0 0 0 0 16.127682460901269 5.9375090833486865 0 5.9375090833486865 -2.187082763684657 0 0 0 0 20.354454427673545 4.6683399741565914 0 4.6683399741565914 -3.7628772464625513 0 0 0 0 16.379978600779413 4.2439857341174605 0 4.2439857341174605 0.20779059954377524 0 0 0 0 41.127627442876474 9.4601802003612647 0 9.4601802003612647 -43.241450458407996 0 0 0 0 12.234739304545036 13.922758228373471 0 13.922758228373471 -0.75864238595047095 0 0 0 0 31.108308537433913 13.940449213762747 0 13.940449213762747 21.996347022313159 0 0 0 0 23.918797857018298 2.4632626531507 0 2.4632626531507 -3.9679259049522724 0 0 0 0 982.94773526771587 369.80578772224817 0 369.80578772224817 190.63271403690479 0 0 0 0 2496.7665905703557 737.88783234991422 0 737.88783234991422 -221.97808379689462 0 0 0 0 1108.1715586168775 128.53977745420553 0 128.53977745420553 -70.147397952999142 0 0 0 0 1438.0584661599405 -156.42171922220166 0 -156.42171922220166 -225.95554661090483 0 0 0 0 2499.6741974323486 -314.15050398576551 0 -314.15050398576551 -227.73226337201589 0 0 0 0 8.5613208155526319 11.30349307007376 0 11.30349307007376 -0.082403876159248407 0 0 0 0 2086.5803778094669 -516.29331813038482 0 -516.29331813038482 117.35896093479258 0 0 0 0 -19.840983898246122 130.43611422885959 0 130.43611422885959 -106.8558342362215 0 0 0 0 65.178197263307084 71.601104617867989 0 71.601104617867989 -85.029439878640602 0 0 0 0 51.570780790483695 -5.7203030181932206 0 -5.7203030181932206 -74.571994451208383 0 0 0 0 -34.685556044970781 43.834288935973021 0 43.834288935973021 -50.093224990997783 0 0 0 0 100.31792416384269 -4.7461935578749603 0 -4.7461935578749603 -83.010878204809529 0 0 0 0 51.357589362512954 40.377627885901944 0 40.377627885901944 -97.75257646223622 0 0 0 0 79.865906644752613 -0.97401969987099957 0 -0.97401969987099957 -10.706843524394628 0 0 0 0 28.128267538779255 -44.729152124129911 0 -44.729152124129911 -46.674595806825266 0 0 0 0 133.97695238787492 -117.26605626403403 0 -117.26605626403403 23.977019139548773 0 0 0 0 16.346960679499482 3.7232202835168202 0 3.7232202835168202 -9.6580187771875163 0 0 0 0 5.0046386449503188 24.145405261302045 0 24.145405261302045 -24.742845310424855 0 0 0 0 102.89026302121874 -74.685555071917449 0 -74.685555071917449 91.167431936849709 0 0 0 0 -283.8041780671283 467.02869460274138 0 467.02869460274138 -20.569195633884679 0 0 0 0 2499.9071308709258 -692.58045077372151 0 -692.58045077372151 186.20891313621379 0 0 0 0 4.770108891629782 3.9804193749134456 0 3.9804193749134456 0.087287928383098234 0 0 0 0 225.03848811850912 -23.145200007246643 0 -23.145200007246643 -135.39851578107832 0 0 0 0 98.664940230977663 -354.05462229583372 0 -354.05462229583372 878.03440354223858 0 0 0 0 4.3309465287730475 -1.222730047618267 0 -1.222730047618267 5.5917884009783521 0 0 0 0 236.31184036528066 -348.95788670567163 0 -348.95788670567163 681.84736553810308 0 0 0 0 -331.0831244236997 248.28049641167763 0 248.28049641167763 465.57566929985364 0 0 0 0 -38.879831338610074 747.11921852954606 0 747.11921852954606 -177.29624668667384 0 0 0 0 311.47596722918365 262.86136875120479 0 262.86136875120479 -181.0050877807198 0 0 0 0 175.84077461277684 -42.043884408122267 0 -42.043884408122267 -22.65871814389584 0 0 0 0 0.77234990703793827 -1.7833196824729494 0 -1.7833196824729494 -3.6872296457548046 0 0 0 0 705.66031905775071 -428.12848135585091 0 -428.12848135585091 -186.65941428707993 0 0 0 0 149.74895083080992 199.93122607657727 0 199.93122607657727 -426.06991124975309 0 0 0 0 -5.6312900736819849 -7.7205394059287773 0 -7.7205394059287773 -9.1776750513504588 0 0 0 0 172.15354260791719 -345.44646007441895 0 -345.44646007441895 44.13338117032572 0 0 0 0 268.53557399332931 -229.84668340617179 0 -229.84668340617179 177.57449978412762 0 0 0 0 268.55956396592592 -317.76540162493359 0 -317.76540162493359 144.70754126220595 0 0 0 0 8.396988201289183 6.9922668423388075 0 6.9922668423388075 8.9777576675496054 0 0 0 0 16.572258307809534 -12.923371539225627 0 -12.923371539225627 -16.445632702805597 0 0 0 0 3.8953785172477104 2.067774491905686 0 2.067774491905686 -1.9507276044457171 0 0 0 0 3.1559263705639751 -37.240208782761329 0 -37.240208782761329 70.701109435578473 0 0 0 0 86.454821121879377 -61.0379250667836 0 -61.0379250667836 37.854576281235495 0 0 0 0 105.82138650511843 -356.95496867559359 0 -356.95496867559359 321.09310617430401 0 0 0 0 10.030929015983034 0.93437894766719687 0 0.93437894766719687 4.2817770434683595 0 0 0 0 58.757097244702891 79.846347606555355 0 79.846347606555355 -43.435569143024622 0 0 0 0 73.856156279274728 -70.464092881109934 0 -70.464092881109934 -73.366136651306078 0 0 0 0 151.3300764837013 74.490241506569873 0 74.490241506569873 47.302652915763247 0 0 0 0 268.18832311025471 -87.668948627251666 0 -87.668948627251666 37.091215128377371 0 0 0 0 31.398220272209478 -8.8159365915920347 0 -8.8159365915920347 6.2549515028232854 0 0 0 0 52.219830423556232 -49.321586198590467 0 -49.321586198590467 18.448279280208226 0 0 0 0 78.443348418812093 -15.76038787491143 0 -15.76038787491143 -8.5404123326843546 0 0 0 0 79.102110991942027 -13.692440874730892 0 -13.692440874730892 -13.866093601352077 0 0 0 0 -172.9425852096756 50.681716222657997 0 50.681716222657997 52.091679039302107 0 0 0 0 44.00548777684552 -8.9965040048989522 0 -8.9965040048989522 0.40728920890614972 0 0 0 0 3.0967081557513403 -0.49579314777646744 0 -0.49579314777646744 0.78272511870564188 0 0 0 0 -12.519861661088271 19.283378177848135 0 19.283378177848135 226.65193408284267 0 0 0 0 42.116997194189935 152.40622452158914 0 152.40622452158914 449.19430145339356 0 0 0 0 99.933989176863179 184.21453382503842 0 184.21453382503842 403.44308486826048 0 0 0 0 350.0473669765579 551.95265623960131 0 551.95265623960131 697.91873018965725 0 0 0 0 -88.41657260225702 116.61076159442428 0 116.61076159442428 725.99072319866718 0 0 0 0 79.830706437416666 -64.281207647416522 0 -64.281207647416522 32.244074423198981 0 0 0 0 4.7139334376161663 3.0603130730274817 0 3.0603130730274817 3.095154384906234 0 0 0 0 668.57609826936152 -522.21689166669319 0 -522.21689166669319 314.04508944640656 0 0 0 0 614.53739687633424 37.378496986070786 0 37.378496986070786 17.396926791549959 0 0 0 0 15.725852126391057 6.2321955534832183 0 6.2321955534832183 6.9185913331684752 0 0 0 0 60.511824753853261 117.78108621459972 0 117.78108621459972 -59.278192221152494 0 0 0 0 1093.4817276405247 -471.11429699675864 0 -471.11429699675864 167.86594526096815 0 0 0 0 742.24377537994633 382.7593538758365 0 382.7593538758365 555.89392227171265 0 0 0 0 234.73842450539269 -0.48061407738805428 0 -0.48061407738805428 976.95643113125425 0 0 0 0 1056.9401226854047 239.93619360074808 0 239.93619360074808 328.13071823604332 0 0 0 0 691.9522232335039 -268.87385089964755 0 -268.87385089964755 630.33429542445265 0 0 0 0 230.03372167523958 -153.19062676904832 0 -153.19062676904832 480.24389558466601 0 0 0 0 199.07573752408643 130.229293507271 0 130.229293507271 506.50071061603796 0 0 0 0 51.474849177318902 107.89735398147877 0 107.89735398147877 367.2931905085893 0 0 0 0 27.859090653306339 12.334457512932204 0 12.334457512932204 418.73372608733143 0 0 0 0 126.05497197910518 193.8735456124673 0 193.8735456124673 329.8320809739779 0 0 0 0 42.662334545210797 78.329659235070267 0 78.329659235070267 301.6694583137014 0 0 0 0 65.929298675235941 57.617454319050807 0 57.617454319050807 506.5954551177856 0 0 0 0 164.26316792463876 -14.673791469730531 0 -14.673791469730531 289.99259325823277 0 0 0 0 81.314495483118662 317.97242326079459 0 317.97242326079459 411.63792706016511 0 0 0 0 74.025872193165014 -2.7813109447019997 0 -2.7813109447019997 176.21458950469605 0 0 0 0 55.38311435681635 -24.488599024764426 0 -24.488599024764426 190.2637375332979 0 0 0 0 53.95506290906178 64.863370928601398 0 64.863370928601398 315.68680342194148 0 0 0 0 34.898007125397726 25.124003828145078 0 25.124003828145078 236.98280214719489 0 0 0 0 24.82665923719469 -19.831839476176356 0 -19.831839476176356 227.97773013935694 0 0 0 0 129.96543037959327 98.582677989219064 0 98.582677989219064 249.72574293203911 0 0 0 0 113.24642399390086 58.782386309492267 0 58.782386309492267 176.06297155867105 0 0 0 0 160.67695353035879 14.595893501441424 0 14.595893501441424 194.32640777138477 0 0 0 0 230.88973185866962 69.594116610997162 0 69.594116610997162 168.57248547808922 0 0 0 0 190.34017752755744 112.58346005243266 0 112.58346005243266 174.98334103060733 0 0 0 0 109.1699673332364 138.10894132071098 0 138.10894132071098 175.39957660336131 0 0 0 0 185.37506641735581 101.05930226052828 0 101.05930226052828 150.19717946746596 0 0 0 0 253.24021548050132 52.115989223230827 0 52.115989223230827 146.70565455380401 0 0 0 0 184.20839018170955 138.71833285130651 0 138.71833285130651 80.79932237318144 0 0 0 0 129.39324997869335 240.75626730309523 0 240.75626730309523 105.25765667096948 0 0 0 0 179.78802936178408 138.58914514136154 0 138.58914514136154 115.30116701460884 0 0 0 0 234.70956322980646 109.14055834270039 0 109.14055834270039 53.26803269642096 0 0 0 0 142.49032960640307 20.160752416345986 0 20.160752416345986 -6.0326446583781035 0 0 0 0 190.15150892387828 79.78791749263155 0 79.78791749263155 82.554842637574438 0 0 0 0 174.82258454380099 92.960643352593934 0 92.960643352593934 72.893668400671231 0 0 0 0 160.87971715182539 24.032988691384162 0 24.032988691384162 28.557125245712086 0 0 0 0 101.54095711911464 41.01269176826861 0 41.01269176826861 49.010482221445272 0 0 0 0 80.889288942595158 -18.613830405082126 0 -18.613830405082126 5.8696071754930017 0 0 0 0 78.569594172333382 29.541051199470303 0 29.541051199470303 39.713322418652297 0 0 0 0 329.63700072200527 62.130663607262903 0 62.130663607262903 83.897229173319829 0 0 0 0 199.7167056486287 102.6518157517678 0 102.6518157517678 104.99349218839325 0 0 0 0 189.4253403995308 85.883755120174555 0 85.883755120174555 76.889618955134665 0 0 0 0 256.43481040458755 52.612700113917072 0 52.612700113917072 74.08419851055055 0 0 0 0 262.36181149284857 77.519373694660317 0 77.519373694660317 98.565277470668661 0 0 0 0 366.90615382349461 55.123914874303864 0 55.123914874303864 52.182532281897011 0 0 0 0 241.12514015026954 95.570797609466126 0 95.570797609466126 87.401573586895665 0 0 0 0 141.76136156564553 55.06735115090396 0 55.06735115090396 49.599173684793641 0 0 0 0 209.50117987075623 20.112477387120066 0 20.112477387120066 49.19739429704623 0 0 0 0 177.29217070083178 64.56021031025648 0 64.56021031025648 59.187378363725088 0 0 0 0 115.1034244575103 -25.036098053909541 0 -25.036098053909541 46.325609096525113 0 0 0 0 267.40107961842864 25.699668152237791 0 25.699668152237791 42.315330551865372 0 0 0 0 21.234151641024255 -0.81335594537085854 0 -0.81335594537085854 21.924169599953075 0 0 0 0 124.71486442573769 -8.5154173932182857 0 -8.5154173932182857 11.126449918176831 0 0 0 0 118.30748086264202 -14.228975374757852 0 -14.228975374757852 -25.718079502804358 0 0 0 0 44.038740429216887 -3.3344480003556782 0 -3.3344480003556782 39.897813108646915 0 0 0 0 -35.160746421731346 -47.613974643254778 0 -47.613974643254778 -17.963990000232116 0 0 0 0 49.596608836397309 -52.85164301793057 0 -52.85164301793057 -45.56248687378411 0 0 0 0 -49.867219821280742 -119.00619834768509 0 -119.00619834768509 -98.030157012254676 0 0 0 0 42.438206804070724 -15.035799158276486 0 -15.035799158276486 -28.620512770835841 0 0 0 0 -60.673434366107813 -104.66635321786151 0 -104.66635321786151 -66.193854920689773 0 0 0 0 -38.901545564187472 -32.673225146530967 0 -32.673225146530967 -30.341919763378883 0 0 0 0 -45.70794592147513 -44.40767898672766 0 -44.40767898672766 -16.867337673368638 0 0 0 0 7.650203782582139 -58.932967331688587 0 -58.932967331688587 -33.308376861311899 0 0 0 0 -6.1534674985177844 -7.366705212387842 0 -7.366705212387842 22.522147744074118 0 0 0 0 -18.647787812973775 -45.831494375244745 0 -45.831494375244745 -21.955203392633848 0 0 0 0 -0.74837771494867411 7.7426591610725382 0 7.7426591610725382 -3.8307152381603373 0 0 0 0 -18.102965319118084 -17.631805428982716 0 -17.631805428982716 10.5607835856988 0 0 0 0 50.941785808468012 -35.93384113364516 0 -35.93384113364516 15.400163022302877 0 0 0 0 -1.5547151630053122 9.6467187716966691 0 9.6467187716966691 43.670059264147312 0 0 0 0 29.82163284674607 -323.5886438401044 0 -323.5886438401044 320.28848991317955 0 0 0 0 428.15631294737159 -272.14383488997402 0 -272.14383488997402 -3.0193155133779328 0 0 0 0 -11.772621029987953 -21.283012882244666 0 -21.283012882244666 -19.830603827799212 0 0 0 0 194.01116865945369 -79.722596301152407 0 -79.722596301152407 -111.2474280140932 0 0 0 0 -29.257426189449234 -47.846876790770011 0 -47.846876790770011 -35.512418090203028 0 0 0 0 38.194457224731188 -13.432358033248043 0 -13.432358033248043 -31.35395019735234 0 0 0 0 -45.406723757059808 -64.174362180164735 0 -64.174362180164735 -31.345138348176647 0 0 0 0 105.86676803003411 139.13165991421079 0 139.13165991421079 157.99252929534214 0 0 0 0 873.77191092089924 -252.9167262404934 0 -252.9167262404934 -4.7700349112722051 0 0 0 0 0.067837585745081697 -2.3836558129857721 0 -2.3836558129857721 -1.4354979133446895 0 0 0 0 -4.6214552094361352 -68.294452503987827 0 -68.294452503987827 53.514642618933067 0 0 0 0 174.91937657654586 119.44682059938452 0 119.44682059938452 79.663436949947936 0 0 0 0 100.95413021996501 107.62862089816554 0 107.62862089816554 38.864589665248275 0 0 0 0 33.926615919350297 27.538916616998904 0 27.538916616998904 55.132369775392362 0 0 0 0 107.82565789120417 55.775072906567402 0 55.775072906567402 36.472763520249828 0 0 0 0 238.75763728930178 69.213872479115707 0 69.213872479115707 -4.1259508009677575 0 0 0 0 175.00360819089838 66.545746183290703 0 66.545746183290703 47.665793784276502 0 0 0 0 124.61846070793763 111.46595571700311 0 111.46595571700311 53.360646039523999 0 0 0 0 391.11109343862336 154.97592973341216 0 154.97592973341216 13.905724993172043 0 0 0 0 376.74102772342667 -85.118216405000112 0 -85.118216405000112 -145.67373254320773 0 0 0 0 950.01663539180299 39.545518192540385 0 39.545518192540385 -124.8785316403887 0 0 0 0 484.75391384400791 310.44418106912963 0 310.44418106912963 133.64132860324935 0 0 0 0 472.9905411967593 -862.5183398210786 0 -862.5183398210786 90.895657676823248 0 0 0 0 96.970681331382366 -51.221385682823893 0 -51.221385682823893 90.714297878052548 0 0 0 0 -277.87775702571162 -84.43717150688417 0 -84.43717150688417 119.62784376890158 0 0 0 0 10.532982334159144 17.089128669860514 0 17.089128669860514 27.985807124053895 0 0 0 0 200.34428292286697 -125.5994899979697 0 -125.5994899979697 52.194041968394231 0 0 0 0 76.543408819787146 -64.561471316802908 0 -64.561471316802908 93.192356575167764 0 0 0 0 72.860235664817083 -85.550750677729809 0 -85.550750677729809 38.563578761569261 0 0 0 0 68.268167658242419 -60.423787353583805 0 -60.423787353583805 62.76872256855313 0 0 0 0 61.118050304583448 -36.098375398437838 0 -36.098375398437838 30.923126111447459 0 0 0 0 97.172878686688364 -78.639944366993916 0 -78.639944366993916 59.794558175473867 0 0 0 0 97.078949031470984 -78.59994658834421 0 -78.59994658834421 72.895389719311424 0 0 0 0 97.100650927241077 -53.252636236509716 0 -53.252636236509716 45.804892453921184 0 0 0 0 114.59495902431081 -40.055864192116132 0 -40.055864192116132 26.959126789836773 0 0 0 0 82.188118187012151 -52.933608184841432 0 -52.933608184841432 51.697564056812553 0 0 0 0 90.871260868625541 -25.522727039600795 0 -25.522727039600795 6.9952294685508605 0 0 0 0 81.983976079463901 -36.794688180145386 0 -36.794688180145386 35.05367727030989 0 0 0 0 105.17938001932635 -43.279084022879942 0 -43.279084022879942 31.202492126263678 0 0 0 0 82.442008654688834 -57.404666095087123 0 -57.404666095087123 20.085984839053708 0 0 0 0 46.930430621414416 3.0939131612822166 0 3.0939131612822166 17.378594823488129 0 0 0 0 42.666609971740399 21.407409967894637 0 21.407409967894637 -5.669108399635661 0 0 0 0 19.536716375041898 -2.210846952334844 0 -2.210846952334844 -1.4128183822567344 0 0 0 0 64.438429750937757 -15.931823051636457 0 -15.931823051636457 -15.555956511738259 0 0 0 0 61.218192904622811 -20.218699548620634 0 -20.218699548620634 23.698798998935672 0 0 0 0 78.856623756480985 -19.521650997413417 0 -19.521650997413417 39.603079639553471 0 0 0 0 69.472034675301984 -0.58208866230870626 0 -0.58208866230870626 1.020609065073586 0 0 0 0 77.427288400345788 -21.501194363614104 0 -21.501194363614104 36.906854769757047 0 0 0 0 63.108903887230554 10.100494772232196 0 10.100494772232196 20.220729692575333 0 0 0 0 85.316948849358596 -2.6877533043243602 0 -2.6877533043243602 53.523381858462926 0 0 0 0 106.81158360726477 -20.528860707074273 0 -20.528860707074273 53.61822493307227 0 0 0 0 116.25263514134713 -50.450883476984018 0 -50.450883476984018 43.815595627824223 0 0 0 0 93.052284952951595 -42.165561208652434 0 -42.165561208652434 71.300989454562114 0 0 0 0 130.04522442033704 -99.71907166078654 0 -99.71907166078654 143.45894135489834 0 0 0 0 113.58040276901738 -56.878298744903077 0 -56.878298744903077 47.997704855763004 0 0 0 0 113.10056984594848 5.2705146254047577 0 5.2705146254047577 132.39248520733054 0 0 0 0 12.294014722380183 14.629800964915809 0 14.629800964915809 17.04297694951082 0 0 0 0 368.10093331705548 53.350831029081746 0 53.350831029081746 72.074652625723957 0 0 0 0 -3.105239383308799 53.937081985572149 0 53.937081985572149 95.226477523146968 0 0 0 0 1.7094021714129894 0.21530671339675322 0 0.21530671339675322 1.0855821051065675 0 0 0 0 217.86483810133359 -123.31336435769299 0 -123.31336435769299 -13.76173851475869 0 0 0 0 423.47107882289856 -627.31876395291658 0 -627.31876395291658 218.624909187291 0 0 0 0 16.40380871684539 4.7172807916029207 0 4.7172807916029207 -3.2261392767710451 0 0 0 0 681.45985399003985 826.41013553142295 0 826.41013553142295 151.13058027106553 0 0 0 0 12.770329932959669 18.974296671476928 0 18.974296671476928 27.70998957289471 0 0 0 0 138.58539948082398 -35.870770349577469 0 -35.870770349577469 14.552474829199127 0 0 0 0 138.11379762161596 -31.561050684174006 0 -31.561050684174006 45.783147251978335 0 0 0 0 110.64381575014431 -50.470625276950614 0 -50.470625276950614 32.85145781571191 0 0 0 0 126.03348062570149 -49.444689811485659 0 -49.444689811485659 31.54387439448783 0 0 0 0 103.61646029037183 -45.390410776982662 0 -45.390410776982662 43.407787728654512 0 0 0 0 174.90812973353604 -51.11108176921789 0 -51.11108176921789 -11.285515132982539 0 0 0 0 135.42207790689281 -66.225556233736825 0 -66.225556233736825 41.767619173730054 0 0 0 0 57.318252021379564 6.1786337658333483 0 6.1786337658333483 -12.269893741432991 0 0 0 0 -0.7720822036244499 22.228029088214043 0 22.228029088214043 -25.125888320787368 0 0 0 0 -14.5617285769913 84.107625812051083 0 84.107625812051083 -30.423511490288888 0 0 0 0 -43.936921730215545 41.6963001433096 0 41.6963001433096 18.723378100453374 0 0 0 0 -6.625234197462305 1.1885208004109131 0 1.1885208004109131 43.479266706455746 0 0 0 0 15.550792586349417 -29.947479289926378 0 -29.947479289926378 13.39179921653249 0 0 0 0 20.639260444324464 9.2772285774090051 0 9.2772285774090051 29.811239325128781 0 0 0 0 43.177273916524427 -19.853220347655224 0 -19.853220347655224 -30.199937615630404 0 0 0 0 43.358404569418781 -20.405206482737071 0 -20.405206482737071 68.493021808838421 0 0 0 0 36.277677028039761 57.973079545052315 0 57.973079545052315 77.596770702025367 0 0 0 0 32.240859858080512 40.266206194803999 0 40.266206194803999 3.7828731198010246 0 0 0 0 163.40037004041733 -27.869495913270839 0 -27.869495913270839 13.943659921291328 0 0 0 0 463.19235021799523 -159.10926037883439 0 -159.10926037883439 -5.6455127718190852 0 0 0 0 2.2850489188130609 1.1092188289502332 0 1.1092188289502332 -1.7524371372618557 0 0 0 0 329.86210393576403 118.32266835340602 0 118.32266835340602 11.201079628297521 0 0 0 0 200.3855580994823 358.73046950089088 0 358.73046950089088 -132.01021411998659 0 0 0 0 93.365171406276204 107.15619721681855 0 107.15619721681855 132.47123497231496 0 0 0 0 2.8310513872225442 1.2104441409391455 0 1.2104441409391455 -0.12346175844609242 0 0 0 0 46.41304694073915 92.646955621975621 0 92.646955621975621 46.639954077123548 0 0 0 0 -20.603695550009434 14.043675324444621 0 14.043675324444621 80.014099814559813 0 0 0 0 491.57106082949031 -216.98470174684689 0 -216.98470174684689 91.688405755874669 0 0 0 0 172.91889183155217 15.016615677556274 0 15.016615677556274 142.75956523453624 0 0 0 0 139.70973579914425 64.466563015595511 0 64.466563015595511 172.58119827609698 0 0 0 0 473.17050172439622 59.621295574225002 0 59.621295574225002 89.638619919048324 0 0 0 0 78.972369525356044 -87.107243294491127 0 -87.107243294491127 106.89400228060458 0 0 0 0 -10.049968813178566 -48.216798001958068 0 -48.216798001958068 87.858173113054818 0 0 0 0 72.24967419793029 -103.82654026761656 0 -103.82654026761656 -19.739668604243889 0 0 0 0 1.9640506075200079 2.3595085043087423 0 2.3595085043087423 -2.6113736113704746 0 0 0 0 86.652491227416249 -36.165764755308373 0 -36.165764755308373 -67.848295184542621 0 0 0 0 0.74435818516940344 18.02186513354809 0 18.02186513354809 -15.091131726042022 0 0 0 0 256.27952918935671 -152.16007046185803 0 -152.16007046185803 -30.889286340765466 0 0 0 0 185.52917364375389 -29.296748872646731 0 -29.296748872646731 -61.769961585097008 0 0 0 0 -7.5086780240526423 -39.40843581230456 0 -39.40843581230456 121.56605814121667 0 0 0 0 127.22523123345036 197.24303358165525 0 197.24303358165525 -256.51640081607991 0 0 0 0 66.158472493448315 12.908118933631929 0 12.908118933631929 -10.450374194489072 0 0 0 0 123.94939229211923 101.78144616414943 0 101.78144616414943 -134.77858731736524 0 0 0 0 88.446011736756191 -68.769432917140421 0 -68.769432917140421 84.878080209327891 0 0 0 0 224.28394367549845 -22.909611583180435 0 -22.909611583180435 -115.69921878801324 0 0 0 0 277.61250046625537 -28.261194276679433 0 -28.261194276679433 -114.01326553482522 0 0 0 0 55.496250527718075 126.9441194120941 0 126.9441194120941 1.2136362556481117 0 0 0 0 87.702117980657931 119.85035278018313 0 119.85035278018313 -160.4609940108403 0 0 0 0 61.904781916055526 10.739003844547547 0 10.739003844547547 -11.567096271164385 0 0 0 0 20.697862271651502 -66.505411904844607 0 -66.505411904844607 -60.104419039204913 0 0 0 0 310.99437445760759 42.654501761773645 0 42.654501761773645 -49.170252153933689 0 0 0 0 -334.46843516588979 -17.468485414698307 0 -17.468485414698307 77.391773463786649 0 0 0 0 0.68738512013571196 -0.34090001528351443 0 -0.34090001528351443 -3.6863738283799359 0 0 0 0 452.20734739738145 -156.87520570955803 0 -156.87520570955803 -134.67906231264715 0 0 0 0 -218.28393123932074 37.039131278784282 0 37.039131278784282 92.420669224643333 0 0 0 0 164.96465095159328 -149.65251984204872 0 -149.65251984204872 -79.747835552399209 0 0 0 0 41.742698253255185 -63.54913777304774 0 -63.54913777304774 117.71603865538253 0 0 0 0 -10.78490407897516 -79.698477824373185 0 -79.698477824373185 -13.891957996322162 0 0 0 0 55.574254511562231 -138.77325582822857 0 -138.77325582822857 36.309243205243547 0 0 0 0 239.88791258984202 -164.31357680717201 0 -164.31357680717201 69.370899886156394 0 0 0 0 -1.8902023547955284 -3.9113657246693343 0 -3.9113657246693343 -6.3755139418390403 0 0 0 0 -31.604840407076153 -23.195591520568541 0 -23.195591520568541 -0.31026387281144707 0 0 0 0 556.70750675713316 -193.24389551624449 0 -193.24389551624449 -37.507304347181162 0 0 0 0 312.90743901978567 -130.64006517500457 0 -130.64006517500457 110.13730772043442 0 0 0 0 267.35622676865933 -66.209654477365802 0 -66.209654477365802 29.440339494967702 0 0 0 0 139.92010239190222 -26.306129723573576 0 -26.306129723573576 2.0331454525558001 0 0 0 0 380.38084542235993 -38.660736761458793 0 -38.660736761458793 -68.780377705390492 0 0 0 0 249.49652560515329 70.835959897355821 0 70.835959897355821 -142.11973146502351 0 0 0 0 116.41658673940492 -21.30535660518035 0 -21.30535660518035 -194.7971411266451 0 0 0 0 7.9385119087993417 228.80314856859559 0 228.80314856859559 -239.44224769084212 0 0 0 0 -69.847136520718777 133.90651694757071 0 133.90651694757071 -76.810080295664193 0 0 0 0 64.458571046635683 14.162854956594488 0 14.162854956594488 -9.7563323487412426 0 0 0 0 92.708507717942666 42.237324966852611 0 42.237324966852611 -34.359501542035105 0 0 0 0 191.63354461038762 107.49635876464436 0 107.49635876464436 -153.1111394517302 0 0 0 0 278.49808229137398 85.743624655773601 0 85.743624655773601 -87.694285868954466 0 0 0 0 68.172012166274158 188.20637304997706 0 188.20637304997706 -126.31615435399908 0 0 0 0 194.31643296635139 9.9445342199696825 0 9.9445342199696825 8.4888465681624439 0 0 0 0 223.86042896883782 102.51122228965278 0 102.51122228965278 -105.41132348788597 0 0 0 0 393.27086158028266 40.227885298254023 0 40.227885298254023 -26.124886848370807 0 0 0 0 294.34090154585226 70.259772603134579 0 70.259772603134579 -43.698958632356153 0 0 0 0 290.92936709579044 -65.233793534656797 0 -65.233793534656797 57.212883999894075 0 0 0 0 585.43893614196259 -198.0889511118221 0 -198.0889511118221 40.175282418325878 0 0 0 0 580.50085361713627 -116.80892823675276 0 -116.80892823675276 -3.5194384479491418 0 0 0 0 385.19807710047007 -9.8979521757037219 0 -9.8979521757037219 68.524113290804962 0 0 0 0 525.50549489941477 -143.23067048157827 0 -143.23067048157827 221.73347128507476 0 0 0 0 6.6590691857327329 46.140129800045088 0 46.140129800045088 -28.785692272440428 0 0 0 0 825.15712029463248 -301.95751819990528 0 -301.95751819990528 27.573232886270489 0 0 0 0 728.55555866460236 -344.92001801722336 0 -344.92001801722336 182.32915342037813 0 0 0 0 8.6019693070872414 8.6565829800004224 0 8.6565829800004224 9.8503225020861294 0 0 0 0 959.84226065922849 -206.25291081942123 0 -206.25291081942123 94.010451967049448 0 0 0 0 0.69703098145190623 0.24237343963059033 0 0.24237343963059033 0.45594399185481649 0 0 0 0 558.87271871254961 -321.95785717257604 0 -321.95785717257604 184.07303803813556 0 0 0 0 680.35354743621792 -265.14507708441488 0 -265.14507708441488 21.324144268020973 0 0 0 0 554.3695393629514 -76.547955954651115 0 -76.547955954651115 127.93912442743022 0 0 0 0 579.03243000529255 -72.492352029727044 0 -72.492352029727044 19.906713071218292 0 0 0 0 552.65644193594198 -164.30079153621227 0 -164.30079153621227 74.816761348101863 0 0 0 0 484.38601659611959 -51.318913257625354 0 -51.318913257625354 -27.40465041752941 0 0 0 0 371.70577593177404 -100.2614167487709 0 -100.2614167487709 47.482565500264172 0 0 0 0 465.29858583017995 -269.11769337550322 0 -269.11769337550322 106.08313413120439 0 0 0 0 26.108594140492642 -15.64147943386638 0 -15.64147943386638 -15.008865119078109 0 0 0 0 26.853567633878811 -17.238892795850006 0 -17.238892795850006 -16.533103082478192 0 0 0 0 1.2084666994536644 -5.7927670765582953 0 -5.7927670765582953 -8.5430776166978326 0 0 0 0 9.644565385146052 -21.388522299871511 0 -21.388522299871511 -16.454476369898913 0 0 0 0 26.901727096566624 -6.5412761638652448 0 -6.5412761638652448 -10.261131808285555 0 0 0 0 -9.0078722329089942 4.5611204960750911 0 4.5611204960750911 -12.925119011746574 0 0 0 0 43.665257244352688 -11.414819509263907 0 -11.414819509263907 -17.265261688102328 0 0 0 0 111.0607138128471 5.9356204512769182 0 5.9356204512769182 -45.399705284819902 0 0 0 0 42.276772474473546 -0.37206984596923576 0 -0.37206984596923576 -39.950632062778368 0 0 0 0 82.684607574885831 -17.042764300173303 0 -17.042764300173303 -38.25850635763527 0 0 0 0 38.744091276867039 -28.589232931290553 0 -28.589232931290553 -2.5937443936727504 0 0 0 0 38.801309286107426 -30.17848450657948 0 -30.17848450657948 -41.876171151054223 0 0 0 0 101.59333280606404 -62.152843161703885 0 -62.152843161703885 -26.211594728587443 0 0 0 0 100.87333618623597 0.97383453919519525 0 0.97383453919519525 -25.017664943559794 0 0 0 0 62.431552370093414 34.516431853275208 0 34.516431853275208 -26.126088819011045 0 0 0 0 124.81015441468548 131.68391780682782 0 131.68391780682782 -106.0977038694291 0 0 0 0 61.738865065240994 13.003249752895877 0 13.003249752895877 -8.5062790857137109 0 0 0 0 113.13263854420074 -28.712898789328392 0 -28.712898789328392 -3.6214105112517245 0 0 0 0 82.718961875893001 -19.842575036302151 0 -19.842575036302151 2.9891727623653424 0 0 0 0 74.091039572263981 -31.906924349048722 0 -31.906924349048722 42.685795799254265 0 0 0 0 161.04049377941737 6.7547044855413176 0 6.7547044855413176 47.867265952299931 0 0 0 0 160.25974595926891 -77.265390190526887 0 -77.265390190526887 52.867847847774101 0 0 0 0 144.90439537237398 -15.021222084502369 0 -15.021222084502369 18.497500494377164 0 0 0 0 90.533176600916704 14.322613992842435 0 14.322613992842435 -0.15520841509714955 0 0 0 0 109.88363703672076 -16.785305625344336 0 -16.785305625344336 20.472597114407108 0 0 0 0 91.169130819049315 17.155161031185344 0 17.155161031185344 5.8976035929917998 0 0 0 0 82.728128102855408 -6.014569320175724 0 -6.014569320175724 24.838649567336688 0 0 0 0 105.83442356040177 14.201988723701106 0 14.201988723701106 41.017768380657799 0 0 0 0 63.591734581384877 14.452759580659555 0 14.452759580659555 -8.3902196508732647 0 0 0 0 80.807034865174501 -12.319134906104409 0 -12.319134906104409 33.372513100854121 0 0 0 0 43.263679682364454 45.927836706825474 0 45.927836706825474 -16.299348780865898 0 0 0 0 55.795394844950351 16.191809957244914 0 16.191809957244914 25.849029332431201 0 0 0 0 67.018281797414602 22.10514464701123 0 22.10514464701123 -18.638310337937583 0 0 0 0 60.601208527115887 1.3870464888373135 0 1.3870464888373135 0.90559752873014077 0 0 0 0 48.98923855182511 0.78507454987993697 0 0.78507454987993697 -0.20554068354522315 0 0 0 0 -102.08547698401935 105.22421873410622 0 105.22421873410622 -117.40397750764669 0 0 0 0 20.969553910618671 -3.659429058528032 0 -3.659429058528032 -1.9574966652535508 0 0 0 0 -173.83050267650094 257.45313642723841 0 257.45313642723841 -141.69214360118895 0 0 0 0 -127.54061569260648 117.79710865916604 0 117.79710865916604 -166.1281278936965 0 0 0 0 -64.005952160501238 193.16384222836496 0 193.16384222836496 -77.456810820500323 0 0 0 0 39.075165553800616 88.872792989772279 0 88.872792989772279 -63.235115094352295 0 0 0 0 192.90258202545101 -29.130203132639508 0 -29.130203132639508 -76.903962619348931 0 0 0 0 -16.849543146270662 -60.792411913535943 0 -60.792411913535943 136.68755422606046 0 0 0 0 321.50145677066075 -152.08870386067611 0 -152.08870386067611 -23.28506294026829 0 0 0 0 0.15917515411731653 1.0475327498490001 0 1.0475327498490001 -0.92586532256044762 0 0 0 0 -398.27638853810942 272.40451751061369 0 272.40451751061369 3.86017676366464 0 0 0 0 -310.94886684662606 97.347993938063155 0 97.347993938063155 -44.928029993887321 0 0 0 0 -213.84276051205643 242.68285995962287 0 242.68285995962287 -56.936471749108023 0 0 0 0 38.90721304722274 160.08873999816569 0 160.08873999816569 -20.600300549225722 0 0 0 0 -28.93560431152855 95.023652949514144 0 95.023652949514144 -65.838457689037568 0 0 0 0 -150.00786434373867 198.79977227594009 0 198.79977227594009 -20.581209050265898 0 0 0 0 -145.41905910264359 101.8254387775869 0 101.8254387775869 19.242479190030281 0 0 0 0 -113.94942293141912 158.22762162669915 0 158.22762162669915 37.656099764480587 0 0 0 0 332.80322099233535 6.0373856755031738 0 6.0373856755031738 -134.65092776436131 0 0 0 0 30.458282361490546 195.25838020786159 0 195.25838020786159 10.203884783441026 0 0 0 0 -75.729507898305656 73.364788722754838 0 73.364788722754838 135.87247340035174 0 0 0 0 -3.73765975850805 0.79040394487834575 0 0.79040394487834575 -0.38551109689215224 0 0 0 0 -113.13446623201389 151.29783812231017 0 151.29783812231017 -13.621153140307342 0 0 0 0 -7.5730243884272568 136.29306014092253 0 136.29306014092253 20.900996577569003 0 0 0 0 77.979937408158548 -63.784211284534649 0 -63.784211284534649 -295.06977795469538 0 0 0 0 271.80131163347062 76.527203901626763 0 76.527203901626763 -35.851311681466541 0 0 0 0 55.939460992390877 33.895591505453922 0 33.895591505453922 17.66673892702056 0 0 0 0 96.753144231344095 -28.845533043415344 0 -28.845533043415344 -86.317509651524233 0 0 0 0 76.638439062069665 0.13035496136944857 0 0.13035496136944857 -11.511266344316937 0 0 0 0 53.13883234676824 65.957245209955971 0 65.957245209955971 2.1872263981258584 0 0 0 0 60.240691914281378 8.584642204079417 0 8.584642204079417 -8.7274198546105026 0 0 0 0 -24.319900482911919 93.156621199998199 0 93.156621199998199 6.6618893637332803 0 0 0 0 -5.1823622881419116 9.1123447997646227 0 9.1123447997646227 -3.8872814855973665 0 0 0 0 61.941809772228225 -0.85722615439681249 0 -0.85722615439681249 -80.750841458683681 0 0 0 0 27.264651986403464 100.42299404382231 0 100.42299404382231 51.348856851935125 0 0 0 0 61.860045038967655 160.45501667100962 0 160.45501667100962 295.6121050763013 0 0 0 0 61.228350442662759 295.2032787493963 0 295.2032787493963 163.25355485704131 0 0 0 0 225.43962770125415 -81.969144177411408 0 -81.969144177411408 180.51057376708013 0 0 0 0 -167.98462498273875 233.48645545913769 0 233.48645545913769 -45.570799842015276 0 0 0 0 -149.9829037702907 -123.75662085123804 0 -123.75662085123804 266.13416472317567 0 0 0 0 208.99687978613616 -76.538456599150464 0 -76.538456599150464 245.64192092935264 0 0 0 0 -165.32934106154562 -55.794049784780782 0 -55.794049784780782 391.29613056896778 0 0 0 0 -146.81053696290951 -100.18500140853484 0 -100.18500140853484 271.10909196450802 0 0 0 0 3.1058800240250086 -1.6638003562509294 0 -1.6638003562509294 0.77003712524814816 0 0 0 0 260.48018434178925 101.40563254596555 0 101.40563254596555 49.431148353729441 0 0 0 0 335.41303125854438 147.09973654332839 0 147.09973654332839 66.672076352127988 0 0 0 0 209.75250164045792 68.323165172379049 0 68.323165172379049 -54.587269681594989 0 0 0 0 6.5749662876036084 -3.5462965158227018 0 -3.5462965158227018 1.0121264272272654 0 0 0 0 134.37827238895767 78.862901989682086 0 78.862901989682086 139.87171889904539 0 0 0 0 133.685867547783 64.901488500783216 0 64.901488500783216 149.80428584231413 0 0 0 0 96.855509669958337 78.489086161236628 0 78.489086161236628 59.629830720137761 0 0 0 0 140.94322675630315 161.5847648745214 0 161.5847648745214 61.112488077451417 0 0 0 0 208.85509433564403 59.018716234825206 0 59.018716234825206 215.99214345255132 0 0 0 0 5.7855954974337465 -6.3750994566667032 0 -6.3750994566667032 53.942549282965047 0 0 0 0 84.044953549133425 -3.8332752055575838 0 -3.8332752055575838 -24.463481968185988 0 0 0 0 40.910298441951682 -54.488633679322447 0 -54.488633679322447 -0.23510399086990219 0 0 0 0 191.95487672400486 -41.212882334508322 0 -41.212882334508322 67.188535071109072 0 0 0 0 38.746113793713761 -13.621907133543601 0 -13.621907133543601 -3.5382210262459708 0 0 0 0 70.315680252414495 16.501065966333954 0 16.501065966333954 65.227491649384319 0 0 0 0 91.655481872094015 4.6217248511784419 0 4.6217248511784419 23.44402642679961 0 0 0 0 176.58441585650871 -96.825638919524863 0 -96.825638919524863 16.903219472747878 0 0 0 0 247.62398217130431 70.975324059263585 0 70.975324059263585 -101.32374215832897 0 0 0 0 15.877823865470418 66.634504234578344 0 66.634504234578344 -45.710670438495072 0 0 0 0 50.076981384565215 34.533117594064606 0 34.533117594064606 0.025880861083351192 0 0 0 0 47.766723288485991 -5.3027944477616984 0 -5.3027944477616984 -34.187586373780505 0 0 0 0 81.595070339964195 -3.2214553347730543 0 -3.2214553347730543 -37.856960776196502 0 0 0 0 53.215967654236465 14.291595788117775 0 14.291595788117775 13.672384037447046 0 0 0 0 113.77339946631125 27.938068168726204 0 27.938068168726204 11.515092302572157 0 0 0 0 98.908211460442487 86.147766410169424 0 86.147766410169424 45.967356693612601 0 0 0 0 69.504708875247275 -4.5088489477711846 0 -4.5088489477711846 60.570278850897012 0 0 0 0 84.083475023381652 67.085364059496897 0 67.085364059496897 93.587211913334613 0 0 0 0 248.71361948213382 308.36516023787044 0 308.36516023787044 263.8621154186427 0 0 0 0 -5.2302094944700457 89.03646678531959 0 89.03646678531959 236.66653761143061 0 0 0 0 -64.743351062248848 -11.473330770458233 0 -11.473330770458233 124.43867008567668 0 0 0 0 1.6076543028537658 1.8355170693134935 0 1.8355170693134935 4.4978611214013995 0 0 0 0 96.366376064572933 32.892178954531119 0 32.892178954531119 -34.639959757863835 0 0 0 0 804.89719822575057 -158.9878891185175 0 -158.9878891185175 10.379372664621769 0 0 0 0 1088.4283632848471 -363.49489533384258 0 -363.49489533384258 130.40755825704127 0 0 0 0 299.24179433252971 7.4424542911087883 0 7.4424542911087883 219.1805666885266 0 0 0 0 932.88963810189716 114.70018928535228 0 114.70018928535228 56.61857083976156 0 0 0 0 208.85954962969257 179.67220615095957 0 179.67220615095957 520.88422432863263 0 0 0 0 407.52378379662423 -219.41283675422983 0 -219.41283675422983 358.84257360382662 0 0 0 0 223.40523410709562 177.37800416217419 0 177.37800416217419 -12.065482879215779 0 0 0 0 131.88866252818207 -211.04148809757544 0 -211.04148809757544 -101.63532789675639 0 0 0 0 320.74276776225906 188.69923049745694 0 188.69923049745694 -29.301024671975028 0 0 0 0 292.14459420977653 148.61363002484541 0 148.61363002484541 -14.3788168487863 0 0 0 0 671.99561918524785 252.09463669307502 0 252.09463669307502 11.952625196909139 0 0 0 0 207.49872019179747 22.860336125049344 0 22.860336125049344 -18.277691627205058 0 0 0 0 277.65386148094501 186.77906141495214 0 186.77906141495214 81.729634243953797 0 0 0 0 154.8109789007076 1.5292913795346976 0 1.5292913795346976 -8.0633030917556425 0 0 0 0 271.84576514120386 48.061327274253927 0 48.061327274253927 6.948534832841915 0 0 0 0 75.728474511404329 3.0510423249552332 0 3.0510423249552332 22.246641647740034 0 0 0 0 144.98236470234542 62.286957212590096 0 62.286957212590096 33.941863032810943 0 0 0 0 1.0973559458209703 1.5870169874748861 0 1.5870169874748861 2.0199781727204709 0 0 0 0 -534.6403552450854 480.07460661610662 0 480.07460661610662 296.86022505093479 0 0 0 0 1098.4994489576345 168.25273640484102 0 168.25273640484102 56.455121997076276 0 0 0 0 1.540758042468084 4.5078683846567689 0 4.5078683846567689 2.6078152677596158 0 0 0 0 514.25056793185888 -83.831461431108892 0 -83.831461431108892 -38.155734022119759 0 0 0 0 479.05620894775882 342.36232084257796 0 342.36232084257796 160.57864310641162 0 0 0 0 5.6133021989794791 -0.98508573260551202 0 -0.98508573260551202 -0.8208669217112643 0 0 0 0 147.08067838354964 220.81751435443812 0 220.81751435443812 235.56774766980016 0 0 0 0 855.18582346190078 354.5660376009514 0 354.5660376009514 140.06248171173797 0 0 0 0 633.90099906859723 726.79487425512161 0 726.79487425512161 524.12833409078303 0 0 0 0 165.31343578926027 213.60994854711288 0 213.60994854711288 185.60130615567505 0 0 0 0 152.15251148128596 138.52349601480819 0 138.52349601480819 134.02929994030274 0 0 0 0 6.9778812779014601 -2.6597487659583425 0 -2.6597487659583425 -0.14629608445235931 0 0 0 0 295.99110776549958 150.57857521773258 0 150.57857521773258 -59.349796783319562 0 0 0 0 296.96128306020603 143.58754810988785 0 143.58754810988785 -9.41572821536829 0 0 0 0 94.179504791628062 155.12282784373087 0 155.12282784373087 191.47346477962719 0 0 0 0 73.934655203250557 144.80840797302426 0 144.80840797302426 95.863789155518134 0 0 0 0 63.300131974293606 115.4042689846483 0 115.4042689846483 180.1559489612664 0 0 0 0 33.384410913462531 52.415977106662467 0 52.415977106662467 44.71877260731253 0 0 0 0 77.715058473811496 99.774829365673668 0 99.774829365673668 71.011754892557292 0 0 0 0 14.880729054168114 48.235592566555169 0 48.235592566555169 72.156822743333095 0 0 0 0 31.947741529472779 49.451139326846715 0 49.451139326846715 -1.4353461676118968 0 0 0 0 0.0015771174295196033 -11.894010710112298 0 -11.894010710112298 -21.667091215394976 0 0 0 0 -15.788219173534685 -5.9454622295534136 0 -5.9454622295534136 -22.631601303498428 0 0 0 0 -2.7896831439106791 -15.131902958881255 0 -15.131902958881255 -33.046411905108471 0 0 0 0 -15.966237838233155 -40.290127657101948 0 -40.290127657101948 -43.559888147737638 0 0 0 0 7.8864245435687508 16.394221400066272 0 16.394221400066272 30.615909906691741 0 0 0 0 -3.3839041869900939 -23.840787837808421 0 -23.840787837808421 -17.551611756032798 0 0 0 0 26.797290195317146 26.806215543865619 0 26.806215543865619 6.3880661563625836 0 0 0 0 55.128709100396009 61.212190936532352 0 61.212190936532352 44.942720490129432 0 0 0 0 9.9414663883412686 24.854134490989054 0 24.854134490989054 49.770752106082 0 0 0 0 40.678586630496739 83.925476137019132 0 83.925476137019132 112.78000739439631 0 0 0 0 60.847227300954728 60.465628021727753 0 60.465628021727753 69.8203643339466 0 0 0 0 24.120754289991055 44.255611516276076 0 44.255611516276076 81.064605331832809 0 0 0 0 20.198776837989953 28.783947178346352 0 28.783947178346352 32.44846870307083 0 0 0 0 38.123253112569273 25.996660826265725 0 25.996660826265725 20.564084746536537 0 0 0 0 50.809183554945776 60.976333993959088 0 60.976333993959088 66.394442685774266 0 0 0 0 6.6668631249976897 -19.950641151531272 0 -19.950641151531272 -9.801725208651078 0 0 0 0 68.805949154194423 63.083997935525531 0 63.083997935525531 72.180124534392235 0 0 0 0 28.504154179805482 48.797046915974533 0 48.797046915974533 95.95997254607596 0 0 0 0 34.804307942058585 15.431193893320597 0 15.431193893320597 43.761948038096307 0 0 0 0 75.055669523940196 77.798977958957039 0 77.798977958957039 91.135975049526678 0 0 0 0 72.045644714728951 84.84838349776237 0 84.84838349776237 140.42616425708911 0 0 0 0 41.773310526018577 52.624086513332259 0 52.624086513332259 96.163185861143575 0 0 0 0 75.026004219500464 98.71674712386357 0 98.71674712386357 110.59157968834552 0 0 0 0 97.113625571950081 145.02295054835517 0 145.02295054835517 157.80274111352992 0 0 0 0 91.320900346773669 89.052630563848652 0 89.052630563848652 100.74571987785293 0 0 0 0 48.995775418653238 110.02717956073911 0 110.02717956073911 153.22570363166415 0 0 0 0 127.58276174350158 132.08313712971176 0 132.08313712971176 158.64041031743477 0 0 0 0 152.27101816138384 144.4024642122331 0 144.4024642122331 248.75811603612146 0 0 0 0 254.24531554453915 200.70002198891302 0 200.70002198891302 175.17304358066758 0 0 0 0 203.5372596947891 133.67342682806475 0 133.67342682806475 209.47792548536745 0 0 0 0 134.01257882830032 126.02262977499413 0 126.02262977499413 176.44499442295728 0 0 0 0 175.95339730711567 166.97946277981737 0 166.97946277981737 173.81947857244995 0 0 0 0 126.24185230411877 168.05998708686002 0 168.05998708686002 228.32898664293134 0 0 0 0 121.29492112189382 107.50193856391343 0 107.50193856391343 124.88432940322673 0 0 0 0 111.68046549643077 137.04268894137658 0 137.04268894137658 174.87822997922922 0 0 0 0 64.112986445952629 76.660390767259742 0 76.660390767259742 133.28739252811374 0 0 0 0 114.78658086430733 97.519061418556703 0 97.519061418556703 111.68497812672831 0 0 0 0 49.110493309715821 68.706851990472387 0 68.706851990472387 120.39472952091114 0 0 0 0 106.56793585553714 96.844633295514541 0 96.844633295514541 111.87271760639851 0 0 0 0 114.24565702633026 88.306202734993803 0 88.306202734993803 121.13719242726984 0 0 0 0 143.50478942948416 193.9848871463962 0 193.9848871463962 221.3322441847049 0 0 0 0 89.030534541704583 100.75054144799105 0 100.75054144799105 167.69852275543417 0 0 0 0 164.69226626145883 134.89776118820646 0 134.89776118820646 154.79762726413901 0 0 0 0 145.80196444926696 144.11985460943743 0 144.11985460943743 154.75863457001287 0 0 0 0 95.627636651932335 148.20151134686876 0 148.20151134686876 216.91038525419572 0 0 0 0 163.63731898053629 155.99648810497956 0 155.99648810497956 178.10839314402438 0 0 0 0 125.95537589550622 182.3114809469289 0 182.3114809469289 309.55542922313361 0 0 0 0 199.64139121852349 264.1487848810084 0 264.1487848810084 255.79516977311505 0 0 0 0 279.42381004976539 596.06404442000928 0 596.06404442000928 312.99601355028426 0 0 0 0 265.49765742287855 493.78958921184676 0 493.78958921184676 537.173587552752 0 0 0 0 3.2823926606150664 0.1186161279990765 0 0.1186161279990765 -1.0585473087571664 0 0 0 0 566.13671754638426 -28.346356094505154 0 -28.346356094505154 49.3956455592579 0 0 0 0 414.35293295150313 -416.37935044020014 0 -416.37935044020014 162.99174845351808 0 0 0 0 3.1521922606451183 1.361086282023062 0 1.361086282023062 0.81475285291680777 0 0 0 0 7.5678405698424456 196.16489842127226 0 196.16489842127226 -39.245221348081941 0 0 0 0 54.492994813236237 1.1038599301248837 0 1.1038599301248837 -142.19677126311399 0 0 0 0 292.20984077168509 178.73071308450585 0 178.73071308450585 -64.726325702627491 0 0 0 0 360.03203389905207 54.841428942405855 0 54.841428942405855 71.208725007717931 0 0 0 0 242.51426682873856 -21.271444342955192 0 -21.271444342955192 209.54712533917154 0 0 0 0 63.242825801738547 99.483997673805334 0 99.483997673805334 188.72045321984524 0 0 0 0 12.043546522107903 66.269946929589878 0 66.269946929589878 134.62155482668777 0 0 0 0 117.89311856541144 105.58782701920927 0 105.58782701920927 149.17728584400902 0 0 0 0 73.689296785275701 81.437433104902539 0 81.437433104902539 262.22101075321893 0 0 0 0 40.24292452456158 175.68771610927718 0 175.68771610927718 0.43458208762149297 0 0 0 0 96.872784010014641 76.123859012321873 0 76.123859012321873 -113.25175848089384 0 0 0 0 -66.334224907977955 -69.136880416923759 0 -69.136880416923759 51.301346088608625 0 0 0 0 -17.741269837156722 -32.67971030714034 0 -32.67971030714034 -69.3721505195997 0 0 0 0 6.8980720727664675 51.039508181844212 0 51.039508181844212 51.254566172880459 0 0 0 0 33.982907860347666 19.572081394221868 0 19.572081394221868 -63.507590923962198 0 0 0 0 -38.429700692708025 -15.197662266454245 0 -15.197662266454245 -37.377015434628447 0 0 0 0 -28.624059212604834 -34.913519450558169 0 -34.913519450558169 -145.20914680292208 0 0 0 0 -51.82046620157405 -102.06639709551928 0 -102.06639709551928 -167.29437261720182 0 0 0 0 -35.175188749525546 -51.365768853215741 0 -51.365768853215741 -94.026166372534135 0 0 0 0 -20.747642309151928 -56.922979642979044 0 -56.922979642979044 -97.497999799427816 0 0 0 0 -0.63306352751101258 -21.389420972245034 0 -21.389420972245034 -61.625962687490755 0 0 0 0 -88.810967599776518 -205.58587585914211 0 -205.58587585914211 -358.26108322938398 0 0 0 0 -50.272193185706442 -11.758092626883126 0 -11.758092626883126 -70.02506349905434 0 0 0 0 43.678197030385718 38.937630592909954 0 38.937630592909954 -5.2748297508460382 0 0 0 0 -0.25242268405247659 0.71280743092743037 0 0.71280743092743037 -2.1435240390360413 0 0 0 0 3.860735761924535 -1.0716383698158154 0 -1.0716383698158154 0.39955837173087083 0 0 0 0 17.089442537113655 -38.361627251937989 0 -38.361627251937989 -13.235238659108745 0 0 0 0 364.80583472042667 -313.45586319372433 0 -313.45586319372433 -137.55716521028808 0 0 0 0 496.92438428727064 -203.85472735826033 0 -203.85472735826033 -197.52710917241779 0 0 0 0 288.78444733598644 -193.60770411243811 0 -193.60770411243811 54.608607918527014 0 0 0 0 155.90174531275733 35.798859638915701 0 35.798859638915701 -18.880884340298508 0 0 0 0 188.92460063131466 -21.350222318253145 0 -21.350222318253145 -18.577566083857164 0 0 0 0 486.64728164114968 110.96949618241646 0 110.96949618241646 16.961736278992248 0 0 0 0 275.55815394609499 -139.51050447540729 0 -139.51050447540729 204.64737113101864 0 0 0 0 188.20454100270058 28.362647099227615 0 28.362647099227615 -17.729331797868326 0 0 0 0 -3.235342842790601 105.10565105807655 0 105.10565105807655 -28.028612063183573 0 0 0 0 -30.184416641121061 57.669994279956882 0 57.669994279956882 109.40517788727402 0 0 0 0 -53.013360644096792 -11.217615090074105 0 -11.217615090074105 102.76911242130507 0 0 0 0 -55.504683479436153 -0.37076462045479275 0 -0.37076462045479275 67.444120279302297 0 0 0 0 -132.49892937044842 -37.021945945059997 0 -37.021945945059997 89.290625240647387 0 0 0 0 -5.3332260196161769 -20.149941176870016 0 -20.149941176870016 -10.302630021509685 0 0 0 0 -6.4822595052790462 -15.775128757155017 0 -15.775128757155017 -14.289811670259041 0 0 0 0 -2.4220956744370667 -1.696336302064541 0 -1.696336302064541 -0.65367526818409694 0 0 0 0 2.3751524556439039 -3.7157698121773599 0 -3.7157698121773599 1.7300174836201734 0 0 0 0 -107.76132207176443 -59.950505457703002 0 -59.950505457703002 22.04078590825884 0 0 0 0 -25.902563425366679 13.025531127590511 0 13.025531127590511 28.348278587159257 0 0 0 0 -79.599169021374337 -25.735769749313022 0 -25.735769749313022 -23.805645175083555 0 0 0 0 -92.959473121557039 -30.318961335625318 0 -30.318961335625318 46.405156443013766 0 0 0 0 -60.23470291259855 28.366265229362398 0 28.366265229362398 26.551971085309106 0 0 0 0 -41.156882529243831 29.546471955673042 0 29.546471955673042 -29.004623704729056 0 0 0 0 -71.135377019314092 1.7772185248443293 0 1.7772185248443293 -37.170195840544693 0 0 0 0 11.412560526260103 -0.86490212228281216 0 -0.86490212228281216 -0.55312040599081058 0 0 0 0 9.54247869530559 -5.5578502809794372 0 -5.5578502809794372 -4.0267883555961816 0 0 0 0 4.5311027531113055 -1.633973985147934 0 -1.633973985147934 -0.4001449687885561 0 0 0 0 3.7323003011624678 13.513400160762103 0 13.513400160762103 -14.438453901158937 0 0 0 0 165.33945345256166 31.068783748187343 0 31.068783748187343 -62.757610593571371 0 0 0 0 8.6818849684735504 3.3564449958918159 0 3.3564449958918159 0.93832611229576024 0 0 0 0 1.3069780299492431 1.6142671394367696 0 1.6142671394367696 -0.81817093611693892 0 0 0 0 210.20081957422826 54.568140996763987 0 54.568140996763987 -21.73784218095534 0 0 0 0 16.515099780303899 -27.804306386780809 0 -27.804306386780809 -49.147225397651709 0 0 0 0 -54.498608815745229 17.39270311324799 0 17.39270311324799 46.707394130287867 0 0 0 0 1.1830358378406345 111.88749657025892 0 111.88749657025892 -134.69603125855792 0 0 0 0 -109.71548208300374 79.27951643580127 0 79.27951643580127 36.171872699683718 0 0 0 0 58.850445250962366 -33.866188111707288 0 -33.866188111707288 22.904851478958747 0 0 0 0 -19.642527606552676 -37.828150849579401 0 -37.828150849579401 -30.119428571990284 0 0 0 0 29.305835111421402 30.922340312534629 0 30.922340312534629 -7.4087232255624258 0 0 0 0 33.883242196556239 12.256944529993234 0 12.256944529993234 30.544008118025886 0 0 0 0 -33.647468783496151 -19.738064245006171 0 -19.738064245006171 31.342559206010378 0 0 0 0 21.658969354815781 -18.752018201271312 0 -18.752018201271312 23.402161125283783 0 0 0 0 -2.2795474494728794 -0.40510189475359937 0 -0.40510189475359937 0.21454768440337624 0 0 0 0 -30.978338381268259 -11.996212443325931 0 -11.996212443325931 30.785042264818912 0 0 0 0 -17.710264366807856 -10.072001951777807 0 -10.072001951777807 1.1215730687601697 0 0 0 0 -14.564903895138286 -3.3255261164201784 0 -3.3255261164201784 -20.139262426040659 0 0 0 0 -12.120885409148627 -24.243241934776506 0 -24.243241934776506 -1.8152326927211107 0 0 0 0 -7.6425046635451395 5.1423459040104831 0 5.1423459040104831 11.257369549302894 0 0 0 0 -6.4842914371882729 -11.902145635345565 0 -11.902145635345565 -1.2049416290935522 0 0 0 0 -21.232236698243923 -9.4319341303229294 0 -9.4319341303229294 0.81229452743900765 0 0 0 0 -9.5727354533510152 -26.995488509574898 0 -26.995488509574898 -12.74697115476738 0 0 0 0 8.5044137136983409 -4.2591472445892578 0 -4.2591472445892578 -2.0630431644185592 0 0 0 0 10.514754039707078 -6.6001644456913073 0 -6.6001644456913073 -1.4785526788792929 0 0 0 0 -73.720375363724088 -82.005405649181739 0 -82.005405649181739 -8.9066173792612062 0 0 0 0 4.2621186508132904 -7.711966057316296 0 -7.711966057316296 3.2669527898564361 0 0 0 0 -112.51392145771115 137.23979991720171 0 137.23979991720171 136.96110797315123 0 0 0 0 -145.0176285999496 -18.564206257266505 0 -18.564206257266505 65.629676243543145 0 0 0 0 16.646548085590666 -53.256181909345514 0 -53.256181909345514 -87.395647790851399 0 0 0 0 -4.2312183617814298 -77.739329397280926 0 -77.739329397280926 -7.4397225238958526 0 0 0 0 -31.913803139532774 -91.070112236219984 0 -91.070112236219984 -111.97821627875965 0 0 0 0 17.391368213400423 -3.9453289274884922 0 -3.9453289274884922 -1.2401028572212116 0 0 0 0 13.701300757691877 -6.4449030887104488 0 -6.4449030887104488 1.236331417538814 0 0 0 0 10.725148552535757 -10.635849493266505 0 -10.635849493266505 -9.9041911641779734 0 0 0 0 19.356820375376174 -71.988699887468101 0 -71.988699887468101 -173.41932364496097 0 0 0 0 17.20995773566483 -70.187821198650454 0 -70.187821198650454 -170.64905901223665 0 0 0 0 118.89210946754611 12.115414529842838 0 12.115414529842838 -139.66282491960283 0 0 0 0 81.236941441675754 -72.583930418760247 0 -72.583930418760247 -306.6823649965263 0 0 0 0 -20.882068770431943 -63.817408480850645 0 -63.817408480850645 -114.81480384683528 0 0 0 0 3.4800435681318049 -137.33147936295336 0 -137.33147936295336 -153.6544839907433 0 0 0 0 13.898713612437859 -173.3146889404652 0 -173.3146889404652 -29.616558177125626 0 0 0 0 -26.629186987338471 -165.96881534439308 0 -165.96881534439308 144.27734021552897 0 0 0 0 36.752901850974013 -48.635960990652165 0 -48.635960990652165 -94.537520396916079 0 0 0 0 2.0968192029977217 12.50247399325508 0 12.50247399325508 -136.96333399256218 0 0 0 0 40.38818775735308 52.992809764773483 0 52.992809764773483 -177.38550993189438 0 0 0 0 68.373461392399804 0.84524950375816843 0 0.84524950375816843 -135.80186752783163 0 0 0 0 49.525382470645127 -9.1128780972030654 0 -9.1128780972030654 -135.55468374801831 0 0 0 0 30.201390948661356 -28.599365566628876 0 -28.599365566628876 -152.10994069379467 0 0 0 0 106.55363269881718 27.13826297470041 0 27.13826297470041 -114.66558273433043 0 0 0 0 37.823568082466409 -11.651350567507507 0 -11.651350567507507 -91.962580974930461 0 0 0 0 35.410264849805571 19.963946343215412 0 19.963946343215412 -63.28314432856132 0 0 0 0 115.11040888830757 106.14327169652188 0 106.14327169652188 -35.070844220497293 0 0 0 0 99.413859564996073 195.85784557441411 0 195.85784557441411 182.51560157207496 0 0 0 0 109.11210735438635 153.81621506844749 0 153.81621506844749 15.409647052185392 0 0 0 0 167.37205043568702 165.66195964584176 0 165.66195964584176 -48.362475655786511 0 0 0 0 81.78659621490624 29.203175049460697 0 29.203175049460697 -77.581049416275164 0 0 0 0 24.262409840159307 55.359180519863003 0 55.359180519863003 -172.18683553420033 0 0 0 0 -37.799930631716734 -171.56826000536148 0 -171.56826000536148 -454.55145994005943 0 0 0 0 25.579625524746007 35.100807022856316 0 35.100807022856316 -228.28202467104438 0 0 0 0 137.4762597630438 -24.469982342340245 0 -24.469982342340245 -198.42693866611262 0 0 0 0 72.135915867550921 81.744003233736066 0 81.744003233736066 -53.707890299059727 0 0 0 0 172.02221828216443 74.14245356966876 0 74.14245356966876 -204.33092362866773 0 0 0 0 118.37980411887111 146.96638497185768 0 146.96638497185768 0.7481594654127548 0 0 0 0 246.80207813038214 188.0312847645755 0 188.0312847645755 -31.059980707354953 0 0 0 0 187.30565628603199 123.11840969040395 0 123.11840969040395 75.687510016683518 0 0 0 0 288.48392282675923 213.76554522020615 0 213.76554522020615 138.26827097488513 0 0 0 0 139.99801874721015 54.451462301898573 0 54.451462301898573 43.189757826159621 0 0 0 0 272.1631711705104 120.97880335542231 0 120.97880335542231 -51.106082595518046 0 0 0 0 371.22663639871962 33.616687860930142 0 33.616687860930142 44.6155007405996 0 0 0 0 232.44120533717251 13.59418644212019 0 13.59418644212019 184.75765154861301 0 0 0 0 414.05023891199403 255.0099052407802 0 255.0099052407802 327.88325406260446 0 0 0 0 541.76264956325576 -81.766309837683593 0 -81.766309837683593 213.05712711456727 0 0 0 0 323.69412099382225 139.26802548883461 0 139.26802548883461 187.58723294197807 0 0 0 0 208.66945335799574 303.9778606272539 0 303.9778606272539 460.19650271330647 0 0 0 0 163.37013655066039 187.1839187208609 0 187.1839187208609 201.2738486050057 0 0 0 0 132.22697377723853 248.30264904264732 0 248.30264904264732 174.2893161801594 0 0 0 0 60.538258061725173 223.26596030828659 0 223.26596030828659 231.57634972045128 0 0 0 0 61.819348458475254 221.44244412562787 0 221.44244412562787 167.65223886186686 0 0 0 0 149.09168303118167 242.17403983570694 0 242.17403983570694 170.18959804926999 0 0 0 0 -6.1480486328555344 -85.945002689490138 0 -85.945002689490138 75.097174989281484 0 0 0 0 60.543359836350646 -109.39219402068932 0 -109.39219402068932 -53.138081682805932 0 0 0 0 31.153449533265302 -99.96132147381104 0 -99.96132147381104 -48.532400961303665 0 0 0 0 -20.955065126929185 -107.76540674549824 0 -107.76540674549824 59.906521246033662 0 0 0 0 38.590755268653538 -72.160370313634758 0 -72.160370313634758 89.887664937627051 0 0 0 0 -23.970335961987985 -61.780215436248909 0 -61.780215436248909 90.649990565179905 0 0 0 0 -3.9085329136078144 -56.838886838729195 0 -56.838886838729195 192.46370276631319 0 0 0 0 22.483233577053397 -27.491424362005091 0 -27.491424362005091 140.10883780434233 0 0 0 0 4.2464587194872365 -35.889857672823837 0 -35.889857672823837 240.2091460142201 0 0 0 0 56.152416937302405 -79.064051244062284 0 -79.064051244062284 70.386319831432502 0 0 0 0 31.638231099801487 -94.695221749475422 0 -94.695221749475422 156.69697543523398 0 0 0 0 90.713571298664647 -86.141248068037385 0 -86.141248068037385 249.97487118957997 0 0 0 0 45.598957168274637 -37.313592543128607 0 -37.313592543128607 201.35988206576258 0 0 0 0 111.89137976454549 -8.5059976379150157 0 -8.5059976379150157 306.86032072875241 0 0 0 0 297.84798413083081 6.9839232582835393 0 6.9839232582835393 437.43852677738778 0 0 0 0 144.54624098546083 -142.9345732906595 0 -142.9345732906595 225.0200381303398 0 0 0 0 284.93130833814757 -42.524865645544196 0 -42.524865645544196 64.385863235576835 0 0 0 0 154.8071827583708 -87.452180477615002 0 -87.452180477615002 -74.384204365103869 0 0 0 0 100.25437605365551 -62.658875649124639 0 -62.658875649124639 62.942777763052163 0 0 0 0 211.10072605548339 -11.385813928278822 0 -11.385813928278822 -61.431834134104065 0 0 0 0 77.929950566809566 -129.29270880501099 0 -129.29270880501099 104.10847288406057 0 0 0 0 112.53816937726879 -60.326242419285336 0 -60.326242419285336 65.849688614294791 0 0 0 0 56.911643593897679 -90.813479352181275 0 -90.813479352181275 63.137328818097217 0 0 0 0 50.406986960299946 -72.85124045525572 0 -72.85124045525572 59.707546988811373 0 0 0 0 75.21724873846324 -138.51442440843766 0 -138.51442440843766 -51.394580010111895 0 0 0 0 50.266757523424531 -84.547644219708673 0 -84.547644219708673 -85.984839616887257 0 0 0 0 94.426220215268586 -84.855471325687176 0 -84.855471325687176 -228.97315189363871 0 0 0 0 64.361360567635529 -148.77966331820062 0 -148.77966331820062 -166.94337820650981 0 0 0 0 39.419573705232324 -95.599600975639078 0 -95.599600975639078 -199.28136353514492 0 0 0 0 51.169194632882864 -20.697066561215252 0 -20.697066561215252 -60.152260921305469 0 0 0 0 33.649755666418059 -109.07889594874996 0 -109.07889594874996 -74.167610854243748 0 0 0 0 117.96715232805491 -48.483952141378268 0 -48.483952141378268 -189.8417139733956 0 0 0 0 84.037355041777118 -117.66579506536618 0 -117.66579506536618 -402.19405345300493 0 0 0 0 -57.241899713011662 -2.2630965508697045 0 -2.2630965508697045 -390.96864138729427 0 0 0 0 133.76468325288442 22.47723396098263 0 22.47723396098263 -805.94473665603437 0 0 0 0 -34.888973250919662 -113.59268282250014 0 -113.59268282250014 -207.5383976120911 0 0 0 0 -8.826136588881127 -86.718138039584119 0 -86.718138039584119 -320.84419213262356 0 0 0 0 74.962116396166493 -123.53125870559052 0 -123.53125870559052 -325.61155126288395 0 0 0 0 33.43475347536878 -140.44065946144383 0 -140.44065946144383 -267.01398105569024 0 0 0 0 20.215620947459684 -73.325547824681962 0 -73.325547824681962 -229.04884083804464 0 0 0 0 46.351788597643463 -116.4779047513066 0 -116.4779047513066 -331.21789379068741 0 0 0 0 34.979214382666214 -133.18468550399257 0 -133.18468550399257 -212.57137710292409 0 0 0 0 28.830358660592537 -99.23276729927602 0 -99.23276729927602 -305.38104891248076 0 0 0 0 63.938812012846029 -99.19991628623211 0 -99.19991628623211 -281.21380301421777 0 0 0 0 35.289346383708107 -83.052391790696674 0 -83.052391790696674 -184.13386189548328 0 0 0 0 28.553243597041728 -138.99613783337736 0 -138.99613783337736 -55.402594798483847 0 0 0 0 5.9095409346882661 -123.98121813041598 0 -123.98121813041598 -155.40061385986883 0 0 0 0 14.176120284065064 -140.08165443782786 0 -140.08165443782786 -147.25672802325062 0 0 0 0 -11.019820431749395 -80.776722794988018 0 -80.776722794988018 -54.856968598010553 0 0 0 0 -19.41875890481424 -96.842001732113204 0 -96.842001732113204 -187.98274152248632 0 0 0 0 9.7024577453848906 -149.43819860940039 0 -149.43819860940039 -246.07771088249137 0 0 0 0 -9.4447878674213825 -110.43836067940128 0 -110.43836067940128 -162.19807650940129 0 0 0 0 -77.532931057026872 -156.72773915625658 0 -156.72773915625658 -232.95999252048478 0 0 0 0 6.1263336446154426 -77.135206042921709 0 -77.135206042921709 -321.54930005434835 0 0 0 0 -60.58412338166454 -86.435710464954354 0 -86.435710464954354 -272.29216437592731 0 0 0 0 -1.3464602867898066 -138.44259503543981 0 -138.44259503543981 -227.39262255803624 0 0 0 0 -12.830400739058689 -16.06497531602713 0 -16.06497531602713 4.549777437992816 0 0 0 0 -78.746140302155254 50.196595668829559 0 50.196595668829559 100.45043598225948 0 0 0 0 7.2926707806331343 -3.5713103111069513 0 -3.5713103111069513 1.5567149737635209 0 0 0 0 -0.98497864652688349 -0.75309563904488463 0 -0.75309563904488463 1.353595612464904 0 0 0 0 18.120086294962675 42.954894592502569 0 42.954894592502569 -15.219671997344904 0 0 0 0 28.53979556043992 -9.9659309839837782 0 -9.9659309839837782 2.2778405183219412 0 0 0 0 4.4038364796140286 -62.336069859692657 0 -62.336069859692657 -16.125691723169439 0 0 0 0 9.0875614343867461 -7.0754830903646964 0 -7.0754830903646964 1.0402347781730734 0 0 0 0 17.779797219880038 -34.665644649444403 0 -34.665644649444403 -84.702808944924072 0 0 0 0 15.72500407984171 15.706537927473164 0 15.706537927473164 -64.403766865355237 0 0 0 0 4.5073363006923071 -2.1276263493444088 0 -2.1276263493444088 -0.25280246931633954 0 0 0 0 -120.6000293310135 -23.274345336977603 0 -23.274345336977603 10.352510891746078 0 0 0 0 -10.062910512453527 -8.6498140353205599 0 -8.6498140353205599 -33.200463988323463 0 0 0 0 43.592226136453064 11.775961400640426 0 11.775961400640426 -41.117935184971657 0 0 0 0 17.69809295793948 3.9546942354595558 0 3.9546942354595558 -72.789687166080512 0 0 0 0 -1.4837171180905244 0.35577426768275799 0 0.35577426768275799 -0.14109596757984377 0 0 0 0 -94.348036319703169 -110.45137695681115 0 -110.45137695681115 260.07320705925486 0 0 0 0 60.783429359136335 -95.10475479343404 0 -95.10475479343404 -170.78448523587213 0 0 0 0 38.93292631408076 -15.023767230882186 0 -15.023767230882186 -105.68327371257419 0 0 0 0 -1.8556963635455759 50.261169310844707 0 50.261169310844707 89.526497118386942 0 0 0 0 54.803234466351569 -38.602333636470576 0 -38.602333636470576 -416.89422933631158 0 0 0 0 77.587900013817489 -77.685258768231506 0 -77.685258768231506 -161.11265450721567 0 0 0 0 21.715708152547109 -108.95540966165163 0 -108.95540966165163 -9.7331181927384023 0 0 0 0 40.548065118064045 -10.200003448550444 0 -10.200003448550444 0.019904058374475397 0 0 0 0 -0.096346358422302103 -8.855670981698708 0 -8.855670981698708 -0.22848439250626207 0 0 0 0 2.5112917521750724 -0.63730093135612975 0 -0.63730093135612975 -0.01495875662380719 0 0 0 0 737.52615059980235 143.26214996853741 0 143.26214996853741 -137.31641780695804 0 0 0 0 293.68029723669088 -8.4972074882052766 0 -8.4972074882052766 -43.5865452652165 0 0 0 0 -117.35443486604319 39.411812310494923 0 39.411812310494923 123.13053970943838 0 0 0 0 -206.63243572202373 21.062117771336489 0 21.062117771336489 163.49756260123468 0 0 0 0 43.569610726059182 -112.77437912244659 0 -112.77437912244659 -170.70096719173125 0 0 0 0 37.69286995381168 -9.9129149599839046 0 -9.9129149599839046 0.4124522389489691 0 0 0 0 3.6576933813625985 -1.5943203647764776 0 -1.5943203647764776 1.2355030287806414 0 0 0 0 282.95391802962877 2.9166078914940954 0 2.9166078914940954 -55.114154634755323 0 0 0 0 281.3970227612067 -53.316595810738363 0 -53.316595810738363 -55.969679372643441 0 0 0 0 243.84641047181685 164.03834248108978 0 164.03834248108978 -9.778292709204834 0 0 0 0 95.09755492075783 29.377981494160849 0 29.377981494160849 -10.529132435116935 0 0 0 0 7.5471450357035792 219.03178977883181 0 219.03178977883181 105.22920715070359 0 0 0 0 161.17101211589124 -101.60104823731263 0 -101.60104823731263 -35.196725754623003 0 0 0 0 86.841646171278626 -99.89046837953947 0 -99.89046837953947 -6.5524396209502811 0 0 0 0 43.12467810844646 -104.46833163800875 0 -104.46833163800875 -35.084445046426481 0 0 0 0 -60.818332999951963 -35.919053983840513 0 -35.919053983840513 5.4350395479477811 0 0 0 0 56.458319341882543 -36.354226391010798 0 -36.354226391010798 2.4656408735827426 0 0 0 0 41.285400090495386 -48.257911617143236 0 -48.257911617143236 6.6907524678399568 0 0 0 0 75.960276587815315 -49.929909475289605 0 -49.929909475289605 6.7228958415543616 0 0 0 0 76.350339894553144 -29.645042434154675 0 -29.645042434154675 -2.3201310648005347 0 0 0 0 140.14732215122422 -36.295379698611669 0 -36.295379698611669 -38.508744052245675 0 0 0 0 98.355456786533978 -23.853878846668522 0 -23.853878846668522 -13.897263391546403 0 0 0 0 87.633610427435997 3.8934753214070952 0 3.8934753214070952 -5.8524305750270287 0 0 0 0 12.407630372537824 26.018301486224345 0 26.018301486224345 21.246366864883385 0 0 0 0 72.995242638304262 52.81738709803858 0 52.81738709803858 10.280144795833507 0 0 0 0 68.501702469534393 17.90716565436469 0 17.90716565436469 -2.1200728981932997 0 0 0 0 8.8264268521743361 -2.4829721696389697 0 -2.4829721696389697 -0.96932354410455446 0 0 0 0 25.769285865469101 -24.173556037792423 0 -24.173556037792423 18.250652806238122 0 0 0 0 69.688895759249135 -6.3463662132417085 0 -6.3463662132417085 25.106141005913287 0 0 0 0 45.654382686439476 42.48673213865618 0 42.48673213865618 41.720222720842685 0 0 0 0 89.930156927493044 49.582797962407767 0 49.582797962407767 25.54830642680281 0 0 0 0 149.72410253725639 82.847681759574471 0 82.847681759574471 42.621823972403035 0 0 0 0 118.17287007602204 43.052729108077415 0 43.052729108077415 25.068161593619152 0 0 0 0 148.72188150813327 -5.1591245468592888 0 -5.1591245468592888 10.17547959771673 0 0 0 0 260.34469693349456 74.421912463475564 0 74.421912463475564 25.330344148344523 0 0 0 0 197.87095102769035 -29.885205306648913 0 -29.885205306648913 22.122733576026576 0 0 0 0 64.790032283670826 -16.541228957061207 0 -16.541228957061207 -3.5396324096573153 0 0 0 0 79.777086592982414 -41.059951182100519 0 -41.059951182100519 22.917707282989795 0 0 0 0 63.545495031406062 -16.518804254786119 0 -16.518804254786119 14.557984565783499 0 0 0 0 84.017930377814082 -38.846402914723967 0 -38.846402914723967 30.392273612318149 0 0 0 0 62.222681745629416 3.406269210257193 0 3.406269210257193 10.896132653693712 0 0 0 0 13.55703574120113 8.5997302190240585 0 8.5997302190240585 4.8623606272231408 0 0 0 0 51.816335951629753 -30.413395525062839 0 -30.413395525062839 60.818144658140682 0 0 0 0 -81.945253593472444 3.3471134355359027 0 3.3471134355359027 536.58777286654617 0 0 0 0 4.7423140530167203 3.081990222863876 0 3.081990222863876 2.2381287303703825 0 0 0 0 -39.936678801218022 34.411525141763377 0 34.411525141763377 237.67125810838297 0 0 0 0 31.578279485464918 106.99092288134011 0 106.99092288134011 47.656438760055607 0 0 0 0 187.27113191263379 127.69248955748515 0 127.69248955748515 66.041823846230272 0 0 0 0 292.17305916411533 139.23369652744464 0 139.23369652744464 65.413331457612912 0 0 0 0 429.97082463564311 -44.908078660771707 0 -44.908078660771707 16.774528031565069 0 0 0 0 372.68433613833406 262.08250573054147 0 262.08250573054147 228.40092281601937 0 0 0 0 207.15841313998408 101.35272515209408 0 101.35272515209408 424.73604200085038 0 0 0 0 371.5412689171053 -93.357879012379726 0 -93.357879012379726 299.27917163075449 0 0 0 0 272.90934130652568 59.45869250064834 0 59.45869250064834 140.73169439170033 0 0 0 0 412.33364226941296 -105.1556203072025 0 -105.1556203072025 -171.52470421461089 0 0 0 0 425.78005230831661 241.52180729495157 0 241.52180729495157 -74.1178828113284 0 0 0 0 3.886570403745484 1.6825041653481372 0 1.6825041653481372 -0.79331368892334519 0 0 0 0 106.9215981590205 216.23257493495373 0 216.23257493495373 357.51163213148112 0 0 0 0 539.99325310541144 -142.10595948052975 0 -142.10595948052975 -247.81285919545121 0 0 0 0 5.8201894246603842 259.13045736867639 0 259.13045736867639 372.24672569100869 0 0 0 0 22.715650503979305 209.97634087179756 0 209.97634087179756 31.128663370835966 0 0 0 0 -93.122165214581401 159.35328224893033 0 159.35328224893033 275.44438794485939 0 0 0 0 -26.014973011948314 155.89314435928372 0 155.89314435928372 158.57316698744353 0 0 0 0 -106.36377280356464 60.63699618521855 0 60.63699618521855 190.89334632655664 0 0 0 0 8.1853266737452124 2.4842896176794085 0 2.4842896176794085 -1.5007778073660081 0 0 0 0 16.559473603952938 37.315929130245308 0 37.315929130245308 -139.0652524006739 0 0 0 0 8.9278303717583185 109.10421685755898 0 109.10421685755898 13.442515785895864 0 0 0 0 85.429104108565298 94.044502580107462 0 94.044502580107462 -45.412199153654683 0 0 0 0 46.471744279671839 100.89451093600083 0 100.89451093600083 -43.10730285253635 0 0 0 0 51.369102368209496 100.58709899077773 0 100.58709899077773 -125.10124925074518 0 0 0 0 125.83985268844845 134.79862374596036 0 134.79862374596036 -99.080921706974777 0 0 0 0 -178.40873069173085 190.37358178918433 0 190.37358178918433 -94.563239811193853 0 0 0 0 4.2389047505703275 77.897874061412693 0 77.897874061412693 -280.66040895094034 0 0 0 0 -24.849256750258064 57.304734246677228 0 57.304734246677228 -27.219187347245281 0 0 0 0 -27.370292556577624 130.52600043775863 0 130.52600043775863 -108.10499228995764 0 0 0 0 -23.953552334158303 53.430577909386784 0 53.430577909386784 -43.618073559357981 0 0 0 0 -81.6273068096516 73.401846675638922 0 73.401846675638922 -49.423623213343035 0 0 0 0 47.410485024523041 75.353373745119001 0 75.353373745119001 -144.12067912053112 0 0 0 0 65.55199040570551 31.813329871363521 0 31.813329871363521 -91.497245272939836 0 0 0 0 36.998430065841603 96.369906047899349 0 96.369906047899349 -94.902443331922768 0 0 0 0 48.025144912677206 -28.205587860304377 0 -28.205587860304377 -194.26800730393393 0 0 0 0 45.951589555060394 -1.3904173930588666 0 -1.3904173930588666 -5.4849621447946344 0 0 0 0 125.36342524977135 -33.818517451940465 0 -33.818517451940465 -350.45974016934042 0 0 0 0 22.013803172951157 40.185688390664382 0 40.185688390664382 65.585302966879681 0 0 0 0 35.669282935954797 1.6560929680860639 0 1.6560929680860639 11.62498798406285 0 0 0 0 -160.19358001947307 -205.9244972396794 0 -205.9244972396794 -262.55923399378662 0 0 0 0 -164.08192350071602 -136.71361262133766 0 -136.71361262133766 -259.97903381185006 0 0 0 0 -33.193228414836994 -219.44829661347165 0 -219.44829661347165 -311.0626673700815 0 0 0 0 -40.658889292360982 -70.094496791348192 0 -70.094496791348192 -224.07476294606539 0 0 0 0 -16.703646579058841 9.6370554396009993 0 9.6370554396009993 -255.78787935091566 0 0 0 0 194.5639376241179 61.94057444470036 0 61.94057444470036 -267.22896719682745 0 0 0 0 61.026798646287716 -150.37869659650363 0 -150.37869659650363 -219.96625958005973 0 0 0 0 159.2321654753905 -107.30269230130557 0 -107.30269230130557 -266.6281564546581 0 0 0 0 119.01648732744798 -51.829504780650723 0 -51.829504780650723 -169.40194792737589 0 0 0 0 121.79926593802065 55.208425100032116 0 55.208425100032116 -111.75622907185027 0 0 0 0 193.29262977795042 56.227584331270691 0 56.227584331270691 -226.35676089298917 0 0 0 0 293.90084220184326 -41.248258096099413 0 -41.248258096099413 60.838036001607861 0 0 0 0 118.87703418596357 198.68918473924569 0 198.68918473924569 120.55711717078634 0 0 0 0 331.89098466407813 152.35160203138162 0 152.35160203138162 -23.300840924680642 0 0 0 0 139.43959839886156 55.04010312545779 0 55.04010312545779 -49.69702595679712 0 0 0 0 262.07752683740182 -28.798051901156839 0 -28.798051901156839 -168.71919940091379 0 0 0 0 96.144975537627033 -41.412319530261129 0 -41.412319530261129 -38.775499703345645 0 0 0 0 91.464153095279471 -16.561008184353341 0 -16.561008184353341 -29.197449573974041 0 0 0 0 108.87309920408006 -24.516209932550964 0 -24.516209932550964 -92.234871366877769 0 0 0 0 44.3017589406154 -40.945277819727607 0 -40.945277819727607 96.842140742952324 0 0 0 0 -11.701035267878979 61.716140558670077 0 61.716140558670077 148.12494381246188 0 0 0 0 434.13783491264621 -182.03620629831289 0 -182.03620629831289 -64.811183106353155 0 0 0 0 103.76411185321376 -34.637102244607831 0 -34.637102244607831 -34.293200590126617 0 0 0 0 -1.4743220676785889 -2.0886465088763231 0 -2.0886465088763231 -0.997296718129701 0 0 0 0 73.707997547804553 34.400191943777145 0 34.400191943777145 194.59304684858671 0 0 0 0 109.30833480558431 -28.293345796760377 0 -28.293345796760377 -190.02661981539859 0 0 0 0 -0.90516953944723788 -0.88433184128519571 0 -0.88433184128519571 1.0688915703225033 0 0 0 0 398.82816572150477 8.2875059896081211 0 8.2875059896081211 -382.69385345809008 0 0 0 0 76.879168650426436 133.17304323955176 0 133.17304323955176 -174.23442254317899 0 0 0 0 4.7761770014729308 2.3361087848459681 0 2.3361087848459681 -1.1177776423154446 0 0 0 0 183.02623963929364 318.5436630815675 0 318.5436630815675 340.45977203574137 0 0 0 0 121.87417494477086 -123.44419071833579 0 -123.44419071833579 -231.63892980949112 0 0 0 0 -59.129324727950006 0.61761542382362222 0 0.61761542382362222 -95.879771585216901 0 0 0 0 -97.705928744986522 43.9582972880238 0 43.9582972880238 204.36439445628685 0 0 0 0 508.14091697852928 178.79771275390112 0 178.79771275390112 206.57270932534897 0 0 0 0 16.050809967331588 247.2676077449039 0 247.2676077449039 297.70187525325673 0 0 0 0 113.68257305621228 -68.785606311077572 0 -68.785606311077572 290.36360676501772 0 0 0 0 8.8665200857547006 2.6639201560576606 0 2.6639201560576606 -1.7192047277765852 0 0 0 0 218.13748529912118 -59.701487854778406 0 -59.701487854778406 -24.049886001056962 0 0 0 0 -19.274168993717467 117.85363112393998 0 117.85363112393998 101.51633835132748 0 0 0 0 288.75285985312803 223.78188426232373 0 223.78188426232373 131.08723167687003 0 0 0 0 -41.128621833669058 168.37824101492936 0 168.37824101492936 351.58975379013964 0 0 0 0 248.85762633958802 -101.13641649270903 0 -101.13641649270903 46.342968909770661 0 0 0 0 83.348519359995407 332.53157935059562 0 332.53157935059562 366.53911383164632 0 0 0 0 -0.22727651317215702 3.9592456739982822 0 3.9592456739982822 3.6439898773506503 0 0 0 0 50.683875384314888 -37.207446898168655 0 -37.207446898168655 0.59831537782656596 0 0 0 0 107.71897351477674 18.685364087890321 0 18.685364087890321 -159.91517092510549 0 0 0 0 14.02508087739502 -5.1351649433009072 0 -5.1351649433009072 -0.99018196280119586 0 0 0 0 213.86599994318021 -113.61759633055408 0 -113.61759633055408 -83.847684891993367 0 0 0 0 415.62092261468206 177.26820902786454 0 177.26820902786454 -12.057353533196419 0 0 0 0 253.96740861012586 306.63572536421452 0 306.63572536421452 310.19268933790909 0 0 0 0 35.723442133567005 -113.10494935329575 0 -113.10494935329575 103.59095633967399 0 0 0 0 1.8245677427532314 -3.4460179763679397 0 -3.4460179763679397 1.2603945041479054 0 0 0 0 337.52337537011408 124.955166423842 0 124.955166423842 75.381176078458338 0 0 0 0 12.450561285369055 0.37550756329894597 0 0.37550756329894597 -4.0081343227636239 0 0 0 0 -104.97514816053081 3.7535067235321264 0 3.7535067235321264 116.00673475679659 0 0 0 0 44.718062483974563 -46.899326053588197 0 -46.899326053588197 2.4819376448976982 0 0 0 0 39.884747003507954 -24.455524451624665 0 -24.455524451624665 -4.9327363115131426 0 0 0 0 13.434963548756059 -40.024308017992098 0 -40.024308017992098 32.381717515517721 0 0 0 0 32.448877007949193 -51.00459343713942 0 -51.00459343713942 -56.259216088461471 0 0 0 0 61.364703942701752 -25.011066673405594 0 -25.011066673405594 -135.30899089073682 0 0 0 0 60.550463422120856 -90.849734565240396 0 -90.849734565240396 25.938746623304269 0 0 0 0 10.884206825818957 -5.5629558695630861 0 -5.5629558695630861 -2.1462647549553551 0 0 0 0 -3.4519170587900589 -46.978902764438544 0 -46.978902764438544 15.862435093242311 0 0 0 0 28.60577498022618 -24.601137105505561 0 -24.601137105505561 -8.330303870508768 0 0 0 0 56.131766443468223 -29.168083772326099 0 -29.168083772326099 -30.753432459948272 0 0 0 0 -85.151676179173819 -60.350365337811127 0 -60.350365337811127 -16.366403331930997 0 0 0 0 27.293416872174724 -21.599651037499108 0 -21.599651037499108 -10.689892859175842 0 0 0 0 29.876540600040244 -33.198762272239037 0 -33.198762272239037 -30.05009721528404 0 0 0 0 -58.20549558239486 -116.57243468435354 0 -116.57243468435354 -11.391925055089814 0 0 0 0 19.057947019067683 -60.935137172709801 0 -60.935137172709801 -55.026749091720546 0 0 0 0 97.852604532550444 -54.373252018308676 0 -54.373252018308676 -32.031911484930333 0 0 0 0 122.10512936519328 -80.243005648892677 0 -80.243005648892677 -93.624639637903101 0 0 0 0 40.468424575545278 -86.570858380529216 0 -86.570858380529216 -26.999513720251798 0 0 0 0 -0.62757406144919514 69.494012321585615 0 69.494012321585615 71.062276782773779 0 0 0 0 154.15723745011292 -9.5605476062344223 0 -9.5605476062344223 -72.579624464562585 0 0 0 0 43.943893922300049 -12.270057678965259 0 -12.270057678965259 36.612993157182245 0 0 0 0 74.760796685077366 -61.152268730987998 0 -61.152268730987998 23.421139618169036 0 0 0 0 16.276780078511365 1.6231528447902974 0 1.6231528447902974 6.6439583373603455 0 0 0 0 78.908333093035253 25.669661457933671 0 25.669661457933671 -86.922097892417696 0 0 0 0 25.039298421552914 8.6493226922592399 0 8.6493226922592399 3.5903246428494811 0 0 0 0 18.152477322401865 8.0144764509386732 0 8.0144764509386732 26.851721472140071 0 0 0 0 16.617894178649294 -3.1682267883365967 0 -3.1682267883365967 3.0910156889440259 0 0 0 0 19.557272951265077 -11.88092385277605 0 -11.88092385277605 27.086476308517646 0 0 0 0 18.048682305398632 -9.1946446359507643 0 -9.1946446359507643 -0.010742307836578036 0 0 0 0 -50.737323128145022 -62.363230148157527 0 -62.363230148157527 -5.1337904206066014 0 0 0 0 9.6104442091982492 -5.3576390067055399 0 -5.3576390067055399 10.143191764885842 0 0 0 0 7.579806804157819 -11.830548140316957 0 -11.830548140316957 -0.11683783367256417 0 0 0 0 -42.981333012415803 -28.865484062993346 0 -28.865484062993346 9.3336393572176348 0 0 0 0 -54.718374355756396 -52.058364301208712 0 -52.058364301208712 -16.399525024947252 0 0 0 0 -43.739310615889167 -11.083962042456278 0 -11.083962042456278 15.541231125454942 0 0 0 0 -35.193943400625528 -10.581633707699211 0 -10.581633707699211 3.4091243914490406 0 0 0 0 1.2100351870407593 -0.97001516871686988 0 -0.97001516871686988 -0.29389095011653588 0 0 0 0 1.8176219550018686 -8.9187767902315045 0 -8.9187767902315045 4.3860640780703761 0 0 0 0 17.76521202731783 4.4912155772030928 0 4.4912155772030928 -9.6097667268732039 0 0 0 0 255.17226363752232 -170.78002520361815 0 -170.78002520361815 42.982010529745821 0 0 0 0 -2.9010885215750477 -20.578991197618961 0 -20.578991197618961 45.013612598424288 0 0 0 0 35.240371574159781 -53.703717474973018 0 -53.703717474973018 71.243205144420244 0 0 0 0 19.743286312916652 -62.041749597499006 0 -62.041749597499006 183.71937096299553 0 0 0 0 4.3485923025320972 -87.841236410929014 0 -87.841236410929014 -75.692886650439505 0 0 0 0 13.008122574177492 -119.75495977459627 0 -119.75495977459627 39.862293414721535 0 0 0 0 -75.417608092247747 -117.48664484081837 0 -117.48664484081837 -95.12353759298594 0 0 0 0 -107.31043556057512 -32.056390421883179 0 -32.056390421883179 26.303010737134173 0 0 0 0 10.776615504188017 -10.974375445906354 0 -10.974375445906354 -7.9722085100490805 0 0 0 0 -40.407254066735732 -36.412108713876478 0 -36.412108713876478 18.571817045864009 0 0 0 0 -43.485946903731246 -37.569972855481865 0 -37.569972855481865 69.243672913291448 0 0 0 0 -5.4761214322464866 5.6541280696501417 0 5.6541280696501417 36.301165239955481 0 0 0 0 -16.735945931342485 -10.444308630558226 0 -10.444308630558226 48.59947799258407 0 0 0 0 -40.34475643255751 -9.6511389727344579 0 -9.6511389727344579 60.516482602530232 0 0 0 0 -62.390797888784391 -24.700183751709574 0 -24.700183751709574 45.103915637126192 0 0 0 0 -39.924519885289804 -17.794786767743901 0 -17.794786767743901 25.074630704277297 0 0 0 0 -36.48054462453797 6.8947410704486174 0 6.8947410704486174 30.532949307677654 0 0 0 0 -29.276279062626998 0.49257998313987628 0 0.49257998313987628 35.500789772873759 0 0 0 0 12.432080906854992 54.566800543251361 0 54.566800543251361 24.284832041961636 0 0 0 0 1.8817552153832637 -1.0827508476751646 0 -1.0827508476751646 0.81236084425915323 0 0 0 0 19.414809906270108 23.222167921998334 0 23.222167921998334 139.04746013146541 0 0 0 0 390.16322628593343 -109.43872799191013 0 -109.43872799191013 -9.0479065059026595 0 0 0 0 9.4102444834193761 33.355820080712874 0 33.355820080712874 86.424144181401061 0 0 0 0 -15.356423952513552 -21.668260939718266 0 -21.668260939718266 111.81487096953788 0 0 0 0 598.81339999406885 -84.887817917520351 0 -84.887817917520351 -43.138659704622114 0 0 0 0 369.54054708346098 -55.357391723847343 0 -55.357391723847343 19.700070494913234 0 0 0 0 292.6809161137308 122.73786108750983 0 122.73786108750983 -36.496037477889786 0 0 0 0 242.24869713418275 77.36065890893633 0 77.36065890893633 93.616155374541449 0 0 0 0 242.39118812737394 77.031816000003559 0 77.031816000003559 -26.037829045791113 0 0 0 0 140.11275550383107 100.82559873300897 0 100.82559873300897 41.190460358662676 0 0 0 0 26.76440851059283 23.447502009103573 0 23.447502009103573 73.374780934259434 0 0 0 0 347.00976434717097 188.62170754049475 0 188.62170754049475 66.106795399307885 0 0 0 0 9.4660068355327702 -3.9216703014462704 0 -3.9216703014462704 0.045480765328159478 0 0 0 0 61.518558129055236 -24.356960342514867 0 -24.356960342514867 -33.039665187852734 0 0 0 0 34.218331570642249 -10.469740461417587 0 -10.469740461417587 -40.021974931335535 0 0 0 0 1.7483223511439836 2.8531105219235027 0 2.8531105219235027 -6.690628767162881 0 0 0 0 24.166315906659293 18.375578019575187 0 18.375578019575187 -23.706805742386905 0 0 0 0 67.494092554413328 -33.20316998222188 0 -33.20316998222188 -20.657914214174525 0 0 0 0 -25.467012026206703 -69.134984633357362 0 -69.134984633357362 -110.62520309975116 0 0 0 0 -40.966866695113339 -72.153583527888259 0 -72.153583527888259 -87.882350528587267 0 0 0 0 -17.884374196109043 -61.654719445942533 0 -61.654719445942533 -104.26743394329969 0 0 0 0 -41.48763487683425 -67.364072480515915 0 -67.364072480515915 -112.6403973956858 0 0 0 0 -107.40004772270481 -129.5234981474091 0 -129.5234981474091 -122.28455887248128 0 0 0 0 -93.47177045631058 -75.737110270347102 0 -75.737110270347102 -94.556571762237581 0 0 0 0 -61.890226435918862 -95.817695842155445 0 -95.817695842155445 -118.07068931169488 0 0 0 0 7.1765762392160468 1.6562869251692973 0 1.6562869251692973 -1.8050414060662661 0 0 0 0 5.9095647406630869 1.0086028057946335 0 1.0086028057946335 -6.1426565331791476 0 0 0 0 -63.10629909881203 -58.984692299787639 0 -58.984692299787639 -85.660922358166317 0 0 0 0 -21.789902097924596 -91.193292601672965 0 -91.193292601672965 -161.96056495790708 0 0 0 0 -35.58264426324854 -84.32340943086092 0 -84.32340943086092 -119.85868614007632 0 0 0 0 -63.065878106971851 -60.433027302767407 0 -60.433027302767407 -137.30098400107454 0 0 0 0 -41.529895168833377 -75.244345281027563 0 -75.244345281027563 -108.80429310280851 0 0 0 0 1.4150841233231291 0.18789357939762263 0 0.18789357939762263 -2.5761343519034643 0 0 0 0 4.0942960797581236 -0.35051518828538519 0 -0.35051518828538519 -3.3349226452437506 0 0 0 0 4.2633074482967315 -0.43969285879526021 0 -0.43969285879526021 -2.0066799045749679 0 0 0 0 5.9984781096623676 -1.6614032957344562 0 -1.6614032957344562 -3.0342434954624338 0 0 0 0 -43.49069791023976 -40.209894487951942 0 -40.209894487951942 -15.572010406152913 0 0 0 0 42.271652849072325 8.7931077840962644 0 8.7931077840962644 -18.47111003115495 0 0 0 0 3.539857474996885 -1.8387436052528083 0 -1.8387436052528083 -4.2825973050517661 0 0 0 0 36.143350745345288 -5.5004673863872995 0 -5.5004673863872995 23.435127162886147 0 0 0 0 108.08274205246698 8.0216706001506282 0 8.0216706001506282 -10.585296611611739 0 0 0 0 39.545596891576224 23.760249591270622 0 23.760249591270622 18.838794231085558 0 0 0 0 186.14343444273743 -5.31132866519647 0 -5.31132866519647 4.0368604628808953 0 0 0 0 83.905056855652845 31.743825773979154 0 31.743825773979154 82.175612767050552 0 0 0 0 14.934758718691455 2.5310456086781414 0 2.5310456086781414 -2.5872510223753125 0 0 0 0 -46.254272274521099 -32.18053715675569 0 -32.18053715675569 20.313945700840577 0 0 0 0 79.815305304551657 2.9365504488059742 0 2.9365504488059742 -23.339148369524537 0 0 0 0 -44.301706875533284 -3.1998419745684714 0 -3.1998419745684714 30.066835568296483 0 0 0 0 0.34248257979362151 2.1488620601626129 0 2.1488620601626129 -0.43868917623806958 0 0 0 0 1.7700497719570261 0.45414362016143972 0 0.45414362016143972 -4.6031798485950475 0 0 0 0 9.7589626572175803 3.6999943212380231 0 3.6999943212380231 -5.9176544261226809 0 0 0 0 112.32742151466664 25.142969885025877 0 25.142969885025877 -24.833169330892588 0 0 0 0 138.77682924023702 96.690091543007611 0 96.690091543007611 36.771409535069324 0 0 0 0 213.10282617407825 123.7894262335501 0 123.7894262335501 40.324250487162317 0 0 0 0 292.28671547767158 91.604928849060798 0 91.604928849060798 -15.780241943637066 0 0 0 0 235.04827804061097 -178.1387769776818 0 -178.1387769776818 139.18750506086712 0 0 0 0 0.22084445796400232 1.9333891800512264 0 1.9333891800512264 1.3741757592970583 0 0 0 0 54.950524527965342 139.12796784298951 0 139.12796784298951 -103.70168341945509 0 0 0 0 273.72841255415267 63.997130927035187 0 63.997130927035187 -79.772888688305784 0 0 0 0 247.0897958089779 81.560355264816735 0 81.560355264816735 -24.105200844308683 0 0 0 0 106.82671108250815 -100.3964144585359 0 -100.3964144585359 9.362150440987989 0 0 0 0 34.585306984406429 15.295913044986925 0 15.295913044986925 -123.0183698577373 0 0 0 0 41.394268303475656 -135.47507128466498 0 -135.47507128466498 -179.78100771653419 0 0 0 0 217.47484587283361 123.05825351659041 0 123.05825351659041 207.70931493694366 0 0 0 0 26.085458235179814 57.408480631412012 0 57.408480631412012 267.06422338741777 0 0 0 0 151.34462616401311 171.09312968442151 0 171.09312968442151 195.42823917784426 0 0 0 0 109.15781734883967 71.06939674380078 0 71.06939674380078 166.26283485731074 0 0 0 0 27.123511398232772 -46.768766768104726 0 -46.768766768104726 75.074982817795899 0 0 0 0 77.995336603048599 94.937260883216368 0 94.937260883216368 150.63729629233603 0 0 0 0 46.429224825267966 7.1320366223723113 0 7.1320366223723113 51.627211232253103 0 0 0 0 43.425633306330383 57.394327846487613 0 57.394327846487613 119.58711712849674 0 0 0 0 8.3620278656544542 -15.835477717329468 0 -15.835477717329468 62.485435116251892 0 0 0 0 40.965416160178393 -25.282797313145011 0 -25.282797313145011 -58.511418286982007 0 0 0 0 20.361892252233702 -32.467437403521444 0 -32.467437403521444 -57.641795172018647 0 0 0 0 -5.0793229140110725 -85.236480314221694 0 -85.236480314221694 -52.98286797340279 0 0 0 0 37.682263240958491 -60.53622474705594 0 -60.53622474705594 -25.644902733719391 0 0 0 0 38.332651904884187 -11.312758745195651 0 -11.312758745195651 -15.018180608312832 0 0 0 0 2.1519108660501161 -111.24442794349758 0 -111.24442794349758 -112.4492512119582 0 0 0 0 9.2265192767426925 -61.956132122732697 0 -61.956132122732697 -18.231832150352531 0 0 0 0 -26.858706570596041 -131.62635711560813 0 -131.62635711560813 -146.4163367896216 0 0 0 0 -14.252603288106911 -57.947908969011678 0 -57.947908969011678 -180.05629977543208 0 0 0 0 7.5062628107098135 -127.01556836798568 0 -127.01556836798568 -199.70281654461951 0 0 0 0 0.97714606432381412 0.2913460132162955 0 0.2913460132162955 -1.1288556881384437 0 0 0 0 7.5556178663118772 -115.26534990692198 0 -115.26534990692198 -190.10601706235184 0 0 0 0 1.8453458642052283 -94.266195751306441 0 -94.266195751306441 -120.07232449141156 0 0 0 0 9.9656909539316985 -80.351080506509788 0 -80.351080506509788 -222.2738789672203 0 0 0 0 -18.625726326538825 -46.308327554344032 0 -46.308327554344032 -69.192678069058275 0 0 0 0 9.1575401440782116 -63.93932966487364 0 -63.93932966487364 -173.09565275999375 0 0 0 0 -45.677002006460498 -25.867014559546078 0 -25.867014559546078 -221.94064736048404 0 0 0 0 -19.921932623382418 -45.346024075154219 0 -45.346024075154219 -208.07015381504061 0 0 0 0 -11.207798741274928 -71.091125855737801 0 -71.091125855737801 -137.95759192795231 0 0 0 0 -10.828233827026452 -40.485745288383441 0 -40.485745288383441 -141.54212425570211 0 0 0 0 17.811407826504364 -70.284874535072049 0 -70.284874535072049 -133.639794145932 0 0 0 0 10.510222361498563 -92.994890866651076 0 -92.994890866651076 -125.40873466813719 0 0 0 0 15.077074938525129 -35.176835568899151 0 -35.176835568899151 -81.780621338341007 0 0 0 0 -5.8003214492873667 -38.489109244519568 0 -38.489109244519568 -3.9587173437003003 0 0 0 0 19.812726371804501 -4.2954632786082811 0 -4.2954632786082811 60.880692211278074 0 0 0 0 35.704150474890412 13.284046616109663 0 13.284046616109663 -10.799719362349379 0 0 0 0 2.2027941395035668 -28.572350834989948 0 -28.572350834989948 5.2493160325757344 0 0 0 0 2.6890268011452463 -9.0630001958534194 0 -9.0630001958534194 -32.846636245520131 0 0 0 0 -13.891641418865902 -46.465037503295662 0 -46.465037503295662 -40.590634083857367 0 0 0 0 -28.253495554106848 -46.157940447389592 0 -46.157940447389592 -35.775471499216451 0 0 0 0 -19.531892056972538 -34.685941329537854 0 -34.685941329537854 -79.496657034762393 0 0 0 0 -47.183495887105892 -58.061611036351223 0 -58.061611036351223 -85.829951741916375 0 0 0 0 -47.754564826533169 -49.76221388114709 0 -49.76221388114709 -90.723807239007328 0 0 0 0 -53.717291177543302 -92.732258625873328 0 -92.732258625873328 -101.28695622366149 0 0 0 0 -25.403128465463396 -58.917692515516137 0 -58.917692515516137 -82.692811758639436 0 0 0 0 -17.275354702620461 -35.808779053738363 0 -35.808779053738363 -57.568787800869359 0 0 0 0 -32.899398385740369 -65.313377449260088 0 -65.313377449260088 -74.455480078091568 0 0 0 0 -33.557972863610985 -64.746000339375541 0 -64.746000339375541 -60.3430625604542 0 0 0 0 -2.8999382098579645 -34.868599841824562 0 -34.868599841824562 -54.315610212670435 0 0 0 0 -17.42689944862741 -17.662518186270063 0 -17.662518186270063 -6.6958609410921781 0 0 0 0 -11.057651143033297 -34.57536187382857 0 -34.57536187382857 -65.05107541999314 0 0 0 0 -24.862855170747935 -53.387506932378528 0 -53.387506932378528 -48.492383544038603 0 0 0 0 -15.440131236559182 -47.269634363295154 0 -47.269634363295154 -76.990593697695658 0 0 0 0 -29.932052689425518 -70.807573803796004 0 -70.807573803796004 -87.29131568472576 0 0 0 0 -29.684739199088654 -76.992051984783757 0 -76.992051984783757 -109.87333240310727 0 0 0 0 -25.110037388808905 -87.246355685621893 0 -87.246355685621893 -141.15437011312497 0 0 0 0 -35.144100198582237 -82.997842375451 0 -82.997842375451 -96.28508291756043 0 0 0 0 -46.25862567737795 -99.921852051646965 0 -99.921852051646965 -116.65333264249398 0 0 0 0 -38.276282150483667 -87.084798966254311 0 -87.084798966254311 -126.55530370902852 0 0 0 0 -34.244699054916055 -106.0269257438249 0 -106.0269257438249 -133.80020989989771 0 0 0 0 7.0671774158399785 -3.0933160825853747 0 -3.0933160825853747 -3.0354864573695011 0 0 0 0 5.218217730055331 -0.60250253652398911 0 -0.60250253652398911 -3.3296876718268766 0 0 0 0 -41.916984949913058 -120.0783876803107 0 -120.0783876803107 -146.15505030210534 0 0 0 0 -77.057761944075537 -118.20135743281116 0 -118.20135743281116 -133.76439809225576 0 0 0 0 -61.39217153545701 -78.854463247763761 0 -78.854463247763761 -138.1969776080241 0 0 0 0 -91.88532114431564 -54.691211941776601 0 -54.691211941776601 -121.63775148574587 0 0 0 0 -35.087550282722077 -70.437562788366222 0 -70.437562788366222 -118.61759440453898 0 0 0 0 -142.90735934110216 -61.565549149125218 0 -61.565549149125218 -140.37694921887214 0 0 0 0 -52.500608623302469 -69.999414242172861 0 -69.999414242172861 -148.57576988950677 0 0 0 0 -115.36655289693226 -23.072048493417242 0 -23.072048493417242 -182.94154843416618 0 0 0 0 -43.273596734768944 -81.626204077027069 0 -81.626204077027069 -249.17406778404984 0 0 0 0 -105.25761421173956 -110.08814316565167 0 -110.08814316565167 -135.31081544834706 0 0 0 0 -0.097622953443988969 -1.1029679557085177 0 -1.1029679557085177 -0.98047231946216229 0 0 0 0 5.0303446119050932 -5.053480692053995 0 -5.053480692053995 -2.3719041725428269 0 0 0 0 5.0081521099269821 -4.9175914982677682 0 -4.9175914982677682 -2.706024575096535 0 0 0 0 10.537571518010509 -0.30161631689381352 0 -0.30161631689381352 -6.1147175104428015 0 0 0 0 3.0387638998661877 -4.2624515391809883 0 -4.2624515391809883 -3.3849722611660247 0 0 0 0 11.992325457178595 -2.2384266144184295 0 -2.2384266144184295 -3.5729803004717837 0 0 0 0 5.7168137599894404 -0.53694509134067259 0 -0.53694509134067259 -5.8139243755991314 0 0 0 0 8.2603970024192677 2.1253208539618598 0 2.1253208539618598 -5.6341940358815918 0 0 0 0 8.2312539894601287 2.4826417997969656 0 2.4826417997969656 -1.3530199500619347 0 0 0 0 9.7303038001027744 3.3624291437547527 0 3.3624291437547527 -7.7617794451343798 0 0 0 0 13.752570070744316 3.2564989608589059 0 3.2564989608589059 -6.0078528525528752 0 0 0 0 35.743678239035944 14.44317183173041 0 14.44317183173041 -30.482668454805768 0 0 0 0 108.28046354969774 -2.2930115763147398 0 -2.2930115763147398 -31.933862291340233 0 0 0 0 1.8928916035256407 -29.947155864826698 0 -29.947155864826698 11.782226008527402 0 0 0 0 3.2432225950997449 -4.800764980442235 0 -4.800764980442235 -2.1504345785733245 0 0 0 0 18.602346247833339 -1.302859552101836 0 -1.302859552101836 -3.3524173423418233 0 0 0 0 19.880832162876533 -1.6075079889694948 0 -1.6075079889694948 -9.3875384899180343 0 0 0 0 3.7279976706704474 -28.162525107716647 0 -28.162525107716647 11.061607560894259 0 0 0 0 10.790201323655602 -8.0583670417033595 0 -8.0583670417033595 -3.4474878597249652 0 0 0 0 13.293555416587424 -3.0789198337168386 0 -3.0789198337168386 -4.6786110998241384 0 0 0 0 13.429923426394145 -5.8426314802130204 0 -5.8426314802130204 -5.3068284947965179 0 0 0 0 12.218688347955265 -5.5456730502413913 0 -5.5456730502413913 -7.4712245893363614 0 0 0 0 21.078440229870466 -68.451505790758574 0 -68.451505790758574 1.1861875725479649 0 0 0 0 27.177025931776996 3.5170956745047732 0 3.5170956745047732 -16.22824733199468 0 0 0 0 13.635800655529708 -0.1497740916153214 0 -0.1497740916153214 -2.678270981455559 0 0 0 0 11.507943840204462 -1.7920294012894828 0 -1.7920294012894828 -7.6502878230246552 0 0 0 0 2.6946192761943166 -3.729755838011215 0 -3.729755838011215 -5.1090785100805078 0 0 0 0 9.3074958036349926 -0.50107633116067518 0 -0.50107633116067518 -0.51922516908234684 0 0 0 0 0.57380408358354984 -1.0035738223854624 0 -1.0035738223854624 -0.73016675319590352 0 0 0 0 -7.8865739809964452 -1.5959948355862252 0 -1.5959948355862252 28.248830007987408 0 0 0 0 8.0542436462001206 -20.664559566018511 0 -20.664559566018511 -50.033055598830401 0 0 0 0 8.1679883268793674 -1.6023275954618157 0 -1.6023275954618157 -12.023158466631912 0 0 0 0 -19.268879206667407 -54.026829652075179 0 -54.026829652075179 3.0735492062015339 0 0 0 0 -28.462241645753238 -44.333299945026511 0 -44.333299945026511 18.454830693964141 0 0 0 0 -1.3716052925822684 0.95657350583865108 0 0.95657350583865108 1.0293951519468181 0 0 0 0 -37.20483689714456 29.579805507824631 0 29.579805507824631 -8.4932850877097508 0 0 0 0 57.742590958005167 15.472263624884931 0 15.472263624884931 -295.52666834027048 0 0 0 0 -39.868983899074919 -181.17819717373999 0 -181.17819717373999 50.134563501349277 0 0 0 0 -18.111164400239431 35.734552976434145 0 35.734552976434145 -95.34003332098402 0 0 0 0 7.5545876222186266 1.8860758317484736 0 1.8860758317484736 -0.066795274493505863 0 0 0 0 9.9241960048834699 -1.3169141325558371 0 -1.3169141325558371 0.41674708453297171 0 0 0 0 110.40117869868482 -63.91159007152055 0 -63.91159007152055 15.60550905199716 0 0 0 0 67.655419129163079 76.24295067429145 0 76.24295067429145 -59.9502540544662 0 0 0 0 4.913698067236318 0.70156573760293028 0 0.70156573760293028 0.54503699173460873 0 0 0 0 32.679121410983498 -157.33457431493878 0 -157.33457431493878 203.48651709959097 0 0 0 0 81.718343663854284 -67.288443087405881 0 -67.288443087405881 146.11504908368488 0 0 0 0 55.375991485660052 -92.692493059805201 0 -92.692493059805201 28.846436946340873 0 0 0 0 76.545734389550489 -133.55381747738056 0 -133.55381747738056 35.215351251176799 0 0 0 0 10.453323055893442 2.4082658943454747 0 2.4082658943454747 0.44005069992588908 0 0 0 0 2.3466574861477056 62.241883183639061 0 62.241883183639061 -316.61823967785784 0 0 0 0 2.3003212937511073 -0.92530841239986206 0 -0.92530841239986206 -0.18396089937379267 0 0 0 0 30.684476885106051 0.80887144730462524 0 0.80887144730462524 -130.95496311679017 0 0 0 0 41.716290783735985 103.37725762376738 0 103.37725762376738 -136.30955941318916 0 0 0 0 7.4017072283095331 129.05865177873943 0 129.05865177873943 -115.87226199396991 0 0 0 0 4.2439071010562657 46.952668401059782 0 46.952668401059782 -34.595852216087223 0 0 0 0 52.729061339870441 17.362665621703314 0 17.362665621703314 51.167729121931188 0 0 0 0 148.091368396912 54.17164493213977 0 54.17164493213977 -48.966110346758796 0 0 0 0 58.097237975959615 42.51532871149783 0 42.51532871149783 -140.69630342463279 0 0 0 0 -6.2495607488235692 14.315333115754584 0 14.315333115754584 -75.940016435249049 0 0 0 0 55.428223856982186 -66.792760029389683 0 -66.792760029389683 -6.1351247252378016 0 0 0 0 74.953187810036979 -65.801388155555742 0 -65.801388155555742 -87.38377811139344 0 0 0 0 120.3133811429052 -110.74334305516277 0 -110.74334305516277 -18.693245221455072 0 0 0 0 129.83962655486539 -111.92997911737211 0 -111.92997911737211 16.908965457307204 0 0 0 0 132.68477000874555 -92.054608571682365 0 -92.054608571682365 6.5808973437901841 0 0 0 0 78.016774667629306 27.16903254040642 0 27.16903254040642 5.8972561135287833 0 0 0 0 1.2760352862541815 0.052871114486308102 0 0.052871114486308102 -0.3700491395871881 0 0 0 0 179.18491987179368 -87.53857298039793 0 -87.53857298039793 -13.308377572819609 0 0 0 0 71.421886621536032 -85.563037151182925 0 -85.563037151182925 97.245975634614297 0 0 0 0 165.67012986333179 -100.7350706565401 0 -100.7350706565401 2.0449507883922706 0 0 0 0 73.781963989147698 -16.033446811201884 0 -16.033446811201884 -40.592447773741696 0 0 0 0 7.4466772532124335 -19.484622846295203 0 -19.484622846295203 -2.5965319132897502 0 0 0 0 33.761433603548539 -32.061370581740448 0 -32.061370581740448 -0.6180407894408404 0 0 0 0 24.896814018835357 -61.700130422813345 0 -61.700130422813345 37.623088632739837 0 0 0 0 15.064752539982745 -8.2473423565129167 0 -8.2473423565129167 -3.5929772922563039 0 0 0 0 14.750630937553069 -9.2653515052952571 0 -9.2653515052952571 -3.3173744412542874 0 0 0 0 -8.9191719642440148 0.90340734270557732 0 0.90340734270557732 -3.7404690914869434 0 0 0 0 8.6534992281487639 -12.996395074246673 0 -12.996395074246673 -1.8701172648641933 0 0 0 0 0.18400649947158421 -0.7770772245719666 0 -0.7770772245719666 -0.84466707952067921 0 0 0 0 -12.391429187173344 -18.270430510640836 0 -18.270430510640836 0.42114025673436117 0 0 0 0 -5.8344393783063424 -2.9989566795920837 0 -2.9989566795920837 -17.578630204825458 0 0 0 0 9.2150138377891899 -2.5736430160097115 0 -2.5736430160097115 -5.7984188026053802 0 0 0 0 19.54134532615717 -16.780377339358893 0 -16.780377339358893 8.2648111389789847 0 0 0 0 6.5035845591927544 -5.2261326605255931 0 -5.2261326605255931 -2.288453517769593 0 0 0 0 11.577154652333775 -5.8098981865257429 0 -5.8098981865257429 -4.6234895942999401 0 0 0 0 15.12541437073196 -4.040226305152828 0 -4.040226305152828 -2.966640444843506 0 0 0 0 4.2671655054000439 -5.0182260840338131 0 -5.0182260840338131 -2.5472477645066647 0 0 0 0 -0.72161722463518885 -6.8504222991818846 0 -6.8504222991818846 -0.81389230274130342 0 0 0 0 9.8903311428797132 -8.0929889941755899 0 -8.0929889941755899 0.49690927120236772 0 0 0 0 3.6595151430368986 -3.1217538191168188 0 -3.1217538191168188 -1.8822381405713138 0 0 0 0 3.7349588882156652 -1.2870219749634142 0 -1.2870219749634142 -1.8021728969896005 0 0 0 0 11.714759226322712 -7.9669138576130081 0 -7.9669138576130081 -0.058514480943856029 0 0 0 0 6.9133655905316118 -5.7324642749490522 0 -5.7324642749490522 -3.2302685670292703 0 0 0 0 9.9631400056151236 -7.3117637826692041 0 -7.3117637826692041 -5.1768119920403377 0 0 0 0 50.211296835028406 2.2542359881443872 0 2.2542359881443872 -17.20112845256881 0 0 0 0 25.041175155241035 -1.0213325172179566 0 -1.0213325172179566 -6.9971130181788794 0 0 0 0 40.250564474176826 -22.217141619089148 0 -22.217141619089148 0.25811090962804428 0 0 0 0 40.295927601230687 -3.7475217817910789 0 -3.7475217817910789 -18.728098951747597 0 0 0 0 15.852816722377845 7.5032508058686744 0 7.5032508058686744 -13.255432293651442 0 0 0 0 34.735729202326183 10.50138852022701 0 10.50138852022701 -1.1323085109988824 0 0 0 0 28.708014444620733 -6.0385736485435686 0 -6.0385736485435686 -5.3487743231052214 0 0 0 0 43.526058554351039 -11.036014327313623 0 -11.036014327313623 -8.4838268650336097 0 0 0 0 28.751281158919483 -7.9306777625811833 0 -7.9306777625811833 -9.1189235265583193 0 0 0 0 20.758619489219818 -3.0487621917980441 0 -3.0487621917980441 -10.924928879003343 0 0 0 0 21.881813778978064 -19.149607543862231 0 -19.149607543862231 -9.9096414592918318 0 0 0 0 9.6824540431667288 -2.7694863616577905 0 -2.7694863616577905 -1.8438248488051054 0 0 0 0 82.90511419239192 -43.897782228922097 0 -43.897782228922097 -1.4072441328999048 0 0 0 0 7.757569527955841 -18.820038200957477 0 -18.820038200957477 -3.5982643629888207 0 0 0 0 31.860625837089174 -19.530673802393949 0 -19.530673802393949 -8.0532423655723733 0 0 0 0 46.976255118748668 -15.275485717135439 0 -15.275485717135439 -20.33537830921955 0 0 0 0 24.111785916673171 -6.6516624311248904 0 -6.6516624311248904 -9.2179799759934191 0 0 0 0 21.31513433847546 -9.3775045592409434 0 -9.3775045592409434 -0.45883071717777568 0 0 0 0 11.960401780751841 -17.471838614791981 0 -17.471838614791981 -9.5244484255632642 0 0 0 0 31.185996799176792 -19.563829722199898 0 -19.563829722199898 -7.4915885352734222 0 0 0 0 42.588248047071829 -15.922025251734567 0 -15.922025251734567 -7.545073080720158 0 0 0 0 51.859550441639385 7.5743290970831367 0 7.5743290970831367 -29.391315718695296 0 0 0 0 84.949865863785817 -39.998401841616214 0 -39.998401841616214 -36.667685733130384 0 0 0 0 69.234688440471473 14.552144163277717 0 14.552144163277717 -77.70175700314212 0 0 0 0 62.186865302664955 -32.422729785522279 0 -32.422729785522279 -61.696121575279903 0 0 0 0 6.2524625424994156 7.635895302724407 0 7.635895302724407 15.65742884510928 0 0 0 0 36.111721602061152 -65.981630756371032 0 -65.981630756371032 -27.268074967609436 0 0 0 0 38.602081068696862 5.356363829403108 0 5.356363829403108 5.2461885823383909 0 0 0 0 9.9919009907239271 -0.06744315150515412 0 -0.06744315150515412 1.2589519978312218 0 0 0 0 25.982188555727074 7.7708744176427196 0 7.7708744176427196 1.2159673307328998 0 0 0 0 -1.229818769500298 -65.119926897004802 0 -65.119926897004802 30.07962441874588 0 0 0 0 83.483041494244389 -32.526073764609919 0 -32.526073764609919 24.824320557392639 0 0 0 0 94.610403142709401 -47.633775631784829 0 -47.633775631784829 3.1977588573431603 0 0 0 0 4.3716831670164993 64.824742871202915 0 64.824742871202915 59.408126488668586 0 0 0 0 19.614916919201868 9.2109640848135648 0 9.2109640848135648 2.7311161599454419 0 0 0 0 3.2774027335440152 3.016967729895109 0 3.016967729895109 1.6736567216346785 0 0 0 0 87.325826014413906 -7.2499802563570483 0 -7.2499802563570483 36.740926616288561 0 0 0 0 -52.523085976588845 86.300766946217664 0 86.300766946217664 -44.525600752322134 0 0 0 0 88.597156129872019 -3.3153237468826546 0 -3.3153237468826546 -53.304922231801754 0 0 0 0 82.78109713246495 4.1951137779433409 0 4.1951137779433409 0.43717992896055352 0 0 0 0 74.699632258331803 36.539200599406669 0 36.539200599406669 -22.660992757520319 0 0 0 0 74.388294373290819 -1.2997984358422121 0 -1.2997984358422121 -1.7963863438242633 0 0 0 0 70.211872212479648 27.092845275852454 0 27.092845275852454 -39.094701808924825 0 0 0 0 75.409207312849787 -32.405073666757403 0 -32.405073666757403 27.861585661816662 0 0 0 0 99.177776551125589 -52.658683814808001 0 -52.658683814808001 -123.63983418076646 0 0 0 0 60.175437287950217 -110.70988416484238 0 -110.70988416484238 -2.9636192841414868 0 0 0 0 183.77529091883946 38.285260689036761 0 38.285260689036761 -241.87991661569231 0 0 0 0 119.46041520855397 -97.064079479005386 0 -97.064079479005386 23.088632489975225 0 0 0 0 220.70558375956989 60.692509214155507 0 60.692509214155507 -20.399165314837774 0 0 0 0 61.375945028321894 216.27371697773606 0 216.27371697773606 -7.4368622379420231 0 0 0 0 102.7653040028863 115.41498676758602 0 115.41498676758602 -180.40980624542021 0 0 0 0 19.431841103079137 16.062233612295813 0 16.062233612295813 -34.114441292315405 0 0 0 0 -14.291487521097224 43.759424341988961 0 43.759424341988961 130.99719255090736 0 0 0 0 88.59290976273823 2.3927967984952372 0 2.3927967984952372 -4.9616802058744991 0 0 0 0 108.97192062050817 -22.714626512742143 0 -22.714626512742143 -57.794189355772332 0 0 0 0 94.212151213841025 -19.323356843515597 0 -19.323356843515597 -25.216359248695881 0 0 0 0 78.735586301923831 -8.5639355791106766 0 -8.5639355791106766 -37.05146563541291 0 0 0 0 110.04053749422019 16.52775122630419 0 16.52775122630419 -94.116429277275188 0 0 0 0 125.23931709785029 -23.758685798293925 0 -23.758685798293925 -34.696039559170117 0 0 0 0 108.03920299630772 -14.434793872950479 0 -14.434793872950479 -23.349077220424988 0 0 0 0 106.41641441390311 -30.319492616521302 0 -30.319492616521302 -22.91210054125213 0 0 0 0 123.28033432272059 -56.030352048494137 0 -56.030352048494137 -4.1690372606130381 0 0 0 0 140.53333655127062 -39.371069078301161 0 -39.371069078301161 -21.616495677068542 0 0 0 0 113.72567126208742 -24.208948903113196 0 -24.208948903113196 -5.1867202353116681 0 0 0 0 92.643551588076662 -58.918358613444525 0 -58.918358613444525 1.5865022717935062 0 0 0 0 163.45349029104545 -25.013764548530389 0 -25.013764548530389 -6.6736326673299118 0 0 0 0 134.85292744947219 -4.8041541990207861 0 -4.8041541990207861 -20.668222808248629 0 0 0 0 183.41089977972297 41.821230930952879 0 41.821230930952879 -20.464190572233917 0 0 0 0 111.40052780853694 72.846535886250592 0 72.846535886250592 18.371843481654651 0 0 0 0 97.398456544815417 27.462224365020177 0 27.462224365020177 -22.458537921186235 0 0 0 0 129.59805361361032 23.371227441790865 0 23.371227441790865 -41.006119733526248 0 0 0 0 118.68989336260893 50.110834886082017 0 50.110834886082017 -21.838600898553636 0 0 0 0 26.235690252138738 65.003200021077703 0 65.003200021077703 26.49027630835468 0 0 0 0 128.35944900904724 111.12736554422895 0 111.12736554422895 47.153556746133745 0 0 0 0 105.5266471192117 105.45201325511061 0 105.45201325511061 56.994528139968452 0 0 0 0 160.6916269205667 156.54807099106233 0 156.54807099106233 69.311603078665939 0 0 0 0 -6.7847527226003876 90.215790363592532 0 90.215790363592532 100.70592246496426 0 0 0 0 -3.7789645820425903 1.5217147440838446 0 1.5217147440838446 5.1643385895979215 0 0 0 0 292.98576627351213 76.676821005982674 0 76.676821005982674 14.93734487924894 0 0 0 0 249.41267636300927 -44.185491558104275 0 -44.185491558104275 56.59554182705142 0 0 0 0 162.07589037583602 6.055717752106375 0 6.055717752106375 28.540505586876407 0 0 0 0 169.18660931627073 -40.244307186195954 0 -40.244307186195954 -10.392290969502938 0 0 0 0 113.77408386817842 -30.186149492281402 0 -30.186149492281402 -6.8744786970055429 0 0 0 0 122.37299492859165 -47.092632699513615 0 -47.092632699513615 24.419540951391355 0 0 0 0 135.88346631069726 6.091096361144082 0 6.091096361144082 32.918364313416873 0 0 0 0 163.6737898930769 -3.9051262949810734 0 -3.9051262949810734 34.301366180137848 0 0 0 0 198.55848752437305 80.791294433097391 0 80.791294433097391 103.53657773996611 0 0 0 0 253.95713856684961 129.38555772386781 0 129.38555772386781 122.73471524968613 0 0 0 0 177.74151444468589 48.605952350073039 0 48.605952350073039 176.55406762967186 0 0 0 0 216.49471963950054 82.280265839924368 0 82.280265839924368 71.569990131994018 0 0 0 0 204.6706276012992 1.3949628370655773 0 1.3949628370655773 22.871118796639621 0 0 0 0 132.33492234144069 46.727820294780486 0 46.727820294780486 -3.9244026275760007 0 0 0 0 204.68066651416302 -38.122337936402801 0 -38.122337936402801 -141.27420281491777 0 0 0 0 97.300550774492876 -39.502994724723521 0 -39.502994724723521 31.212837480534745 0 0 0 0 130.49927490719253 -2.6782608648261004 0 -2.6782608648261004 -12.947858884120397 0 0 0 0 134.06025471822704 -92.422469151730866 0 -92.422469151730866 -56.346069241385521 0 0 0 0 156.98465520785248 5.2607819118754833 0 5.2607819118754833 -30.706966239073722 0 0 0 0 21.104085540248022 -2.4981548207794866 0 -2.4981548207794866 -1.9248910961885599 0 0 0 0 361.99701264463056 -104.77156717124114 0 -104.77156717124114 42.955340277234427 0 0 0 0 79.27376931308936 -20.556066750574701 0 -20.556066750574701 6.5818219668108213 0 0 0 0 95.228828240792609 -65.535594565955932 0 -65.535594565955932 39.902544898760425 0 0 0 0 103.15849188818538 -30.705782687222609 0 -30.705782687222609 26.829301253093945 0 0 0 0 45.86909057876619 -54.481932299791424 0 -54.481932299791424 33.023613340756356 0 0 0 0 42.531369977969348 -12.95196532752621 0 -12.95196532752621 -3.559344028648411 0 0 0 0 26.732867264203378 -46.541654797790443 0 -46.541654797790443 9.4046701158499673 0 0 0 0 -8.9645383341867273 -39.545279720247436 0 -39.545279720247436 32.191886469022393 0 0 0 0 20.72641618867965 -14.401209482186005 0 -14.401209482186005 22.400427140023112 0 0 0 0 14.396694812672743 -26.265308615331286 0 -26.265308615331286 -1.5272075386888435 0 0 0 0 100.90860666216759 5.1337433256242093 0 5.1337433256242093 -4.5068457618845059 0 0 0 0 36.669900156946824 -15.502842004321565 0 -15.502842004321565 -0.35018940330741088 0 0 0 0 40.535716079097256 -12.613422774272237 0 -12.613422774272237 -1.3100304303407029 0 0 0 0 34.49796786993052 4.8409597626388958 0 4.8409597626388958 -5.3309276071816836 0 0 0 0 12.870707666985021 -10.956887826035342 0 -10.956887826035342 3.3870373712876027 0 0 0 0 -24.011297990819003 -42.329606143023284 0 -42.329606143023284 34.536825754010351 0 0 0 0 3.1047045837767655 -36.129921032466882 0 -36.129921032466882 -48.183208652819303 0 0 0 0 7.5517854510839015 -4.267364587273228 0 -4.267364587273228 -3.7401742218065284 0 0 0 0 -38.795546783716418 -35.753935398690373 0 -35.753935398690373 0.040349944835725182 0 0 0 0 100.01330209765001 -51.330221771178458 0 -51.330221771178458 -33.655710619069396 0 0 0 0 121.5751928037389 -49.99204079054357 0 -49.99204079054357 6.7301735188466409 0 0 0 0 12.097414801522973 -11.405728684377209 0 -11.405728684377209 -1.1390341935352808 0 0 0 0 13.800886959048512 -57.075860055164412 0 -57.075860055164412 32.69918206060629 0 0 0 0 3.3131899287332729 0.56921981299964131 0 0.56921981299964131 2.1199018510385415 0 0 0 0 150.97100157514797 -17.87751749283666 0 -17.87751749283666 26.581175715939935 0 0 0 0 0.24000653895070911 -0.20853556748217983 0 -0.20853556748217983 3.2193596425422477 0 0 0 0 150.53936264436834 100.86700811613264 0 100.86700811613264 32.947071539694662 0 0 0 0 9.5019365576517885 10.302776308010834 0 10.302776308010834 72.708166905566941 0 0 0 0 91.467010543667129 63.444033912947816 0 63.444033912947816 9.66139839623429 0 0 0 0 -2.8315958188852157 -0.78954510808247846 0 -0.78954510808247846 8.3957975231904385 0 0 0 0 106.79496884094624 12.280371329657555 0 12.280371329657555 -4.532406495946816 0 0 0 0 119.83040960282233 27.743673303389187 0 27.743673303389187 -18.934502881695153 0 0 0 0 73.667186243737888 -2.6275395457913646 0 -2.6275395457913646 20.286738376064022 0 0 0 0 132.91877461290642 -3.1045224892257011 0 -3.1045224892257011 -2.8535686446848558 0 0 0 0 131.56069464398388 -58.887810280146823 0 -58.887810280146823 -23.39435169813396 0 0 0 0 42.730499395533116 -47.708297599489015 0 -47.708297599489015 6.2826673431900417 0 0 0 0 149.28084028778358 17.916724544850467 0 17.916724544850467 -17.988003787334492 0 0 0 0 8.7649213959427001 -27.954187002075734 0 -27.954187002075734 -1.536680473970474 0 0 0 0 46.008666736865052 -11.163006648248938 0 -11.163006648248938 -3.9997624599041046 0 0 0 0 96.906084299127542 -4.8362106483186835 0 -4.8362106483186835 -5.9466824547671422 0 0 0 0 0.78486818390549118 -0.64529460266371785 0 -0.64529460266371785 -0.2929544747685604 0 0 0 0 165.59483093870676 3.6473558353642375 0 3.6473558353642375 -27.070562190477176 0 0 0 0 37.445434641907923 -32.503322827640432 0 -32.503322827640432 -1.6760666639929696 0 0 0 0 138.43245762213701 -16.443609820521033 0 -16.443609820521033 62.0548596976314 0 0 0 0 84.042888505493465 -9.7882180130895904 0 -9.7882180130895904 -19.816349712225929 0 0 0 0 17.4306287789985 -25.896596367158637 0 -25.896596367158637 -0.97869729053015675 0 0 0 0 135.73233085196352 -36.33985030751353 0 -36.33985030751353 13.58177656945918 0 0 0 0 147.6306336781854 -15.205665546929595 0 -15.205665546929595 18.021055661141872 0 0 0 0 198.03765696232404 44.381945583789047 0 44.381945583789047 -19.118711267346953 0 0 0 0 20.220456251105603 4.5128752814083555 0 4.5128752814083555 1.5207926241099017 0 0 0 0 -5.14709784580063 -3.6925278191254236 0 -3.6925278191254236 5.308563936743564 0 0 0 0 100.98404761518032 57.341509265380409 0 57.341509265380409 50.941117394536377 0 0 0 0 143.58024884988845 43.206928857034541 0 43.206928857034541 5.0357393502999912 0 0 0 0 24.92591502261579 4.7395052744331281 0 4.7395052744331281 15.051415220162021 0 0 0 0 127.48749126734583 -45.078191911918111 0 -45.078191911918111 92.258881579353329 0 0 0 0 213.85120117965562 26.092816133553242 0 26.092816133553242 -34.608023245960794 0 0 0 0 135.14952724384784 47.100616214233014 0 47.100616214233014 15.776137529838707 0 0 0 0 111.60225863775702 -1.2141006145900093 0 -1.2141006145900093 -15.880659006460842 0 0 0 0 98.148642463507713 -45.439466734939856 0 -45.439466734939856 -51.008083694296076 0 0 0 0 89.011694851593347 -34.389686151382847 0 -34.389686151382847 -44.785371938364094 0 0 0 0 107.09278934814938 -52.707796390763505 0 -52.707796390763505 -26.397296885696505 0 0 0 0 84.241124871852662 -60.986192785855678 0 -60.986192785855678 -7.6177943389636766 0 0 0 0 106.43518766938359 -40.331890919131126 0 -40.331890919131126 -21.945536903476949 0 0 0 0 66.570304396904248 -31.516374460032409 0 -31.516374460032409 -24.6527221436329 0 0 0 0 73.966811687365407 -34.59038578473438 0 -34.59038578473438 -23.382427577757312 0 0 0 0 24.530510563095739 2.8186118690577899 0 2.8186118690577899 -2.5545304830144659 0 0 0 0 115.22592000030272 30.403235706739906 0 30.403235706739906 10.44845551797971 0 0 0 0 181.82634960441465 26.323227903857031 0 26.323227903857031 -2.2218226454792784 0 0 0 0 97.140389165023436 -11.382914880093956 0 -11.382914880093956 -8.9722680662342587 0 0 0 0 94.931331656112889 39.675074507332283 0 39.675074507332283 0.18323149531715899 0 0 0 0 42.102750601811977 10.583259284428934 0 10.583259284428934 8.5000556671130383 0 0 0 0 57.070086157840876 -4.0978130747893786 0 -4.0978130747893786 -2.4110987256344458 0 0 0 0 34.021054001612953 -13.829700963823029 0 -13.829700963823029 -8.0932309982751836 0 0 0 0 146.79435111157727 -5.6282223861416583 0 -5.6282223861416583 -0.089354188285597047 0 0 0 0 18.66817997328652 13.845464052627037 0 13.845464052627037 4.5340840971812888 0 0 0 0 121.60448813771291 8.6967994793024843 0 8.6967994793024843 -19.445667841169779 0 0 0 0 69.27898558920927 -6.986276038749871 0 -6.986276038749871 -3.2976278715545133 0 0 0 0 58.797116880885213 -13.697570540529735 0 -13.697570540529735 -5.4318508028430106 0 0 0 0 58.387424708436811 -9.787999684645456 0 -9.787999684645456 -4.9986831345677274 0 0 0 0 59.19226552049804 -9.678228859450428 0 -9.678228859450428 -5.0035559970408769 0 0 0 0 170.0518188275164 25.106611572560269 0 25.106611572560269 -52.148804310203396 0 0 0 0 166.51137301174822 36.880908577689439 0 36.880908577689439 -45.500008131905361 0 0 0 0 160.0876245388863 27.744516588585896 0 27.744516588585896 -49.634892656447391 0 0 0 0 143.29407615227683 32.338898067148875 0 32.338898067148875 -8.6586902541930613 0 0 0 0 122.54464793623409 -6.6241435823344119 0 -6.6241435823344119 -15.339765583335083 0 0 0 0 130.73433717427542 0.541566613945065 0 0.541566613945065 -53.152968109880192 0 0 0 0 144.28657282658969 -5.9161142464860745 0 -5.9161142464860745 -74.156072790214012 0 0 0 0 118.27929056312587 -3.3843296580526143 0 -3.3843296580526143 -16.60197809855044 0 0 0 0 155.195788760102 12.128165101082573 0 12.128165101082573 -74.234637955614744 0 0 0 0 133.30601760325953 -38.177867039972426 0 -38.177867039972426 -89.503076018520105 0 0 0 0 101.43884987416095 -23.154118981877858 0 -23.154118981877858 -51.930378212313229 0 0 0 0 120.90121764127252 -0.082090803649521149 0 -0.082090803649521149 -53.290011088669232 0 0 0 0 144.58714850612159 -7.3562100112746123 0 -7.3562100112746123 -58.068038946802972 0 0 0 0 140.3493629561417 -27.338702170850922 0 -27.338702170850922 -51.504404126918196 0 0 0 0 169.17888684631907 -23.889894249285248 0 -23.889894249285248 -26.145092568706104 0 0 0 0 139.47566996263049 -65.618263566907956 0 -65.618263566907956 -11.555812505817812 0 0 0 0 156.09861693510175 -43.443333414914662 0 -43.443333414914662 -37.501583412286323 0 0 0 0 181.25891900415991 6.609184896932689 0 6.609184896932689 -45.724445896214434 0 0 0 0 224.44022553847753 61.034525298045992 0 61.034525298045992 -24.985997487078635 0 0 0 0 234.9179745385627 -7.0879035498390408 0 -7.0879035498390408 -42.498301616562458 0 0 0 0 184.83570589713963 42.055088036625307 0 42.055088036625307 -45.039343054074294 0 0 0 0 189.73547482697177 1.4339332778154414 0 1.4339332778154414 -58.559273311832527 0 0 0 0 162.81420524096029 29.797007326469306 0 29.797007326469306 -51.130846391862093 0 0 0 0 175.04080657422128 63.355523296071269 0 63.355523296071269 -25.638374536013515 0 0 0 0 179.11016199686128 37.804477590904952 0 37.804477590904952 -36.467030413901171 0 0 0 0 97.700254115639837 59.056914848859762 0 59.056914848859762 6.2938014281420944 0 0 0 0 63.226448104527663 30.616238829025633 0 30.616238829025633 -2.186109911436688 0 0 0 0 101.3224040443074 51.100831602620012 0 51.100831602620012 5.9079749523049259 0 0 0 0 84.242344824680913 18.55303346794318 0 18.55303346794318 -27.264050689762144 0 0 0 0 100.86818314695847 46.701310464899905 0 46.701310464899905 -9.0997910639536457 0 0 0 0 126.18442449472059 32.961856883125051 0 32.961856883125051 -28.407290413427177 0 0 0 0 135.63616775513219 48.490583873809953 0 48.490583873809953 -31.211752490907372 0 0 0 0 112.03609248175053 31.232843597336 0 31.232843597336 -27.205209569934482 0 0 0 0 145.2549734616623 22.831780719680296 0 22.831780719680296 -25.886712779112031 0 0 0 0 85.497001625910343 31.355791250870169 0 31.355791250870169 -20.400625073797585 0 0 0 0 106.48397789342926 21.386034061514096 0 21.386034061514096 -18.650107229531159 0 0 0 0 82.847510125080589 -19.446421864191279 0 -19.446421864191279 36.31932378384176 0 0 0 0 128.08104383741738 22.731985017762156 0 22.731985017762156 -20.325239614342308 0 0 0 0 51.391097171290312 51.305224874195574 0 51.305224874195574 -13.420518828531385 0 0 0 0 101.42913724315804 35.848033607594743 0 35.848033607594743 -23.173040727265743 0 0 0 0 32.91496003975044 73.021157023755791 0 73.021157023755791 43.488826334598798 0 0 0 0 68.872845785313984 19.415896852365904 0 19.415896852365904 -14.849816191631191 0 0 0 0 170.50714945755317 -44.222345328461302 0 -44.222345328461302 -67.973767115389819 0 0 0 0 9.3949901419262005 -3.4621368145777041 0 -3.4621368145777041 -0.714672560747728 0 0 0 0 64.899585083726663 19.629680578066488 0 19.629680578066488 4.0260478071707455 0 0 0 0 20.473480689601274 -32.056227903882927 0 -32.056227903882927 12.900086831279623 0 0 0 0 164.56379714875948 -77.115374998285006 0 -77.115374998285006 13.039642089302106 0 0 0 0 147.97679224267631 20.298517153206831 0 20.298517153206831 -35.178583189974916 0 0 0 0 269.80927060905378 34.230208034836323 0 34.230208034836323 -37.923931652118995 0 0 0 0 163.29455956845777 23.222761766671738 0 23.222761766671738 -36.343550172314622 0 0 0 0 91.573560289281886 6.1013309581990143 0 6.1013309581990143 -23.179111543208819 0 0 0 0 161.2891585425532 -7.0389276672640335 0 -7.0389276672640335 -22.312454181338353 0 0 0 0 106.86835738029913 12.650174754880595 0 12.650174754880595 -9.6270417077091679 0 0 0 0 22.546784528337263 13.810836722293161 0 13.810836722293161 -2.1791063455088242 0 0 0 0 22.448224034000297 1.0529275340553426 0 1.0529275340553426 -9.3906248609411875 0 0 0 0 68.537656786803183 16.688887832961992 0 16.688887832961992 -2.1337753932925363 0 0 0 0 72.544702096787574 11.884065579970702 0 11.884065579970702 -4.4364353746836471 0 0 0 0 93.856425369813223 9.0341369803364273 0 9.0341369803364273 -6.4568588400364604 0 0 0 0 61.736005102196941 86.662274373962134 0 86.662274373962134 -62.183802808802511 0 0 0 0 16.596034946055731 -0.042238788679554773 0 -0.042238788679554773 -20.311984840683373 0 0 0 0 61.913267110059678 14.279335407936998 0 14.279335407936998 -5.5278361820642772 0 0 0 0 111.22190290794242 18.231881445598901 0 18.231881445598901 -68.915671529103747 0 0 0 0 71.544817489950219 18.820588280581546 0 18.820588280581546 -25.750527515040005 0 0 0 0 23.490256776705792 76.288875892956185 0 76.288875892956185 -41.414729776454806 0 0 0 0 94.784505816962337 11.337591004336446 0 11.337591004336446 -3.6104532165895762 0 0 0 0 178.23832503013546 -23.171964686673618 0 -23.171964686673618 -43.370069607598452 0 0 0 0 208.89999258045646 102.71899464798912 0 102.71899464798912 -131.93240910704299 0 0 0 0 39.891833201414556 50.662651308204659 0 50.662651308204659 110.43455301196218 0 0 0 0 2.5636629515246199 -3.0541644942756534 0 -3.0541644942756534 -19.572005654268281 0 0 0 0 36.386785476577643 -42.645891523287901 0 -42.645891523287901 0.43744792260622489 0 0 0 0 52.116499923475203 12.515624643964941 0 12.515624643964941 -4.6778065388641039 0 0 0 0 2.0762710650815848 -1.982564948626262 0 -1.982564948626262 -4.2449719866722084 0 0 0 0 233.44432838340072 94.171059671504622 0 94.171059671504622 40.032403784497092 0 0 0 0 155.4463029817548 77.557643201533693 0 77.557643201533693 50.901289240613551 0 0 0 0 259.27549890895898 19.60911646732211 0 19.60911646732211 72.456031774540634 0 0 0 0 0.58350702400258569 0.34428179617731303 0 0.34428179617731303 -3.728254835288709 0 0 0 0 156.26155189974816 95.651396568493965 0 95.651396568493965 95.596618665588721 0 0 0 0 75.868732530885609 116.55863329365093 0 116.55863329365093 90.599925589913255 0 0 0 0 27.797053703638085 -9.2200188459987658 0 -9.2200188459987658 -50.159830080671782 0 0 0 0 40.720745808677748 15.529501318093935 0 15.529501318093935 -5.0353154311089838 0 0 0 0 14.880654246768614 5.6604280557702822 0 5.6604280557702822 -6.8485626407839639 0 0 0 0 140.13608583429595 77.895222389315222 0 77.895222389315222 -10.329636353482783 0 0 0 0 128.04735348755275 97.77448550967506 0 97.77448550967506 13.23250247028227 0 0 0 0 69.087544776804862 10.121048026835979 0 10.121048026835979 -9.7158293524639703 0 0 0 0 101.79542136393138 53.323794585356154 0 53.323794585356154 -0.57504397141656227 0 0 0 0 128.28276854127762 33.603791344230558 0 33.603791344230558 -48.266309755919792 0 0 0 0 74.906317432469223 145.95675156826246 0 145.95675156826246 4.9176319129128387 0 0 0 0 136.30241316426691 70.521854758626887 0 70.521854758626887 -0.80161169407620037 0 0 0 0 136.5014396981278 94.290445137711686 0 94.290445137711686 -86.952628935792745 0 0 0 0 56.146382803475717 26.16326771963395 0 26.16326771963395 -19.85309833888914 0 0 0 0 52.892246509076358 3.5801398850701389 0 3.5801398850701389 -3.9343361565825035 0 0 0 0 43.098299584053166 14.444237617640283 0 14.444237617640283 -32.570728975366364 0 0 0 0 44.771322147415049 18.236124053700678 0 18.236124053700678 -24.937551205492127 0 0 0 0 36.554479250407894 14.833066004732245 0 14.833066004732245 -15.554184169654036 0 0 0 0 54.850096131995087 28.012561829555125 0 28.012561829555125 -34.273165240683738 0 0 0 0 15.861283457820491 20.545614551082693 0 20.545614551082693 -9.4616566224300733 0 0 0 0 69.9265489412428 12.392360753461617 0 12.392360753461617 -25.400206517835613 0 0 0 0 64.790945738317532 24.132609887440594 0 24.132609887440594 -28.904779103235342 0 0 0 0 38.769553483478376 20.124630617425282 0 20.124630617425282 -14.015381526503916 0 0 0 0 54.941640833145357 18.523284683765269 0 18.523284683765269 -31.637583481820911 0 0 0 0 40.964850104181096 16.983724970453295 0 16.983724970453295 -25.230449498674716 0 0 0 0 46.058580333019108 16.631339764384268 0 16.631339764384268 2.2684620718405117 0 0 0 0 14.529391916948953 74.440098360092179 0 74.440098360092179 -42.317408702509056 0 0 0 0 27.152813634755148 14.599101420936677 0 14.599101420936677 26.652327750712175 0 0 0 0 25.072244998376846 12.48706584086267 0 12.48706584086267 27.037264948628945 0 0 0 0 -65.939212694735033 78.227298003635497 0 78.227298003635497 39.934207971073192 0 0 0 0 -1.6620143267614367 -34.701591581942097 0 -34.701591581942097 72.689114736826014 0 0 0 0 -5.3945891899691105 44.207775003891015 0 44.207775003891015 9.983434257490444 0 0 0 0 -103.36049547872972 2.9314160531321249 0 2.9314160531321249 102.32258067889779 0 0 0 0 12.777180742334167 43.979756696371624 0 43.979756696371624 3.151067760281876 0 0 0 0 25.532368502786312 4.2017674791550608 0 4.2017674791550608 -7.3895492711246096 0 0 0 0 49.823174414690584 3.0364916763555811 0 3.0364916763555811 -31.62641325329605 0 0 0 0 32.005858752454515 14.503905485828 0 14.503905485828 -2.4673222161782178 0 0 0 0 54.581279885867843 17.144887377093255 0 17.144887377093255 -12.489036160572141 0 0 0 0 48.870182159885459 19.235997221507809 0 19.235997221507809 -10.851843012862382 0 0 0 0 29.120596250401888 5.5626296871007241 0 5.5626296871007241 -7.1521354102200956 0 0 0 0 87.806967919234012 45.248473115019806 0 45.248473115019806 16.893763280188068 0 0 0 0 93.008236447676609 34.268732299359044 0 34.268732299359044 28.330063660255291 0 0 0 0 50.47582227673422 12.555331585000204 0 12.555331585000204 -4.2049545994147124 0 0 0 0 36.469288178244511 24.3750831003656 0 24.3750831003656 1.8374829375846744 0 0 0 0 82.24492129432474 26.816110702583615 0 26.816110702583615 14.003420105601322 0 0 0 0 73.891375899031118 35.517816895388023 0 35.517816895388023 33.236507443529717 0 0 0 0 73.039185502584587 34.033874553759745 0 34.033874553759745 30.828569757182777 0 0 0 0 76.651425526979438 41.472808254105416 0 41.472808254105416 25.773918838609916 0 0 0 0 75.4986014441929 40.339559253084303 0 40.339559253084303 38.333742836557576 0 0 0 0 6.990056787538947 5.0254224487079924 0 5.0254224487079924 3.6025015206053408 0 0 0 0 54.998993221553974 65.139435961701111 0 65.139435961701111 18.213073898952189 0 0 0 0 79.052960918197641 29.583363536796242 0 29.583363536796242 67.676184081073188 0 0 0 0 71.948796040007437 32.632180877965993 0 32.632180877965993 52.457215807216016 0 0 0 0 71.59139340458205 34.774013363546146 0 34.774013363546146 47.167105051398721 0 0 0 0 73.788123519039345 -32.053712352196797 0 -32.053712352196797 -18.300953861862808 0 0 0 0 161.89251097183842 4.9993797522720342 0 4.9993797522720342 -40.083206940849777 0 0 0 0 19.287971455189165 -0.16245923417335462 0 -0.16245923417335462 -1.8599976819032484 0 0 0 0 116.67062880349113 -8.8157182062013817 0 -8.8157182062013817 -12.877875788032725 0 0 0 0 83.826737123990625 18.674011927975819 0 18.674011927975819 0.26297319653760454 0 0 0 0 69.378556730742275 35.490839127212894 0 35.490839127212894 -10.207230506868655 0 0 0 0 121.61187630397035 40.102422991590174 0 40.102422991590174 -9.8749797955279064 0 0 0 0 101.93488171642093 58.27910684622293 0 58.27910684622293 -18.369779225538878 0 0 0 0 65.731002589112904 21.147602147481848 0 21.147602147481848 5.3430524491691358 0 0 0 0 90.303203022223897 40.744377579751017 0 40.744377579751017 -2.4948092372978863 0 0 0 0 109.6614832370542 59.606820295286525 0 59.606820295286525 -10.23376968967932 0 0 0 0 80.751110262062866 56.310977006938629 0 56.310977006938629 31.55340710165774 0 0 0 0 55.766812927198771 5.7775926958006494 0 5.7775926958006494 -14.718906854490342 0 0 0 0 60.372010698534943 26.612927082894473 0 26.612927082894473 -2.7173418226157082 0 0 0 0 45.51445839460456 30.595035837574983 0 30.595035837574983 4.0229992793630309 0 0 0 0 10.033990681462456 20.539763078904798 0 20.539763078904798 -12.004328937953687 0 0 0 0 49.413085751936507 34.161900545283011 0 34.161900545283011 0.38134457110887787 0 0 0 0 37.983385034539197 27.576088881737086 0 27.576088881737086 -3.8108527177617688 0 0 0 0 69.145236094773423 24.747138646645787 0 24.747138646645787 5.4623911683201456 0 0 0 0 75.35996768156474 11.837804723251111 0 11.837804723251111 9.4820416420943729 0 0 0 0 31.937107974595058 27.654171998684966 0 27.654171998684966 10.496299743158062 0 0 0 0 96.623416366217498 34.290654111168578 0 34.290654111168578 16.650555909580817 0 0 0 0 84.041842590129818 28.993933824803662 0 28.993933824803662 5.6793651082587076 0 0 0 0 110.12570388302629 17.3750495785971 0 17.3750495785971 0.31668737351628806 0 0 0 0 90.974399659880874 10.307025533558203 0 10.307025533558203 0.031112795827084483 0 0 0 0 65.670073587285515 15.913298967284675 0 15.913298967284675 20.398013240333739 0 0 0 0 88.029637219544384 12.205931715060046 0 12.205931715060046 9.4768368286148075 0 0 0 0 13.072779931664414 25.784344398182625 0 25.784344398182625 6.0810567655788299 0 0 0 0 67.54850121461277 17.117770367371008 0 17.117770367371008 9.016463498084704 0 0 0 0 67.918022956859204 8.8382496645156152 0 8.8382496645156152 -0.95221389677158186 0 0 0 0 63.507947880862048 8.0023479259828036 0 8.0023479259828036 -0.37294538979415393 0 0 0 0 47.995601404039917 29.079578606553412 0 29.079578606553412 7.9659739170640478 0 0 0 0 68.938648034105427 11.715546840428374 0 11.715546840428374 -9.1369224089021372 0 0 0 0 89.413764567847466 -0.46754498677996992 0 -0.46754498677996992 -3.9170045525727346 0 0 0 0 88.977011449929705 6.6345537940464396 0 6.6345537940464396 3.5729686248769212 0 0 0 0 22.587778531699747 23.244039751449151 0 23.244039751449151 -0.40282093601512248 0 0 0 0 53.613929421502689 29.218472224143625 0 29.218472224143625 26.679390926175074 0 0 0 0 70.932150422711857 22.139091416939664 0 22.139091416939664 14.791156634641538 0 0 0 0 72.656460482016428 21.894515248217971 0 21.894515248217971 25.567436530277973 0 0 0 0 72.357842947720201 26.013255039230444 0 26.013255039230444 21.057944810125946 0 0 0 0 73.447029223720619 35.09551620989636 0 35.09551620989636 28.322845553315801 0 0 0 0 50.924289792652417 32.023047646718624 0 32.023047646718624 44.167998421696893 0 0 0 0 92.946494539000923 81.992773216742023 0 81.992773216742023 46.197862896817242 0 0 0 0 76.279840989758668 48.004385098340322 0 48.004385098340322 53.522705371424308 0 0 0 0 107.435538329868 23.749469153754035 0 23.749469153754035 31.100158549856133 0 0 0 0 90.927300946656032 29.741548748429068 0 29.741548748429068 28.932733042407563 0 0 0 0 76.371068349981215 15.826403774092341 0 15.826403774092341 41.574553278204121 0 0 0 0 95.78621664988168 8.311819900470482 0 8.311819900470482 44.482810515297388 0 0 0 0 74.918208248433075 18.425912611920467 0 18.425912611920467 60.303369665843547 0 0 0 0 70.452168681353214 22.029887519059002 0 22.029887519059002 43.177935548615551 0 0 0 0 74.051920220001193 23.685763387727775 0 23.685763387727775 39.209390220454225 0 0 0 0 79.455097469777684 13.272341993219015 0 13.272341993219015 31.179991536108218 0 0 0 0 71.852988300062862 18.69311820095993 0 18.69311820095993 28.00933696193124 0 0 0 0 75.541049262334127 12.042899984051928 0 12.042899984051928 16.817399216849935 0 0 0 0 73.425361617686576 16.470493833190631 0 16.470493833190631 11.65070499430476 0 0 0 0 70.569919320056215 7.8699921908907982 0 7.8699921908907982 12.251772459389258 0 0 0 0 75.041900741425707 14.185402492337062 0 14.185402492337062 13.993493259224124 0 0 0 0 70.462256517345452 17.56949377866507 0 17.56949377866507 31.424920157576707 0 0 0 0 70.65067562792683 19.301758357310518 0 19.301758357310518 28.88279711479413 0 0 0 0 71.639242291625123 13.213249290937256 0 13.213249290937256 10.883134815358517 0 0 0 0 69.141456675144582 14.365815457132783 0 14.365815457132783 10.366858632741241 0 0 0 0 69.923938690422801 8.8627703471295263 0 8.8627703471295263 -0.89688618854688684 0 0 0 0 69.697737863512884 5.4722470157043972 0 5.4722470157043972 1.6009665552671777 0 0 0 0 71.442771956149954 5.3566199284580307 0 5.3566199284580307 -15.138569312022582 0 0 0 0 69.016777753908173 5.5930648732913824 0 5.5930648732913824 -6.5620219189599993 0 0 0 0 68.307390979709453 5.5593470490462096 0 5.5593470490462096 -1.1553476404797038 0 0 0 0 72.666949656020734 9.3014047063809357 0 9.3014047063809357 -1.6798391575030109 0 0 0 0 68.633633963894681 10.695142190265983 0 10.695142190265983 9.7882725949079941 0 0 0 0 63.139168721572787 11.546479119116611 0 11.546479119116611 9.9619689526521142 0 0 0 0 71.129362976833363 10.556357476876201 0 10.556357476876201 1.1238593346042762 0 0 0 0 58.913595815989538 7.4340239656578433 0 7.4340239656578433 1.3425561247071869 0 0 0 0 50.121602431121573 15.495134166844991 0 15.495134166844991 5.5204780018093516 0 0 0 0 60.306478939532099 13.754389396139686 0 13.754389396139686 -0.60262264672746824 0 0 0 0 66.224131450964705 18.094877702525707 0 18.094877702525707 5.6440754512223066 0 0 0 0 52.503266318599344 20.545501077491963 0 20.545501077491963 14.819257289518543 0 0 0 0 38.952769974186594 6.5915999764404205 0 6.5915999764404205 0.21572069752573952 0 0 0 0 45.543558333389228 11.283113349787072 0 11.283113349787072 -0.76958069918799765 0 0 0 0 33.824779417738682 18.350981773607714 0 18.350981773607714 1.3845791467285835 0 0 0 0 49.314571580214761 17.343425938282849 0 17.343425938282849 -0.7605115391011168 0 0 0 0 52.794782515207771 -0.98870511790005366 0 -0.98870511790005366 -8.0990030080297402 0 0 0 0 54.985635584489501 7.7942482922153431 0 7.7942482922153431 -2.3852201385345779 0 0 0 0 34.575451415446878 -10.048143440765216 0 -10.048143440765216 -2.1403942149715931 0 0 0 0 39.016983200963296 5.9750074569634535 0 5.9750074569634535 1.1213503607154962 0 0 0 0 32.543511613577721 -21.683137050414189 0 -21.683137050414189 16.609889221168032 0 0 0 0 45.391589578830462 -50.884356350916732 0 -50.884356350916732 51.897208161459275 0 0 0 0 67.048532579442963 -13.00364187328735 0 -13.00364187328735 -31.992744593149837 0 0 0 0 67.353398318809923 -9.3262778425287252 0 -9.3262778425287252 -4.6601434275467 0 0 0 0 80.661301749220002 3.5972588129377527 0 3.5972588129377527 -14.810979269045902 0 0 0 0 77.441542938002385 14.862005359410773 0 14.862005359410773 -50.75318268912315 0 0 0 0 116.19501250056419 -2.3318581854027798 0 -2.3318581854027798 -51.866180218145928 0 0 0 0 59.596120118003455 -79.921472244461029 0 -79.921472244461029 -47.271586353193868 0 0 0 0 65.698989312702906 -142.41355273476688 0 -142.41355273476688 106.06317572051921 0 0 0 0 97.442823813311406 -24.606265966587443 0 -24.606265966587443 -38.918553855854043 0 0 0 0 2.9150058903497325 -1.0890390794885132 0 -1.0890390794885132 0.21528955992117571 0 0 0 0 11.11655055515439 -45.878694298874279 0 -45.878694298874279 123.24658023862321 0 0 0 0 118.7022287165164 -6.0962923661159039 0 -6.0962923661159039 80.063266928463236 0 0 0 0 -180.25621657831653 169.90916324152067 0 169.90916324152067 103.97047928710711 0 0 0 0 3.8520944383762981 11.494359524663309 0 11.494359524663309 22.077512623856364 0 0 0 0 11.604555592006363 -11.128759525327951 0 -11.128759525327951 40.664553600222462 0 0 0 0 29.551148216603906 10.245614785906412 0 10.245614785906412 -8.8767974476797917 0 0 0 0 30.185108068428235 11.973643510718034 0 11.973643510718034 -14.051827498517696 0 0 0 0 11.797390694669744 0.67653081917076641 0 0.67653081917076641 3.9176251064028382 0 0 0 0 22.747745714870689 19.041165415568003 0 19.041165415568003 -9.825721232080241 0 0 0 0 25.206397155219747 12.081080459468467 0 12.081080459468467 3.1907428912691103 0 0 0 0 73.216782281501622 -5.1722975897358232 0 -5.1722975897358232 -9.542344459176288 0 0 0 0 136.10847467746134 2.2808786426194274 0 2.2808786426194274 -25.085409451912255 0 0 0 0 148.55225656595212 -13.682445846814858 0 -13.682445846814858 48.873094216461595 0 0 0 0 63.806389746005152 -44.409094786250535 0 -44.409094786250535 -0.65090634837633843 0 0 0 0 19.287679163611866 -17.210223908714205 0 -17.210223908714205 -18.679529372507378 0 0 0 0 -109.31480131905846 37.906125794414436 0 37.906125794414436 -46.005351615917334 0 0 0 0 -1.6098953353994858 -1.6187357130512989 0 -1.6187357130512989 1.1255301146717684 0 0 0 0 129.60651081760625 22.997553036287627 0 22.997553036287627 -19.276022637584902 0 0 0 0 -0.14446561063959962 162.00015967157492 0 162.00015967157492 25.485700824041487 0 0 0 0 0.78759326922381945 3.2473041140751953 0 3.2473041140751953 -0.84460104144186332 0 0 0 0 75.929460492672661 57.307043814856456 0 57.307043814856456 27.632918137540742 0 0 0 0 101.03897481632885 41.536557703953804 0 41.536557703953804 -47.244711215249481 0 0 0 0 76.041979472385719 20.434602970229889 0 20.434602970229889 -6.0022431838224293 0 0 0 0 379.65158075952786 216.45885061548142 0 216.45885061548142 -236.19111129946521 0 0 0 0 114.29467756348458 25.042256083105485 0 25.042256083105485 -170.14625825499661 0 0 0 0 140.15765668794484 -249.4631558831104 0 -249.4631558831104 -127.74631279669478 0 0 0 0 104.78029069020704 4.1446283128600498 0 4.1446283128600498 -283.591687130943 0 0 0 0 41.832285687995935 -1.4725221858572048 0 -1.4725221858572048 -10.85223616924136 0 0 0 0 302.13322551171586 -58.076543799384126 0 -58.076543799384126 82.073884791463342 0 0 0 0 18.973479896707431 37.840120466198869 0 37.840120466198869 -78.386084808485521 0 0 0 0 26.620678677381875 26.793302377246164 0 26.793302377246164 -63.806648690029988 0 0 0 0 5.7500186730303238 0.98826576464152183 0 0.98826576464152183 2.4355122450469722 0 0 0 0 299.91294738251236 -44.218419442015602 0 -44.218419442015602 -101.93662858579592 0 0 0 0 164.08834502170794 20.857587872598515 0 20.857587872598515 104.21044091672547 0 0 0 0 85.534268528510438 14.337648369660656 0 14.337648369660656 -71.557777892226682 0 0 0 0 182.16473997334106 -33.850162936954575 0 -33.850162936954575 -89.222177019009905 0 0 0 0 223.14736067542253 60.298025266357399 0 60.298025266357399 40.798519904974 0 0 0 0 99.928303744050936 -1.9245959999102524 0 -1.9245959999102524 8.011630158744083 0 0 0 0 161.64939485929062 12.372246659101734 0 12.372246659101734 1.3266503391832885 0 0 0 0 10.333884470738843 -1.3398740003107221 0 -1.3398740003107221 -5.1443952358238381 0 0 0 0 107.26697459416391 -10.815665972439319 0 -10.815665972439319 -11.60859478042039 0 0 0 0 12.130036007474944 0.45313119316628914 0 0.45313119316628914 -0.84488050639472512 0 0 0 0 99.927602202156777 -18.25794843202118 0 -18.25794843202118 -16.361071291354165 0 0 0 0 92.227657392471883 -3.2725646170943037 0 -3.2725646170943037 -27.368353958554508 0 0 0 0 61.536546363218804 -17.405028642184334 0 -17.405028642184334 -9.7944689485348135 0 0 0 0 63.21084018242982 21.77136523515037 0 21.77136523515037 11.928181965879048 0 0 0 0 100.08362142664555 0.094751515033294709 0 0.094751515033294709 -19.361353220184355 0 0 0 0 92.470180064003216 -11.655644233404928 0 -11.655644233404928 -16.394485443836857 0 0 0 0 96.841667096124638 -4.2904289855825368 0 -4.2904289855825368 -9.1904169233048378 0 0 0 0 93.48206717465473 -10.039151684927674 0 -10.039151684927674 0.22646066305060231 0 0 0 0 95.069831193603022 -10.817996124978436 0 -10.817996124978436 -7.4109456472799593 0 0 0 0 92.307820326066576 -27.60825923430275 0 -27.60825923430275 -25.063376909959743 0 0 0 0 89.868269576123566 -18.928458586926354 0 -18.928458586926354 13.331033303850745 0 0 0 0 103.75353928434561 -10.583979832491195 0 -10.583979832491195 0.25343000195152854 0 0 0 0 114.33709256565635 2.8740506713920695 0 2.8740506713920695 -12.599452609837044 0 0 0 0 167.36992845594432 10.288865547080832 0 10.288865547080832 -21.564540521413619 0 0 0 0 130.13604912821756 -32.705533943904356 0 -32.705533943904356 -36.600239747308478 0 0 0 0 131.28917205060043 66.349065039352126 0 66.349065039352126 1.5804336874834917 0 0 0 0 91.156854405217018 25.373843294798462 0 25.373843294798462 18.302647811707629 0 0 0 0 72.477077337350238 -5.3530922526166478 0 -5.3530922526166478 -27.776299328404093 0 0 0 0 103.83503461895452 5.8393702664825469 0 5.8393702664825469 -21.927042832985535 0 0 0 0 91.888156614881154 -0.75840961120320571 0 -0.75840961120320571 -11.70880939612789 0 0 0 0 84.851748213011888 12.584874803642037 0 12.584874803642037 -24.2496077476344 0 0 0 0 92.724756940104271 17.274551950974455 0 17.274551950974455 -21.494735895030317 0 0 0 0 89.194347207536339 26.700434241747644 0 26.700434241747644 -41.983713172463922 0 0 0 0 79.975870949361706 23.527558917893828 0 23.527558917893828 -23.469555707521749 0 0 0 0 121.98581406308222 197.3083355791473 0 197.3083355791473 21.452882750059871 0 0 0 0 -5.2934830751497088 9.7171419589947874 0 9.7171419589947874 2.9213115763339479 0 0 0 0 87.319299699282396 14.778682354617672 0 14.778682354617672 -7.5972285239687061 0 0 0 0 126.17571635296918 -32.970018417167921 0 -32.970018417167921 116.1409489156722 0 0 0 0 75.611660582161733 7.2345905582358121 0 7.2345905582358121 -14.374253020402129 0 0 0 0 76.246477359643904 6.9416003487402804 0 6.9416003487402804 -31.021200017401611 0 0 0 0 73.370891991660756 5.5158648720154702 0 5.5158648720154702 -7.2820473835672033 0 0 0 0 68.237163511759718 22.417021251840595 0 22.417021251840595 -2.79548663511315 0 0 0 0 114.97525621627938 24.531303040932784 0 24.531303040932784 -10.750958950719792 0 0 0 0 82.193295009070425 17.983693330660685 0 17.983693330660685 4.3309768498862695 0 0 0 0 105.73598152439445 9.8286570427392803 0 9.8286570427392803 -1.2560065332741033 0 0 0 0 171.29813649000425 14.065512798252968 0 14.065512798252968 -2.6920659614859694 0 0 0 0 21.234747387739525 14.21567773746888 0 14.21567773746888 -3.8890528048160569 0 0 0 0 171.34310362201359 14.932246996178307 0 14.932246996178307 3.9685554264410712 0 0 0 0 22.525465643991872 -0.25201663971351707 0 -0.25201663971351707 2.6593932004151211 0 0 0 0 59.065969285315077 14.240396326810924 0 14.240396326810924 -2.353166801345651 0 0 0 0 54.330500861147215 25.4216583237273 0 25.4216583237273 3.8021280327757196 0 0 0 0 56.182320574265361 -2.5996699721138654 0 -2.5996699721138654 -11.766441703096627 0 0 0 0 63.610507311350432 -1.2465863418349485 0 -1.2465863418349485 -9.4592649722016588 0 0 0 0 99.743561835544824 13.792250669844634 0 13.792250669844634 -3.6419634279935735 0 0 0 0 78.233347003165363 -6.0061153359574746 0 -6.0061153359574746 -21.053607200165061 0 0 0 0 74.721995694054755 -1.5358196625962819 0 -1.5358196625962819 -14.420279883042571 0 0 0 0 92.35147210926516 -11.310677191514515 0 -11.310677191514515 -31.630248894824035 0 0 0 0 1120.8583984950092 -185.05255374189815 0 -185.05255374189815 -155.32786079313135 0 0 0 0 17.080785190028521 -13.021795379334019 0 -13.021795379334019 6.5963178997677669 0 0 0 0 842.23571837467171 -174.72968893505271 0 -174.72968893505271 -137.50842731017832 0 0 0 0 1195.9756122591862 161.95155800568406 0 161.95155800568406 -184.39178049633307 0 0 0 0 925.54703950077965 147.43477210867746 0 147.43477210867746 -176.56105094274301 0 0 0 0 8.1814601256242838 -5.012374208386337 0 -5.012374208386337 3.181511312192828 0 0 0 0 2498.3035458509057 880.50330947512407 0 880.50330947512407 14.699942472377737 0 0 0 0 -119.49465233712181 -308.716135344946 0 -308.716135344946 -230.55047959375224 0 0 0 0 252.55082259932533 -164.4465151532246 0 -164.4465151532246 -212.99636393797769 0 0 0 0 78.452615098292881 -78.723622508393078 0 -78.723622508393078 -136.59176151956137 0 0 0 0 112.11733579972315 -14.409800398760353 0 -14.409800398760353 -163.59911922519086 0 0 0 0 41.416270792542491 -54.040594415023179 0 -54.040594415023179 -181.03137436409725 0 0 0 0 85.141465864182464 -60.810956409201424 0 -60.810956409201424 -178.77824416708131 0 0 0 0 -4.3183962606189965 -7.2680433356503684 0 -7.2680433356503684 1.481202625294376 0 0 0 0 18.550534866609979 -15.170450973316736 0 -15.170450973316736 7.5756126255048253 0 0 0 0 2.2343246608870686 -94.97718996819026 0 -94.97718996819026 -188.92150281202669 0 0 0 0 -66.84076740380624 -33.83481852392103 0 -33.83481852392103 14.991819177570278 0 0 0 0 14.725708632658183 -2.7217473223453315 0 -2.7217473223453315 -0.32681210207166389 0 0 0 0 51.749177303631768 -35.782461511799909 0 -35.782461511799909 -215.90722471606068 0 0 0 0 125.2867689793602 34.330032129984602 0 34.330032129984602 -51.329226033881071 0 0 0 0 36.781282347710658 -104.3681562698232 0 -104.3681562698232 41.279210014994078 0 0 0 0 1.1434180784599448 -2.0720242621969867 0 -2.0720242621969867 3.9110249288279411 0 0 0 0 -11.168741466532083 86.375194713966039 0 86.375194713966039 69.760268323105265 0 0 0 0 -17.65820171534142 -30.101722496419342 0 -30.101722496419342 50.343172370811885 0 0 0 0 -27.476496883384243 -184.13375173815552 0 -184.13375173815552 -141.18253722923805 0 0 0 0 49.413850402708704 3.2243101628164368 0 3.2243101628164368 -46.214013692539538 0 0 0 0 0.60384691259216083 -4.0580319183967859 0 -4.0580319183967859 -0.23948919906349109 0 0 0 0 413.2061731390495 10.536457907738367 0 10.536457907738367 277.76931608711408 0 0 0 0 23.300068599274201 -5.7863393081590564 0 -5.7863393081590564 2.4334987673523631 0 0 0 0 11.471224249145962 -38.242479077914027 0 -38.242479077914027 -14.965825672813025 0 0 0 0 712.52354609491886 6.6063397465583193 0 6.6063397465583193 -147.40856953231753 0 0 0 0 -97.755276132853396 -174.91085661672079 0 -174.91085661672079 261.4712287710334 0 0 0 0 431.56187561004845 101.09746783413543 0 101.09746783413543 112.21898334127496 0 0 0 0 2496.3511417892896 -413.88192954688208 0 -413.88192954688208 -380.12318151500369 0 0 0 0 1312.0164493658376 -1001.4783400633148 0 -1001.4783400633148 353.85376556282444 0 0 0 0 4.577511939160761 -0.78551965144793234 0 -0.78551965144793234 1.9713776119722608 0 0 0 0 2475.9168489189324 -8.7702845177313122 0 -8.7702845177313122 2.8482630267479876 0 0 0 0 3.6271581794375933 -1.4539937070296887 0 -1.4539937070296887 2.1557653241920822 0 0 0 0 -283.2611710134006 -450.31756851678165 0 -450.31756851678165 1012.4741697449656 0 0 0 0 445.82759217852981 1090.670726239101 0 1090.670726239101 1031.0268474066977 0 0 0 0 1392.1161887492017 -394.27892115841058 0 -394.27892115841058 -521.26242300964725 0 0 0 0 2490.102828121745 383.89931681688631 0 383.89931681688631 -480.02008877242207 0 0 0 0 -272.94532803281072 87.793743935487214 0 87.793743935487214 370.45577115149115 0 0 0 0 12.671942679287127 2.9626523618422351 0 2.9626523618422351 -0.35032217152125933 0 0 0 0 113.45352483886825 -175.57233772500354 0 -175.57233772500354 -49.370294270409119 0 0 0 0 2494.9320453861724 677.12641785417827 0 677.12641785417827 -378.41631524676063 0 0 0 0 7.6146361002498253 2.3458486094452811 0 2.3458486094452811 -0.019444601386556085 0 0 0 0 750.85236289296881 1071.6085569285501 0 1071.6085569285501 405.57706881211504 0 0 0 0 1178.0404558398186 218.85785976006915 0 218.85785976006915 -397.03840951982841 0 0 0 0 1177.8479099327442 135.10593352123573 0 135.10593352123573 23.541238804729801 0 0 0 0 434.62979795253204 214.59663075407724 0 214.59663075407724 167.65287294177625 0 0 0 0 556.66952060573703 -134.9707537651804 0 -134.9707537651804 41.024291530882522 0 0 0 0 1389.9589269528954 -166.26877218630489 0 -166.26877218630489 -128.80385399528166 0 0 0 0 945.30975667624443 -28.126992024943945 0 -28.126992024943945 54.130515568150464 0 0 0 0 597.96005518841253 -237.57216685823471 0 -237.57216685823471 49.257382788754967 0 0 0 0 837.67427665012974 -76.870718872509087 0 -76.870718872509087 58.79257358900918 0 0 0 0 1030.053486582643 -350.29376726073974 0 -350.29376726073974 55.424333068037129 0 0 0 0 2500.8927268995067 -48.833825114271882 0 -48.833825114271882 -410.21645247338256 0 0 0 0 1413.0148360961982 -517.31144234893236 0 -517.31144234893236 3.586579633895596 0 0 0 0 17.482985111503694 -30.690535041168573 0 -30.690535041168573 -56.914801596149687 0 0 0 0 43.700590425825794 -1.6289451597697848 0 -1.6289451597697848 -28.599070633349243 0 0 0 0 31.093672491570942 17.839095340534413 0 17.839095340534413 -90.509272188349087 0 0 0 0 6.3356738901866265 -40.12188448025347 0 -40.12188448025347 -25.908577357739262 0 0 0 0 3.0312256314707007 -1.9272133502952165 0 -1.9272133502952165 -1.7099950940003115 0 0 0 0 -13.72564664334368 -19.170394321634035 0 -19.170394321634035 -5.7289064451547347 0 0 0 0 24.475117053040776 17.14336356862259 0 17.14336356862259 -3.1209216290114909 0 0 0 0 20.453441678866657 -1.7086631229537259 0 -1.7086631229537259 0.69859028970430082 0 0 0 0 2.7635678267632979 1.0962079950523798 0 1.0962079950523798 -0.97068859409219344 0 0 0 0 99.71145720552795 -4.0601077844481779 0 -4.0601077844481779 -6.9840934369751722 0 0 0 0 7.3009027764120837 2.2076849229626472 0 2.2076849229626472 -0.87332211352254463 0 0 0 0 49.736973825250629 -22.400884159241755 0 -22.400884159241755 93.052262010951608 0 0 0 0 26.839343209617823 -23.565152388505336 0 -23.565152388505336 -26.398170117519498 0 0 0 0 52.154556309909822 2.8748823021637691 0 2.8748823021637691 2.2005028943323168 0 0 0 0 77.853056936908615 -18.472791060294739 0 -18.472791060294739 8.8101662754324366 0 0 0 0 336.6677816210406 -222.64843283582431 0 -222.64843283582431 158.87660746943033 0 0 0 0 575.79487966026102 -122.5230251818265 0 -122.5230251818265 -35.964467838188511 0 0 0 0 48.03989004363757 -54.052414839079404 0 -54.052414839079404 -8.1628056464759595 0 0 0 0 76.159797825682062 -21.477111730647096 0 -21.477111730647096 18.24104605823095 0 0 0 0 0.17438804765356153 0.19026139498180239 0 0.19026139498180239 1.4168464076532619 0 0 0 0 532.50376360963605 -81.326904809745912 0 -81.326904809745912 256.17671694140466 0 0 0 0 97.626057672018305 -224.76148150144508 0 -224.76148150144508 222.34124918064344 0 0 0 0 54.657119930153385 -142.37846192818392 0 -142.37846192818392 220.80937706365216 0 0 0 0 32.762279072161618 -7.4666665319489312 0 -7.4666665319489312 116.37109975077905 0 0 0 0 43.100764795249233 -63.123748422991156 0 -63.123748422991156 15.035740870772017 0 0 0 0 32.124951706636352 -5.0536289602661579 0 -5.0536289602661579 14.340224526277325 0 0 0 0 41.416298746985376 -83.545381425845022 0 -83.545381425845022 10.191161599124428 0 0 0 0 78.67949836394655 -55.6324197884543 0 -55.6324197884543 24.070417146308102 0 0 0 0 302.72440218772681 -284.39887166434949 0 -284.39887166434949 -150.38963573323792 0 0 0 0 156.46739072942501 -262.09645444223531 0 -262.09645444223531 -136.38310511754895 0 0 0 0 256.30950895364003 -141.52300120395225 0 -141.52300120395225 -2.0996907478743694 0 0 0 0 141.00518189104423 -242.66826143444072 0 -242.66826143444072 123.00603026696243 0 0 0 0 464.78997951093515 -180.34736880273323 0 -180.34736880273323 -116.51530733370697 0 0 0 0 374.8607508499274 37.056077631994697 0 37.056077631994697 -649.30632958316926 0 0 0 0 299.30972753650553 -158.98065357348202 0 -158.98065357348202 -39.529637436351507 0 0 0 0 -162.99241731423626 -166.51373078351722 0 -166.51373078351722 -26.945674143219385 0 0 0 0 43.10201890673973 -12.721363406366764 0 -12.721363406366764 3.3615744219869241 0 0 0 0 159.1038902072064 183.41026186540387 0 183.41026186540387 -292.31284367732803 0 0 0 0 50.796442537375015 199.67548717108346 0 199.67548717108346 86.402043769098327 0 0 0 0 -457.78726055089828 256.32544498049464 0 256.32544498049464 315.76004146021421 0 0 0 0 5.0051456339218952 1.1498660996571215 0 1.1498660996571215 0.084262342338678076 0 0 0 0 -369.47322421904391 -260.07677684075588 0 -260.07677684075588 532.25600851183935 0 0 0 0 274.33716507051031 410.64159786506343 0 410.64159786506343 -171.27781690864958 0 0 0 0 56.555225944750802 -15.975048036857777 0 -15.975048036857777 3.9394970430370817 0 0 0 0 811.23174820261738 -384.95648662346036 0 -384.95648662346036 -3.1189646969432374 0 0 0 0 299.38711878537288 -126.91256622197579 0 -126.91256622197579 -422.6105549834283 0 0 0 0 -49.931861938537622 -80.673370455569057 0 -80.673370455569057 -30.098438259311763 0 0 0 0 73.854351060763292 0.77063047258866391 0 0.77063047258866391 -1.2915881052913392 0 0 0 0 57.749101648795659 60.717883781928776 0 60.717883781928776 -106.92802791649683 0 0 0 0 29.860399906448038 -43.265523244243099 0 -43.265523244243099 -26.237750860688521 0 0 0 0 57.015286904965436 -18.140758912148776 0 -18.140758912148776 2.498669393522285 0 0 0 0 -58.924670866782662 -84.936006384480862 0 -84.936006384480862 -41.19693768075399 0 0 0 0 187.66551482076375 174.83420641039004 0 174.83420641039004 -84.967472764812982 0 0 0 0 502.96183217250575 13.260307669315413 0 13.260307669315413 -136.78340207744873 0 0 0 0 -179.76191187211384 69.887664163416062 0 69.887664163416062 17.569710737115656 0 0 0 0 59.421164059586772 47.688963784201306 0 47.688963784201306 5.759389398127059 0 0 0 0 81.110073452684446 1.844717237948668 0 1.844717237948668 -4.2355093615398829 0 0 0 0 195.15474979312626 28.98108131824673 0 28.98108131824673 -137.47571954754937 0 0 0 0 67.829492034307236 15.096898971802677 0 15.096898971802677 -8.2450630893982435 0 0 0 0 17.972543669521997 30.979223297537466 0 30.979223297537466 -10.378778418437605 0 0 0 0 43.996307083958527 8.6285773872351328 0 8.6285773872351328 1.1847985201733664 0 0 0 0 42.798129026184057 29.793685823424209 0 29.793685823424209 2.794223213695183 0 0 0 0 -35.023863979737143 24.505400366512056 0 24.505400366512056 9.8226099574698047 0 0 0 0 23.006000037876674 -25.870184375362278 0 -25.870184375362278 1.0678388476400187 0 0 0 0 10.282170484809228 -20.370234479374552 0 -20.370234479374552 6.8882037750873906 0 0 0 0 -42.496547359021577 -44.5029940322597 0 -44.5029940322597 -3.8547444075784369 0 0 0 0 14.467927838069045 12.040402542654419 0 12.040402542654419 -7.1675404744945013 0 0 0 0 16.540492311514754 -15.624880200933134 0 -15.624880200933134 10.611405049696145 0 0 0 0 19.193703367743638 0.24534231404686579 0 0.24534231404686579 -17.589092055641913 0 0 0 0 29.055820780914473 -23.373402578042217 0 -23.373402578042217 6.6733100338800568 0 0 0 0 4.7592777818147898 -4.0169751689894531 0 -4.0169751689894531 -11.304010632753256 0 0 0 0 5.1694528853695756 -1.5561996514335323 0 -1.5561996514335323 -4.1062713457611899 0 0 0 0 77.25525209317675 -4.3961186862902082 0 -4.3961186862902082 -11.654612659584352 0 0 0 0 41.851113355247435 -37.244473675358677 0 -37.244473675358677 -5.1058609810980897 0 0 0 0 20.091547129858554 -16.010379860632497 0 -16.010379860632497 -5.455228176113053 0 0 0 0 47.076855946302203 2.9398802247665117 0 2.9398802247665117 -64.829411349838097 0 0 0 0 48.399189800711156 15.962483370001195 0 15.962483370001195 -4.4019980975097042 0 0 0 0 60.427593592932681 4.0476990557148156 0 4.0476990557148156 -5.9766998143074375 0 0 0 0 38.61917690998871 -4.604326177682367 0 -4.604326177682367 -22.4930959149915 0 0 0 0 9.2207496825243265 -11.549446208177908 0 -11.549446208177908 -11.833015518259479 0 0 0 0 33.074501507820969 -9.2050187144159281 0 -9.2050187144159281 -24.638940258078946 0 0 0 0 21.692531485201471 2.2386554232280105 0 2.2386554232280105 -21.902253934580585 0 0 0 0 23.272036542955902 -8.9252429541320453 0 -8.9252429541320453 -0.45808105118931053 0 0 0 0 7.1674982305952621 0.70185547530514469 0 0.70185547530514469 -0.20642669350384324 0 0 0 0 37.6295500900153 -5.1792326151692123 0 -5.1792326151692123 -13.679587448662687 0 0 0 0 23.156137019312411 -29.135146854908022 0 -29.135146854908022 -9.377698701882963 0 0 0 0 10.22901779125911 -1.2178598686538216 0 -1.2178598686538216 -11.434742954449975 0 0 0 0 50.708590733794153 -23.460742155490976 0 -23.460742155490976 -18.339463619553612 0 0 0 0 22.001924751604015 -8.5727930945651991 0 -8.5727930945651991 -11.849763890734287 0 0 0 0 29.363835064445084 -15.143648315671271 0 -15.143648315671271 -19.760503576583233 0 0 0 0 40.239380569722925 -4.3844852208380871 0 -4.3844852208380871 -25.67579288946763 0 0 0 0 7.2657264310610969 -9.0126828740541143 0 -9.0126828740541143 -2.0645512785837461 0 0 0 0 20.085039685469383 -7.3522606124309959 0 -7.3522606124309959 1.5294909559939924 0 0 0 0 25.188607311030772 -12.188119236401867 0 -12.188119236401867 -8.4659440564384454 0 0 0 0 24.96434204358858 -7.4582380611467594 0 -7.4582380611467594 -5.4731230315876749 0 0 0 0 31.738407499991808 -8.1905751450192383 0 -8.1905751450192383 -10.524631237377662 0 0 0 0 8.5728186787085043 4.3015665041930546 0 4.3015665041930546 -8.842855869800907 0 0 0 0 30.251167360403997 -2.6152554726569406 0 -2.6152554726569406 -14.779617534251202 0 0 0 0 15.028988760007628 -3.6563456113355848 0 -3.6563456113355848 -1.0647445654954191 0 0 0 0 112.36618503827776 -144.12723135942724 0 -144.12723135942724 -460.64063551205118 0 0 0 0 19.232912546468853 -5.3763898017958258 0 -5.3763898017958258 -1.0446262409332274 0 0 0 0 24.38811997700077 -17.19100180049189 0 -17.19100180049189 -8.6422159090669766 0 0 0 0 265.09667699838246 -122.85683366700709 0 -122.85683366700709 -458.23468706801077 0 0 0 0 -97.596315798429714 -154.41501344890185 0 -154.41501344890185 -68.549974329680936 0 0 0 0 61.821693977304676 -26.461184707470011 0 -26.461184707470011 -53.828443112746754 0 0 0 0 355.85815504775439 -190.87447599626728 0 -190.87447599626728 30.030597813440636 0 0 0 0 -57.626370346417389 -47.545295045732303 0 -47.545295045732303 393.0060092607805 0 0 0 0 30.663121248951938 32.246308475247474 0 32.246308475247474 85.096022394710957 0 0 0 0 9.6687301336751261 -109.23360767016584 0 -109.23360767016584 -198.66643409697099 0 0 0 0 -136.36337046133849 -118.22404748605095 0 -118.22404748605095 132.17859756481107 0 0 0 0 -21.152437876746262 -281.24752891607176 0 -281.24752891607176 -318.05420628734146 0 0 0 0 -319.99588288820814 -299.0273640172295 0 -299.0273640172295 -142.7313306144938 0 0 0 0 60.591325952133047 -244.81921273277658 0 -244.81921273277658 -109.1570184613206 0 0 0 0 -78.749780302528961 -125.76071042780677 0 -125.76071042780677 -206.078501538522 0 0 0 0 24.096054017365532 135.20053183624395 0 135.20053183624395 109.91080684819315 0 0 0 0 11.280340889068611 -15.690836333446214 0 -15.690836333446214 54.841086140264906 0 0 0 0 2.6559044338076916 -1.5869989869283003 0 -1.5869989869283003 0.52453564391230589 0 0 0 0 1.7077933152486153 0.93158780666724539 0 0.93158780666724539 -1.2301422645646536 0 0 0 0 50.97636988524755 -254.7728592327976 0 -254.7728592327976 -36.686598269086176 0 0 0 0 219.6331592445822 -135.31444329684518 0 -135.31444329684518 59.519937104418887 0 0 0 0 39.247141078595632 -81.016439061820904 0 -81.016439061820904 248.60302385062823 0 0 0 0 279.96333377825795 61.871494111118636 0 61.871494111118636 -34.906747122424527 0 0 0 0 133.80148610539254 98.945061931013356 0 98.945061931013356 113.99848928406266 0 0 0 0 206.28183887322757 -132.83664554539408 0 -132.83664554539408 57.515808464490874 0 0 0 0 -50.904898124274041 -237.51439551388751 0 -237.51439551388751 180.60456937287563 0 0 0 0 10.557358386058056 -0.35870050820470745 0 -0.35870050820470745 -1.2590315102562448 0 0 0 0 -300.28290513406682 -133.05746492884714 0 -133.05746492884714 79.224662123423514 0 0 0 0 34.610994369661057 -236.20453448382318 0 -236.20453448382318 95.768157573798362 0 0 0 0 80.467831372572618 56.888464908719897 0 56.888464908719897 -372.68289867286353 0 0 0 0 -2.2359049573351513 -60.707621937557633 0 -60.707621937557633 -131.3383327297947 0 0 0 0 6.9588518217206001 -9.4832105358431136 0 -9.4832105358431136 -133.65388755239837 0 0 0 0 106.8875966459218 -60.737630154037987 0 -60.737630154037987 -12.782766191215046 0 0 0 0 72.077499514554802 27.70608723472975 0 27.70608723472975 -117.6225983294753 0 0 0 0 105.73379151870722 113.64550246503873 0 113.64550246503873 -5.8288112172880346 0 0 0 0 154.99276099783674 85.667911254318795 0 85.667911254318795 -96.531621676188962 0 0 0 0 362.8522508557071 240.1046115175987 0 240.1046115175987 -64.703833797151674 0 0 0 0 410.33651778334752 262.89123898260198 0 262.89123898260198 -124.28159601384124 0 0 0 0 358.87815825902362 248.23350804345569 0 248.23350804345569 -79.545716736944996 0 0 0 0 856.44136024217369 259.0808416759412 0 259.0808416759412 -161.01934731293215 0 0 0 0 676.12744431097087 4.7559797232370356 0 4.7559797232370356 320.73504304928133 0 0 0 0 -107.97293344498394 185.02797417392662 0 185.02797417392662 -26.665440831594367 0 0 0 0 4.1378581520733206 -0.18158681145793842 0 -0.18158681145793842 -0.27035766051087995 0 0 0 0 253.42509719486043 361.26675085698093 0 361.26675085698093 -106.29499856110101 0 0 0 0 1.8100365352107417 1.8585460898832755 0 1.8585460898832755 0.84853049234239553 0 0 0 0 -58.215326557470689 252.24761870892848 0 252.24761870892848 118.79959627555081 0 0 0 0 -131.61093758336847 -205.36720822535426 0 -205.36720822535426 -628.69112768526429 0 0 0 0 -32.554638929974317 28.031076810493232 0 28.031076810493232 -156.69282356305348 0 0 0 0 669.43649860408846 215.55601249285604 0 215.55601249285604 225.79068071636129 0 0 0 0 565.69669255553163 -62.451687505441782 0 -62.451687505441782 51.956181692042719 0 0 0 0 -386.86661270186596 258.94245899490198 0 258.94245899490198 754.63579105406825 0 0 0 0 1.1385437904575291 2.5745912650375544 0 2.5745912650375544 5.5046341178510279 0 0 0 0 498.92739531287589 160.43471901054539 0 160.43471901054539 -52.460819818461914 0 0 0 0 263.90115516795959 61.20132438039434 0 61.20132438039434 11.779698739232742 0 0 0 0 -58.591570688990032 126.17392160472832 0 126.17392160472832 -152.07555119193694 0 0 0 0 2.2077606204601583 6.4618340133174641 0 6.4618340133174641 12.584429710847214 0 0 0 0 13.072424239278917 52.305722299983472 0 52.305722299983472 -185.16365163765749 0 0 0 0 180.54407506830103 180.434207375499 0 180.434207375499 -343.08855522538329 0 0 0 0 10.862498307749775 90.30660367664791 0 90.30660367664791 -160.59673843247606 0 0 0 0 5.0069526486630309 2.6923874178339426 0 2.6923874178339426 0.68641137360393323 0 0 0 0 53.062054265685219 42.625657019757227 0 42.625657019757227 -105.88207516485772 0 0 0 0 -73.432815827986815 263.36538570621246 0 263.36538570621246 207.7279169364574 0 0 0 0 -14.804620588336547 260.75708796965637 0 260.75708796965637 207.50784712386894 0 0 0 0 149.8499404252525 202.3614390609572 0 202.3614390609572 157.46576020891462 0 0 0 0 299.93062363136505 132.6527231880093 0 132.6527231880093 183.28538889581841 0 0 0 0 93.816886763372167 158.61429272486356 0 158.61429272486356 324.22238697121418 0 0 0 0 129.15013357927 387.68682043082072 0 387.68682043082072 309.43958732943702 0 0 0 0 -89.426654521408636 361.06578020372717 0 361.06578020372717 295.67698921803981 0 0 0 0 56.175628391159989 379.96000777144513 0 379.96000777144513 262.27653998029996 0 0 0 0 88.090166879526805 272.07138713439451 0 272.07138713439451 -31.556449091455079 0 0 0 0 -321.84656527530933 290.64584587326692 0 290.64584587326692 347.36097250021271 0 0 0 0 7.7717039322942583 485.24508822981295 0 485.24508822981295 425.77556691708378 0 0 0 0 1104.6896658805854 438.89895223445683 0 438.89895223445683 170.07451471897048 0 0 0 0 349.65554720481578 245.80670305340146 0 245.80670305340146 611.0066400751507 0 0 0 0 489.0627069751572 -8.6470133199661632 0 -8.6470133199661632 -70.352786001657933 0 0 0 0 435.27082297941524 538.773785257344 0 538.773785257344 158.16660379204882 0 0 0 0 58.174500859502587 45.522498505971953 0 45.522498505971953 -74.764687819066239 0 0 0 0 -22.787959723858876 -70.679441221166357 0 -70.679441221166357 -87.346156149368554 0 0 0 0 10.144627054127341 -142.22384977169258 0 -142.22384977169258 -344.73740311842903 0 0 0 0 -36.234058746274968 134.67502819787751 0 134.67502819787751 -616.63342673880265 0 0 0 0 102.07332186387885 301.28705967794264 0 301.28705967794264 -64.361421338586752 0 0 0 0 4.758078549299249 -2.7680244456389609 0 -2.7680244456389609 -0.37396731513668469 0 0 0 0 56.168931273801718 -0.9734741063896486 0 -0.9734741063896486 -231.85682101084865 0 0 0 0 -40.936056120759531 89.609945207554688 0 89.609945207554688 167.83699833530181 0 0 0 0 39.274584667811723 198.82715679678108 0 198.82715679678108 14.176142259693279 0 0 0 0 -15.292365183515358 -11.599251252151134 0 -11.599251252151134 54.296895287546931 0 0 0 0 16.740594618281612 -6.3838043549000352 0 -6.3838043549000352 1.1337556783160863 0 0 0 0 56.287074091400427 -54.833419393796476 0 -54.833419393796476 1.0139559331066721 0 0 0 0 21.20376360030059 -45.46017616402014 0 -45.46017616402014 -19.450203690428907 0 0 0 0 29.994554772922129 -21.720054832703454 0 -21.720054832703454 -13.78539895517315 0 0 0 0 21.570228238408163 -9.8789111955372846 0 -9.8789111955372846 15.404504638770049 0 0 0 0 -7.4266692029523256 -44.552387737738172 0 -44.552387737738172 16.994958326169112 0 0 0 0 32.935285427623953 -12.947435394367623 0 -12.947435394367623 2.7215448526921433 0 0 0 0 45.240546888972858 -19.663122477356637 0 -19.663122477356637 -48.123085980731958 0 0 0 0 77.289266982832487 -4.6501844253816671 0 -4.6501844253816671 -42.181843648559152 0 0 0 0 34.857438260494746 -42.472640258684805 0 -42.472640258684805 -61.643217854361865 0 0 0 0 28.75151401803247 -11.320442551844689 0 -11.320442551844689 4.5492932840999396 0 0 0 0 35.123520856472169 -99.949793269296606 0 -99.949793269296606 -100.70307616732498 0 0 0 0 -3.5766279649348007 3.4776105469427989 0 3.4776105469427989 -43.080868531795659 0 0 0 0 -19.9383864823767 -42.921179328367543 0 -42.921179328367543 49.83166666753732 0 0 0 0 37.610263106448429 -63.376776062320459 0 -63.376776062320459 -11.300017285866488 0 0 0 0 -82.956828861359099 -108.91218617795676 0 -108.91218617795676 42.671335414793248 0 0 0 0 40.60571999112608 -115.67789420718373 0 -115.67789420718373 34.342972310736513 0 0 0 0 -93.313518500079226 -47.92960314008451 0 -47.92960314008451 55.201804794423879 0 0 0 0 -63.74377095399359 -96.540648215257534 0 -96.540648215257534 27.832948219600439 0 0 0 0 40.770988400790884 -226.21363422535296 0 -226.21363422535296 2.6732406662958965 0 0 0 0 -135.75081308024551 -238.20367843431859 0 -238.20367843431859 4.8825174749472353 0 0 0 0 266.88832391414326 -4.8008037687950491 0 -4.8008037687950491 346.16748550617194 0 0 0 0 20.335575923885699 7.2792425521465702 0 7.2792425521465702 -28.548794916845509 0 0 0 0 0.084555245071102902 -0.081673207223964539 0 -0.081673207223964539 -0.26679728305446915 0 0 0 0 29.793877304688067 -1.1230522576206567 0 -1.1230522576206567 -38.910669766691171 0 0 0 0 232.67666222144362 -181.92410503667452 0 -181.92410503667452 -59.482703919330561 0 0 0 0 44.689266641431459 -100.88647843367835 0 -100.88647843367835 -63.240874658578775 0 0 0 0 15.974638385921935 36.69193580111164 0 36.69193580111164 84.315140253767822 0 0 0 0 23.710374510003764 -7.9934692361094131 0 -7.9934692361094131 2.4894972094614909 0 0 0 0 138.91889174361495 -260.04494658800695 0 -260.04494658800695 -242.96649437214705 0 0 0 0 -39.307889424457244 -55.516964584720881 0 -55.516964584720881 46.265337482344876 0 0 0 0 25.373260415442928 36.542790119584424 0 36.542790119584424 61.702740945003825 0 0 0 0 8.0893435938332914 -42.580984225883299 0 -42.580984225883299 21.134011377509523 0 0 0 0 -38.22606165628531 -12.172135789040112 0 -12.172135789040112 31.275181113574622 0 0 0 0 -133.28138646867228 -84.442077985264063 0 -84.442077985264063 89.584624240497988 0 0 0 0 106.65934074013057 86.010850078176645 0 86.010850078176645 -96.514718527940431 0 0 0 0 83.235476595289583 -19.188101991704599 0 -19.188101991704599 474.89215996461985 0 0 0 0 12.545528036487951 -3.3967027402673011 0 -3.3967027402673011 1.1178741153888614 0 0 0 0 -25.132148599393076 50.876014177251193 0 50.876014177251193 127.16042905589984 0 0 0 0 161.36155399061681 -52.268655711260294 0 -52.268655711260294 -37.811333008425834 0 0 0 0 -29.872560392272135 117.20227829385647 0 117.20227829385647 236.44854755787514 0 0 0 0 42.917675331511418 237.43445802727467 0 237.43445802727467 206.05990979138551 0 0 0 0 272.141932950919 427.42448977700195 0 427.42448977700195 559.0146771529628 0 0 0 0 -38.449254819184716 549.96199441263252 0 549.96199441263252 -60.383819593795806 0 0 0 0 406.24196398689674 632.54958437712196 0 632.54958437712196 -45.204417766362212 0 0 0 0 6.922250183931574 3.8461525721265168 0 3.8461525721265168 2.3761725355483234 0 0 0 0 739.12161869253396 305.34615358060955 0 305.34615358060955 393.39125292378537 0 0 0 0 827.0034921778315 468.40527431589345 0 468.40527431589345 18.66900362413385 0 0 0 0 671.13780156696009 598.47513218953338 0 598.47513218953338 201.92520414272744 0 0 0 0 877.22290411945687 376.8572330722796 0 376.8572330722796 88.784420339681702 0 0 0 0 5.9761239947099654 0.093776962925945284 0 0.093776962925945284 -0.34983748183239838 0 0 0 0 -44.756048872361134 50.937774937979611 0 50.937774937979611 383.30234973651113 0 0 0 0 -25.710841598785919 -303.26933725795743 0 -303.26933725795743 214.18446928212802 0 0 0 0 758.74473748517084 297.05617778764031 0 297.05617778764031 51.474574365402987 0 0 0 0 819.66348619986547 516.31166015561803 0 516.31166015561803 130.07860145831819 0 0 0 0 761.07323457064194 287.0950437429467 0 287.0950437429467 341.51832018257437 0 0 0 0 982.35032230879369 481.02202402615922 0 481.02202402615922 49.68853260310334 0 0 0 0 894.69530959507028 535.15743158922328 0 535.15743158922328 40.967765607500951 0 0 0 0 738.19364875416068 597.62348607624631 0 597.62348607624631 90.550715071193736 0 0 0 0 10.971514005508364 -2.0266018349375621 0 -2.0266018349375621 0.65956833848522756 0 0 0 0 445.69518340751893 -11.706926671871315 0 -11.706926671871315 199.48957447443127 0 0 0 0 215.5428167585705 271.69407061521105 0 271.69407061521105 453.30545714442815 0 0 0 0 431.98296128275797 358.54143555270844 0 358.54143555270844 147.22108093083853 0 0 0 0 1057.282135897427 117.99781889721476 0 117.99781889721476 215.86613654021221 0 0 0 0 784.94020807653033 315.39870424536247 0 315.39870424536247 -37.707223534491277 0 0 0 0 114.60928655209227 141.91976870394325 0 141.91976870394325 169.88828691599804 0 0 0 0 -58.33239664366738 -88.175903868591661 0 -88.175903868591661 -32.333787562799102 0 0 0 0 129.37985267688146 -70.303340423113269 0 -70.303340423113269 -370.85329724193082 0 0 0 0 273.29934877303185 437.85086836813957 0 437.85086836813957 -24.879558757431283 0 0 0 0 3.5093588165589154 2.2806980109349348 0 2.2806980109349348 1.2303093582466176 0 0 0 0 589.46678343591077 -238.15750613884782 0 -238.15750613884782 337.64892706783314 0 0 0 0 -17.839154301240342 -64.595394604543344 0 -64.595394604543344 289.03776265638032 0 0 0 0 339.67537705693201 -136.53433725009882 0 -136.53433725009882 52.639438567579873 0 0 0 0 -13.533996340236627 -125.23002084335667 0 -125.23002084335667 76.389671298120106 0 0 0 0 67.866171110319556 -138.60295571576125 0 -138.60295571576125 -184.97325923981589 0 0 0 0 -84.421286381355458 21.334744422210861 0 21.334744422210861 -5.4743730638560919 0 0 0 0 -248.90604475370492 -120.45608833015103 0 -120.45608833015103 -103.94365055838534 0 0 0 0 94.465025983443411 -171.10160898624054 0 -171.10160898624054 106.50303247143074 0 0 0 0 103.17765110975051 -51.135211199133664 0 -51.135211199133664 90.612956083889003 0 0 0 0 58.452424139147752 -61.944074202855631 0 -61.944074202855631 -121.56815873041523 0 0 0 0 53.946922229952179 -86.536056529762845 0 -86.536056529762845 52.289355510831228 0 0 0 0 34.702410563240846 -127.28514824796002 0 -127.28514824796002 15.718602740510505 0 0 0 0 2.7883623981906567 -33.237212257547981 0 -33.237212257547981 -64.386314229608161 0 0 0 0 78.753936140319638 -94.761075775491008 0 -94.761075775491008 -76.202775185242899 0 0 0 0 22.877658758003236 -56.858321087576314 0 -56.858321087576314 -112.66210673655314 0 0 0 0 -14.469441751025442 52.699146168460175 0 52.699146168460175 -217.24705100362189 0 0 0 0 18.122222868689278 46.385828893800863 0 46.385828893800863 -245.85272044588828 0 0 0 0 -57.429869679755939 102.3809880900053 0 102.3809880900053 -199.9726625112562 0 0 0 0 -86.283051545680792 170.84382776599386 0 170.84382776599386 -279.82028991765037 0 0 0 0 32.138220540960901 -30.01944043386402 0 -30.01944043386402 -160.78035840010671 0 0 0 0 -91.964586125021015 75.324959442337786 0 75.324959442337786 -149.52399268102522 0 0 0 0 -15.530510589203914 21.73625272068557 0 21.73625272068557 -137.19195303913966 0 0 0 0 -160.13288353326061 72.992990998703135 0 72.992990998703135 -139.05148086364343 0 0 0 0 -2.5074444267447689 -77.886106901233688 0 -77.886106901233688 -47.0179699165692 0 0 0 0 -1.6492361314922164 7.7360649744241528 0 7.7360649744241528 -140.12053061386177 0 0 0 0 -165.51970208875355 195.25330467901176 0 195.25330467901176 -192.41083972868 0 0 0 0 -202.41887658356427 146.56278283597112 0 146.56278283597112 -139.20618633481445 0 0 0 0 300.55470057228013 -214.43497947086871 0 -214.43497947086871 127.37373944554452 0 0 0 0 1.9422646172586084 0.89046851177350383 0 0.89046851177350383 0.7416342650014407 0 0 0 0 -1.224664673440202 72.271963985381291 0 72.271963985381291 48.846308755067184 0 0 0 0 312.6317054138417 -184.16719753190318 0 -184.16719753190318 74.642525633403238 0 0 0 0 345.76836962538073 -213.04319110469078 0 -213.04319110469078 89.519973455111995 0 0 0 0 202.56383275250846 -196.1431565649973 0 -196.1431565649973 148.06007425523785 0 0 0 0 337.30234037685295 -174.46901952705321 0 -174.46901952705321 144.14272006001374 0 0 0 0 15.650997842363722 181.89263482108163 0 181.89263482108163 -488.19792259869791 0 0 0 0 138.93717701015703 80.133653051090732 0 80.133653051090732 16.392923586645338 0 0 0 0 17.078897336539868 7.9870177904722413 0 7.9870177904722413 2.3856274707489806 0 0 0 0 -54.90702338659321 233.5710533932197 0 233.5710533932197 -338.21928138139992 0 0 0 0 59.799214775259316 61.649180211909879 0 61.649180211909879 -459.6663548435331 0 0 0 0 6.4541378942849406 89.753890689798823 0 89.753890689798823 -268.13297265481197 0 0 0 0 -4.241274030857312 -25.727753987003325 0 -25.727753987003325 -177.27253926637604 0 0 0 0 47.758372427986615 -5.4603377761177398 0 -5.4603377761177398 -338.78784969827575 0 0 0 0 22.431606087069667 -43.762242213806985 0 -43.762242213806985 -632.19535840336539 0 0 0 0 -160.67301602935186 -198.02970299038043 0 -198.02970299038043 -459.13380184574453 0 0 0 0 28.377372136634222 38.241567104825663 0 38.241567104825663 -349.25220888675176 0 0 0 0 -40.776229796181724 -25.100282578163387 0 -25.100282578163387 -233.783100658271 0 0 0 0 16.581638332238072 -96.673472526115802 0 -96.673472526115802 -395.37093234472536 0 0 0 0 -260.45924639631266 -163.90181280654815 0 -163.90181280654815 -201.82158362882183 0 0 0 0 678.61472136759403 -547.28584630564683 0 -547.28584630564683 412.28354085279989 0 0 0 0 178.9350192203492 -313.30984567365249 0 -313.30984567365249 304.0814778158292 0 0 0 0 -60.377704605672989 -169.83245856368535 0 -169.83245856368535 489.37511777676445 0 0 0 0 1084.7985309210617 -231.70888355328407 0 -231.70888355328407 109.0747871152148 0 0 0 0 882.63577721193542 410.72156245444353 0 410.72156245444353 216.26314402856906 0 0 0 0 383.82274359968869 -70.033793782741213 0 -70.033793782741213 72.299770326534258 0 0 0 0 419.51378452609424 -67.833589263919066 0 -67.833589263919066 -20.789580019340065 0 0 0 0 516.25125131004461 -243.67837394434878 0 -243.67837394434878 38.225578930762822 0 0 0 0 331.43377786788915 -141.62965370626762 0 -141.62965370626762 336.23297063620566 0 0 0 0 334.07310741428228 -221.3882390452286 0 -221.3882390452286 137.73901427006058 0 0 0 0 356.96730150322401 -311.02592941831426 0 -311.02592941831426 300.43953988633825 0 0 0 0 361.93066449572871 -182.04703052597756 0 -182.04703052597756 87.553803850429176 0 0 0 0 379.86138290512827 -220.53901563807767 0 -220.53901563807767 46.22380877634123 0 0 0 0 404.44524858718432 -128.28885267874875 0 -128.28885267874875 -57.105974603616232 0 0 0 0 48.786225284096872 122.40834015918904 0 122.40834015918904 -107.11784146031414 0 0 0 0 204.73423920680943 -177.75508939788756 0 -177.75508939788756 -54.020468155940762 0 0 0 0 463.24245027167854 -98.230456681777923 0 -98.230456681777923 -188.51361030172666 0 0 0 0 352.42327331337765 -184.1863261864255 0 -184.1863261864255 -154.48906189649188 0 0 0 0 2.7771932978227198 1.3242664825578561 0 1.3242664825578561 0.35411790394654741 0 0 0 0 247.50080049714597 -35.885580850843326 0 -35.885580850843326 -29.514352772373513 0 0 0 0 393.15995749802096 16.812382520577103 0 16.812382520577103 -19.159385888454835 0 0 0 0 91.689775909932905 -65.470491436796578 0 -65.470491436796578 41.874870594903769 0 0 0 0 116.85742802018649 -17.89746074565528 0 -17.89746074565528 35.796322582030882 0 0 0 0 165.44190032817619 -89.763299965404087 0 -89.763299965404087 44.837960862794716 0 0 0 0 230.23181215628574 -94.969050330361824 0 -94.969050330361824 42.030159724147779 0 0 0 0 162.11152993739688 -42.396292023859559 0 -42.396292023859559 36.31042629802505 0 0 0 0 58.349834362309821 -19.591996112714298 0 -19.591996112714298 75.180517368020446 0 0 0 0 66.704197275755178 -121.71106049549851 0 -121.71106049549851 107.34167421467828 0 0 0 0 311.46010312368162 -174.33980122293497 0 -174.33980122293497 35.672389720526553 0 0 0 0 228.15982154638914 -136.37995703066736 0 -136.37995703066736 42.219307826943577 0 0 0 0 365.20093114686824 -92.137462880581211 0 -92.137462880581211 -21.628448592241512 0 0 0 0 380.76085851772223 -134.51582263340765 0 -134.51582263340765 -70.56599806092072 0 0 0 0 376.1641705602924 -196.80917339937491 0 -196.80917339937491 -22.371201166622086 0 0 0 0 286.30086377257976 -81.963893964567887 0 -81.963893964567887 7.6606317797586598 0 0 0 0 149.03990887163673 -82.706029882009261 0 -82.706029882009261 -18.156984166068469 0 0 0 0 148.52858034691963 8.9103385492207963 0 8.9103385492207963 -32.266411160436292 0 0 0 0 158.42689738564331 -62.840929487155563 0 -62.840929487155563 10.961222266385448 0 0 0 0 171.40636472999427 -2.3010889272447628 0 -2.3010889272447628 91.306423297149195 0 0 0 0 108.02928678816897 205.70928648708605 0 205.70928648708605 -38.375437783828829 0 0 0 0 -19.340777573772357 73.013316323368372 0 73.013316323368372 1.0145986129682569 0 0 0 0 144.3331686828692 91.309013002658844 0 91.309013002658844 -24.225644102240949 0 0 0 0 331.39952059886309 115.18600591423069 0 115.18600591423069 -96.322683531549956 0 0 0 0 152.81481705544502 72.658477321895703 0 72.658477321895703 -54.386948816767472 0 0 0 0 167.15366172763061 61.574785062371575 0 61.574785062371575 -48.76173080460967 0 0 0 0 145.51966407645341 31.004384420427073 0 31.004384420427073 -7.6102571557121337 0 0 0 0 135.31534600725536 58.437152482160514 0 58.437152482160514 -32.701882301558726 0 0 0 0 171.60246825692707 40.577004461858991 0 40.577004461858991 -32.621962955960498 0 0 0 0 82.352884971940512 29.938723186559855 0 29.938723186559855 -23.56527072727431 0 0 0 0 35.801253764422654 -70.831677591114385 0 -70.831677591114385 -15.663033684009406 0 0 0 0 75.031339045939603 8.0685616806381404 0 8.0685616806381404 -30.476425402518544 0 0 0 0 35.768346259339523 -23.158631752260362 0 -23.158631752260362 -3.1393357474871664 0 0 0 0 1.0446660355304367 -0.95344700770837676 0 -0.95344700770837676 -0.10456314031031866 0 0 0 0 167.95401497122111 96.091508033117861 0 96.091508033117861 8.5149040567121119 0 0 0 0 32.440960575835561 15.538120073493019 0 15.538120073493019 59.137505477781815 0 0 0 0 0.71068658903493542 -0.66229322210882202 0 -0.66229322210882202 -0.25104734896171621 0 0 0 0 15.190318552227836 1.0739213382571506 0 1.0739213382571506 -13.097257267867235 0 0 0 0 -11.629520435902123 -30.611744477723505 0 -30.611744477723505 -18.491461751650604 0 0 0 0 62.871355851124463 -18.29980650535407 0 -18.29980650535407 -21.435834023317511 0 0 0 0 -131.68853528890031 -220.03718210869101 0 -220.03718210869101 2.9980908049318487 0 0 0 0 63.412717551070436 -11.03087039946136 0 -11.03087039946136 -5.2700895528318377 0 0 0 0 -159.57980716747102 31.000682935125155 0 31.000682935125155 25.409653533941309 0 0 0 0 58.344028140592854 -28.509572192249834 0 -28.509572192249834 -18.183574783649419 0 0 0 0 64.989298130040623 -8.3682291231089252 0 -8.3682291231089252 -4.1992925893726287 0 0 0 0 88.550680568921962 -33.846348474586648 0 -33.846348474586648 -68.216839889292714 0 0 0 0 62.209669547635713 11.393498722384038 0 11.393498722384038 6.5822322626177083 0 0 0 0 155.20943791040736 293.7135244850615 0 293.7135244850615 289.48832396460784 0 0 0 0 314.87526531493495 -209.70353057471129 0 -209.70353057471129 -394.17610625473208 0 0 0 0 63.364365779829399 -5.5184014996873074 0 -5.5184014996873074 -5.1350834692930452 0 0 0 0 56.127039089774371 -18.907567499808124 0 -18.907567499808124 -56.746805126545951 0 0 0 0 50.557445477345027 -51.026998285800801 0 -51.026998285800801 -38.252471736184816 0 0 0 0 315.68402983995475 -318.68158020188321 0 -318.68158020188321 -92.073025754740229 0 0 0 0 61.236511031248568 -11.697560297290757 0 -11.697560297290757 -6.3131517742874195 0 0 0 0 60.268581817217637 -46.648640436916139 0 -46.648640436916139 50.86054953673829 0 0 0 0 43.398818514735922 28.035667461108119 0 28.035667461108119 471.32644448052997 0 0 0 0 122.57192468328503 -113.73425158433747 0 -113.73425158433747 89.486388919684941 0 0 0 0 4.3473783316392058 -1.2880475697351095 0 -1.2880475697351095 0.24047532251917403 0 0 0 0 471.94680344427434 42.541287280592087 0 42.541287280592087 -10.134590120365829 0 0 0 0 113.35439991469684 217.17752590782675 0 217.17752590782675 333.28167596225148 0 0 0 0 122.34608247965298 154.40022181926633 0 154.40022181926633 236.88363309603847 0 0 0 0 195.61849535371948 40.340811172982285 0 40.340811172982285 -28.921327237751825 0 0 0 0 161.65515674931066 32.437330952147363 0 32.437330952147363 -1.2112211626954377 0 0 0 0 185.19337180726598 -14.029371967518728 0 -14.029371967518728 2.1233428216110042 0 0 0 0 30.65268319003917 -1.1566148920219348 0 -1.1566148920219348 38.093595521500447 0 0 0 0 62.665334206274565 3.8803726040055153 0 3.8803726040055153 9.3260418269674119 0 0 0 0 62.807410058892856 -22.16505970672597 0 -22.16505970672597 73.544137404037428 0 0 0 0 39.166416462063353 23.054790539547412 0 23.054790539547412 41.987748685422957 0 0 0 0 18.473673110129695 7.875548015785224 0 7.875548015785224 4.1804450311697998 0 0 0 0 57.696380754377969 22.661330722409275 0 22.661330722409275 1.0080629456797396 0 0 0 0 51.979692550008622 20.817570693607195 0 20.817570693607195 27.442054352833111 0 0 0 0 15.82793922429309 5.0658382491417626 0 5.0658382491417626 17.30625196411259 0 0 0 0 22.227290151799025 -41.397240550045751 0 -41.397240550045751 4.8743843928900787 0 0 0 0 133.86611729990545 65.537416324036712 0 65.537416324036712 -5.6402654637768137 0 0 0 0 147.6561713365918 123.83354635813248 0 123.83354635813248 -96.339954996108645 0 0 0 0 125.30884019132282 136.9074192101989 0 136.9074192101989 125.58820619454855 0 0 0 0 165.94745321651862 68.641173383186015 0 68.641173383186015 -151.72183835663805 0 0 0 0 62.704760000393435 -54.726249005213049 0 -54.726249005213049 -27.882402401103946 0 0 0 0 108.25962838030387 -10.005788780780232 0 -10.005788780780232 2.9132145680340118 0 0 0 0 79.329949125851272 -73.540647407601796 0 -73.540647407601796 -8.872717994100185 0 0 0 0 88.79016010129817 -41.221576475527513 0 -41.221576475527513 -15.433960298497823 0 0 0 0 38.813851565786536 -60.414178692681503 0 -60.414178692681503 24.276179904304399 0 0 0 0 81.740387992744218 -51.527875396057766 0 -51.527875396057766 16.610338719210802 0 0 0 0 -84.397802623821917 -61.204978028401968 0 -61.204978028401968 75.397185821475887 0 0 0 0 0.19276348887977335 6.6848337042379029 0 6.6848337042379029 18.640578800794401 0 0 0 0 82.752114471754112 -41.580903125208749 0 -41.580903125208749 107.33230718266759 0 0 0 0 -105.01813554545242 24.283104500553478 0 24.283104500553478 137.21312964881352 0 0 0 0 138.2862768476989 -56.891058711307124 0 -56.891058711307124 43.501423914247141 0 0 0 0 232.59535575541668 91.797353906070953 0 91.797353906070953 2.4222802655459503 0 0 0 0 2.2122422827704931 7.1184782787140577 0 7.1184782787140577 18.363145308305008 0 0 0 0 62.064512762961385 12.323919926073359 0 12.323919926073359 14.167177123320016 0 0 0 0 83.800066265795977 -4.1900455123186475 0 -4.1900455123186475 10.147541214918419 0 0 0 0 36.446509128737034 3.5955343180422688 0 3.5955343180422688 13.00125086495882 0 0 0 0 81.798338598895498 17.875905491792309 0 17.875905491792309 -2.6402748725445235 0 0 0 0 38.212722814248991 54.086741492027159 0 54.086741492027159 -11.477084069913644 0 0 0 0 -17.446745424338587 34.697184445843732 0 34.697184445843732 8.3075390072359596 0 0 0 0 28.632167680794737 16.347383998156715 0 16.347383998156715 -93.134996492088703 0 0 0 0 -55.956872274229681 92.817686066247916 0 92.817686066247916 -16.443989690758826 0 0 0 0 301.76833582820109 105.26663575860488 0 105.26663575860488 -67.726292074987782 0 0 0 0 -23.716286934499749 131.01029559407269 0 131.01029559407269 87.546406639937345 0 0 0 0 2.1599601875485099 7.2178806788805332 0 7.2178806788805332 16.09759739543377 0 0 0 0 42.471960838973246 -2.295090978834196 0 -2.295090978834196 -16.476027945385795 0 0 0 0 353.84994719537644 305.32372927473739 0 305.32372927473739 175.60160297060756 0 0 0 0 348.16258014523009 252.75537151661308 0 252.75537151661308 72.229937526335561 0 0 0 0 424.54843877541862 258.43078231631222 0 258.43078231631222 -78.176660973349428 0 0 0 0 444.94485723137586 329.24496293963909 0 329.24496293963909 49.618203222392481 0 0 0 0 79.723773176545365 -248.20861574933326 0 -248.20861574933326 -44.034997010117536 0 0 0 0 -38.899841237538567 -15.378291451883545 0 -15.378291451883545 136.82393532735816 0 0 0 0 585.32148596839306 46.303438655521553 0 46.303438655521553 -67.192411614540504 0 0 0 0 69.110459222098143 7.7644586952189911 0 7.7644586952189911 58.31618797338497 0 0 0 0 5.9087533337589235 -2.101326982901174 0 -2.101326982901174 0.71076788354889464 0 0 0 0 716.43021129732006 541.2592271972394 0 541.2592271972394 434.59276850931565 0 0 0 0 368.29763682008706 341.18978557711085 0 341.18978557711085 271.57808362993865 0 0 0 0 305.85526891429254 221.67604455647876 0 221.67604455647876 264.39459296133168 0 0 0 0 211.2866185644998 0.094237633176021518 0 0.094237633176021518 198.74348259185905 0 0 0 0 702.72314117785413 86.438679696900891 0 86.438679696900891 103.18854527796248 0 0 0 0 244.99802750932213 32.696824701374084 0 32.696824701374084 275.42259879037869 0 0 0 0 487.82057492663989 169.48746906662726 0 169.48746906662726 118.97084572073823 0 0 0 0 219.94637542453893 13.454634012351676 0 13.454634012351676 37.221958973807546 0 0 0 0 166.88599641642941 34.300842451205966 0 34.300842451205966 103.55974881300108 0 0 0 0 212.68276427876208 21.749569360028261 0 21.749569360028261 10.01537556640551 0 0 0 0 153.3892997005787 -86.095013426670448 0 -86.095013426670448 15.659159434119601 0 0 0 0 76.852984241297236 -42.751550983678044 0 -42.751550983678044 6.8418773636399806 0 0 0 0 140.36093244802396 -47.653328897368965 0 -47.653328897368965 -147.48425430654243 0 0 0 0 103.15245279442189 -17.328193705614169 0 -17.328193705614169 0.93653332533232403 0 0 0 0 121.45412099000896 -96.316824383938183 0 -96.316824383938183 -120.09017736834289 0 0 0 0 71.692278784877999 4.4300875705587259 0 4.4300875705587259 45.10199458478246 0 0 0 0 154.40567988674957 0.69156863259513557 0 0.69156863259513557 21.251681023820083 0 0 0 0 144.10264567251011 136.77851653607075 0 136.77851653607075 149.75773719997642 0 0 0 0 202.00944256323419 264.91622268801592 0 264.91622268801592 280.49824615208217 0 0 0 0 277.38523139661265 119.34912251476419 0 119.34912251476419 85.097566252799652 0 0 0 0 313.43755334379966 280.9576534956052 0 280.9576534956052 238.73199134939028 0 0 0 0 20.824207835229146 -8.2747209099525101 0 -8.2747209099525101 1.2853762439933432 0 0 0 0 286.91069934960888 193.73220032833456 0 193.73220032833456 9.4998786726748676 0 0 0 0 680.50883660580075 552.9050997724745 0 552.9050997724745 106.57660092911715 0 0 0 0 102.42860377411671 279.84052417837484 0 279.84052417837484 607.09755708004991 0 0 0 0 73.623999536746851 128.5775441383912 0 128.5775441383912 195.67229787561496 0 0 0 0 2.2329908682877431 -76.397083565767844 0 -76.397083565767844 217.06847703015137 0 0 0 0 -0.71543783009034456 0.35509894390187213 0 0.35509894390187213 7.0674578983059133 0 0 0 0 112.49378399724446 72.154075762176262 0 72.154075762176262 9.5748422365604711 0 0 0 0 95.559157330801099 -26.739326932777885 0 -26.739326932777885 36.233203159148843 0 0 0 0 2550.887487280459 18.373211780445757 0 18.373211780445757 -176.7154131459682 0 0 0 0 1442.9873959182696 455.09773711468682 0 455.09773711468682 -124.74984574760396 0 0 0 0 1054.7148979742196 252.24672496761164 0 252.24672496761164 -178.22348208374524 0 0 0 0 1185.118616416803 -10.613029571211428 0 -10.613029571211428 318.94607048313998 0 0 0 0 668.49099973473494 454.12208718987716 0 454.12208718987716 762.77198683399126 0 0 0 0 280.76197939751 -480.09414018634368 0 -480.09414018634368 408.38304169522991 0 0 0 0 600.4543944067409 270.26923671848243 0 270.26923671848243 281.4408014125986 0 0 0 0 785.76660780884868 512.21608059446157 0 512.21608059446157 424.00973896549982 0 0 0 0 1426.5314761704467 -412.07549602401201 0 -412.07549602401201 407.1107755945871 0 0 0 0 2501.5574921874413 240.41463408183975 0 240.41463408183975 1189.2902363124454 0 0 0 0 2943.1643700511977 853.63203790750811 0 853.63203790750811 250.38133314145679 0 0 0 0 2499.3063096377973 1090.6602393178534 0 1090.6602393178534 126.39715603293185 0 0 0 0 11.237568076908147 -3.710782995116805 0 -3.710782995116805 1.3343028650095246 0 0 0 0 -203.16746697686904 312.03100005205556 0 312.03100005205556 900.4470562496299 0 0 0 0 899.29999688026692 10.048514220848375 0 10.048514220848375 -212.74143933946954 0 0 0 0 1027.2062425420554 299.47311019810849 0 299.47311019810849 -259.8495104042396 0 0 0 0 2500.2374418678464 355.75586034592317 0 355.75586034592317 -425.48405300749067 0 0 0 0 1325.091154613765 -284.20593667307003 0 -284.20593667307003 -336.44866765564763 0 0 0 0 152.09386355712195 -114.11162121217485 0 -114.11162121217485 -211.34843671337345 0 0 0 0 912.9397148147782 282.79898257065122 0 282.79898257065122 -108.9265416268039 0 0 0 0 143.39909200571674 -96.18874415092705 0 -96.18874415092705 137.30646338724628 0 0 0 0 15.718771421068737 -6.3551458550766498 0 -6.3551458550766498 1.0895023572442899 0 0 0 0 471.04090163176079 15.778966993860749 0 15.778966993860749 5.8410806623128053 0 0 0 0 175.18807937849124 68.25973710769091 0 68.25973710769091 -36.539331296190014 0 0 0 0 78.954628750674829 -45.903545560946178 0 -45.903545560946178 141.31503709754256 0 0 0 0 164.19187599817269 -97.827692870113452 0 -97.827692870113452 96.096149909306888 0 0 0 0 248.07918035197872 -1417.7108635699165 0 -1417.7108635699165 789.51379550249487 0 0 0 0 2494.6867010971537 -990.44000761341408 0 -990.44000761341408 -390.71930495173115 0 0 0 0 1454.3708337532444 -332.83188286683423 0 -332.83188286683423 -345.20216471141657 0 0 0 0 709.1227472982464 -583.43444221697098 0 -583.43444221697098 338.76131190153478 0 0 0 0 1638.0557251959035 -891.0388910500111 0 -891.0388910500111 331.95589014237436 0 0 0 0 2135.8137511276655 -779.1066253341744 0 -779.1066253341744 23.176126739353759 0 0 0 0 2500.0528644682818 -951.21270116634139 0 -951.21270116634139 53.705022837286876 0 0 0 0 1881.3880855077005 -699.8505938111914 0 -699.8505938111914 21.931667414125428 0 0 0 0 2499.349996968951 -490.32607251255962 0 -490.32607251255962 -169.41236512203875 0 0 0 0 1814.378143838534 -539.82040041480343 0 -539.82040041480343 170.30147687417406 0 0 0 0 1320.145672339866 -750.82263481603809 0 -750.82263481603809 294.78737544806427 0 0 0 0 1286.0975831922478 -611.96458587250868 0 -611.96458587250868 343.53152666693205 0 0 0 0 973.97824365711858 -610.45914434785459 0 -610.45914434785459 402.92232576090407 0 0 0 0 1004.7247112126233 -691.21122340179841 0 -691.21122340179841 437.20674109734796 0 0 0 0 1591.4075688705052 -751.26285339277376 0 -751.26285339277376 280.39217567228786 0 0 0 0 948.40823766652466 -798.9249485986229 0 -798.9249485986229 479.82642975797336 0 0 0 0 1180.13189058838 -921.1794361986739 0 -921.1794361986739 478.24930557587635 0 0 0 0 930.81450492455042 -639.26750861142887 0 -639.26750861142887 419.07209075874766 0 0 0 0 456.33233307719638 -478.64666850024804 0 -478.64666850024804 501.55602772561247 0 0 0 0 894.38723626678984 -802.48175165073587 0 -802.48175165073587 642.04368716524482 0 0 0 0 65.281008670455776 -386.95735634493053 0 -386.95735634493053 674.4290355679168 0 0 0 0 452.6324483502176 -232.65037132727957 0 -232.65037132727957 169.91458720013134 0 0 0 0 1733.2301268866649 -1206.9410044667354 0 -1206.9410044667354 528.9303394251142 0 0 0 0 655.73614895487117 -1035.7515056086013 0 -1035.7515056086013 946.92514625287504 0 0 0 0 1805.7247516591424 -872.28903168435716 0 -872.28903168435716 423.12734652901412 0 0 0 0 2038.3562133363521 -1053.9421282366418 0 -1053.9421282366418 362.50414491953495 0 0 0 0 2499.5899712341925 -1428.0758089271192 0 -1428.0758089271192 842.88206971428008 0 0 0 0 2076.7213421647248 -1627.4806279074246 0 -1627.4806279074246 751.50752274853107 0 0 0 0 2747.4500935041069 -1228.2465782188258 0 -1228.2465782188258 253.0237177519088 0 0 0 0 0.50550296326904842 -3.2320989946199177 0 -3.2320989946199177 7.6304593227108573 0 0 0 0 420.8474069810909 -137.81097663078526 0 -137.81097663078526 418.38809586883974 0 0 0 0 2496.9389719946194 -1735.7804454951709 0 -1735.7804454951709 494.14007012760334 0 0 0 0 817.46100905373169 1310.8207583843066 0 1310.8207583843066 1076.7430413757406 0 0 0 0 991.91388494111743 -1822.6102494308057 0 -1822.6102494308057 2127.6040577224271 0 0 0 0 13.092707900020798 -2.8457984340060989 0 -2.8457984340060989 3.2691932331479534 0 0 0 0 13.419793551423457 -8.0779984535566172 0 -8.0779984535566172 15.075017831054708 0 0 0 0 910.10701306392934 174.04105841383489 0 174.04105841383489 -58.977574643550838 0 0 0 0 385.70376242827842 -245.07076064199464 0 -245.07076064199464 187.61960555827545 0 0 0 0 30.784367436151484 -8.1979844133113744 0 -8.1979844133113744 8.2748472946741956 0 0 0 0 242.19102636707248 64.630508873202899 0 64.630508873202899 313.04884745236564 0 0 0 0 2495.4644230372805 652.98640781847632 0 652.98640781847632 -152.54242079919604 0 0 0 0 11.595556887204589 -0.73697596808746368 0 -0.73697596808746368 16.330590165269612 0 0 0 0 63.251922909887071 26.156521735755177 0 26.156521735755177 -31.031626168618004 0 0 0 0 -270.76342707773983 -270.83579956597771 0 -270.83579956597771 -121.3157844906018 0 0 0 0 68.198573737591232 -11.915208073317427 0 -11.915208073317427 3.9366970968628934 0 0 0 0 88.190743204744649 -254.96063966989232 0 -254.96063966989232 -276.17123297725516 0 0 0 0 -26.238585038148813 -95.029633479612926 0 -95.029633479612926 -282.68984601927241 0 0 0 0 177.80208840114591 -66.124683755484597 0 -66.124683755484597 -17.288522607308551 0 0 0 0 173.41201046996866 -382.95341619865167 0 -382.95341619865167 -108.62822663022462 0 0 0 0 -825.01306690587444 -237.58117561720513 0 -237.58117561720513 581.75642647791165 0 0 0 0 269.27892745882855 -231.47270275063602 0 -231.47270275063602 175.08105672452496 0 0 0 0 409.9214145126607 -162.9272981352608 0 -162.9272981352608 162.6799666369368 0 0 0 0 249.60566359953373 -25.076964771721578 0 -25.076964771721578 76.437115877933138 0 0 0 0 381.66678171609965 -13.458692586911639 0 -13.458692586911639 45.76792761674642 0 0 0 0 357.20301186225697 7.3600269139401462 0 7.3600269139401462 102.9414122784101 0 0 0 0 228.60840443067354 54.780977743548306 0 54.780977743548306 25.321550451302755 0 0 0 0 198.02861753446632 44.785494074173585 0 44.785494074173585 -146.40619022437295 0 0 0 0 301.77853835177666 66.314694898819653 0 66.314694898819653 -33.898296936268764 0 0 0 0 143.32490972532833 34.946158975859362 0 34.946158975859362 -29.535487241349983 0 0 0 0 84.496494682483899 -43.476379196500602 0 -43.476379196500602 -38.915504877304897 0 0 0 0 318.45721384196077 -61.812144979558184 0 -61.812144979558184 -40.232574487186866 0 0 0 0 236.63295118565293 -209.98237794642114 0 -209.98237794642114 -234.25529686020218 0 0 0 0 125.25747090701771 -121.1773010101092 0 -121.1773010101092 -261.74344115600388 0 0 0 0 -61.619311304435541 -76.608594821294446 0 -76.608594821294446 -266.23188792349811 0 0 0 0 85.407324540584995 -14.271120669376728 0 -14.271120669376728 0.5947744067038041 0 0 0 0 154.17786662692015 -2.6631604518443055 0 -2.6631604518443055 -163.11034976657038 0 0 0 0 160.40429119085456 -250.70149400113041 0 -250.70149400113041 -546.5512197335288 0 0 0 0 31.984637380986896 25.407375715627495 0 25.407375715627495 -36.906196062822346 0 0 0 0 227.17164452385987 199.20232997921494 0 199.20232997921494 -131.73215610072748 0 0 0 0 97.592080951871623 -15.723785901502847 0 -15.723785901502847 0.97303111366191253 0 0 0 0 140.36981450382154 -210.87099273537967 0 -210.87099273537967 -371.67238225222627 0 0 0 0 215.78649791159842 -112.99889628487654 0 -112.99889628487654 -651.16966147040876 0 0 0 0 99.848766805444029 88.237801503106766 0 88.237801503106766 -85.35412339825416 0 0 0 0 245.87648391669791 35.578704184263188 0 35.578704184263188 -79.455241589790603 0 0 0 0 206.47702117961308 129.59506613127542 0 129.59506613127542 99.991817266817634 0 0 0 0 766.8855606832949 467.41950768218248 0 467.41950768218248 63.365379547233033 0 0 0 0 491.96995936167514 185.91681088130599 0 185.91681088130599 -140.52565960207085 0 0 0 0 342.96167506645725 351.2529152244374 0 351.2529152244374 123.18407103816571 0 0 0 0 269.16432288724172 254.94542071945261 0 254.94542071945261 148.46603113690617 0 0 0 0 535.56073317133996 4.5683979448945138 0 4.5683979448945138 168.62723543585889 0 0 0 0 361.53717158708605 266.67518202163319 0 266.67518202163319 68.646803455294503 0 0 0 0 388.32184797080117 196.18668807951371 0 196.18668807951371 -145.38309075729921 0 0 0 0 371.98790480369644 199.28312441750495 0 199.28312441750495 -132.21693148826034 0 0 0 0 342.50218451303954 155.98109040030749 0 155.98109040030749 -110.87882943612067 0 0 0 0 274.82478417048696 29.938232807237 0 29.938232807237 -701.37085666405346 0 0 0 0 259.90877650139737 230.17618448504891 0 230.17618448504891 -456.98369796422048 0 0 0 0 230.02652759707416 205.77261260488376 0 205.77261260488376 -133.70948803605279 0 0 0 0 208.27040551583923 151.54848594249961 0 151.54848594249961 14.34371944457007 0 0 0 0 427.43986972397397 171.00781984641026 0 171.00781984641026 -14.566965687039556 0 0 0 0 300.89048589336744 205.57499560317046 0 205.57499560317046 75.447113996188818 0 0 0 0 289.9938902239137 148.79929005555061 0 148.79929005555061 -37.042231481118506 0 0 0 0 277.77358876253129 144.49692770414231 0 144.49692770414231 -38.158012642833455 0 0 0 0 342.73274782533304 131.07004995746735 0 131.07004995746735 -141.45230916362198 0 0 0 0 343.06391357026587 116.51522467367067 0 116.51522467367067 -28.707934388779904 0 0 0 0 331.63873042775958 85.956176998252431 0 85.956176998252431 -13.872261443858406 0 0 0 0 309.14357873683912 48.758769077194302 0 48.758769077194302 48.674335149456056 0 0 0 0 363.25952981901355 72.759232323649485 0 72.759232323649485 -50.069696334090168 0 0 0 0 206.41875320505642 123.65128256412845 0 123.65128256412845 -187.37885725490287 0 0 0 0 186.96004665485816 3.4708443989907209 0 3.4708443989907209 -168.10163770147847 0 0 0 0 147.74885182498838 7.8541242489027354 0 7.8541242489027354 -321.04601345934771 0 0 0 0 317.80125259637134 85.596923125374815 0 85.596923125374815 -289.57033684377802 0 0 0 0 315.70528018096229 42.058057195884885 0 42.058057195884885 -99.977580924363792 0 0 0 0 239.43004769535037 83.881400854867252 0 83.881400854867252 -50.607930700404722 0 0 0 0 165.11635628128715 38.771986249792462 0 38.771986249792462 46.935808411030393 0 0 0 0 290.05805072649673 65.209923769784155 0 65.209923769784155 30.598173921799571 0 0 0 0 284.18635532115877 34.975992095719448 0 34.975992095719448 -52.033731013903576 0 0 0 0 290.17738535217359 84.259172278546203 0 84.259172278546203 61.023662024881787 0 0 0 0 349.04737948933325 6.0606786396076586 0 6.0606786396076586 32.044379028447111 0 0 0 0 218.13658193580159 44.396327479410729 0 44.396327479410729 119.29596697625402 0 0 0 0 419.69542126313172 78.219481527618086 0 78.219481527618086 97.492241531278296 0 0 0 0 403.55858337480458 -44.286909530860044 0 -44.286909530860044 172.77896872096494 0 0 0 0 482.19558274470182 -12.125927343258809 0 -12.125927343258809 86.263874149871526 0 0 0 0 323.51650426333072 -1.7481702836535078 0 -1.7481702836535078 116.59372654853541 0 0 0 0 338.13389149794239 17.650949737939754 0 17.650949737939754 4.633119509686253 0 0 0 0 443.9284498852503 -32.682359563372984 0 -32.682359563372984 52.379083347480517 0 0 0 0 368.14396905968169 58.705139738367279 0 58.705139738367279 58.379450856730728 0 0 0 0 355.86838545521459 -61.182017825026151 0 -61.182017825026151 194.84621963006839 0 0 0 0 563.11082221641846 -148.89391375498121 0 -148.89391375498121 146.87105778173566 0 0 0 0 609.36226447536319 -398.94578044776739 0 -398.94578044776739 377.35224471530699 0 0 0 0 334.09562946246297 -140.01863755997829 0 -140.01863755997829 278.31232488199157 0 0 0 0 495.46435522470711 -180.34277127373275 0 -180.34277127373275 233.47932017645462 0 0 0 0 630.63697914851218 -359.60829936059179 0 -359.60829936059179 373.95993200725241 0 0 0 0 729.1605201885759 -173.17768287121248 0 -173.17768287121248 117.69945166419848 0 0 0 0 432.91013821349043 -111.57571183710263 0 -111.57571183710263 211.57873477030034 0 0 0 0 779.17640209140518 -377.84240295886809 0 -377.84240295886809 282.90163034271939 0 0 0 0 988.87185658605677 -556.70607385144876 0 -556.70607385144876 369.74521741685771 0 0 0 0 731.12204418222245 -570.92503581843539 0 -570.92503581843539 447.22546866595178 0 0 0 0 893.02433539666526 -590.34582251152381 0 -590.34582251152381 431.59587813129616 0 0 0 0 937.21537597652059 -497.61757117014008 0 -497.61757117014008 332.53606410787012 0 0 0 0 774.75684115024524 -273.69336279789741 0 -273.69336279789741 230.44804547399121 0 0 0 0 887.97312542176951 -514.84588843847655 0 -514.84588843847655 447.32297895955287 0 0 0 0 864.21180647995789 -492.89537638169816 0 -492.89537638169816 362.42466839286237 0 0 0 0 1096.6363475613034 -434.85844489621672 0 -434.85844489621672 230.8023838308618 0 0 0 0 447.545569972066 238.06447400983683 0 238.06447400983683 134.74805386146375 0 0 0 0 1283.0533588590479 63.152237466154929 0 63.152237466154929 91.434686385140935 0 0 0 0 105.32471921933757 44.816030120906703 0 44.816030120906703 214.0531764506197 0 0 0 0 228.8711202524064 157.79316610056128 0 157.79316610056128 202.88718062575754 0 0 0 0 929.7221163756476 -215.85940218741064 0 -215.85940218741064 162.48690226867257 0 0 0 0 560.41143975151499 -29.209253693631808 0 -29.209253693631808 108.90942447284328 0 0 0 0 49.932407119180425 108.43139580378397 0 108.43139580378397 157.11175442771491 0 0 0 0 115.67375217844528 28.437197632429729 0 28.437197632429729 111.60419438612399 0 0 0 0 8.9698897072736088 -4.550412230323154 0 -4.550412230323154 2.0159908155908255 0 0 0 0 -0.16586709874536609 29.520254021754454 0 29.520254021754454 -100.22501008588347 0 0 0 0 7.762521840602858 -0.52767321343571894 0 -0.52767321343571894 3.9270420299153557 0 0 0 0 21.824846962357697 8.3680193475059923 0 8.3680193475059923 5.2353259931155662 0 0 0 0 18.698541436340747 12.910653110534383 0 12.910653110534383 -0.15302986612732639 0 0 0 0 2.604569773869855 6.5086134261426878 0 6.5086134261426878 3.7330986820806018 0 0 0 0 21.003248660133977 9.0839744584111486 0 9.0839744584111486 1.0751905299050293 0 0 0 0 1.1540806252807947 6.3382907391997918 0 6.3382907391997918 1.8999264193580281 0 0 0 0 14.655919080222702 11.799898637559558 0 11.799898637559558 9.4755868735237527 0 0 0 0 24.134746955947776 -1.0216872887722275 0 -1.0216872887722275 -10.746411901965871 0 0 0 0 10.090079005264187 -3.9148679086066096 0 -3.9148679086066096 1.6307471484349989 0 0 0 0 69.249082218120748 83.092824441558378 0 83.092824441558378 96.250309864618885 0 0 0 0 31.01912325325975 98.03117220379886 0 98.03117220379886 141.07557945611734 0 0 0 0 197.56426932140312 148.82584639349488 0 148.82584639349488 118.30689084589972 0 0 0 0 55.409688503415055 97.966681230732448 0 97.966681230732448 139.56316438480826 0 0 0 0 1.4180038312789236 0.75294749412422846 0 0.75294749412422846 0.89524234166287187 0 0 0 0 9.2847599037481814 16.978871709353321 0 16.978871709353321 161.85408785688423 0 0 0 0 26.819221765777911 10.114407107869511 0 10.114407107869511 4.8974803812254777 0 0 0 0 2.4028279521504281 0.21382062090819431 0 0.21382062090819431 0.66053400514254257 0 0 0 0 74.686623284833331 133.77547670374406 0 133.77547670374406 137.0623643029071 0 0 0 0 153.80497133542667 117.9470750014342 0 117.9470750014342 75.135935275878182 0 0 0 0 84.384249030219507 89.426645181189542 0 89.426645181189542 66.615732490864502 0 0 0 0 28.595079508741037 112.55565577265338 0 112.55565577265338 134.1775806720857 0 0 0 0 53.065271345345536 129.13960669985272 0 129.13960669985272 219.90332689006027 0 0 0 0 113.56132937594521 33.964659650564954 0 33.964659650564954 148.20928470693252 0 0 0 0 67.792325990187237 100.62090321504411 0 100.62090321504411 71.281190250247619 0 0 0 0 57.189968474893249 57.330659117327286 0 57.330659117327286 90.376323331811363 0 0 0 0 42.619605476656943 101.38623220129909 0 101.38623220129909 31.488169950423071 0 0 0 0 45.033707854126078 67.706102670247304 0 67.706102670247304 10.140383955958896 0 0 0 0 39.780150822858559 64.702629533602249 0 64.702629533602249 49.477843370651044 0 0 0 0 32.496585382497869 109.65174207533073 0 109.65174207533073 85.383212615370667 0 0 0 0 28.0896416179894 85.461408954998433 0 85.461408954998433 115.79427550069704 0 0 0 0 31.509775330901903 94.806106532040701 0 94.806106532040701 159.82064027334673 0 0 0 0 44.31718806923891 105.6459046828827 0 105.6459046828827 135.7272625092578 0 0 0 0 104.02314325504267 72.72254559093949 0 72.72254559093949 185.65019018870589 0 0 0 0 99.348457119820523 102.11880480046079 0 102.11880480046079 137.73829178931805 0 0 0 0 47.832870716338221 76.449704836817489 0 76.449704836817489 146.05910587675044 0 0 0 0 208.33184194775549 111.727870855802 0 111.727870855802 105.49413028262825 0 0 0 0 85.49401967630547 60.23216847646745 0 60.23216847646745 86.854350338936001 0 0 0 0 82.047801307140617 115.71535163515455 0 115.71535163515455 103.45640075712367 0 0 0 0 168.3943974209883 95.613260640495227 0 95.613260640495227 18.390738217912258 0 0 0 0 128.94115906630759 103.89950647102296 0 103.89950647102296 -92.783121390004453 0 0 0 0 75.848923589423066 26.345972021744274 0 26.345972021744274 -29.756257009676574 0 0 0 0 65.880841090925969 107.49661870933969 0 107.49661870933969 1.1485706670928266 0 0 0 0 92.755520444756257 47.620746963118108 0 47.620746963118108 -195.74899179128261 0 0 0 0 27.398227443161886 62.742194134146757 0 62.742194134146757 -72.860667000892136 0 0 0 0 27.590154768695356 -4.7032836518937984 0 -4.7032836518937984 -193.33504657626423 0 0 0 0 85.937132876075339 31.17034865628284 0 31.17034865628284 -206.82208761005268 0 0 0 0 75.047057739197044 2.3047685628622503 0 2.3047685628622503 -197.42317466047189 0 0 0 0 178.81837686745712 60.328691786288346 0 60.328691786288346 -392.7560301090034 0 0 0 0 20.321483238018118 74.195320760700724 0 74.195320760700724 8.5843803666286931 0 0 0 0 47.267273811710766 78.499024377257683 0 78.499024377257683 -70.807636371074295 0 0 0 0 56.511726502503734 74.332724119722798 0 74.332724119722798 -83.759303101193836 0 0 0 0 26.272219501581276 37.650651383709373 0 37.650651383709373 -59.104186519001814 0 0 0 0 -0.28359085516422056 52.758498893864726 0 52.758498893864726 -73.692313520434254 0 0 0 0 36.610692193498835 37.060381513224456 0 37.060381513224456 -175.50805298256637 0 0 0 0 44.12888361075602 40.35223009483343 0 40.35223009483343 -153.77264225114413 0 0 0 0 23.329492736054817 47.644158568447438 0 47.644158568447438 -69.525494655759758 0 0 0 0 30.847543843236053 4.3611559198925534 0 4.3611559198925534 -207.50605203375198 0 0 0 0 -18.371618355129613 33.186967962175913 0 33.186967962175913 -142.55321552597616 0 0 0 0 -60.056712677178439 -39.253672456743516 0 -39.253672456743516 -216.16281663456493 0 0 0 0 22.524779061190202 5.7205488912122746 0 5.7205488912122746 -237.63725260993124 0 0 0 0 -6.9030581884435378 15.187192187012442 0 15.187192187012442 -159.15821964614042 0 0 0 0 -46.693204732604499 -112.67087595186399 0 -112.67087595186399 -316.56250548860044 0 0 0 0 -34.127462183085299 -42.832808459575858 0 -42.832808459575858 -253.01664521354905 0 0 0 0 -172.3307661175204 -209.06876743277462 0 -209.06876743277462 -287.97121881016574 0 0 0 0 -239.26446387192118 -107.03412317739185 0 -107.03412317739185 -197.00467005510382 0 0 0 0 -78.239662763255183 -98.512538627317554 0 -98.512538627317554 -283.7062822286025 0 0 0 0 -120.11628570535686 -38.434494069066204 0 -38.434494069066204 -219.10599411023759 0 0 0 0 -109.63421683876368 -36.995684603174141 0 -36.995684603174141 -216.44422986634527 0 0 0 0 -17.546549013262847 -37.190571808680943 0 -37.190571808680943 -245.7381815638164 0 0 0 0 -19.959839501362239 17.50987488751089 0 17.50987488751089 -202.07936341872301 0 0 0 0 -33.977600735088345 -27.004734564271985 0 -27.004734564271985 -210.57426106697676 0 0 0 0 -40.548009456309956 -13.566694662224108 0 -13.566694662224108 -237.24972267162048 0 0 0 0 22.876216426298924 1.9374009385487625 0 1.9374009385487625 -201.47984752037883 0 0 0 0 20.218592548044398 -11.72214830106077 0 -11.72214830106077 -235.6385101807391 0 0 0 0 146.37558660357899 -208.39862692131055 0 -208.39862692131055 -639.62217047959018 0 0 0 0 456.84549644736762 180.1566134459747 0 180.1566134459747 -309.32081721876239 0 0 0 0 -319.72156409834861 -60.496107812701666 0 -60.496107812701666 388.45148919348321 0 0 0 0 -1.2207976889339704 -0.61463493646454026 0 -0.61463493646454026 -1.2376863191283736 0 0 0 0 146.31262214001617 -58.073258911096218 0 -58.073258911096218 -497.47255292695263 0 0 0 0 150.2057331459655 -28.471088905159377 0 -28.471088905159377 -393.28312266142166 0 0 0 0 81.896504316740902 -13.625507848886173 0 -13.625507848886173 -345.5401872960847 0 0 0 0 39.194659355765907 -82.557837569839648 0 -82.557837569839648 -333.29100413263018 0 0 0 0 35.866746496103588 -22.576440180663667 0 -22.576440180663667 -275.53043443024399 0 0 0 0 5.2692071449419018 -128.52140580856849 0 -128.52140580856849 -405.87451665720073 0 0 0 0 38.229684748570435 -57.680779317246561 0 -57.680779317246561 -332.98432503981167 0 0 0 0 -19.633229727391154 -46.478607911689323 0 -46.478607911689323 -249.31219110995153 0 0 0 0 -34.443204624112695 -256.98871488041641 0 -256.98871488041641 -454.64321614867549 0 0 0 0 2.8911021433046074 -1.0277107541679484 0 -1.0277107541679484 -0.088116276646371006 0 0 0 0 228.92527928468189 514.28857885856678 0 514.28857885856678 513.53115823133976 0 0 0 0 22.883807757054456 213.82915283873808 0 213.82915283873808 579.66592833521372 0 0 0 0 116.78035606196499 293.55956894319206 0 293.55956894319206 490.45359167883726 0 0 0 0 213.40504650591174 47.115741671892465 0 47.115741671892465 23.568385809927577 0 0 0 0 87.081001407976146 130.91240176611518 0 130.91240176611518 244.65301820665536 0 0 0 0 68.204490063028061 51.517260385946429 0 51.517260385946429 477.50346803314824 0 0 0 0 124.20458610123023 170.58529447902401 0 170.58529447902401 233.38660899353999 0 0 0 0 11.014850187289824 4.2957235785394019 0 4.2957235785394019 2.1813706697302608 0 0 0 0 324.85096723143943 239.94221285370554 0 239.94221285370554 -118.03013532520663 0 0 0 0 105.49695600752966 115.34985369516494 0 115.34985369516494 98.740970834191103 0 0 0 0 -131.8710369761684 -8.5247215005019825 0 -8.5247215005019825 -202.7579525065139 0 0 0 0 -164.67313632633886 -10.117015236889529 0 -10.117015236889529 -189.91869459177178 0 0 0 0 -57.365281581092859 -7.5463801516752937 0 -7.5463801516752937 -205.8787020697323 0 0 0 0 15.873136430920567 -20.452933478356499 0 -20.452933478356499 -215.72468354453508 0 0 0 0 26.577303568337811 -30.987153604414743 0 -30.987153604414743 -217.74093359774452 0 0 0 0 -33.966236489068251 -5.88118416038742 0 -5.88118416038742 -212.53631429191228 0 0 0 0 -35.126979015767574 -13.206168874565265 0 -13.206168874565265 -219.51238795700556 0 0 0 0 146.63756951681717 46.331715305104353 0 46.331715305104353 207.65628714580998 0 0 0 0 94.590790175907387 129.29640202145356 0 129.29640202145356 99.356028948278436 0 0 0 0 126.34152481916681 90.931480457280941 0 90.931480457280941 15.562843410913956 0 0 0 0 137.73934289424506 129.55349589998832 0 129.55349589998832 -20.994945521530099 0 0 0 0 190.91261374879832 -76.980786671388614 0 -76.980786671388614 -394.30918267338848 0 0 0 0 159.76619666027545 183.81131313037531 0 183.81131313037531 71.645368349602904 0 0 0 0 67.839782654300507 -56.037505959541022 0 -56.037505959541022 -99.256455836280566 0 0 0 0 130.33835485560485 57.617331387197737 0 57.617331387197737 36.859941488946788 0 0 0 0 145.23887951736106 19.12323489613027 0 19.12323489613027 -109.29793278961665 0 0 0 0 48.317078077612678 -22.401203857862129 0 -22.401203857862129 -42.054046801741606 0 0 0 0 124.15740312220287 3.9216521205132437 0 3.9216521205132437 -18.47665827777567 0 0 0 0 41.229968575418923 47.932974278563741 0 47.932974278563741 18.587008846776918 0 0 0 0 103.40596944290519 55.338772728412096 0 55.338772728412096 8.9437323470460797 0 0 0 0 18.001526222316897 -20.351051208216177 0 -20.351051208216177 -203.7703071957576 0 0 0 0 17.186684439515368 8.9236859797245813 0 8.9236859797245813 -4.3864572402486477 0 0 0 0 8.8443071682995651 -72.582030753357458 0 -72.582030753357458 -77.087894522308488 0 0 0 0 7.3281663731848141 7.3941781037335446 0 7.3941781037335446 1.8512254687887051 0 0 0 0 43.995092820041464 -20.973510907288869 0 -20.973510907288869 -204.51170383423778 0 0 0 0 52.907130361592863 -34.445666048332441 0 -34.445666048332441 -204.86965385099029 0 0 0 0 40.473105444441899 -13.99767778572641 0 -13.99767778572641 -199.74298320689013 0 0 0 0 32.623585305467714 -36.692033453873591 0 -36.692033453873591 -167.76773058503295 0 0 0 0 69.022938313893974 6.7915583520652945 0 6.7915583520652945 -155.21696771360917 0 0 0 0 79.249675879713323 -6.995918048886324 0 -6.995918048886324 -192.50965036215257 0 0 0 0 58.642296449645073 -91.063181059263115 0 -91.063181059263115 -138.44473694723092 0 0 0 0 76.490151650243206 -54.145491784504657 0 -54.145491784504657 -115.55747903073643 0 0 0 0 82.971462941161008 -26.838608190495506 0 -26.838608190495506 -140.36364423480427 0 0 0 0 86.179272670578939 -14.449148839742634 0 -14.449148839742634 -92.529539424812356 0 0 0 0 82.568207994721888 21.100622164461583 0 21.100622164461583 -86.073093594058264 0 0 0 0 63.583762523740006 0.29644774099551796 0 0.29644774099551796 -133.5912411571353 0 0 0 0 82.887646797884372 31.999636800136614 0 31.999636800136614 -115.51802175614762 0 0 0 0 90.374498856370337 50.185009131816969 0 50.185009131816969 -110.93002358023432 0 0 0 0 65.833859874663176 37.702010152917865 0 37.702010152917865 -98.984913575443443 0 0 0 0 77.267080271158193 47.354304450826021 0 47.354304450826021 -49.659801163155862 0 0 0 0 89.881726795516443 68.122348240648762 0 68.122348240648762 -52.633973431241429 0 0 0 0 29.897604843863519 -11.556984424632901 0 -11.556984424632901 -176.20054709286705 0 0 0 0 56.427135727717541 24.354275331174449 0 24.354275331174449 -188.69642112058227 0 0 0 0 57.509177425352391 -12.739981598184386 0 -12.739981598184386 -205.08605463060394 0 0 0 0 71.666655613051262 23.311661448812629 0 23.311661448812629 -159.87969806103467 0 0 0 0 50.857728791146656 -8.3979886294475818 0 -8.3979886294475818 -156.26858345469009 0 0 0 0 73.510295763233444 55.222687481649245 0 55.222687481649245 -122.38452615013352 0 0 0 0 51.147940359296626 30.449568722257027 0 30.449568722257027 -109.68221042235655 0 0 0 0 23.707112829168182 28.785896403487527 0 28.785896403487527 -134.23983122385835 0 0 0 0 56.319105645176023 58.341043191364406 0 58.341043191364406 -139.88197852574899 0 0 0 0 49.616686898116313 51.103122782503533 0 51.103122782503533 -52.537311154161216 0 0 0 0 65.4386461154063 60.473062857979585 0 60.473062857979585 -49.331830624571012 0 0 0 0 90.722699197416659 51.026199824835658 0 51.026199824835658 -46.789852066513959 0 0 0 0 62.708815235811926 90.713351456505961 0 90.713351456505961 -1.5985522012451838 0 0 0 0 101.35605993086938 55.943163495348927 0 55.943163495348927 24.143125658142708 0 0 0 0 77.766447105997941 75.487238462738333 0 75.487238462738333 -51.426408088771666 0 0 0 0 40.449553736652888 60.811648927006672 0 60.811648927006672 15.739862512789841 0 0 0 0 78.115134106948972 58.372197195768877 0 58.372197195768877 -13.610898238551727 0 0 0 0 85.654708608140936 86.645928699602791 0 86.645928699602791 -31.557594825346996 0 0 0 0 86.990772063174518 68.896515548001844 0 68.896515548001844 -8.0601702590092827 0 0 0 0 96.260374956307714 110.30634269873372 0 110.30634269873372 21.48249928176665 0 0 0 0 78.031672470578997 92.917189089920612 0 92.917189089920612 35.206457680523272 0 0 0 0 92.581448688950331 105.27403251080159 0 105.27403251080159 31.13037872951827 0 0 0 0 76.263462968250678 46.592156297859447 0 46.592156297859447 57.702401279635069 0 0 0 0 83.454541846855136 71.493476001969384 0 71.493476001969384 -3.0282315131817086 0 0 0 0 96.183534262498142 46.165492444974916 0 46.165492444974916 49.373110897925471 0 0 0 0 92.644546810883185 59.115381650748645 0 59.115381650748645 22.154313224270936 0 0 0 0 86.144206822282285 36.576477069272642 0 36.576477069272642 17.111570744109599 0 0 0 0 101.35920593150513 30.35964877431752 0 30.35964877431752 -22.596315022030012 0 0 0 0 81.296898345448426 29.382470023510905 0 29.382470023510905 -28.551162263465812 0 0 0 0 95.631867386182421 42.3297552460524 0 42.3297552460524 -36.480126770503375 0 0 0 0 91.711560635310889 38.090903060065557 0 38.090903060065557 -65.375702194792211 0 0 0 0 77.671012364808121 -10.05366839131284 0 -10.05366839131284 -89.555319128566907 0 0 0 0 86.652783789424575 8.553314992161404 0 8.553314992161404 -69.929726578037844 0 0 0 0 77.209758587661781 5.0428346774647252 0 5.0428346774647252 -42.998502215188637 0 0 0 0 73.518645887124876 -13.220206058133499 0 -13.220206058133499 -46.28021053478551 0 0 0 0 85.736301681236 32.087934312700099 0 32.087934312700099 -16.916289088982012 0 0 0 0 65.218425769431633 -44.087158471766315 0 -44.087158471766315 -89.75731944119957 0 0 0 0 66.348830635251943 -2.0867648687872133 0 -2.0867648687872133 -59.728248382899437 0 0 0 0 64.792068893763144 0.12350683884447733 0 0.12350683884447733 -5.2095043693458258 0 0 0 0 53.332753350005049 -12.310891819619805 0 -12.310891819619805 -7.38865432114385 0 0 0 0 42.489924342371523 -23.9275567678269 0 -23.9275567678269 -92.337795536292106 0 0 0 0 44.966912377873086 -33.575327706701501 0 -33.575327706701501 -64.203552383067063 0 0 0 0 63.634483070127317 -50.707777952036167 0 -50.707777952036167 -105.64330365634282 0 0 0 0 131.18363514340308 31.401908880573956 0 31.401908880573956 -14.953742464983975 0 0 0 0 88.008449117733107 14.548640209168298 0 14.548640209168298 0.0057908715625671903 0 0 0 0 80.332240978379559 7.9076540041503449 0 7.9076540041503449 -9.1987892692704918 0 0 0 0 99.368839404691244 18.812680970431757 0 18.812680970431757 -32.478713319919422 0 0 0 0 52.212243501351622 -10.240859319394758 0 -10.240859319394758 -33.894781426820373 0 0 0 0 90.71553221209615 6.0412055710735331 0 6.0412055710735331 -51.050607561946094 0 0 0 0 81.471093550688238 22.60389442158521 0 22.60389442158521 -10.69569827071382 0 0 0 0 90.501284221900278 17.320492939013093 0 17.320492939013093 -8.4477210715813271 0 0 0 0 126.16992469395336 49.683803690757031 0 49.683803690757031 -6.3606925880330891 0 0 0 0 141.49353763554245 63.618976679566003 0 63.618976679566003 10.341759841892326 0 0 0 0 116.60420233652985 36.4786245072778 0 36.4786245072778 18.966873139192103 0 0 0 0 125.67330430421862 38.278515750655288 0 38.278515750655288 -3.4398032614062686 0 0 0 0 119.84825936509878 52.800218577501767 0 52.800218577501767 50.934081972144668 0 0 0 0 132.31659565880545 21.907903005098888 0 21.907903005098888 17.837102423499346 0 0 0 0 133.56182399605314 74.33261522643636 0 74.33261522643636 38.010971467304444 0 0 0 0 163.21870035049233 75.265325595235367 0 75.265325595235367 14.013517167902137 0 0 0 0 159.72232946442091 46.570677673924592 0 46.570677673924592 12.058426511748621 0 0 0 0 1.0449165055934202 -0.94688046046117336 0 -0.94688046046117336 -0.21056574206972556 0 0 0 0 -21.950803372645169 -26.277548171893955 0 -26.277548171893955 -9.155513066128151 0 0 0 0 120.00358864782902 54.445949835127749 0 54.445949835127749 20.292292770456697 0 0 0 0 126.33104380046825 42.848121309102169 0 42.848121309102169 38.500446507007837 0 0 0 0 98.157220823544776 45.39992048566458 0 45.39992048566458 23.21955373977562 0 0 0 0 128.17158708508941 38.147120596678633 0 38.147120596678633 17.823010660541513 0 0 0 0 170.7040998470693 63.692567182399898 0 63.692567182399898 14.940990652592973 0 0 0 0 96.221139065157331 46.08039832745726 0 46.08039832745726 35.096577020937275 0 0 0 0 131.78362438906333 55.060595783176268 0 55.060595783176268 18.64110875281952 0 0 0 0 129.80352484531613 59.635781139027642 0 59.635781139027642 39.93706568041307 0 0 0 0 -42.272744391215383 5.9320888323747454 0 5.9320888323747454 3.4385320785959266 0 0 0 0 0.32604985395632013 -0.26816323088992533 0 -0.26816323088992533 -0.049465724963758007 0 0 0 0 -48.624304906403268 -26.609430212332654 0 -26.609430212332654 -1.7544059817591915 0 0 0 0 -9.3908015775268723 -9.62962892830501 0 -9.62962892830501 -16.664219802954904 0 0 0 0 -21.960385049409524 -32.963689760611942 0 -32.963689760611942 -17.14014400655833 0 0 0 0 3.0894363047919668 -8.8967674869005151 0 -8.8967674869005151 -5.3619674087791136 0 0 0 0 18.271802840536111 -8.9223161673571667 0 -8.9223161673571667 -0.84818465070895854 0 0 0 0 69.202895668146084 -7.9156644662052713 0 -7.9156644662052713 -10.996775915948547 0 0 0 0 60.701888826708455 -5.1204264936746995 0 -5.1204264936746995 18.873648656330261 0 0 0 0 155.31167146239022 19.020438369831254 0 19.020438369831254 15.7639970248174 0 0 0 0 57.158792509850173 23.797251047192276 0 23.797251047192276 36.59569832211514 0 0 0 0 50.739916992752114 97.323020529452378 0 97.323020529452378 98.338984234590498 0 0 0 0 -0.12250260338018393 -0.17426963612535928 0 -0.17426963612535928 0.41041718602340271 0 0 0 0 56.437970056293125 35.367862068016393 0 35.367862068016393 21.038548674358935 0 0 0 0 50.81528603980405 87.534660059232237 0 87.534660059232237 84.819200046275569 0 0 0 0 28.283065675437683 25.75315754596545 0 25.75315754596545 18.25752630805232 0 0 0 0 86.14482826548192 27.76183576034316 0 27.76183576034316 1.8871747318112284 0 0 0 0 58.446854070767586 25.330649616871597 0 25.330649616871597 -3.2270817480161895 0 0 0 0 54.777924438800255 14.006255973648649 0 14.006255973648649 -3.9281175455962511 0 0 0 0 47.220090462702501 19.596219726843628 0 19.596219726843628 -5.7820327695585547 0 0 0 0 42.211057160136988 2.8220750554312417 0 2.8220750554312417 0.12193339407986059 0 0 0 0 71.68203551658371 28.835124350800015 0 28.835124350800015 -3.2150010495321339 0 0 0 0 48.677981935077696 19.580594825886806 0 19.580594825886806 -6.6714002132025598 0 0 0 0 44.762681901149335 1.5606761400181313 0 1.5606761400181313 -13.630983877510516 0 0 0 0 9.9212363582118996 -5.501957250667374 0 -5.501957250667374 6.7372618950057586 0 0 0 0 -10.538710885088221 -5.1595484920200363 0 -5.1595484920200363 4.4828497479813905 0 0 0 0 5.4528536670463552 -7.6416648076476008 0 -7.6416648076476008 -5.7087527928401185 0 0 0 0 50.640644701488782 16.231661045463397 0 16.231661045463397 -4.9688188469494889 0 0 0 0 52.165475077286828 5.6494851026409378 0 5.6494851026409378 -12.477930452899727 0 0 0 0 39.146330683528504 10.560249287264469 0 10.560249287264469 -7.1903936605394847 0 0 0 0 21.315519800200491 6.8576179845117125 0 6.8576179845117125 -1.7302473243566965 0 0 0 0 23.362657518628112 8.7539935405925178 0 8.7539935405925178 -0.14678068682798084 0 0 0 0 -8.7631564352632267 8.9786810056421444 0 8.9786810056421444 15.514306674327486 0 0 0 0 0.79148215448320514 3.6544060455891128 0 3.6544060455891128 1.3322577288421564 0 0 0 0 -2.0181145373708205 -0.3875882135150448 0 -0.3875882135150448 0.00072328027566648245 0 0 0 0 15.258132815979479 -18.117546240625074 0 -18.117546240625074 -20.270209183398947 0 0 0 0 18.317421347148183 -1.6307132265630102 0 -1.6307132265630102 -5.5633176445035035 0 0 0 0 8.4032471840691869 5.5914136194762705 0 5.5914136194762705 44.363721093001004 0 0 0 0 26.801036737531831 45.168285470324463 0 45.168285470324463 42.147530570032359 0 0 0 0 1.9829339011223226 2.9723595197125547 0 2.9723595197125547 0.67387291294791707 0 0 0 0 46.535183140025765 -7.3666787860647105 0 -7.3666787860647105 1.5360399393784974 0 0 0 0 47.59797703102231 44.470982226610886 0 44.470982226610886 20.837456172440397 0 0 0 0 36.71857074147556 21.261323195163413 0 21.261323195163413 -25.778954778844309 0 0 0 0 19.652734760231056 -0.74741050895922001 0 -0.74741050895922001 -4.8622023572959403 0 0 0 0 66.947932951465191 -18.84610744593499 0 -18.84610744593499 -45.177693329348358 0 0 0 0 28.737445895943893 -2.3320115125781911 0 -2.3320115125781911 -18.03031862672583 0 0 0 0 9.6555727382219629 2.0178080630481077 0 2.0178080630481077 -8.3843233780078776 0 0 0 0 20.898095781853613 0.61619731264815414 0 0.61619731264815414 -4.9061221080828776 0 0 0 0 9.9312092967711578 -10.798961771008376 0 -10.798961771008376 -8.2294208258629169 0 0 0 0 -5.6859654361323919 -35.333157461829245 0 -35.333157461829245 28.581150802659863 0 0 0 0 -45.759829729533521 7.4591673751606038 0 7.4591673751606038 11.560149392627523 0 0 0 0 9.9867357340990566 -15.653695078323722 0 -15.653695078323722 13.760782282988941 0 0 0 0 32.333967609643878 27.147317630894449 0 27.147317630894449 19.777526629834767 0 0 0 0 0.60957050508133648 -0.54900203975695305 0 -0.54900203975695305 -0.49129788700998672 0 0 0 0 63.554391025114455 0.87981467047512751 0 0.87981467047512751 -14.942913054742689 0 0 0 0 1.4174621702525769 3.31435101908761 0 3.31435101908761 -2.3824705034180136 0 0 0 0 18.384434451851121 9.0761769163371468 0 9.0761769163371468 0.51323404663452266 0 0 0 0 19.629640153632863 10.120386136695956 0 10.120386136695956 -28.921514497391939 0 0 0 0 15.020645753058488 30.895723581035753 0 30.895723581035753 1.5316065226345472 0 0 0 0 46.878237007673306 -1.3230560341205546 0 -1.3230560341205546 -22.548221934547598 0 0 0 0 16.950728806910945 -2.3788611197621066 0 -2.3788611197621066 -1.2739445884409994 0 0 0 0 52.273631264684809 -47.030042867578878 0 -47.030042867578878 11.865387273004899 0 0 0 0 40.118713158786704 -14.118909443702606 0 -14.118909443702606 -6.5887314541599835 0 0 0 0 -5.4277113305142848 -17.183895548862893 0 -17.183895548862893 9.9425594498256942 0 0 0 0 3.6053681837183831 -11.022770241871896 0 -11.022770241871896 10.756010122904399 0 0 0 0 4.4564179454598047 -5.2176294909841516 0 -5.2176294909841516 -3.4562928195622149 0 0 0 0 -11.295245101289765 0.41269801268099116 0 0.41269801268099116 -1.4767339750982273 0 0 0 0 3.8030668672574066 -5.3991921420453508 0 -5.3991921420453508 -2.3298629236423181 0 0 0 0 18.412936621589324 -4.885254376052238 0 -4.885254376052238 -7.3605712332638404 0 0 0 0 -2.9798761332058348 9.0702466381797819 0 9.0702466381797819 6.5710708793591692 0 0 0 0 -0.27534713018431489 -0.76070698182345353 0 -0.76070698182345353 0.040074471525299638 0 0 0 0 0.40835605643195549 0.036361425492685839 0 0.036361425492685839 -0.14337438869364627 0 0 0 0 14.372712635271455 -26.330699818522163 0 -26.330699818522163 29.571598004602549 0 0 0 0 -29.292817158187972 16.973210978426877 0 16.973210978426877 22.980565241614798 0 0 0 0 154.86549870875024 -11.826015611573581 0 -11.826015611573581 -7.5107530690154363 0 0 0 0 112.18199347435075 97.503503873063011 0 97.503503873063011 21.618354052224845 0 0 0 0 118.77764501638012 -45.955334871340099 0 -45.955334871340099 36.802525117237622 0 0 0 0 0.68273762647169178 0.24946282823370325 0 0.24946282823370325 0.0014381560100193806 0 0 0 0 -0.99678736960049719 -38.806811485904454 0 -38.806811485904454 11.337564144572035 0 0 0 0 20.760498453659238 -24.268341653059863 0 -24.268341653059863 -48.399544589322076 0 0 0 0 -1.3754258531844243 -0.83370044661035081 0 -0.83370044661035081 0.80071321802550699 0 0 0 0 -35.26009572800649 -1.7899254653173191 0 -1.7899254653173191 0.78564683986422779 0 0 0 0 15.532856984762475 3.6213152758597431 0 3.6213152758597431 -0.77792920888442685 0 0 0 0 1.3213332000462117 -0.72848426391684384 0 -0.72848426391684384 -0.072016138809570918 0 0 0 0 7.390296474293514 -1.1195067399885517 0 -1.1195067399885517 -1.000815222882752 0 0 0 0 3.4073614446162992 -4.7235436642363258 0 -4.7235436642363258 0.1022225985907361 0 0 0 0 -0.95065318956039846 -4.3731020632914834 0 -4.3731020632914834 -2.0985878701420688 0 0 0 0 6.5924225243478531 -4.0312783112815822 0 -4.0312783112815822 -0.89711404390765093 0 0 0 0 2.7251811581809307 -1.8006904668312949 0 -1.8006904668312949 -18.660364792579216 0 0 0 0 1.0166935929099452 0.0096128289657855248 0 0.0096128289657855248 -0.076036333924388466 0 0 0 0 -17.43727822231449 -4.9532884131766766 0 -4.9532884131766766 27.062254581587396 0 0 0 0 28.317555462315795 -6.1721376428029258 0 -6.1721376428029258 0.09408559221993984 0 0 0 0 115.94979017087917 67.497417260062264 0 67.497417260062264 58.91804862178779 0 0 0 0 111.18209863136872 38.722987076127652 0 38.722987076127652 19.785486290958474 0 0 0 0 -4.2749540085314948 6.7742949841219851 0 6.7742949841219851 53.562597561693536 0 0 0 0 0.70642317626192153 0.39378925178654356 0 0.39378925178654356 0.038043596692464404 0 0 0 0 22.335126910649706 23.390375040201604 0 23.390375040201604 11.256490836677095 0 0 0 0 20.001686434537987 -16.159264403967242 0 -16.159264403967242 23.639037519865553 0 0 0 0 30.436955110839335 -10.752733834655057 0 -10.752733834655057 0.40238259483129252 0 0 0 0 -15.967791585193481 9.6897339399512443 0 9.6897339399512443 18.405004075344529 0 0 0 0 103.48562899572426 -54.276856443495028 0 -54.276856443495028 22.115140429504873 0 0 0 0 2.3734933533560252 -7.6045033675846767 0 -7.6045033675846767 0.08257538232239886 0 0 0 0 17.209755116840824 -6.8358889069743478 0 -6.8358889069743478 -1.0405442734278962 0 0 0 0 10.414464318506361 -0.1622732022668929 0 -0.1622732022668929 -0.12348788110808684 0 0 0 0 1.2121020066202277 -0.065233591139346458 0 -0.065233591139346458 -0.13569664247231356 0 0 0 0 8.7572150844509338 -0.33021314079000597 0 -0.33021314079000597 -0.45988415047341952 0 0 0 0 17.984664018251351 -0.57367601623343489 0 -0.57367601623343489 -1.1191688996904752 0 0 0 0 5.0163786708144471 -0.88346944675933514 0 -0.88346944675933514 -2.1529255525654065 0 0 0 0 5.3720539405236991 -0.49030466064860434 0 -0.49030466064860434 -0.11994572390719377 0 0 0 0 14.485717975796433 -2.8961397745601971 0 -2.8961397745601971 1.1800279460555885 0 0 0 0 12.863718588312622 15.009078706689518 0 15.009078706689518 14.540441565648306 0 0 0 0 24.626706116250716 3.985822942855215 0 3.985822942855215 -10.763060671775396 0 0 0 0 19.906791888410226 1.6810176994551256 0 1.6810176994551256 -0.093134965643102419 0 0 0 0 13.038768944059228 0.72091021589899551 0 0.72091021589899551 -0.10842540607938142 0 0 0 0 16.974755938455928 3.2512465900566134 0 3.2512465900566134 -9.4338635568333089 0 0 0 0 0.56055722213204717 0.62279384201466392 0 0.62279384201466392 8.2423649804873662 0 0 0 0 9.5590587823560895 1.2307829077818866 0 1.2307829077818866 -0.27893646817095613 0 0 0 0 34.222974088188494 21.456453508647158 0 21.456453508647158 0.78351383190301505 0 0 0 0 19.433947057070327 1.9271575104504564 0 1.9271575104504564 0.47241425106460611 0 0 0 0 2.86772742728526 0.55063585829635997 0 0.55063585829635997 0.52863642577319758 0 0 0 0 19.505299794123857 1.6650798978623413 0 1.6650798978623413 1.2279840247441598 0 0 0 0 10.031644845184928 6.4316482490929161 0 6.4316482490929161 -6.5795814744669769 0 0 0 0 30.599738561722916 6.9957774023446291 0 6.9957774023446291 -9.981454986809581 0 0 0 0 24.290358430975175 -5.7816478543718404 0 -5.7816478543718404 -10.454399752779523 0 0 0 0 17.715626463439548 -6.4330348673037747 0 -6.4330348673037747 -10.475308202629776 0 0 0 0 38.023433698132067 -22.631437738962646 0 -22.631437738962646 2.4413605374429608 0 0 0 0 -18.484280572363787 17.679887112325673 0 17.679887112325673 -0.81742750297223665 0 0 0 0 57.623353763483465 38.832244610458758 0 38.832244610458758 -3.2420198544301115 0 0 0 0 38.118849341051828 -2.6494347401194602 0 -2.6494347401194602 -7.6157558375514895 0 0 0 0 0.13704506712778652 0.52368836058765567 0 0.52368836058765567 0.58482881961274558 0 0 0 0 212.03331305748725 -71.779890857951756 0 -71.779890857951756 45.694836970318505 0 0 0 0 229.7274029075088 -3.6989044598878671 0 -3.6989044598878671 -38.668859577528224 0 0 0 0 97.679013385262806 109.61681448244012 0 109.61681448244012 -75.734226250595867 0 0 0 0 255.24415602454974 -96.745741582997312 0 -96.745741582997312 -125.56640913279634 0 0 0 0 548.38708359599696 -136.71133338852547 0 -136.71133338852547 -70.054603370750129 0 0 0 0 263.81797871952949 -52.317072209992446 0 -52.317072209992446 53.05055824701418 0 0 0 0 681.72280226456496 -138.50646847818734 0 -138.50646847818734 -78.383314231437907 0 0 0 0 19.549768166019931 1.3007674506129092 0 1.3007674506129092 1.6245178774432247 0 0 0 0 1.2635183869298547 3.8194661223086541 0 3.8194661223086541 1.746726934812036 0 0 0 0 -45.841314545323257 -24.420806258809336 0 -24.420806258809336 138.29488541826663 0 0 0 0 19.84044538987655 1.3991929021816318 0 1.3991929021816318 0.87317048964342803 0 0 0 0 19.862788179270865 1.5379307660156485 0 1.5379307660156485 0.16458902197211955 0 0 0 0 11.834717412653845 -2.7214838375769261 0 -2.7214838375769261 -13.314142343322777 0 0 0 0 -14.150326960574603 -22.544686541485298 0 -22.544686541485298 -27.065609628745818 0 0 0 0 30.272051764768548 -1.1929817413654504 0 -1.1929817413654504 -47.313255178058895 0 0 0 0 46.918736891762819 19.604030498935014 0 19.604030498935014 -28.307652700539201 0 0 0 0 35.360094667354133 -206.87589928871466 0 -206.87589928871466 139.67343330921537 0 0 0 0 -137.39070725964211 85.71010764369322 0 85.71010764369322 89.114543479352761 0 0 0 0 2.7160057271888114 0.30969816637727376 0 0.30969816637727376 -0.51065070431423631 0 0 0 0 2.8924835504883788 0.25524034021210351 0 0.25524034021210351 0.56274358442793537 0 0 0 0 212.10675119442749 -219.32754931949103 0 -219.32754931949103 355.12990188241179 0 0 0 0 327.63918565826316 169.62530268931164 0 169.62530268931164 -27.766649260175683 0 0 0 0 476.33347350388067 -364.45054362276187 0 -364.45054362276187 156.41638067434479 0 0 0 0 813.7802871829997 -211.82475562070877 0 -211.82475562070877 -48.311319916087115 0 0 0 0 372.86569885057543 -107.23523190895436 0 -107.23523190895436 0.021327743230414711 0 0 0 0 70.379073982214322 -70.514972364628647 0 -70.514972364628647 87.988065285981449 0 0 0 0 -119.55135605880059 59.565180452719062 0 59.565180452719062 42.420148886286711 0 0 0 0 86.796072454148089 -77.281080699800654 0 -77.281080699800654 87.564220717574472 0 0 0 0 419.67318737375535 -159.82640605261747 0 -159.82640605261747 49.554232657891134 0 0 0 0 79.087165332224686 -81.141547438852228 0 -81.141547438852228 87.275341832413346 0 0 0 0 1500.4830537218877 -402.14222040450369 0 -402.14222040450369 95.020224635554541 0 0 0 0 812.65462081481337 -170.46035827388783 0 -170.46035827388783 166.11520235156976 0 0 0 0 1082.3382661302749 -184.77047935373329 0 -184.77047935373329 0.78752878234141477 0 0 0 0 810.92923499105382 -231.30336677374217 0 -231.30336677374217 152.99809746224594 0 0 0 0 1051.2314331605448 -255.73201857425826 0 -255.73201857425826 144.43498825457169 0 0 0 0 1052.3541954678731 -246.06121192458559 0 -246.06121192458559 171.90637602571024 0 0 0 0 1032.0052604054458 -416.47938984348826 0 -416.47938984348826 37.345686482012695 0 0 0 0 1028.6500298667161 -265.50132824032551 0 -265.50132824032551 -4.7494177800033128 0 0 0 0 632.29353887715843 -328.93692638261007 0 -328.93692638261007 127.81159706090037 0 0 0 0 905.72879999632278 -330.09894182709712 0 -330.09894182709712 0.29061920759218651 0 0 0 0 670.35384533046454 -227.13701049532659 0 -227.13701049532659 -13.533305531904801 0 0 0 0 527.96718579375556 -228.17489924880732 0 -228.17489924880732 36.759990767528819 0 0 0 0 865.01341535539177 -472.13558623244307 0 -472.13558623244307 104.35222083003666 0 0 0 0 720.11683263420127 -538.19050046419954 0 -538.19050046419954 210.5029320123366 0 0 0 0 485.21212634242693 -271.12947647390018 0 -271.12947647390018 53.693035501892098 0 0 0 0 814.24251227434434 -425.57583004936328 0 -425.57583004936328 123.74955329596008 0 0 0 0 185.8471014364186 -167.8913260904958 0 -167.8913260904958 231.80935541093891 0 0 0 0 73.116906033465057 40.313283192900144 0 40.313283192900144 97.595943285372641 0 0 0 0 500.96513533002872 -229.0341704740047 0 -229.0341704740047 66.470836095191999 0 0 0 0 337.76399526104325 -209.45892101959896 0 -209.45892101959896 114.85967050811496 0 0 0 0 337.22077683757152 -96.625868033460407 0 -96.625868033460407 6.371235180639701 0 0 0 0 14.191440211987356 -40.2995912437882 0 -40.2995912437882 94.510573786631539 0 0 0 0 79.500308612477966 3.9778263828391118 0 3.9778263828391118 44.321125694372313 0 0 0 0 0.59487178139897878 -41.871569622677697 0 -41.871569622677697 44.91712899082313 0 0 0 0 100.64534082794853 -89.116982538120965 0 -89.116982538120965 135.67890259861906 0 0 0 0 3.660197985192208 5.5825290188630419 0 5.5825290188630419 0.12844018654156097 0 0 0 0 101.40331371728098 6.6886322589010661 0 6.6886322589010661 -19.949272659183293 0 0 0 0 22.816125729899795 17.436597192741374 0 17.436597192741374 16.013738796781581 0 0 0 0 -120.73830333996739 3.0425290480219473 0 3.0425290480219473 95.410611013208154 0 0 0 0 -46.502052092575468 99.399219154348145 0 99.399219154348145 47.11663781297068 0 0 0 0 0.14656128214615194 0.22871234013953767 0 0.22871234013953767 0.24734573480651267 0 0 0 0 34.377606369773275 -14.558487592463877 0 -14.558487592463877 15.575783355843498 0 0 0 0 38.847461392055266 16.014385681411113 0 16.014385681411113 -24.229583803605237 0 0 0 0 60.628545978397597 -24.172038201062833 0 -24.172038201062833 -14.339543407457768 0 0 0 0 69.709840201088809 67.166558366395179 0 67.166558366395179 -47.63079541194179 0 0 0 0 34.8931495762954 32.809858522243303 0 32.809858522243303 -71.049712872502027 0 0 0 0 -0.56618515946320258 -53.97094592577821 0 -53.97094592577821 -42.866757717024484 0 0 0 0 102.44645857086289 26.228072775421538 0 26.228072775421538 45.324405882351016 0 0 0 0 40.34576148405904 52.532541999125442 0 52.532541999125442 -4.9598139907056975 0 0 0 0 3.4826605327398283 78.036533812966354 0 78.036533812966354 -11.571741514317409 0 0 0 0 7.8976282701041782 34.971334839691281 0 34.971334839691281 29.166230214547909 0 0 0 0 86.836724880246038 1.7209192581884736 0 1.7209192581884736 7.2475993206367093 0 0 0 0 20.766405276452133 28.948238656816784 0 28.948238656816784 -76.578380448589996 0 0 0 0 51.31281956264138 71.711983723262392 0 71.711983723262392 -28.624984202085216 0 0 0 0 -22.126604165590834 57.347371752222898 0 57.347371752222898 -8.0518949551824335 0 0 0 0 18.803718159106211 17.463538349133955 0 17.463538349133955 -3.2559027757715739 0 0 0 0 26.632865118415793 33.705227851839993 0 33.705227851839993 30.206219452076766 0 0 0 0 3.7082211925378576 15.91204257120998 0 15.91204257120998 4.2293186144139989 0 0 0 0 18.592099167434895 -1.7563590949239689 0 -1.7563590949239689 1.326040623033403 0 0 0 0 22.105315273860469 17.578407309368572 0 17.578407309368572 18.767653289294458 0 0 0 0 32.878930502614821 3.6974672795743118 0 3.6974672795743118 -1.3750775582531105 0 0 0 0 -79.379406873773405 -11.634969616684714 0 -11.634969616684714 44.448185269739724 0 0 0 0 -72.100599084151327 126.59769731941617 0 126.59769731941617 110.70191653680945 0 0 0 0 -120.16292463172431 -20.871040256985225 0 -20.871040256985225 211.79666982949834 0 0 0 0 -15.996990081905096 -331.94017521974621 0 -331.94017521974621 613.24353460748284 0 0 0 0 163.96563629464436 11.96905437034286 0 11.96905437034286 -55.472780746042645 0 0 0 0 130.2068061621394 -72.004071686008274 0 -72.004071686008274 -144.72403694203376 0 0 0 0 21.280603132967371 -58.586323340660556 0 -58.586323340660556 3.2813813466032116 0 0 0 0 13.57215645726987 -5.0798120023148421 0 -5.0798120023148421 1.3558532646841948 0 0 0 0 1150.3335786669631 -494.33816697455399 0 -494.33816697455399 573.53430274693119 0 0 0 0 1160.4094607912702 -301.90683875698312 0 -301.90683875698312 505.60137524375301 0 0 0 0 1542.028289930051 -464.33890494872969 0 -464.33890494872969 511.87830098993504 0 0 0 0 406.7300136906706 -638.79899497630061 0 -638.79899497630061 680.15524029801668 0 0 0 0 5.6972140275976244 -2.6418165382340639 0 -2.6418165382340639 1.0950076841120064 0 0 0 0 411.77668974634435 65.093213134312691 0 65.093213134312691 -32.765353083685227 0 0 0 0 1653.2845908949093 -618.30549457883399 0 -618.30549457883399 277.58041728627381 0 0 0 0 4.4890865309798755 -2.0948448190144262 0 -2.0948448190144262 1.1760927526115954 0 0 0 0 1499.7947140785836 -616.6394090452776 0 -616.6394090452776 68.459171577590723 0 0 0 0 193.16716498686947 -279.28568621142637 0 -279.28568621142637 77.757612172460313 0 0 0 0 1145.2363729669032 -526.1118548452464 0 -526.1118548452464 380.85406768260964 0 0 0 0 1026.6648731594469 -459.53623691950463 0 -459.53623691950463 568.95857023388703 0 0 0 0 1047.2883364627596 -530.77289014900089 0 -530.77289014900089 448.42789646439508 0 0 0 0 942.36534139924333 -526.52906980038722 0 -526.52906980038722 531.41778972955376 0 0 0 0 1036.4142366152955 -555.71236235677861 0 -555.71236235677861 426.33528195865927 0 0 0 0 952.55726513505397 -538.37195336695936 0 -538.37195336695936 432.31832525488358 0 0 0 0 953.48090697365114 -502.74135747652332 0 -502.74135747652332 454.34228944992981 0 0 0 0 1134.1343484808604 -450.37107311628188 0 -450.37107311628188 462.29861354335395 0 0 0 0 1195.8711654884587 -529.42816918418191 0 -529.42816918418191 382.31201932021588 0 0 0 0 1204.2285635745957 -420.27174320489769 0 -420.27174320489769 343.04572893465809 0 0 0 0 901.0898833802039 -378.33533365379901 0 -378.33533365379901 314.86620493362932 0 0 0 0 1.2714396603367586 -2.6663084128191343 0 -2.6663084128191343 0.9160096677334203 0 0 0 0 1959.0702232231342 -441.41131772208354 0 -441.41131772208354 19.345844024640343 0 0 0 0 1390.0058223018714 -634.13894272170171 0 -634.13894272170171 348.27395882993596 0 0 0 0 1326.1798903741619 -489.46185004597038 0 -489.46185004597038 144.99605718739386 0 0 0 0 1202.7454742814443 -497.70454594944533 0 -497.70454594944533 174.04989896081554 0 0 0 0 1224.423068197575 -571.28892334189766 0 -571.28892334189766 1.3560770758157901 0 0 0 0 1244.4403230649696 -405.74278348722385 0 -405.74278348722385 318.68092255462022 0 0 0 0 1287.2988313958667 -546.2982668259109 0 -546.2982668259109 120.21303967148839 0 0 0 0 890.17725960270036 -552.21465822845994 0 -552.21465822845994 297.04977977919941 0 0 0 0 999.7818153907283 -453.19942873459945 0 -453.19942873459945 18.188227026330949 0 0 0 0 1034.0269928678026 -557.19635272446226 0 -557.19635272446226 161.76200066799265 0 0 0 0 862.40384462908332 -482.40785276768736 0 -482.40785276768736 63.955458987661714 0 0 0 0 1107.1335892854258 -487.28081787606834 0 -487.28081787606834 -47.218649933101801 0 0 0 0 1172.8768438685511 -608.81244716580898 0 -608.81244716580898 22.981534531899484 0 0 0 0 1211.8549921536178 -599.4683817027867 0 -599.4683817027867 -22.15131660666529 0 0 0 0 1292.7779734754349 -698.54092328730542 0 -698.54092328730542 42.609531407341933 0 0 0 0 1050.4643062519099 -560.22529249149784 0 -560.22529249149784 -17.215519376915012 0 0 0 0 1266.8075188651419 -537.02209339457715 0 -537.02209339457715 -32.378170020619393 0 0 0 0 1242.2913931608491 -540.81285591841254 0 -540.81285591841254 9.2078563679593799 0 0 0 0 1521.1225012961659 -374.41012681714403 0 -374.41012681714403 24.414636619427085 0 0 0 0 1444.0312267590889 -602.47422281011359 0 -602.47422281011359 148.21659941773044 0 0 0 0 1450.1040234005632 -656.20695436251754 0 -656.20695436251754 72.794413826338996 0 0 0 0 911.35280278943537 -716.40434440818149 0 -716.40434440818149 179.37533523567367 0 0 0 0 1529.2379409373243 -1001.0676987040331 0 -1001.0676987040331 306.84992824704807 0 0 0 0 1139.0918177679559 -1380.2429927995681 0 -1380.2429927995681 1393.72459068849 0 0 0 0 149.65677941346075 -31.834073942758781 0 -31.834073942758781 -204.13976850446522 0 0 0 0 8.2127720728586837 -1.9444428347180249 0 -1.9444428347180249 0.18690329009482698 0 0 0 0 456.59409721892735 -757.76019059218038 0 -757.76019059218038 938.7472037384 0 0 0 0 2338.3430118256947 -1425.3415530436305 0 -1425.3415530436305 -0.51732243077181883 0 0 0 0 1617.4135622367758 -249.994299463083 0 -249.994299463083 221.65363740956519 0 0 0 0 2282.0223232859134 -981.78484852807696 0 -981.78484852807696 244.78407753657291 0 0 0 0 30.442953958692442 -1.6449856361227662 0 -1.6449856361227662 -2.2620685180778684 0 0 0 0 16.414361182886971 0.10148770279340624 0 0.10148770279340624 -0.14029260623264309 0 0 0 0 -58.672709704726003 5.5052943925991595 0 5.5052943925991595 -0.52958310689413646 0 0 0 0 341.10713922763534 -117.57487207952175 0 -117.57487207952175 -0.090201178206427812 0 0 0 0 114.37664408654746 -229.08498437444422 0 -229.08498437444422 482.75729906206823 0 0 0 0 19.80959400715227 -3.1701275296432456 0 -3.1701275296432456 -2.5000174734312619 0 0 0 0 908.20182229269153 -635.52038402309381 0 -635.52038402309381 181.78963054350652 0 0 0 0 130.17925723371445 -193.23998579257309 0 -193.23998579257309 278.38891633804735 0 0 0 0 -340.57728482817379 -100.24715289676912 0 -100.24715289676912 244.03216014319059 0 0 0 0 7.436480063336715 -8.7440851323286637 0 -8.7440851323286637 -8.6809929419310894 0 0 0 0 0.20210003309417601 -7.4113293585508728 0 -7.4113293585508728 -0.3865110007638336 0 0 0 0 877.23296726105036 -356.64744489829485 0 -356.64744489829485 67.194833196162222 0 0 0 0 -262.65462514438832 74.889947569302677 0 74.889947569302677 22.798368505788105 0 0 0 0 690.86946910484403 -165.83922077938831 0 -165.83922077938831 -80.40042592430899 0 0 0 0 864.57335922270431 -621.26770887542125 0 -621.26770887542125 181.8910749799895 0 0 0 0 1198.2218256620654 -270.37735305164915 0 -270.37735305164915 -6.8253699986812819 0 0 0 0 1142.0750625872752 -609.07052041993381 0 -609.07052041993381 64.916828871012669 0 0 0 0 454.33202619069925 15.34087664230533 0 15.34087664230533 0.37059616027553866 0 0 0 0 307.40895539905614 -215.65149182759245 0 -215.65149182759245 -93.167429483292779 0 0 0 0 599.84694892274638 118.24784037089891 0 118.24784037089891 127.63723079355415 0 0 0 0 702.47731796887092 -0.047145468013633618 0 -0.047145468013633618 -289.32633576368016 0 0 0 0 874.38039309853048 8.0543255022873836 0 8.0543255022873836 -289.86356523785651 0 0 0 0 213.26802853865956 -58.73920079424181 0 -58.73920079424181 -103.65622575144556 0 0 0 0 371.38677179331717 -20.548613366028576 0 -20.548613366028576 -479.12482325602286 0 0 0 0 334.97155790671241 340.51462892070651 0 340.51462892070651 308.59400008655484 0 0 0 0 9.1626604127488918 4.7842527973271309 0 4.7842527973271309 1.4450874956434991 0 0 0 0 -82.394652772360132 787.24561725325975 0 787.24561725325975 556.89818945810623 0 0 0 0 749.0435322728008 -140.26216746625158 0 -140.26216746625158 -440.53831327322723 0 0 0 0 1042.6136103520839 -820.14433195461447 0 -820.14433195461447 314.42924051201112 0 0 0 0 34.802594923628021 7.7622233608942288 0 7.7622233608942288 -0.20547013791816671 0 0 0 0 55.914074768359114 -34.938287840381733 0 -34.938287840381733 69.235895513646028 0 0 0 0 1941.2478126534552 -133.2533796501462 0 -133.2533796501462 -91.12312259238837 0 0 0 0 2490.8223240837324 -670.65420713221135 0 -670.65420713221135 314.31040853730195 0 0 0 0 -1112.7583967976971 732.41462034649453 0 732.41462034649453 1048.9463928720941 0 0 0 0 13.53772581301007 5.3371060665124119 0 5.3371060665124119 2.253020417832059 0 0 0 0 9.61182647386741 3.7532911873349946 0 3.7532911873349946 1.0651438939789752 0 0 0 0 3314.2240083631332 -848.81292292383478 0 -848.81292292383478 -772.87876938233933 0 0 0 0 637.12336396041792 1204.1270149364534 0 1204.1270149364534 734.42321944376829 0 0 0 0 270.73870545384125 -177.18478969669616 0 -177.18478969669616 -112.21805384409234 0 0 0 0 1446.8659353231342 307.06459203436452 0 307.06459203436452 -113.12111033661702 0 0 0 0 2495.06673806654 1023.2477369558028 0 1023.2477369558028 -195.56354253541588 0 0 0 0 1375.2863531230687 601.2186406215078 0 601.2186406215078 -299.91132496942492 0 0 0 0 2500.3116718958081 303.37480090757305 0 303.37480090757305 -423.80355835964804 0 0 0 0 1812.9395757218299 172.39378369884884 0 172.39378369884884 -380.19518045236151 0 0 0 0 1605.6778306705055 -167.51029388106741 0 -167.51029388106741 -42.125041328616049 0 0 0 0 766.5571978260341 -31.199329784392688 0 -31.199329784392688 -15.525954875347395 0 0 0 0 736.55201972311625 37.957613069163926 0 37.957613069163926 -145.47822532553272 0 0 0 0 -396.14598866363372 -214.31239969815286 0 -214.31239969815286 232.14205123874939 0 0 0 0 952.79068617726443 -414.23683925243512 0 -414.23683925243512 240.30354939275725 0 0 0 0 1266.4807996940872 97.777187428232423 0 97.777187428232423 -32.43613831593855 0 0 0 0 855.74229496492262 -337.53660007665854 0 -337.53660007665854 304.95244414966254 0 0 0 0 968.11874924234871 -338.48602626062211 0 -338.48602626062211 289.36795415140404 0 0 0 0 1030.8852547731294 -519.73194481540463 0 -519.73194481540463 431.96138319713407 0 0 0 0 1036.5919153538744 -560.60402256575787 0 -560.60402256575787 353.71638622663414 0 0 0 0 1326.7685039063244 -457.08123813570177 0 -457.08123813570177 156.47897537533203 0 0 0 0 1326.516316551948 -469.3372957585438 0 -469.3372957585438 321.33726794430498 0 0 0 0 1892.642680309109 -344.32371854417772 0 -344.32371854417772 -203.56883611525717 0 0 0 0 2499.5697023963185 -127.23386648528535 0 -127.23386648528535 -315.12626339602878 0 0 0 0 1821.3880188822877 -214.65345931702177 0 -214.65345931702177 -42.41352423165003 0 0 0 0 10.961438503387512 -3.4714733917842153 0 -3.4714733917842153 -0.56160774019251303 0 0 0 0 67.533281342744885 -57.387364326508077 0 -57.387364326508077 -234.63475170323431 0 0 0 0 192.2983482044292 143.74607176287986 0 143.74607176287986 92.51846982986774 0 0 0 0 113.36154313412408 76.413511472811251 0 76.413511472811251 44.494778789462856 0 0 0 0 244.86325152828067 96.438336249773783 0 96.438336249773783 -16.365424830147219 0 0 0 0 154.08353517856449 45.854808939383986 0 45.854808939383986 6.18070304031761 0 0 0 0 23.889937810366973 -4.4410250712403467 0 -4.4410250712403467 -14.901448781196905 0 0 0 0 128.53120632145146 11.509406022723851 0 11.509406022723851 -12.613046356705581 0 0 0 0 4.4636831775351311 -26.393728397546511 0 -26.393728397546511 -15.562594447984338 0 0 0 0 173.37369893037976 51.543516583790392 0 51.543516583790392 138.1175309525097 0 0 0 0 2.0492096259959069 -3.3613867112580351 0 -3.3613867112580351 -4.7929417865515624 0 0 0 0 34.758346770933713 2.4867529701989497 0 2.4867529701989497 -23.97845603316955 0 0 0 0 196.73873166689737 94.58830612504903 0 94.58830612504903 68.57031293533646 0 0 0 0 88.397101553942775 -317.08843365637904 0 -317.08843365637904 -259.31128187881626 0 0 0 0 346.50127011999939 396.38577820547135 0 396.38577820547135 318.95516060470254 0 0 0 0 4.2783474567480653 -1.0996864067419807 0 -1.0996864067419807 -0.37291889332193673 0 0 0 0 139.90404326477801 -127.75115561726739 0 -127.75115561726739 385.53838343259122 0 0 0 0 2.5055722717442137 -2.8156273574464024 0 -2.8156273574464024 -3.4097539998025299 0 0 0 0 538.138573310629 225.99159412058248 0 225.99159412058248 -307.90373104002038 0 0 0 0 15.255637249505526 23.222596278227059 0 23.222596278227059 0.10561413201321557 0 0 0 0 346.28531771727648 21.498143650880053 0 21.498143650880053 -157.79747462341993 0 0 0 0 232.29908712211181 43.724127643152315 0 43.724127643152315 -161.3541357377764 0 0 0 0 0.68234751830230778 1.5022428167331014 0 1.5022428167331014 0.44382660981561983 0 0 0 0 350.9565669662552 43.014687252319618 0 43.014687252319618 19.958637525812719 0 0 0 0 82.968766535035684 -67.697908365779313 0 -67.697908365779313 70.346570037142101 0 0 0 0 318.33094245468419 -109.307195478615 0 -109.307195478615 -165.92182904785705 0 0 0 0 184.85110177224851 -123.71696419652517 0 -123.71696419652517 -126.52822076356415 0 0 0 0 249.73593800482922 -46.728247584104565 0 -46.728247584104565 -51.52796147918616 0 0 0 0 272.36041244066291 -64.708227417768171 0 -64.708227417768171 -72.476844821444274 0 0 0 0 -104.39000522115384 -46.282308363562834 0 -46.282308363562834 -50.054191963931316 0 0 0 0 10.196246456351219 24.938656202245767 0 24.938656202245767 -9.3451183900483556 0 0 0 0 54.941836723206507 140.63832330822748 0 140.63832330822748 197.16186560638357 0 0 0 0 38.894540731707821 58.49993794980935 0 58.49993794980935 -20.553112665761688 0 0 0 0 45.310963530340814 39.784914975619927 0 39.784914975619927 10.144210860637259 0 0 0 0 34.823387693337281 27.521033544772422 0 27.521033544772422 -1.4701642750092105 0 0 0 0 9.545276262841071 16.169782501687223 0 16.169782501687223 15.629551522761176 0 0 0 0 120.73384361359058 2.8565360412300151 0 2.8565360412300151 -21.776468137796655 0 0 0 0 -49.16019126212268 47.928918112628452 0 47.928918112628452 -0.4616068731024825 0 0 0 0 -0.29676129476881385 0.12397463637309158 0 0.12397463637309158 0.92369107543445317 0 0 0 0 7.9689474247679755 16.065587988671268 0 16.065587988671268 -5.5479714830903504 0 0 0 0 17.777899434785922 1.0589245238535341 0 1.0589245238535341 -4.2312143603394361 0 0 0 0 2.2337730789721775 1.1319129488884982 0 1.1319129488884982 1.2069751621579492 0 0 0 0 15.82337638559693 15.949997735023771 0 15.949997735023771 -24.195326956259578 0 0 0 0 -6.620845106386696 25.376375904737188 0 25.376375904737188 -10.908876759332315 0 0 0 0 -16.19397198833758 4.3024318885796902 0 4.3024318885796902 -6.5147784861936771 0 0 0 0 50.214686617320694 6.4317743253537856 0 6.4317743253537856 -19.568584099759164 0 0 0 0 64.742156739990605 -2.3299870124596396 0 -2.3299870124596396 -16.85512268796424 0 0 0 0 29.263367461859389 -2.5533542600400576 0 -2.5533542600400576 6.812092458902498 0 0 0 0 9.081180909925024 14.511496598372446 0 14.511496598372446 0.037522965700304667 0 0 0 0 28.78616912907728 15.813910197224743 0 15.813910197224743 -18.753894617334481 0 0 0 0 45.519385041610803 15.124948365596993 0 15.124948365596993 -10.29022214883878 0 0 0 0 44.29409637374556 12.58081079993363 0 12.58081079993363 -0.74901783296468238 0 0 0 0 3.9044089157082595 8.1170991678017828 0 8.1170991678017828 -8.346823098326297 0 0 0 0 7.807918911923835 4.6628199487075932 0 4.6628199487075932 -5.3793290679687207 0 0 0 0 12.115696378761641 17.041305103676677 0 17.041305103676677 4.1074310779176813 0 0 0 0 48.906809881551453 62.110564439175391 0 62.110564439175391 -30.056625536222782 0 0 0 0 21.205598070337146 44.81213239485308 0 44.81213239485308 -15.668984018402853 0 0 0 0 61.385022977359768 30.654166888486259 0 30.654166888486259 -20.067781464997211 0 0 0 0 14.82256784529477 -5.7843394729956259 0 -5.7843394729956259 0.3586687130374635 0 0 0 0 29.219493916461943 -58.095656785079143 0 -58.095656785079143 -76.454942537550551 0 0 0 0 131.66384341295634 38.451996134273031 0 38.451996134273031 14.754382990636714 0 0 0 0 30.324697354113596 12.64223122928253 0 12.64223122928253 29.067993674747527 0 0 0 0 19.145139964642226 -6.4645016536572228 0 -6.4645016536572228 1.3586279106261951 0 0 0 0 45.047554939745169 -7.9259626613392413 0 -7.9259626613392413 4.0794436692145837 0 0 0 0 36.032190980178711 5.7853849007432814 0 5.7853849007432814 -35.584193297383464 0 0 0 0 14.257416833010211 21.294144411068146 0 21.294144411068146 35.367361103265353 0 0 0 0 22.218984660728893 85.25795597531669 0 85.25795597531669 146.24932171308092 0 0 0 0 4.6732503384362474 -0.28906771464024672 0 -0.28906771464024672 2.4070536286914068 0 0 0 0 -0.036875241746685106 1.7203729015220262 0 1.7203729015220262 1.6694817144297935 0 0 0 0 232.03289907289582 3.4417145900113155 0 3.4417145900113155 -11.164799490841432 0 0 0 0 16.780988594034984 8.3027842222724217 0 8.3027842222724217 1.6021153719296737 0 0 0 0 -212.86797078438394 393.75245671468531 0 393.75245671468531 -182.94434471738123 0 0 0 0 36.074302030085335 11.598259322240253 0 11.598259322240253 -14.232372601729185 0 0 0 0 42.064396318601212 9.3631663612405873 0 9.3631663612405873 5.7320390662134741 0 0 0 0 30.385487073807838 14.149749073672105 0 14.149749073672105 -2.0202956764671853 0 0 0 0 65.482062398426933 6.4386917714842866 0 6.4386917714842866 -0.66157928396868115 0 0 0 0 18.751494055495641 11.226622901485918 0 11.226622901485918 -4.1255612676342253 0 0 0 0 20.046055027920175 11.600469733185236 0 11.600469733185236 -4.975429109513744 0 0 0 0 41.441949282634596 11.590861179410012 0 11.590861179410012 3.4770807319015375 0 0 0 0 35.624416143611597 6.6549797975247031 0 6.6549797975247031 0.62522125523355498 0 0 0 0 25.462290667504391 9.3542036324514086 0 9.3542036324514086 -0.1857574378941198 0 0 0 0 21.970355799210665 13.891005240490131 0 13.891005240490131 -3.5470190251269287 0 0 0 0 14.200580003694085 19.513238248660372 0 19.513238248660372 -6.5106781671686349 0 0 0 0 9.7110381267510206 9.4408910259616974 0 9.4408910259616974 -6.1031598219660976 0 0 0 0 31.486523405023036 32.338304298077674 0 32.338304298077674 14.34766114558964 0 0 0 0 23.060353830587701 9.6422253944524527 0 9.6422253944524527 -3.3165354178354391 0 0 0 0 27.037447053415235 7.4790645492075782 0 7.4790645492075782 11.485365111315332 0 0 0 0 9.0542560130876382 8.1767627309686475 0 8.1767627309686475 4.072828229276503 0 0 0 0 20.677414171543205 11.941812420490578 0 11.941812420490578 14.071523395670738 0 0 0 0 26.891586299258051 8.2319055899356499 0 8.2319055899356499 14.466880597171073 0 0 0 0 4.2267332709945293 0.55509552133280238 0 0.55509552133280238 -0.35058430345658298 0 0 0 0 46.083762427413603 -4.2396581777964002 0 -4.2396581777964002 -12.909737846809549 0 0 0 0 11.623074362126147 18.413855788602007 0 18.413855788602007 -9.5941496746303443 0 0 0 0 56.170443957129464 -16.705466310610291 0 -16.705466310610291 -8.1228442331994302 0 0 0 0 16.448078456050354 -2.9152229987093463 0 -2.9152229987093463 0.12685319253862204 0 0 0 0 21.184249322694086 27.686399925801084 0 27.686399925801084 -9.0443383806286874 0 0 0 0 11.61664428091899 32.425311602344891 0 32.425311602344891 2.1729905402660279 0 0 0 0 11.332420937506114 18.676410067828428 0 18.676410067828428 -9.1067586991819702 0 0 0 0 84.317233789413876 -5.6457240038098462 0 -5.6457240038098462 -19.016058133730439 0 0 0 0 53.27423445862587 23.97516739037178 0 23.97516739037178 -28.882326018963795 0 0 0 0 61.849942937282322 14.403849578396603 0 14.403849578396603 -10.351615074587244 0 0 0 0 39.941654495632974 -1.6431633288793819 0 -1.6431633288793819 4.4408500807021483 0 0 0 0 40.972988101028022 -2.6761149212834425 0 -2.6761149212834425 -13.984290957216217 0 0 0 0 40.145551715196234 -2.770901268050693 0 -2.770901268050693 -16.093396320808097 0 0 0 0 190.47918311694139 98.875392205641901 0 98.875392205641901 -65.429006808095892 0 0 0 0 193.20988692285255 -72.335618250745583 0 -72.335618250745583 -140.6239970253373 0 0 0 0 28.137893309358333 36.945736102254386 0 36.945736102254386 2.5887808707011573 0 0 0 0 53.185107507411885 29.890512320396226 0 29.890512320396226 -55.508176640490092 0 0 0 0 49.73159852232493 35.560519089689478 0 35.560519089689478 -13.789371535789996 0 0 0 0 21.900076540609007 17.234437136621182 0 17.234437136621182 -53.714576852214179 0 0 0 0 -9.5837531866191057 -153.44252897120498 0 -153.44252897120498 -123.14481565438746 0 0 0 0 2.0395642880731089 -0.19399130094728889 0 -0.19399130094728889 -2.5657911076107212 0 0 0 0 271.1698099033747 62.444601960878799 0 62.444601960878799 -46.526012787608579 0 0 0 0 287.09308962905925 130.41658544858774 0 130.41658544858774 59.463093768491461 0 0 0 0 79.494892276539758 36.141547764535517 0 36.141547764535517 11.610937852971347 0 0 0 0 147.1154654873244 103.16365102967029 0 103.16365102967029 42.625918146188837 0 0 0 0 159.47278024994012 37.837924814502898 0 37.837924814502898 -17.765075289215474 0 0 0 0 161.38177409699711 20.88013088372827 0 20.88013088372827 -62.119218828447288 0 0 0 0 106.72232294363698 -4.4201191743342108 0 -4.4201191743342108 2.6674176074075149 0 0 0 0 125.22119492528145 76.672527382457929 0 76.672527382457929 23.380813661293359 0 0 0 0 131.9312631169887 99.688590302945954 0 99.688590302945954 89.535997311827231 0 0 0 0 106.0478385660972 14.813515998377284 0 14.813515998377284 106.04073988477967 0 0 0 0 138.68458697588358 58.189945074978141 0 58.189945074978141 45.502373899857446 0 0 0 0 132.0600650974975 36.942714190413795 0 36.942714190413795 6.1547032018224854 0 0 0 0 152.01732640853879 81.217381133463846 0 81.217381133463846 23.57473931811171 0 0 0 0 170.79842410964557 55.178381400930334 0 55.178381400930334 2.7190010232359327 0 0 0 0 130.21833990688901 -18.091850831343663 0 -18.091850831343663 -3.7533085390707868 0 0 0 0 19.645313661218097 -4.6903681324566264 0 -4.6903681324566264 22.045866043224123 0 0 0 0 1.7486241677032126 -2.1323381522300764 0 -2.1323381522300764 -8.3037969459112109 0 0 0 0 1.0293986597207194 -0.60400177944987377 0 -0.60400177944987377 -12.790985821922199 0 0 0 0 17.624761168051919 34.578230286826908 0 34.578230286826908 -23.920269289699263 0 0 0 0 127.68550926017633 44.236628055454275 0 44.236628055454275 -3.1382885510661254 0 0 0 0 67.970958600606536 26.764084753771613 0 26.764084753771613 -5.9459875706525054 0 0 0 0 2.474179240380181 22.424880218446333 0 22.424880218446333 21.238842280288054 0 0 0 0 94.660907104851503 -63.531376650658217 0 -63.531376650658217 27.676319290794709 0 0 0 0 7.975354048159204 -2.6787113282992578 0 -2.6787113282992578 0.59368459157571341 0 0 0 0 52.323738430524827 54.109349069852897 0 54.109349069852897 -105.64079949487905 0 0 0 0 5.7573307884103997 -53.066702206795938 0 -53.066702206795938 -137.96513575140739 0 0 0 0 124.25358251442958 73.393027590714723 0 73.393027590714723 57.957580548601584 0 0 0 0 -1.9026506090158364 -4.5369775877653638 0 -4.5369775877653638 -5.2738309761317055 0 0 0 0 9.5935470312234372 -5.554849160759403 0 -5.554849160759403 -3.8600643766381699 0 0 0 0 46.384121219613007 18.230607708610364 0 18.230607708610364 2.6409316169519315 0 0 0 0 36.677282299380749 -10.513202631269564 0 -10.513202631269564 -51.147166412210481 0 0 0 0 2.7958929178689544 0.50032172065451164 0 0.50032172065451164 -17.86757350192196 0 0 0 0 149.88678518559027 66.90801307648303 0 66.90801307648303 7.47475156385849 0 0 0 0 83.140920080382784 79.732814960848486 0 79.732814960848486 62.406047742101919 0 0 0 0 254.47833337333213 50.322115515661949 0 50.322115515661949 -21.188665528295928 0 0 0 0 198.18929149751784 119.71691624357811 0 119.71691624357811 53.330233167493589 0 0 0 0 3.4770020530303896 -1.0463199419735503 0 -1.0463199419735503 0.053890640399510747 0 0 0 0 481.03858096410113 292.3564173610232 0 292.3564173610232 173.80573309755025 0 0 0 0 122.88068007142283 74.39870134576779 0 74.39870134576779 69.06102905454361 0 0 0 0 250.12626727720635 197.15901675668624 0 197.15901675668624 161.3929819009229 0 0 0 0 633.4140030919516 5.4560250569841173 0 5.4560250569841173 44.251608352223911 0 0 0 0 419.91728258381772 58.404393356642004 0 58.404393356642004 -3.4156811011912396 0 0 0 0 323.78996106183331 -6.8913412963923406 0 -6.8913412963923406 63.187445430266735 0 0 0 0 295.99823494548309 -18.673618715560544 0 -18.673618715560544 -13.251416136242824 0 0 0 0 290.428206659446 76.28315913372046 0 76.28315913372046 -4.0389479390617566 0 0 0 0 234.36294473048474 7.8586997326630126 0 7.8586997326630126 -24.602354138724422 0 0 0 0 210.06856449617771 -50.679610678123197 0 -50.679610678123197 -12.540489710819656 0 0 0 0 217.46058082525269 -18.267861510810235 0 -18.267861510810235 3.6679573579882003 0 0 0 0 125.30976791340072 -31.229583929140347 0 -31.229583929140347 2.5091497152046713 0 0 0 0 172.5850184625815 -72.170457793891273 0 -72.170457793891273 27.350417026949344 0 0 0 0 182.73290758616349 -17.984699925432892 0 -17.984699925432892 35.389370591933812 0 0 0 0 129.56274944449251 -37.039758005808153 0 -37.039758005808153 60.863032943551843 0 0 0 0 287.86381730192807 -71.259036530334356 0 -71.259036530334356 32.442535953354991 0 0 0 0 308.8297715173976 17.231230957470643 0 17.231230957470643 25.698418799143724 0 0 0 0 197.46830321033849 -54.020812623524819 0 -54.020812623524819 122.68737331924785 0 0 0 0 294.6044877388631 19.722497511885081 0 19.722497511885081 47.976643120566223 0 0 0 0 234.79572372179246 37.540681130114308 0 37.540681130114308 100.00023237842402 0 0 0 0 235.79695838601037 10.851840626209651 0 10.851840626209651 79.090777827766487 0 0 0 0 117.46489463423495 -16.34164777131673 0 -16.34164777131673 36.438812624017601 0 0 0 0 170.04064005766122 15.656985602996201 0 15.656985602996201 34.22577637168331 0 0 0 0 186.67037391179474 -11.417431066123072 0 -11.417431066123072 59.802178395436385 0 0 0 0 226.18464915253571 40.054330666357373 0 40.054330666357373 37.142461531166873 0 0 0 0 176.52584874958484 13.36434208507103 0 13.36434208507103 32.495990594312389 0 0 0 0 173.55745413935801 24.447954801199955 0 24.447954801199955 3.7803477715688132 0 0 0 0 129.10033044219017 23.916779834798945 0 23.916779834798945 21.480910638298155 0 0 0 0 216.74691732774227 56.333763110994823 0 56.333763110994823 16.806275968497175 0 0 0 0 185.77479700059484 21.048354510078639 0 21.048354510078639 -13.981410459145536 0 0 0 0 328.84947793988977 32.071245089754825 0 32.071245089754825 -53.973471288403289 0 0 0 0 285.28743609061348 82.838035633338905 0 82.838035633338905 41.658925387190834 0 0 0 0 240.3908685202332 33.518331587718535 0 33.518331587718535 -12.471571984148795 0 0 0 0 294.33042799129908 27.78335813142462 0 27.78335813142462 -42.21269003561315 0 0 0 0 166.78671097729239 -45.678575292134838 0 -45.678575292134838 -31.551750412318142 0 0 0 0 293.22041627974249 0.17809381460097029 0 0.17809381460097029 -79.304736677775509 0 0 0 0 129.59106534950115 40.15197768744855 0 40.15197768744855 -23.542379487653307 0 0 0 0 208.13635158451507 43.185891484378999 0 43.185891484378999 -65.62443280852176 0 0 0 0 0.48977507803265752 -0.7706274021172419 0 -0.7706274021172419 0.99461079855177381 0 0 0 0 376.50926131432789 -30.367809661537308 0 -30.367809661537308 -79.886644315191006 0 0 0 0 -11.889626898475399 -139.08886124255946 0 -139.08886124255946 76.999533136861828 0 0 0 0 128.59981039383274 -14.288204324783123 0 -14.288204324783123 -4.8081568552497629 0 0 0 0 230.53237916191574 67.406814642798508 0 67.406814642798508 -48.665358745088724 0 0 0 0 288.38290456592222 49.492913422711808 0 49.492913422711808 -65.216601954076395 0 0 0 0 277.59214957733639 -74.909185195549981 0 -74.909185195549981 -2.1750332975202582 0 0 0 0 96.929569221443671 -264.53829709560364 0 -264.53829709560364 -69.703117520802607 0 0 0 0 252.62228936814063 -163.89403912708519 0 -163.89403912708519 58.090514181253639 0 0 0 0 -173.74192655802472 -24.343658692255644 0 -24.343658692255644 111.07154226984085 0 0 0 0 293.98651973661686 -7.0223321610416605 0 -7.0223321610416605 295.62024805657074 0 0 0 0 409.40520098278648 115.23382867742657 0 115.23382867742657 14.408205621553861 0 0 0 0 457.6451359478815 -43.639559966647994 0 -43.639559966647994 -75.452991981833065 0 0 0 0 236.40053934883326 -297.12739864202047 0 -297.12739864202047 -62.707736474380454 0 0 0 0 6.7312902161586692 -7.2183458086412884 0 -7.2183458086412884 -5.5479866040291341 0 0 0 0 -5.3490551539362059 -15.37823835208178 0 -15.37823835208178 -9.0407264766818116 0 0 0 0 0.9140754356496501 -1.9229522918180777 0 -1.9229522918180777 -0.023861254017219835 0 0 0 0 157.10428989038337 46.701905588850423 0 46.701905588850423 -13.997641622379433 0 0 0 0 124.36031927673321 50.871552495369542 0 50.871552495369542 0.34897196387788654 0 0 0 0 212.92295069625834 39.743029651752522 0 39.743029651752522 -13.682297265701635 0 0 0 0 137.878932701542 -10.559939372597512 0 -10.559939372597512 10.279498565249241 0 0 0 0 -1.6432967436734884 -3.2957533237652967 0 -3.2957533237652967 -3.040449240154548 0 0 0 0 239.54107849678257 50.225364715981982 0 50.225364715981982 -20.412874432422598 0 0 0 0 27.974571304097481 -16.630005575078712 0 -16.630005575078712 -26.388434361181226 0 0 0 0 31.95759577685385 -13.73844668297329 0 -13.73844668297329 -8.5209376093696392 0 0 0 0 -27.323791775139398 -57.234846706979766 0 -57.234846706979766 6.6176665068107923 0 0 0 0 98.441447468692786 -65.769004739111722 0 -65.769004739111722 0.37296674020922183 0 0 0 0 38.435900623973794 -40.743607369769606 0 -40.743607369769606 4.5963009007982691 0 0 0 0 66.082460990815889 -21.741382761353179 0 -21.741382761353179 14.446719516341545 0 0 0 0 27.142498672961665 -35.587727739442926 0 -35.587727739442926 29.560765613763579 0 0 0 0 70.299801813613158 -47.219445422006402 0 -47.219445422006402 9.4080106258757041 0 0 0 0 128.97550774562205 -29.986453071080902 0 -29.986453071080902 0.3713996878746002 0 0 0 0 103.49013590387767 8.7496512635533463 0 8.7496512635533463 4.1788155638009812 0 0 0 0 29.530960792602855 -11.016215621383594 0 -11.016215621383594 22.444488782295934 0 0 0 0 125.79910081665912 5.7944142695266123 0 5.7944142695266123 -27.97648871409956 0 0 0 0 91.847349465824664 26.383502082172299 0 26.383502082172299 -2.6298695883779146 0 0 0 0 -37.212340939207934 11.473006558098405 0 11.473006558098405 -13.977517318644686 0 0 0 0 69.775926041344064 -23.338631683945096 0 -23.338631683945096 -56.889718580297767 0 0 0 0 27.256397937945621 -27.425229673531703 0 -27.425229673531703 -38.461768850465205 0 0 0 0 -100.56661255620565 -35.52483063185349 0 -35.52483063185349 17.564206007804728 0 0 0 0 1.0528647670932969 -1.4965535091666453 0 -1.4965535091666453 -1.7047279026351143 0 0 0 0 -172.78812342301535 -89.718224984664829 0 -89.718224984664829 -1.2148524118711066 0 0 0 0 0.23174357273599355 -0.5695686113386671 0 -0.5695686113386671 -0.59419219613156216 0 0 0 0 267.51100869469519 58.70995225842421 0 58.70995225842421 -31.570835113805572 0 0 0 0 121.9149225176152 -14.978470191287443 0 -14.978470191287443 22.694980523640879 0 0 0 0 2.8815661486108297 -8.6181470503184698 0 -8.6181470503184698 -5.0203991695691474 0 0 0 0 -21.573062958239461 -3.0263278083411933 0 -3.0263278083411933 -3.9233791147834154 0 0 0 0 41.955749930646562 -24.657123827698229 0 -24.657123827698229 -13.305931954844596 0 0 0 0 102.49662665384494 -34.504273646837277 0 -34.504273646837277 -13.945604913917123 0 0 0 0 3.4868413378448224 -8.6308631016531052 0 -8.6308631016531052 -4.9317445588485018 0 0 0 0 65.220757016191783 -58.318687008091615 0 -58.318687008091615 -91.750421973682933 0 0 0 0 50.457778542375308 -35.900348120029435 0 -35.900348120029435 -16.349806978603056 0 0 0 0 118.30425820230448 -7.7930197545787223 0 -7.7930197545787223 -34.836930004668943 0 0 0 0 33.15250524178191 -7.2794435718047907 0 -7.2794435718047907 -10.266877028464933 0 0 0 0 81.153945246078365 35.237425045606642 0 35.237425045606642 -34.948873306588666 0 0 0 0 108.68261613204959 13.807287882847845 0 13.807287882847845 -25.62136811644632 0 0 0 0 152.35845817707013 15.616648252669961 0 15.616648252669961 -27.550192071388437 0 0 0 0 129.18877619920022 47.478599678474723 0 47.478599678474723 -7.0172362359949148 0 0 0 0 133.21192559257179 40.576362603384496 0 40.576362603384496 1.738840946551818 0 0 0 0 163.4844636763155 47.773840617390533 0 47.773840617390533 -23.459234176445307 0 0 0 0 133.12186824524542 48.130757509554769 0 48.130757509554769 -20.06713166407323 0 0 0 0 164.47860311554541 80.420303739366545 0 80.420303739366545 -18.33375751312542 0 0 0 0 245.68820766351564 118.38455484190899 0 118.38455484190899 -8.8180123227896274 0 0 0 0 53.855644453389687 122.83521678004058 0 122.83521678004058 31.526924064785646 0 0 0 0 153.20561740874837 166.18333837045839 0 166.18333837045839 29.640183806311597 0 0 0 0 181.11389355604479 -16.762376212479353 0 -16.762376212479353 -33.73132595479251 0 0 0 0 508.82793182026944 -104.92462788771491 0 -104.92462788771491 -11.054729577143121 0 0 0 0 224.80152383815039 -10.345955995333995 0 -10.345955995333995 -45.297947482220025 0 0 0 0 98.70954798215098 1.3354992153540479 0 1.3354992153540479 -14.334323990528787 0 0 0 0 -5.7143130164258764 -58.674385604999657 0 -58.674385604999657 20.590006560505799 0 0 0 0 113.72560981233983 -57.823538799704565 0 -57.823538799704565 -11.935454386630681 0 0 0 0 150.79862771947865 -137.0926217502699 0 -137.0926217502699 6.860413641626792 0 0 0 0 11.088274827654459 -32.554089130846307 0 -32.554089130846307 14.29583530377181 0 0 0 0 -7.1868538537455606 -10.175081158105399 0 -10.175081158105399 -7.0210408618105475 0 0 0 0 268.91946682684647 -9.591677024181763 0 -9.591677024181763 35.64525214146289 0 0 0 0 272.92037056916888 -5.7992028814963987 0 -5.7992028814963987 -15.323931902907589 0 0 0 0 280.36094547412358 25.485487256531314 0 25.485487256531314 43.930170714652888 0 0 0 0 0.75866439510408412 0.81305505182159266 0 0.81305505182159266 0.81973056590333293 0 0 0 0 -45.922870340087684 56.605055999315255 0 56.605055999315255 11.541559157385109 0 0 0 0 557.62125100323465 -190.07492265145106 0 -190.07492265145106 -143.94204339223234 0 0 0 0 1.0686558443298324 -1.6487234927625423 0 -1.6487234927625423 2.2847296492853566 0 0 0 0 376.53941369509994 108.06524389136337 0 108.06524389136337 162.23196186065798 0 0 0 0 71.543396577508247 106.79832836573308 0 106.79832836573308 -0.0085856663272352307 0 0 0 0 104.57785921459981 118.11095748811317 0 118.11095748811317 3.5003566100185708 0 0 0 0 373.5341357307625 69.869731909370785 0 69.869731909370785 -49.447949247343558 0 0 0 0 294.63097461339203 -8.8055390444257853 0 -8.8055390444257853 -28.826599974572218 0 0 0 0 278.72665674649761 16.287725998279029 0 16.287725998279029 -62.733046460659807 0 0 0 0 283.28317795325529 -8.3980618087661298 0 -8.3980618087661298 -39.52713135226486 0 0 0 0 280.09916817789781 8.2879264414011686 0 8.2879264414011686 -56.309213891482614 0 0 0 0 280.21204879115248 13.023306378393386 0 13.023306378393386 -32.09275094663144 0 0 0 0 246.86450334716938 44.780698568282105 0 44.780698568282105 -18.629553293294634 0 0 0 0 228.2494812272198 8.7918034426539862 0 8.7918034426539862 10.817823581992343 0 0 0 0 263.95467934888438 -4.0080867188448792 0 -4.0080867188448792 -15.423929491872286 0 0 0 0 254.10399375349516 12.211838614212184 0 12.211838614212184 -29.229223957210706 0 0 0 0 170.36708421410003 43.212996911576056 0 43.212996911576056 -5.7208573553696738 0 0 0 0 218.13108780772018 20.043843401659956 0 20.043843401659956 -15.963743073225942 0 0 0 0 204.81887602931238 39.314214931377137 0 39.314214931377137 -17.02381200514634 0 0 0 0 189.77527425864537 20.057771589482968 0 20.057771589482968 28.973241268206039 0 0 0 0 165.64260795238806 36.176844196292677 0 36.176844196292677 18.229393979911492 0 0 0 0 197.18607146042632 22.687224706386814 0 22.687224706386814 6.78417184575909 0 0 0 0 223.04762187849701 -14.05887692282613 0 -14.05887692282613 36.90365142566543 0 0 0 0 147.82157319643738 -17.604962287756734 0 -17.604962287756734 89.34655889309397 0 0 0 0 281.10412427823758 -21.891035889558452 0 -21.891035889558452 34.250598994526626 0 0 0 0 166.79695122842531 22.423474426883161 0 22.423474426883161 68.773140784444422 0 0 0 0 52.734037503047148 57.232974710279905 0 57.232974710279905 78.446426242349105 0 0 0 0 229.76831621739257 -3.2098828038276679 0 -3.2098828038276679 60.786298053032624 0 0 0 0 121.42437604242878 58.314285150271189 0 58.314285150271189 45.727798742603056 0 0 0 0 144.59758366239112 80.626047755051673 0 80.626047755051673 50.270344106867697 0 0 0 0 72.684867574615055 95.869134298598055 0 95.869134298598055 50.646338584169186 0 0 0 0 23.511126238299767 108.580440937086 0 108.580440937086 40.241661939423011 0 0 0 0 100.43054596597358 75.469447499089824 0 75.469447499089824 45.394991397135982 0 0 0 0 2.7647262704558671 109.32839171580019 0 109.32839171580019 24.092315602110119 0 0 0 0 87.293955773096968 87.460994208547589 0 87.460994208547589 -186.57021106877096 0 0 0 0 123.50767361372709 -46.682475323963672 0 -46.682475323963672 74.818109681411897 0 0 0 0 -23.172593600684195 -78.269179660653435 0 -78.269179660653435 176.71721566409656 0 0 0 0 280.31642880565778 -194.59967406167038 0 -194.59967406167038 85.660109016632418 0 0 0 0 0.56540479553062539 -0.56745049170079653 0 -0.56745049170079653 1.3743040565178495 0 0 0 0 531.05747266543767 -34.621799714747794 0 -34.621799714747794 -22.394016629564703 0 0 0 0 2.5263768406196121 3.5326285664496311 0 3.5326285664496311 3.5059364957003911 0 0 0 0 242.53011877810059 116.65999294070321 0 116.65999294070321 138.42772342184298 0 0 0 0 357.9221952266671 -101.47609873227896 0 -101.47609873227896 -66.15364587752174 0 0 0 0 27.135080159385325 -144.02838619114891 0 -144.02838619114891 65.09812652722394 0 0 0 0 429.3940607238037 -120.11417424314948 0 -120.11417424314948 -25.850965242396967 0 0 0 0 347.3123169462342 -144.15599313008283 0 -144.15599313008283 -32.890987225308663 0 0 0 0 336.9873549749027 -77.785499144922341 0 -77.785499144922341 -21.327224211305293 0 0 0 0 470.48494035648764 -44.810319909858663 0 -44.810319909858663 -13.310894619819862 0 0 0 0 352.96217974374304 -41.898270040633406 0 -41.898270040633406 56.252820971252731 0 0 0 0 458.65479198606045 0.10050180679024834 0 0.10050180679024834 -86.865451489428779 0 0 0 0 496.74658490260481 39.224909445426107 0 39.224909445426107 -33.606073940990655 0 0 0 0 193.99793076899368 39.253392809810521 0 39.253392809810521 -16.183471853714707 0 0 0 0 91.959448652320134 88.888172540207393 0 88.888172540207393 41.086279260860465 0 0 0 0 -58.738088057347341 42.337797515668854 0 42.337797515668854 72.966235561999724 0 0 0 0 -5.5308903953846311 76.678887209728032 0 76.678887209728032 55.354925169791954 0 0 0 0 185.93090199046128 29.241416632072799 0 29.241416632072799 0.43371880379481809 0 0 0 0 168.11838148465176 131.2604020058925 0 131.2604020058925 53.426238419207039 0 0 0 0 299.30453869525809 -232.3655344455085 0 -232.3655344455085 -118.34310996277213 0 0 0 0 3.9097658188641731 -0.1575911179115943 0 -0.1575911179115943 -0.096386543025764992 0 0 0 0 8.3198081993118649 0.33589450482253635 0 0.33589450482253635 -0.37492500228536868 0 0 0 0 111.22518823893915 30.379933963702229 0 30.379933963702229 -247.32021854650634 0 0 0 0 -43.090787092645769 124.81360908620286 0 124.81360908620286 -189.82341222267127 0 0 0 0 -1.7716709168453235 5.1466496128550716 0 5.1466496128550716 -75.386136060677018 0 0 0 0 -251.16239723781473 101.54761515871542 0 101.54761515871542 226.41631719235409 0 0 0 0 364.47492635524395 85.651178082872676 0 85.651178082872676 229.57478366385772 0 0 0 0 1.9653482094372805 1.1957809924018221 0 1.1957809924018221 0.84692158509751247 0 0 0 0 -77.646807311182783 -88.636976419125148 0 -88.636976419125148 168.81559878597625 0 0 0 0 -33.277158484852407 -10.58200303944659 0 -10.58200303944659 2.8303909762780677 0 0 0 0 -45.120963731198572 45.281999636254852 0 45.281999636254852 18.811945415543477 0 0 0 0 -21.701874050580955 40.026698210180712 0 40.026698210180712 3.1861248226538237 0 0 0 0 3.6631675423175807 3.0069181960756026 0 3.0069181960756026 2.3985424814364906 0 0 0 0 -25.161887862283038 99.329328100148757 0 99.329328100148757 11.063611467084684 0 0 0 0 207.68124868312589 -306.11079920764001 0 -306.11079920764001 124.08248496067209 0 0 0 0 59.439827381400391 -338.03518918326603 0 -338.03518918326603 -9.7908301891514355 0 0 0 0 88.744591740694887 -209.48489936351146 0 -209.48489936351146 49.563351543137344 0 0 0 0 1.7387961164878902 -0.97332121713260733 0 -0.97332121713260733 0.26349606378186641 0 0 0 0 189.76690750099442 42.168053844017926 0 42.168053844017926 91.148886940867726 0 0 0 0 194.56867347945808 -194.51955046200712 0 -194.51955046200712 52.890538246786242 0 0 0 0 130.87605542052188 35.453478535537158 0 35.453478535537158 -62.03103272105669 0 0 0 0 -33.628896348949638 -10.833453116807959 0 -10.833453116807959 11.806512982870686 0 0 0 0 284.13604727582424 -7.9863017983105351 0 -7.9863017983105351 -50.111893342828807 0 0 0 0 124.70565243726742 8.1768053913383483 0 8.1768053913383483 1.5242284122717251 0 0 0 0 316.00187377714246 -11.26860773680508 0 -11.26860773680508 -22.992117733243049 0 0 0 0 150.23545152896259 -7.1761365718047045 0 -7.1761365718047045 9.9291528377879104 0 0 0 0 80.945888398040552 19.324817409465936 0 19.324817409465936 12.521098348016153 0 0 0 0 147.5198279259198 35.924648864044762 0 35.924648864044762 -4.1397601021077435 0 0 0 0 -51.500027110007068 -15.296654849971986 0 -15.296654849971986 2.5375068956804796 0 0 0 0 -57.008398147049775 6.9617486022978383 0 6.9617486022978383 121.2554709504451 0 0 0 0 91.119997946385411 26.423906816881015 0 26.423906816881015 4.618674725154114 0 0 0 0 44.862288735093898 122.03779988473644 0 122.03779988473644 -3.7533864480429315 0 0 0 0 440.25531130480522 90.124285514840381 0 90.124285514840381 90.025635906157845 0 0 0 0 -24.288785364456999 -80.111728377265493 0 -80.111728377265493 44.873039949195373 0 0 0 0 119.43030702910801 -100.59336716475543 0 -100.59336716475543 314.07198318190831 0 0 0 0 325.26299851555086 246.09721995511416 0 246.09721995511416 63.598062705205734 0 0 0 0 4.3905968142527172 -0.15332138670283557 0 -0.15332138670283557 -0.11946252376487636 0 0 0 0 499.66269824453047 -277.87700450921545 0 -277.87700450921545 -163.66507636923083 0 0 0 0 382.78156976663195 -191.26961762766354 0 -191.26961762766354 -36.515970287715277 0 0 0 0 479.34164502285421 -127.25008011477999 0 -127.25008011477999 -89.91166023694295 0 0 0 0 537.96732575688293 -14.650078196417283 0 -14.650078196417283 -25.86154475300043 0 0 0 0 -27.418823637592141 32.268141917844133 0 32.268141917844133 9.6304235163389365 0 0 0 0 86.920682955329539 83.259996661504616 0 83.259996661504616 32.705784913651343 0 0 0 0 4.6845199946052674 -0.6682340990311566 0 -0.6682340990311566 0.18024635405841824 0 0 0 0 197.73187773045356 271.14538831439131 0 271.14538831439131 306.89468481106792 0 0 0 0 322.83034895960736 -220.63608068434556 0 -220.63608068434556 -143.77450851013583 0 0 0 0 12.327279519892301 -1.012503266184158 0 -1.012503266184158 -0.014081049813292668 0 0 0 0 86.081491530763742 83.32807463744652 0 83.32807463744652 43.981639780253502 0 0 0 0 65.520670806554335 58.538290794730102 0 58.538290794730102 16.068759560383114 0 0 0 0 49.501630736704101 -6.8171045051422681 0 -6.8171045051422681 -12.033496678558947 0 0 0 0 17.917492779328313 21.109984037096666 0 21.109984037096666 -125.35037109325035 0 0 0 0 207.09422230709606 -61.874872872099125 0 -61.874872872099125 -15.643080470571334 0 0 0 0 260.36519227079407 66.217159264406959 0 66.217159264406959 -4.7385013432011274 0 0 0 0 111.47922646142251 57.897791775599288 0 57.897791775599288 -4.9985313489080454 0 0 0 0 143.47777168874018 24.372402043124822 0 24.372402043124822 -6.1860172867962433 0 0 0 0 115.20919604477604 101.98803639255665 0 101.98803639255665 -6.4861594999528904 0 0 0 0 132.90724747139029 76.191667059107047 0 76.191667059107047 2.4453679785533282 0 0 0 0 137.603631312777 104.31721846031974 0 104.31721846031974 74.885962363762715 0 0 0 0 108.26334074720216 51.444289439020451 0 51.444289439020451 -13.140809748791417 0 0 0 0 3.3489787476501931 -1.266525012613485 0 -1.266525012613485 -0.077521153713422719 0 0 0 0 97.500273334357189 103.8336496020157 0 103.8336496020157 18.097948885644286 0 0 0 0 124.22536563582707 -32.745615406822111 0 -32.745615406822111 -183.9217443668677 0 0 0 0 3.8516935808267192 -1.7452635042785545 0 -1.7452635042785545 0.15253072597245398 0 0 0 0 74.97185433456616 -10.641596815581698 0 -10.641596815581698 -37.660138680208718 0 0 0 0 7.2709668355787471 -9.1918113642835682 0 -9.1918113642835682 1.5771169647782912 0 0 0 0 31.448306736407176 17.421822646745575 0 17.421822646745575 -13.118018413590239 0 0 0 0 22.807306848204462 -3.6199635719982215 0 -3.6199635719982215 -18.378477574255989 0 0 0 0 -7.4125720694137271 -0.28699549525230722 0 -0.28699549525230722 0.061043358755903401 0 0 0 0 3.8881621930322581 -37.686328525220574 0 -37.686328525220574 -53.434973029376359 0 0 0 0 24.053831548837479 5.4538569891613271 0 5.4538569891613271 -30.509168340670779 0 0 0 0 -38.44674357227268 -61.087237023231758 0 -61.087237023231758 -35.899452945368871 0 0 0 0 1.4725813579693465 -0.39283186140298199 0 -0.39283186140298199 -0.078202508906267801 0 0 0 0 92.220406558735704 -41.817574564433897 0 -41.817574564433897 -37.429594557087725 0 0 0 0 252.08065717843419 41.728519686069163 0 41.728519686069163 -0.11030549973257607 0 0 0 0 307.14658112738107 6.8924666174980018 0 6.8924666174980018 5.801559903443561 0 0 0 0 337.93183583719656 144.71668442206641 0 144.71668442206641 78.952913378081476 0 0 0 0 126.24081709574239 -59.346588531259279 0 -59.346588531259279 -10.955984834724056 0 0 0 0 49.172810567422857 50.225177217951199 0 50.225177217951199 62.44375040845717 0 0 0 0 1.9137632229270309 1.0770080881765267 0 1.0770080881765267 0.69732412893918871 0 0 0 0 240.14125460531068 -79.580303477625407 0 -79.580303477625407 -17.306051046591278 0 0 0 0 18.229296652410994 -41.524789382006816 0 -41.524789382006816 18.713588819246297 0 0 0 0 3.8388649539796802 2.8800733689750899 0 2.8800733689750899 2.0496519622614371 0 0 0 0 175.89143312827218 -76.544959567358489 0 -76.544959567358489 -5.800100239013517 0 0 0 0 166.94186943858222 7.8062789980871088 0 7.8062789980871088 -28.753844533575723 0 0 0 0 423.8283903311094 20.597242200755602 0 20.597242200755602 -31.63964975688728 0 0 0 0 75.279298874549568 -7.5525669758233054 0 -7.5525669758233054 -7.4468264152149679 0 0 0 0 139.88294317857287 -30.238356643978985 0 -30.238356643978985 24.043965886811208 0 0 0 0 139.55834200373124 -15.471386017843374 0 -15.471386017843374 -25.583206889675559 0 0 0 0 69.496479849858588 -17.262276180588991 0 -17.262276180588991 -0.045356210935453486 0 0 0 0 100.58840513473115 15.011804819931939 0 15.011804819931939 -1.7431751561354885 0 0 0 0 133.64528085822894 -18.14741945307571 0 -18.14741945307571 0.055016343686389343 0 0 0 0 169.38552257385891 -3.5799716585510382 0 -3.5799716585510382 -6.3926815663405065 0 0 0 0 299.43898094986071 74.706136876506065 0 74.706136876506065 27.679678303781717 0 0 0 0 302.28217566022067 -1.4389773330047015 0 -1.4389773330047015 -0.041060550237695934 0 0 0 0 170.22125897057742 43.79185200977814 0 43.79185200977814 38.738404717612703 0 0 0 0 297.0345532278734 -6.8952512789625287 0 -6.8952512789625287 -4.782738362374217 0 0 0 0 290.70103818517964 -5.204204843894459 0 -5.204204843894459 -0.01979775742086325 0 0 0 0 415.82059676792414 -36.967192066661717 0 -36.967192066661717 1.7637506732928863 0 0 0 0 159.70062905077793 3.9689753720939067 0 3.9689753720939067 0.031763134233066155 0 0 0 0 247.99137452353898 -47.041298344275909 0 -47.041298344275909 12.606447027511823 0 0 0 0 146.9149545664186 -19.39800172543908 0 -19.39800172543908 36.683017542535346 0 0 0 0 137.214600021347 9.4745352036275658 0 9.4745352036275658 8.5061077559554619 0 0 0 0 256.5192516776151 -20.206627566064853 0 -20.206627566064853 12.501103437144501 0 0 0 0 105.42463409303127 -21.476027861820143 0 -21.476027861820143 33.464243382602305 0 0 0 0 287.9499923416879 -9.5208582415289129 0 -9.5208582415289129 -28.673953050541627 0 0 0 0 404.85797720718256 71.78423207638609 0 71.78423207638609 19.897304127690603 0 0 0 0 251.72670483311231 -7.3371110907929165 0 -7.3371110907929165 109.59012005274695 0 0 0 0 286.60681828799716 13.489119894507752 0 13.489119894507752 -4.185904468169042 0 0 0 0 496.1392147887891 -105.37532666047119 0 -105.37532666047119 -15.491569882008349 0 0 0 0 374.69143108757271 -13.281992747427125 0 -13.281992747427125 -60.248243491019707 0 0 0 0 285.46240227143426 -39.761599189605818 0 -39.761599189605818 -28.634162004658492 0 0 0 0 371.57520282072073 -4.0440112768422978 0 -4.0440112768422978 -20.017210376204957 0 0 0 0 296.97933784684574 -68.244204252649595 0 -68.244204252649595 63.882923818947802 0 0 0 0 249.74263890439761 11.375432965857271 0 11.375432965857271 51.116183952981942 0 0 0 0 363.66133103264201 -39.706914241039101 0 -39.706914241039101 -14.732583671927841 0 0 0 0 355.03247906191973 -20.388523716144903 0 -20.388523716144903 -32.847789983113103 0 0 0 0 368.30636067279193 -0.50014484620523092 0 -0.50014484620523092 -9.7593674836168702 0 0 0 0 334.36443865787442 71.496582005356174 0 71.496582005356174 13.55599382511798 0 0 0 0 0.7257865803027812 -0.26407236002273748 0 -0.26407236002273748 0.10457290487860482 0 0 0 0 29.104508639233245 -75.777450838330765 0 -75.777450838330765 -45.069717409197835 0 0 0 0 58.835714359841404 40.841856948702535 0 40.841856948702535 -29.439886765548408 0 0 0 0 55.334080159839687 -32.689842589330638 0 -32.689842589330638 -22.767060280485339 0 0 0 0 1.1013335763483951 -0.33669178115913212 0 -0.33669178115913212 -0.081608529436688837 0 0 0 0 40.172959575204004 59.311514477411549 0 59.311514477411549 22.114704820642231 0 0 0 0 249.51083270334175 17.512944213276043 0 17.512944213276043 -46.935556950466776 0 0 0 0 2.0840070651556175 0.54154628277992956 0 0.54154628277992956 0.18089850617026215 0 0 0 0 17.874679607630242 45.137127973742452 0 45.137127973742452 -47.481697592665569 0 0 0 0 114.04014408398507 -48.928983652130171 0 -48.928983652130171 -67.897376512290521 0 0 0 0 246.33118157023273 68.178740267638489 0 68.178740267638489 13.343307902332299 0 0 0 0 240.6313068171512 85.877067027896857 0 85.877067027896857 -38.86594090881988 0 0 0 0 180.97713160737476 55.001125679261349 0 55.001125679261349 62.989320765646816 0 0 0 0 201.90171975803605 -5.6458322772310225 0 -5.6458322772310225 -76.714263626633965 0 0 0 0 1.9912343255066247 1.0547557835194823 0 1.0547557835194823 1.6437101372724641 0 0 0 0 156.51377787474121 -64.856358986504205 0 -64.856358986504205 35.885772517031 0 0 0 0 109.40857585398771 66.293961416113575 0 66.293961416113575 -67.132013156097173 0 0 0 0 187.63872925731266 14.992045734602186 0 14.992045734602186 237.37322529219682 0 0 0 0 432.37715065736484 -178.10630655725387 0 -178.10630655725387 10.24694988445026 0 0 0 0 170.45250143689918 -3.9505659061602501 0 -3.9505659061602501 -9.1253401477993066 0 0 0 0 0.45290452280211468 0.27225886025242119 0 0.27225886025242119 0.85376634591580736 0 0 0 0 288.07341879894375 -115.44745240800944 0 -115.44745240800944 12.324436007822669 0 0 0 0 315.54467829232453 -15.411401237661266 0 -15.411401237661266 -8.3247474025047268 0 0 0 0 250.95983725889528 59.523196712643767 0 59.523196712643767 -2.8414688767272764 0 0 0 0 -64.408348734163155 47.296118695559329 0 47.296118695559329 -3.0205966678472578 0 0 0 0 36.415275489038322 4.4661795093568344 0 4.4661795093568344 -101.36633020584986 0 0 0 0 16.581940432351985 8.3024164154870164 0 8.3024164154870164 -11.208159914878706 0 0 0 0 3.3330208531159542 1.588960285578068 0 1.588960285578068 -1.0561144209666709 0 0 0 0 22.668739394670411 -2.9030777660786384 0 -2.9030777660786384 -10.334584820421711 0 0 0 0 16.324914278025972 15.790112058016632 0 15.790112058016632 -10.052555485594894 0 0 0 0 3.8960849960312771 9.0863141677230033 0 9.0863141677230033 -6.9703071488447677 0 0 0 0 10.114557564331335 9.6818946989582173 0 9.6818946989582173 -11.13252170579517 0 0 0 0 10.198479430229497 4.9234738383809784 0 4.9234738383809784 1.7070784580452805 0 0 0 0 41.947365188505501 72.674542959352038 0 72.674542959352038 -85.834526396367664 0 0 0 0 8.3823434252165612 3.0526013072830835 0 3.0526013072830835 0.85833885001780441 0 0 0 0 25.408470165493782 0.57294945173873657 0 0.57294945173873657 -5.4102758875892505 0 0 0 0 14.042280179113732 23.82957408076345 0 23.82957408076345 -120.52485980308956 0 0 0 0 5.6789337365474921 1.6619931764445255 0 1.6619931764445255 0.37955994722652231 0 0 0 0 20.535309199221956 32.046503293940987 0 32.046503293940987 33.928831121087569 0 0 0 0 -24.097400951592135 -19.064349012262994 0 -19.064349012262994 -70.945219526078063 0 0 0 0 -20.814841744402656 0.32120347796308124 0 0.32120347796308124 1.7900687813880722 0 0 0 0 0.1937243438007954 -0.10237147424874138 0 -0.10237147424874138 0.075965876253079934 0 0 0 0 0.48890917428070679 56.665925441744776 0 56.665925441744776 37.284873245609617 0 0 0 0 68.014638641305282 109.32273252456815 0 109.32273252456815 14.800377840582428 0 0 0 0 -14.689334331684222 -12.737357933222654 0 -12.737357933222654 -133.88604510005123 0 0 0 0 25.191457679764426 18.235391557616367 0 18.235391557616367 18.23229558439391 0 0 0 0 -0.031752934883115813 39.537045988170178 0 39.537045988170178 0.29196829971317584 0 0 0 0 55.828906339498644 21.90008537794057 0 21.90008537794057 -13.907942012514241 0 0 0 0 55.93444701757835 23.67835947639017 0 23.67835947639017 -40.809769586671621 0 0 0 0 35.32790380527149 40.248060686084671 0 40.248060686084671 -30.327020559958612 0 0 0 0 43.386538898310391 23.296111445707197 0 23.296111445707197 -32.837404235204247 0 0 0 0 -2.7567054202172585 23.640080789495517 0 23.640080789495517 -35.214968200905105 0 0 0 0 0.78814296619202651 60.553917409234671 0 60.553917409234671 -21.295333432969301 0 0 0 0 64.448383293129154 -1.2426349585965681 0 -1.2426349585965681 0.25566304683223962 0 0 0 0 -82.89138897779776 53.599863878698827 0 53.599863878698827 -16.081044592847121 0 0 0 0 0.63074278440696219 1.0282348763843459 0 1.0282348763843459 -0.073115268975185943 0 0 0 0 -123.6192455389828 61.877630357124275 0 61.877630357124275 -8.4062720248506508 0 0 0 0 -15.814465064078831 29.550214378019973 0 29.550214378019973 -32.999066207680016 0 0 0 0 0.35437990078207804 50.111075408591006 0 50.111075408591006 -14.468234673539143 0 0 0 0 -9.0391280378680676 9.997902188517152 0 9.997902188517152 -4.3026810011387315 0 0 0 0 -15.576938146495195 60.228587810391346 0 60.228587810391346 -23.596029947044258 0 0 0 0 40.727151676543144 32.560321693830552 0 32.560321693830552 1.5670538423310489 0 0 0 0 43.060319572592562 27.802953611206043 0 27.802953611206043 2.0876942625973527 0 0 0 0 101.14420808294426 25.784844602629185 0 25.784844602629185 -7.8872783004858036 0 0 0 0 58.548989048795193 -2.9718202474913866 0 -2.9718202474913866 25.538350814167536 0 0 0 0 30.409900769820524 2.0350173459462724 0 2.0350173459462724 15.200964761062082 0 0 0 0 103.14040370238945 -13.748140862984883 0 -13.748140862984883 22.353086189688529 0 0 0 0 72.299654893467959 20.994210151804726 0 20.994210151804726 0.000860548200606871 0 0 0 0 1.1439523583976552 31.699015947941305 0 31.699015947941305 0.033789268715191556 0 0 0 0 0.53591066007720656 30.017079656413294 0 30.017079656413294 -4.4858259601880874 0 0 0 0 -0.64955572173494147 28.892895056026305 0 28.892895056026305 -0.020890603283405602 0 0 0 0 4.3648450555920135 32.894096952932657 0 32.894096952932657 -2.8526974816561648 0 0 0 0 5.9054339781287126 24.002028902658779 0 24.002028902658779 -6.4660407638911632 0 0 0 0 -20.020611727730284 9.4973539265848537 0 9.4973539265848537 -5.1789171393533451 0 0 0 0 -15.471263854560675 16.497746692414012 0 16.497746692414012 -7.2229098637499272 0 0 0 0 -51.262109190924093 12.967133160440589 0 12.967133160440589 -4.2161457979573029 0 0 0 0 -44.066197622625623 14.452128016867457 0 14.452128016867457 -0.0046556095532179695 0 0 0 0 -24.16887484293693 23.279463725681875 0 23.279463725681875 -4.3528867530911644 0 0 0 0 155.62640471489067 -40.582504695589307 0 -40.582504695589307 -134.68335645881689 0 0 0 0 6.6628058676415094 -1.6400332851411625 0 -1.6400332851411625 -1.4506955000281101 0 0 0 0 5.1765631287194651 -1.0174125790291839 0 -1.0174125790291839 0.15051463929504716 0 0 0 0 -21.57141790993046 22.253714527208533 0 22.253714527208533 -17.146333635642087 0 0 0 0 0.35440154870181573 1.1365655167197701 0 1.1365655167197701 -0.34114232868314004 0 0 0 0 -107.34150690506794 65.425948991494295 0 65.425948991494295 122.81193636310957 0 0 0 0 2.9078833408353262 3.5724643354094638 0 3.5724643354094638 -2.5293916658201527 0 0 0 0 -38.122312775529281 23.007523759925384 0 23.007523759925384 3.2694106442826865 0 0 0 0 1.2476237658497809 3.0983439196061369 0 3.0983439196061369 -3.905454011791337 0 0 0 0 174.98496981120843 -74.144459730099641 0 -74.144459730099641 -47.523383180309622 0 0 0 0 -22.046143499675964 -12.681176344443315 0 -12.681176344443315 20.638275443417683 0 0 0 0 48.56612863081682 -32.871956011665247 0 -32.871956011665247 -2.147196128972837 0 0 0 0 109.50378729958902 4.1816639057879001 0 4.1816639057879001 -31.423930518962536 0 0 0 0 0.47998616264560212 0.50870210818523276 0 0.50870210818523276 -0.15529342565729243 0 0 0 0 127.27923494256902 -45.231276878072102 0 -45.231276878072102 -8.8269569595613007 0 0 0 0 -6.4651458307143912 33.216962289428793 0 33.216962289428793 6.3615224343356829 0 0 0 0 -123.14026672800537 -35.71364363552199 0 -35.71364363552199 418.25962001418986 0 0 0 0 -117.20893247258209 -167.70820528563149 0 -167.70820528563149 116.77650319699339 0 0 0 0 1.8098643944069579 -0.77819830222750852 0 -0.77819830222750852 0.53737626111754977 0 0 0 0 -193.8680103216393 46.122099585999344 0 46.122099585999344 167.69235765105466 0 0 0 0 -236.2029953810561 -86.943773029367861 0 -86.943773029367861 238.92779412347662 0 0 0 0 -59.927262604804127 40.122435046803162 0 40.122435046803162 260.11139612578381 0 0 0 0 64.940197529940633 81.289628011732674 0 81.289628011732674 69.39733358034951 0 0 0 0 215.45551241970679 52.683060636793165 0 52.683060636793165 45.711789082253574 0 0 0 0 154.71737016827683 50.920812620357154 0 50.920812620357154 0.060396622402118641 0 0 0 0 303.61929094372317 76.32715080036813 0 76.32715080036813 -2.996341724266697 0 0 0 0 -49.853229809130426 35.016916218852515 0 35.016916218852515 68.586483965050377 0 0 0 0 -35.882884575279604 -19.6201553735856 0 -19.6201553735856 -6.7196853722486747 0 0 0 0 59.700022910139523 -69.943014750970008 0 -69.943014750970008 16.525698711424184 0 0 0 0 36.361933096006396 -56.701486378982025 0 -56.701486378982025 94.670080152865239 0 0 0 0 166.55624070638441 20.825251385858394 0 20.825251385858394 55.488712282987336 0 0 0 0 140.35666666585894 -109.0047114599061 0 -109.0047114599061 34.552130056708961 0 0 0 0 -95.721317892122897 -25.609211557449612 0 -25.609211557449612 52.967061920337528 0 0 0 0 5.2199585145144454 -2.1655826976326971 0 -2.1655826976326971 0.61818909162766522 0 0 0 0 3.2947645155363716 -3.1668876700657775 0 -3.1668876700657775 0.024505946577412077 0 0 0 0 61.996029391681077 -73.711491138021131 0 -73.711491138021131 13.033531552489251 0 0 0 0 3.293035794122261 -3.0903664169769947 0 -3.0903664169769947 -0.011517210766632294 0 0 0 0 7.9156954616793769 -1.9078495865803653 0 -1.9078495865803653 -0.021840584586657243 0 0 0 0 -91.934530678452575 -46.843927537045488 0 -46.843927537045488 20.904393713423985 0 0 0 0 -251.28334467262903 -206.59618738373115 0 -206.59618738373115 46.98089651801898 0 0 0 0 202.07369679369185 112.30809270589802 0 112.30809270589802 56.346451356107309 0 0 0 0 1.9421035349539011 -1.2101006873867988 0 -1.2101006873867988 0.40314036265956554 0 0 0 0 62.443363789039722 14.031838433878193 0 14.031838433878193 6.8203379416063399 0 0 0 0 100.65771463057899 22.667555408711053 0 22.667555408711053 -6.6677362813449577 0 0 0 0 4.8087310906545042 -2.314170977644423 0 -2.314170977644423 -0.33788899187890942 0 0 0 0 96.458093127113898 65.414340331172795 0 65.414340331172795 30.648922926882733 0 0 0 0 -241.92468299306802 -0.42315270801773686 0 -0.42315270801773686 290.04334291982423 0 0 0 0 136.0204778940606 -238.25702213296475 0 -238.25702213296475 -297.04145700562088 0 0 0 0 4.2240999508495349 -0.91998916141962894 0 -0.91998916141962894 0.080109144787980702 0 0 0 0 -22.059545110918407 12.214595908707317 0 12.214595908707317 -32.143199170994421 0 0 0 0 20.540005304050283 -160.55689609882836 0 -160.55689609882836 25.74381596105885 0 0 0 0 24.281839408700762 5.3763045974247063 0 5.3763045974247063 -77.10392824187511 0 0 0 0 18.766346076437912 -21.477639864468472 0 -21.477639864468472 -119.37449916233788 0 0 0 0 4.7077005182305527 -1.2817542465546694 0 -1.2817542465546694 -3.1679494490640225 0 0 0 0 26.472020786328358 0.53612868309016903 0 0.53612868309016903 -6.5922905506836287 0 0 0 0 24.822148217517679 5.1977301329093279 0 5.1977301329093279 -4.8138525079793908 0 0 0 0 39.125467572535854 4.4987045655411748 0 4.4987045655411748 -13.427977672711677 0 0 0 0 -6.6521139849373867 -34.187099248374807 0 -34.187099248374807 -63.931534200517035 0 0 0 0 5.3130746473708825 -1.7247866821195572 0 -1.7247866821195572 -1.6294254475891732 0 0 0 0 -13.420256393481395 -65.394601185477995 0 -65.394601185477995 -117.29403168644701 0 0 0 0 50.083930461136333 28.643205747832781 0 28.643205747832781 6.6322779784311479 0 0 0 0 31.89901625677885 14.029216652834862 0 14.029216652834862 4.5067593815836062 0 0 0 0 47.273098308665794 20.274797131685773 0 20.274797131685773 -7.8009111409983234 0 0 0 0 38.103485256362546 9.3655124670961527 0 9.3655124670961527 -18.213107395287807 0 0 0 0 54.675416043020959 15.921335374571697 0 15.921335374571697 -24.057295423977848 0 0 0 0 41.049916044365091 5.1179121298937389 0 5.1179121298937389 -12.370756850326359 0 0 0 0 81.359779232931032 16.735941073239815 0 16.735941073239815 -16.981603623287583 0 0 0 0 47.298761962541903 22.789886736532821 0 22.789886736532821 26.131867377014032 0 0 0 0 63.335679722957138 -4.2920419386928756 0 -4.2920419386928756 -50.752044082131988 0 0 0 0 42.457796158981381 -0.60876724547760119 0 -0.60876724547760119 -1.3517355590043918 0 0 0 0 37.720959880356531 1.3237558440979811 0 1.3237558440979811 -2.5458607879643438 0 0 0 0 37.097431510090246 0.99171617745571439 0 0.99171617745571439 -2.4502703174921194 0 0 0 0 38.587562907068786 -4.6036880757221113 0 -4.6036880757221113 6.3041195094356226 0 0 0 0 70.877390116933384 3.1322218118519913 0 3.1322218118519913 -14.847617986273804 0 0 0 0 51.898934157536132 6.6089126162949015 0 6.6089126162949015 -30.978023136038018 0 0 0 0 43.603728574303659 1.1859005793890169 0 1.1859005793890169 -1.8876491934788004 0 0 0 0 42.244931302047917 4.8993960543721187 0 4.8993960543721187 -16.422081980346547 0 0 0 0 7.5560817057327938 -5.493993161634755 0 -5.493993161634755 -4.6120345038042547 0 0 0 0 38.762783627884346 12.634893991061574 0 12.634893991061574 17.782295041911539 0 0 0 0 63.890778958666488 -5.6764788646698889 0 -5.6764788646698889 -3.6757627902037484 0 0 0 0 62.722901746678417 11.442399878353971 0 11.442399878353971 3.4606935905439968 0 0 0 0 44.65349626231 -1.5784672701970948 0 -1.5784672701970948 3.5033621497344711 0 0 0 0 52.403267432018765 2.5647768826561048 0 2.5647768826561048 4.5831758534082496 0 0 0 0 17.651736818175124 -1.7278212598010043 0 -1.7278212598010043 -4.2450654987884384 0 0 0 0 26.939885109633735 -2.5096134816334423 0 -2.5096134816334423 -4.6618606890942562 0 0 0 0 14.215496816905215 -6.8373107081558828 0 -6.8373107081558828 -14.997290577863168 0 0 0 0 45.751861472585006 3.24179140694946 0 3.24179140694946 -9.9550608796662345 0 0 0 0 24.196499558434937 -3.3132567458801674 0 -3.3132567458801674 -4.581645642764304 0 0 0 0 43.946910624144948 0.57655205394075892 0 0.57655205394075892 -13.749318230635652 0 0 0 0 3.5601663259738245 -0.16900343213427504 0 -0.16900343213427504 -2.7232012615409023 0 0 0 0 6.227333062888647 -4.4314747703490411 0 -4.4314747703490411 -7.0576440829627245 0 0 0 0 23.758194218477001 -3.8356820148904376 0 -3.8356820148904376 -15.632505338089572 0 0 0 0 3.1797431696747935 6.7360465527913789 0 6.7360465527913789 -2.1065596046702422 0 0 0 0 42.992890884721419 -5.2338886389413801 0 -5.2338886389413801 -30.085686913711015 0 0 0 0 64.919042790017556 1.4870373367390926 0 1.4870373367390926 -1.0703733849660466 0 0 0 0 40.639180262965965 24.868068023500939 0 24.868068023500939 8.4120904983499543 0 0 0 0 -4.0344463568762876 92.683767790518004 0 92.683767790518004 44.31811961301662 0 0 0 0 117.77360538821813 35.777212068761344 0 35.777212068761344 -63.07208102457389 0 0 0 0 34.29793081828393 -15.335622351814436 0 -15.335622351814436 7.3337302635010246 0 0 0 0 67.466471699270187 9.5505367525757379 0 9.5505367525757379 15.584503461981029 0 0 0 0 68.903349098414765 8.3727024863945871 0 8.3727024863945871 -27.828405664607772 0 0 0 0 40.076672142284224 11.126736962679445 0 11.126736962679445 -14.487977723476888 0 0 0 0 70.211422094551381 -7.327757193694211 0 -7.327757193694211 6.673738736520022 0 0 0 0 85.228274704735668 0.75944728628101643 0 0.75944728628101643 -19.395924083437649 0 0 0 0 41.503164445151924 36.246540170258584 0 36.246540170258584 -23.811369479396134 0 0 0 0 4.5139627306998591 30.067095508917774 0 30.067095508917774 -3.6805121454492564 0 0 0 0 7.2265396005155935 2.1167737140724086 0 2.1167737140724086 -7.5757496424654498 0 0 0 0 14.11771940964536 -11.930023707136996 0 -11.930023707136996 -12.861281526536459 0 0 0 0 82.756398222994903 -3.738090123500001 0 -3.738090123500001 -19.968155343509579 0 0 0 0 35.583993281579751 -10.566540474030944 0 -10.566540474030944 -19.646647093578075 0 0 0 0 42.004512665531365 -19.335322959190989 0 -19.335322959190989 -33.159454493205203 0 0 0 0 57.929323733929778 4.8753614781031729 0 4.8753614781031729 -1.6849312912132177 0 0 0 0 42.686511954615696 2.2156654052954075 0 2.2156654052954075 -3.1284666419462464 0 0 0 0 61.957442773797084 4.2498474227821816 0 4.2498474227821816 -1.5117137020760083 0 0 0 0 54.939168890567089 2.7511002533066176 0 2.7511002533066176 0.65323759663283454 0 0 0 0 48.419289640456554 7.846741210942298 0 7.846741210942298 1.4995653081609248 0 0 0 0 59.385118506936124 6.3687210945436732 0 6.3687210945436732 1.1355219437937194 0 0 0 0 41.858290184380166 -2.4690885020096971 0 -2.4690885020096971 -1.6997855312405363 0 0 0 0 56.324151021719445 2.4486809758884647 0 2.4486809758884647 -3.4611567050579595 0 0 0 0 52.762407576359692 6.8077114221837292 0 6.8077114221837292 -2.2073434478425042 0 0 0 0 53.999422907174448 8.2744170207852221 0 8.2744170207852221 -0.61081313115354874 0 0 0 0 60.141638452914776 -0.82249176834147875 0 -0.82249176834147875 1.2914638064894461 0 0 0 0 68.886328353004501 2.5950579545349797 0 2.5950579545349797 -2.3779154206523572 0 0 0 0 9.5845727270817562 7.8309806948023919 0 7.8309806948023919 -4.2729584191595382 0 0 0 0 59.503918028337011 3.6316311436408366 0 3.6316311436408366 4.1011862947570989 0 0 0 0 18.938459251451292 21.393924895933139 0 21.393924895933139 -3.0531920891719593 0 0 0 0 66.284191473634564 -0.84739638714370358 0 -0.84739638714370358 0.57577389359403242 0 0 0 0 63.086197975208052 0.53454785137500949 0 0.53454785137500949 3.836553801049611 0 0 0 0 11.923859735873151 6.3209900779037049 0 6.3209900779037049 0.56112403106331632 0 0 0 0 23.411812907870626 11.255103538149228 0 11.255103538149228 -17.888204561633984 0 0 0 0 64.879773959015438 4.4615831121453766 0 4.4615831121453766 -11.534631556084605 0 0 0 0 6.162585446297868 0.68140252904184706 0 0.68140252904184706 -0.89116322744016419 0 0 0 0 -14.594679816800635 38.382536371398146 0 38.382536371398146 -20.745531723105159 0 0 0 0 22.555547344364982 11.523728132995075 0 11.523728132995075 -5.5030012146192346 0 0 0 0 36.386828782454359 14.627688192975114 0 14.627688192975114 4.5450568462259753 0 0 0 0 6.6284829355322756 5.4105480821108074 0 5.4105480821108074 -8.6236483917938269 0 0 0 0 26.741927545539511 5.3527374948233728 0 5.3527374948233728 -14.457086415857873 0 0 0 0 37.430749199535057 0.59860890142110179 0 0.59860890142110179 -6.2344632957027031 0 0 0 0 54.359859119052999 -19.973525796448946 0 -19.973525796448946 -12.294649533077937 0 0 0 0 40.570681571458408 3.3933042686313115 0 3.3933042686313115 1.6236989939534396 0 0 0 0 62.144433848599874 -14.615479492212444 0 -14.615479492212444 2.6361729734378514 0 0 0 0 4.6856400588961975 7.662760545590757 0 7.662760545590757 -6.6327597949659838 0 0 0 0 1.2748589656212417 5.9592266412650758 0 5.9592266412650758 -7.1067936500697435 0 0 0 0 58.437293872390001 7.2345654020320822 0 7.2345654020320822 7.6950575404978281 0 0 0 0 -8.6476120920851827 -12.924700830285929 0 -12.924700830285929 26.250668593162118 0 0 0 0 88.961593883359456 -27.162037844640423 0 -27.162037844640423 -9.7125786003649637 0 0 0 0 48.745871592938784 63.890516130481501 0 63.890516130481501 -92.301661396939835 0 0 0 0 -87.267898374164361 54.58544116864141 0 54.58544116864141 7.748214857545463 0 0 0 0 40.949935423785064 34.365247355455267 0 34.365247355455267 -37.848531184375588 0 0 0 0 -6.1590819970733719 -42.9443183952244 0 -42.9443183952244 -52.217041247471116 0 0 0 0 23.750796225926024 1.636372775529253 0 1.636372775529253 -32.269934021096958 0 0 0 0 50.309380307034189 8.5839115416693517 0 8.5839115416693517 -43.131852066728243 0 0 0 0 32.566396883907146 -0.37588604455550012 0 -0.37588604455550012 -120.31456355910586 0 0 0 0 -12.547411415391252 -21.34889506988975 0 -21.34889506988975 -26.890613669898812 0 0 0 0 7.2422830254929096 3.051200817139474 0 3.051200817139474 -0.20551528971633992 0 0 0 0 -9.7888069666805677 -22.619946111317404 0 -22.619946111317404 -28.669882101794428 0 0 0 0 28.105410101270536 14.264388668617812 0 14.264388668617812 -23.585186082653308 0 0 0 0 -7.7941349373140838 -22.190841613696648 0 -22.190841613696648 -29.032299267797498 0 0 0 0 -9.8345619644751423 -17.690434926047146 0 -17.690434926047146 -26.380564337792748 0 0 0 0 -6.5390928475098917 -5.0626043805027621 0 -5.0626043805027621 -17.923631637745984 0 0 0 0 5.4497587730252235 -5.2039060228824638 0 -5.2039060228824638 -5.1233173437300144 0 0 0 0 14.801222090492956 17.062123587297947 0 17.062123587297947 0.27133408151803451 0 0 0 0 21.58930837076332 19.729676839614058 0 19.729676839614058 -0.78752211048413301 0 0 0 0 66.502853001846233 11.109246241163646 0 11.109246241163646 -29.629237923167238 0 0 0 0 29.651803543835229 15.131267307776156 0 15.131267307776156 3.8598044621685061 0 0 0 0 17.47794713071653 -6.016455168517183 0 -6.016455168517183 -2.3578510094280318 0 0 0 0 0.072928958742082273 -0.5218385884349459 0 -0.5218385884349459 0.07648302850915556 0 0 0 0 3.842326986574335 -62.05181247328062 0 -62.05181247328062 -38.129913337211974 0 0 0 0 211.19199246702192 55.061720438208795 0 55.061720438208795 -9.6046884113071656 0 0 0 0 93.498932106449502 -1.6598276892436843 0 -1.6598276892436843 -36.686656212021262 0 0 0 0 85.992513465957018 -28.265959756072789 0 -28.265959756072789 -7.3187905747704463 0 0 0 0 119.704268569134 -36.042837576773763 0 -36.042837576773763 -32.359898082083419 0 0 0 0 92.633294527317048 18.83976774862515 0 18.83976774862515 -29.322280720861954 0 0 0 0 50.758996626666885 14.177538847507805 0 14.177538847507805 -2.2257599441795719 0 0 0 0 83.914473609220295 -17.868562008350182 0 -17.868562008350182 -14.865583495188957 0 0 0 0 47.956120718092279 -4.4880911188914752 0 -4.4880911188914752 -6.3308846893012287 0 0 0 0 55.099410955153871 9.8980888339858666 0 9.8980888339858666 -9.7255712403606616 0 0 0 0 53.449819782268605 14.81293889261633 0 14.81293889261633 -9.922624719034502 0 0 0 0 57.486406674746831 5.6371556725588334 0 5.6371556725588334 -2.1731599135669057 0 0 0 0 57.130087654179079 5.220775039038017 0 5.220775039038017 -2.096651525793277 0 0 0 0 22.019402105623158 -11.070307385095589 0 -11.070307385095589 0.85375795919253505 0 0 0 0 61.553372067934106 4.8617676643251571 0 4.8617676643251571 -3.7838016926498312 0 0 0 0 0.23712966224427134 -0.61795864198164452 0 -0.61795864198164452 -0.25341016703642882 0 0 0 0 36.304389855631598 0.049508866702069554 0 0.049508866702069554 -1.1851822008463841 0 0 0 0 43.016597203473793 -7.0018510365675866 0 -7.0018510365675866 -0.85193172919719018 0 0 0 0 41.74312306704087 -3.9440404549879986 0 -3.9440404549879986 -2.3092350086719762 0 0 0 0 44.517700050069834 -2.9083440064943034 0 -2.9083440064943034 -4.2154890563692788 0 0 0 0 0.29683386982707916 -0.74158488794201105 0 -0.74158488794201105 -0.43974444089040432 0 0 0 0 49.019383512675631 4.0488393415854631 0 4.0488393415854631 4.1326429443902271 0 0 0 0 50.335471157653956 0.81883409410170316 0 0.81883409410170316 -0.22286521993203223 0 0 0 0 48.885884826704569 3.2526397657384223 0 3.2526397657384223 0.46179966956657381 0 0 0 0 54.908662646437733 0.40379286138499992 0 0.40379286138499992 -3.2303371181878902 0 0 0 0 48.970743901798414 -1.5991626908819399 0 -1.5991626908819399 -5.5365195985564242 0 0 0 0 44.323249221852166 -2.093738281957485 0 -2.093738281957485 -1.7865256011091901 0 0 0 0 47.226626545794716 -0.5636255327212325 0 -0.5636255327212325 1.1934976953084515 0 0 0 0 55.026496554750338 -9.8027319696896313 0 -9.8027319696896313 -18.896742351234025 0 0 0 0 56.892456499685068 -1.5228005454287086 0 -1.5228005454287086 -14.792014162600935 0 0 0 0 47.377582421802799 0.2209563705198434 0 0.2209563705198434 -6.1662641880353704 0 0 0 0 43.206881618549232 3.0456167080844807 0 3.0456167080844807 -5.4929176004970941 0 0 0 0 41.603009957267204 8.3105124550078244 0 8.3105124550078244 -4.0831252224579657 0 0 0 0 59.547119406197453 14.879589950386617 0 14.879589950386617 -21.217840278004132 0 0 0 0 52.623515203893476 14.20921931869384 0 14.20921931869384 -21.046160344480086 0 0 0 0 62.205896008381387 3.1215598748624416 0 3.1215598748624416 -18.087217462687477 0 0 0 0 97.25448854843853 -0.74074531849419145 0 -0.74074531849419145 -33.670454784075446 0 0 0 0 64.422387277241796 -0.74191470116829805 0 -0.74191470116829805 -32.007256208576337 0 0 0 0 50.065626059880742 -4.5914807663475585 0 -4.5914807663475585 -11.016577032294663 0 0 0 0 39.276232619733491 -2.5969372839365406 0 -2.5969372839365406 0.33169063067725801 0 0 0 0 41.691354255184706 -6.9330573098245623 0 -6.9330573098245623 -27.659211137576676 0 0 0 0 54.838774136587745 9.9181656898576875 0 9.9181656898576875 -9.2013232071758466 0 0 0 0 38.793816993231303 14.394329019217821 0 14.394329019217821 -12.887881390571238 0 0 0 0 13.139550684358255 -25.566680939609569 0 -25.566680939609569 -35.709445508032331 0 0 0 0 0.2326222892753087 -0.64526774757806038 0 -0.64526774757806038 -0.32983601213667768 0 0 0 0 36.088809425884392 -17.271877097188735 0 -17.271877097188735 -43.347930896765547 0 0 0 0 14.8456710190585 -22.805809104572745 0 -22.805809104572745 -39.007525818614795 0 0 0 0 21.447973127062397 -2.6113786717151122 0 -2.6113786717151122 -0.48888133544579038 0 0 0 0 27.612326055577796 6.6366928402561598 0 6.6366928402561598 -20.253874249099681 0 0 0 0 21.33831936729257 -19.515772739426211 0 -19.515772739426211 -35.223477687277409 0 0 0 0 -6.3779567725432571 -4.3385152543457934 0 -4.3385152543457934 -21.685803268386735 0 0 0 0 11.577977422100957 -25.711488528547306 0 -25.711488528547306 -34.966104733017943 0 0 0 0 31.307735090565984 -3.3081848742961029 0 -3.3081848742961029 -11.06150217888171 0 0 0 0 88.899612277436063 -127.40525783170793 0 -127.40525783170793 -40.184061797641789 0 0 0 0 27.349021281086607 -4.0088199313249788 0 -4.0088199313249788 -7.8458937667689668 0 0 0 0 24.574091829068976 -4.1279112298563447 0 -4.1279112298563447 -0.48272421706913227 0 0 0 0 13.607957497646566 -5.173278646720064 0 -5.173278646720064 1.0471755997390346 0 0 0 0 -11.077554545492603 -33.493446188235112 0 -33.493446188235112 21.630900738581204 0 0 0 0 19.218972870291836 -3.5640471586956508 0 -3.5640471586956508 -3.996140979472333 0 0 0 0 -37.972780799347674 -6.5235764750527778 0 -6.5235764750527778 -26.823698974827494 0 0 0 0 63.523408234857285 1.6621146465716237 0 1.6621146465716237 -5.3017933365151073 0 0 0 0 -245.09775708732195 -421.02400676359139 0 -421.02400676359139 131.69415956070623 0 0 0 0 530.03310933387547 851.20272573535976 0 851.20272573535976 445.20864379062004 0 0 0 0 124.75916533838608 -35.204429540575347 0 -35.204429540575347 -3.5111313386478287 0 0 0 0 83.769944847401348 -36.818544396489415 0 -36.818544396489415 99.854965688273296 0 0 0 0 90.310556782860658 -0.80874576282792532 0 -0.80874576282792532 -26.939589002990033 0 0 0 0 109.36400531505933 -0.56246216951694805 0 -0.56246216951694805 -31.530653360277029 0 0 0 0 69.951514851250977 19.879364621846889 0 19.879364621846889 -32.853071041199655 0 0 0 0 80.130703111804905 16.277143020568928 0 16.277143020568928 -38.98872128783205 0 0 0 0 43.175375908176647 27.700858812714614 0 27.700858812714614 -42.461770175470406 0 0 0 0 6.6864908311730744 0.034263988283182556 0 0.034263988283182556 0.10365792165957233 0 0 0 0 37.012892328159069 29.861273743729271 0 29.861273743729271 -25.321430089475143 0 0 0 0 29.482980966582545 5.6073117799442116 0 5.6073117799442116 -19.853663374503412 0 0 0 0 33.280551296936352 -1.9485588704777008 0 -1.9485588704777008 -0.19021741751038163 0 0 0 0 21.759852520332061 0.40739216216820751 0 0.40739216216820751 -8.395135856788329 0 0 0 0 3.2545509037099691 125.43267474061909 0 125.43267474061909 31.484707322036229 0 0 0 0 51.065264417396975 -0.042985900794519694 0 -0.042985900794519694 -28.178939919669574 0 0 0 0 30.967612167588072 -0.073512106262214161 0 -0.073512106262214161 -1.5574842434153027 0 0 0 0 -7.0263273037489853 15.78047133270411 0 15.78047133270411 -93.135643317572885 0 0 0 0 191.1206175060197 35.38038432281337 0 35.38038432281337 -379.29124567959479 0 0 0 0 21.981492246777634 187.83907754892425 0 187.83907754892425 -267.12691337728756 0 0 0 0 52.317961805259984 -91.712346601507761 0 -91.712346601507761 346.77943843912726 0 0 0 0 540.06205930592841 -15.943780276651296 0 -15.943780276651296 -276.84291565538115 0 0 0 0 53.681811891277903 -94.301349755889532 0 -94.301349755889532 -2.890130921830405 0 0 0 0 109.45835982100107 -55.035612324536487 0 -55.035612324536487 24.096373708557621 0 0 0 0 1.3392388974841367 0.43187947437887786 0 0.43187947437887786 -0.20859366876840912 0 0 0 0 77.673319532252208 76.18794366573502 0 76.18794366573502 -31.8723764327342 0 0 0 0 85.634537373654894 -57.55042476050312 0 -57.55042476050312 24.79388497128275 0 0 0 0 -13.796412042069278 -81.920400123918625 0 -81.920400123918625 -299.90314000143826 0 0 0 0 -128.68516270522377 155.84792154701518 0 155.84792154701518 -152.28400557552618 0 0 0 0 28.063802747078057 -0.5318796125420846 0 -0.5318796125420846 -2.0519872220696502 0 0 0 0 4.8549175527605257 2.0779265069829549 0 2.0779265069829549 -4.847650665359815 0 0 0 0 -124.06680972789036 -107.03350589021375 0 -107.03350589021375 466.064181277236 0 0 0 0 -449.48864157147909 269.76717353173672 0 269.76717353173672 310.44913021099819 0 0 0 0 136.32021554055973 211.61892341364546 0 211.61892341364546 -321.74026292263898 0 0 0 0 40.751819563090976 155.64797145006378 0 155.64797145006378 -41.469075011603309 0 0 0 0 131.89853999752813 148.18435146448155 0 148.18435146448155 -131.1954210117201 0 0 0 0 101.68487339959393 130.10476941557454 0 130.10476941557454 -61.801411333476608 0 0 0 0 0.34225634697941132 155.19758241993804 0 155.19758241993804 -90.689692024225678 0 0 0 0 -45.967497753634234 -110.73957696111847 0 -110.73957696111847 12.01390618105097 0 0 0 0 109.38399541949912 -53.997344960799637 0 -53.997344960799637 -124.84910116447361 0 0 0 0 1.0571923652457542 -0.64908282528663364 0 -0.64908282528663364 -3.0918728491462844 0 0 0 0 94.490819608690799 -44.126721709836829 0 -44.126721709836829 86.447723348897853 0 0 0 0 244.01715866994346 4.0536637561399402 0 4.0536637561399402 -7.5206681621862117 0 0 0 0 90.968982540245634 -13.8098753830036 0 -13.8098753830036 3.4854579112798092 0 0 0 0 181.90233923596679 51.908458103432167 0 51.908458103432167 14.345106917118756 0 0 0 0 -44.994463081193203 58.822238981687889 0 58.822238981687889 32.884021935507917 0 0 0 0 124.78626748207898 154.77901562517445 0 154.77901562517445 20.858472250188214 0 0 0 0 243.14133730435424 2.1465257897675656 0 2.1465257897675656 -32.379741981253574 0 0 0 0 74.457364539477567 18.139927579836694 0 18.139927579836694 27.332997339692156 0 0 0 0 105.8579929012667 48.799676994612696 0 48.799676994612696 -4.070533515072384 0 0 0 0 100.89996494039951 19.062641882424032 0 19.062641882424032 -85.072319599126786 0 0 0 0 70.849033814418362 101.59474275927823 0 101.59474275927823 -55.156187081718599 0 0 0 0 124.13192253760644 104.09083685568385 0 104.09083685568385 -3.3955442714923265 0 0 0 0 96.447285247544642 63.208641196277313 0 63.208641196277313 1.2219537862092693 0 0 0 0 74.008628881725599 89.534253754284236 0 89.534253754284236 137.39935731544938 0 0 0 0 21.144300266809296 -29.932632188540083 0 -29.932632188540083 83.437320340512088 0 0 0 0 214.83678427583072 121.98783692819779 0 121.98783692819779 -8.229400973185875 0 0 0 0 4.0298361539977066 -0.30192142709157821 0 -0.30192142709157821 -1.5239504911051789 0 0 0 0 174.75638279818304 208.57987594979227 0 208.57987594979227 93.120937325315936 0 0 0 0 3.663007192461663 0.2103156893017939 0 0.2103156893017939 -2.5442155387051688 0 0 0 0 263.00470855100139 109.19318721444597 0 109.19318721444597 -20.548386589114671 0 0 0 0 123.08120694107492 133.97492925710685 0 133.97492925710685 25.306175042710947 0 0 0 0 -14.238297004074411 -29.946918450134945 0 -29.946918450134945 -45.667783435441379 0 0 0 0 7.1614071926023257 -3.0182849434227279 0 -3.0182849434227279 0.24730066231745518 0 0 0 0 3.079535064229276 -19.702637777938889 0 -19.702637777938889 -24.427583390388548 0 0 0 0 -11.042641272011679 -22.547706301022117 0 -22.547706301022117 -33.124551573660028 0 0 0 0 0.50138332040660316 -12.743572719619806 0 -12.743572719619806 -24.831528443732168 0 0 0 0 24.204368481325218 -3.2472348459268687 0 -3.2472348459268687 -29.925394598303683 0 0 0 0 31.466383481703815 7.4622660351251398 0 7.4622660351251398 -17.994379066262809 0 0 0 0 13.738112419378012 -3.7364296376745187 0 -3.7364296376745187 -19.435576622940061 0 0 0 0 12.071549047352164 -11.577740932790221 0 -11.577740932790221 -37.582427254073991 0 0 0 0 -2.6470302659436129 -15.346483517182605 0 -15.346483517182605 -9.1281557483061988 0 0 0 0 19.129627738773706 -6.209191392215871 0 -6.209191392215871 -22.242107845024293 0 0 0 0 16.718213314437889 -3.7509088914648601 0 -3.7509088914648601 -9.4136849540191179 0 0 0 0 11.622522323887097 -21.012414488721333 0 -21.012414488721333 39.073282035692614 0 0 0 0 11.548792603134643 2.3776023750297099 0 2.3776023750297099 -6.5991998602548847 0 0 0 0 41.18594863719045 36.500792492252003 0 36.500792492252003 -19.708534956765106 0 0 0 0 5.0190864969688107 -0.78780844110409021 0 -0.78780844110409021 -2.5378693581906084 0 0 0 0 22.226848610647721 68.069782847946044 0 68.069782847946044 1.598589610685849 0 0 0 0 102.66978081821162 56.679057708494348 0 56.679057708494348 -17.080844050040469 0 0 0 0 101.19706532335113 30.852327132082564 0 30.852327132082564 47.399972982264444 0 0 0 0 68.261699536022206 67.648049079658904 0 67.648049079658904 45.640457895984753 0 0 0 0 66.02012976037804 92.494645072849607 0 92.494645072849607 -19.988949944986416 0 0 0 0 7.5282435790053057 0.25271439949015662 0 0.25271439949015662 -1.6907019836002557 0 0 0 0 437.29132730211131 -240.09374427976309 0 -240.09374427976309 275.20097114523833 0 0 0 0 29.355561229640443 6.4048739876552645 0 6.4048739876552645 -0.10071304692701233 0 0 0 0 -161.54703521861666 86.236844984518086 0 86.236844984518086 333.15760025897703 0 0 0 0 8.4776392240644896 1.5059920581205901 0 1.5059920581205901 -2.1848113979902739 0 0 0 0 2.1205537719652341 3.1645754606677885 0 3.1645754606677885 0.44221157750101203 0 0 0 0 234.97707394896133 -91.428407654803209 0 -91.428407654803209 -3.6589327216761376 0 0 0 0 55.160035758650338 17.240335348236613 0 17.240335348236613 -67.850210488958055 0 0 0 0 45.595628650354229 -23.119888027185283 0 -23.119888027185283 -6.5147290845337693 0 0 0 0 28.027921584693544 -9.9920792129916123 0 -9.9920792129916123 -12.53776588858172 0 0 0 0 66.216148938699916 -36.345992189676053 0 -36.345992189676053 -7.7873477687907098 0 0 0 0 58.634578722470906 17.350886115136063 0 17.350886115136063 11.249265702365733 0 0 0 0 11.672288358838131 2.1761918847881816 0 2.1761918847881816 -0.21952307434707308 0 0 0 0 84.414113637751143 17.048671860489662 0 17.048671860489662 -16.641700750034943 0 0 0 0 155.5911011404387 3.2345789038417934 0 3.2345789038417934 -36.658244746273795 0 0 0 0 39.32182875215949 -10.215958586540353 0 -10.215958586540353 1.6034542240563496 0 0 0 0 127.21617255106685 -21.506250011160731 0 -21.506250011160731 -29.190615537428585 0 0 0 0 56.815809334034668 2.5146350537198563 0 2.5146350537198563 -2.59388195540933 0 0 0 0 0.74833808369660915 -7.2889938001309362 0 -7.2889938001309362 -2.7720747379527593 0 0 0 0 113.92594093566004 40.697527564180746 0 40.697527564180746 -37.634842533915162 0 0 0 0 133.94014792036614 36.192848052555291 0 36.192848052555291 -45.597314639319848 0 0 0 0 123.03311534014756 40.55815680713647 0 40.55815680713647 -43.628279266300524 0 0 0 0 7.8801422512824644 3.1226219025531066 0 3.1226219025531066 -7.4250163281086516 0 0 0 0 39.426764648720564 -23.700094232474214 0 -23.700094232474214 -23.329118995534429 0 0 0 0 34.64092990943027 29.733721955009628 0 29.733721955009628 4.536067327909663 0 0 0 0 11.832357436810923 4.6878107449299549 0 4.6878107449299549 -2.9126866377490117 0 0 0 0 15.534057176068018 -186.79982274088979 0 -186.79982274088979 -230.87642799303831 0 0 0 0 149.97886111349726 -56.989130810048209 0 -56.989130810048209 -346.96121089739881 0 0 0 0 39.709199575325329 -29.91984437595238 0 -29.91984437595238 -136.39319278745825 0 0 0 0 64.994891796886805 15.601865368501421 0 15.601865368501421 -33.601149763373883 0 0 0 0 53.439716160451283 -5.7169984994882377 0 -5.7169984994882377 -5.1511307933487309 0 0 0 0 136.59783412368051 70.580041239040838 0 70.580041239040838 -35.543898024051259 0 0 0 0 83.94657072350256 4.5768701872552739 0 4.5768701872552739 -5.0239620851450351 0 0 0 0 96.512885797055787 -8.149116451962982 0 -8.149116451962982 -40.701286073243182 0 0 0 0 69.905118901649985 -16.944603181997536 0 -16.944603181997536 -33.220034741809286 0 0 0 0 78.709943790883699 -7.7256031783344952 0 -7.7256031783344952 -42.890963846390378 0 0 0 0 68.984601110172946 4.1903514642311492 0 4.1903514642311492 -0.99889268143966525 0 0 0 0 109.89149098983762 -67.158259746498743 0 -67.158259746498743 -55.5590366449469 0 0 0 0 105.45087754336419 -47.796022201532651 0 -47.796022201532651 -125.33865196585657 0 0 0 0 113.23244405406149 -7.7256270457110077 0 -7.7256270457110077 -80.57283447064674 0 0 0 0 76.85046233117464 -130.24849743541972 0 -130.24849743541972 -59.350614750046589 0 0 0 0 19.280604241837864 -112.65056094091597 0 -112.65056094091597 44.744436517935355 0 0 0 0 91.51143825755571 -46.978499101343459 0 -46.978499101343459 37.309746893590273 0 0 0 0 89.161719098722642 -94.662018598584979 0 -94.662018598584979 15.805921176730408 0 0 0 0 172.85505324344558 56.426672341298399 0 56.426672341298399 119.9260220476458 0 0 0 0 4.7774668026322615 -93.426649531469138 0 -93.426649531469138 229.72638163994179 0 0 0 0 43.061639067950637 -82.20068851981722 0 -82.20068851981722 276.0701761482087 0 0 0 0 2.6742697935696924 -90.560341776397763 0 -90.560341776397763 282.45146391504113 0 0 0 0 48.558537857458305 -112.07878404186636 0 -112.07878404186636 43.859873576422615 0 0 0 0 42.419206681181095 -142.1625541841745 0 -142.1625541841745 144.79603269136578 0 0 0 0 135.43394579266533 -219.53148371532279 0 -219.53148371532279 159.44949444756503 0 0 0 0 300.9558984884352 -69.869836443491522 0 -69.869836443491522 -27.600139505187371 0 0 0 0 114.69570597978964 -77.864741395983856 0 -77.864741395983856 -21.767110075779783 0 0 0 0 121.20551726358281 -18.344653931633275 0 -18.344653931633275 -165.29420417539859 0 0 0 0 161.97824785842931 35.301415720588011 0 35.301415720588011 -46.792544823607386 0 0 0 0 127.53605612477622 -61.217003911068787 0 -61.217003911068787 -136.78183919050934 0 0 0 0 187.3392437122202 1.3910275027474199 0 1.3910275027474199 -8.9421332478164004 0 0 0 0 190.09535762865926 10.116235957120352 0 10.116235957120352 -21.573574073303234 0 0 0 0 1.9514223966559072 2.0309153871495695 0 2.0309153871495695 1.4643706526227831 0 0 0 0 21.844961192897244 15.427505848529563 0 15.427505848529563 -105.38971998389479 0 0 0 0 4.8583729830916127 41.451997768626597 0 41.451997768626597 -80.358738013683251 0 0 0 0 270.65230339274058 -13.648010301147679 0 -13.648010301147679 -55.652212084296025 0 0 0 0 175.66641654971136 60.341508352859137 0 60.341508352859137 -21.915756322745438 0 0 0 0 -40.114407004999521 -21.048126981405403 0 -21.048126981405403 13.144033833561934 0 0 0 0 0.22632144875387894 -13.423734063740994 0 -13.423734063740994 13.326836999077386 0 0 0 0 -44.374428031122079 17.553710866935035 0 17.553710866935035 17.983865603341883 0 0 0 0 -29.766708113264031 25.409079807513081 0 25.409079807513081 -87.602764038924761 0 0 0 0 -1.0326271563135379 -34.983180050538522 0 -34.983180050538522 -109.21354879714818 0 0 0 0 35.235362190083549 -1.7054804668002177 0 -1.7054804668002177 -0.15636603854121578 0 0 0 0 13.431762779306155 8.5274993803514008 0 8.5274993803514008 -22.864010575035081 0 0 0 0 21.081020959129091 8.955072805074451 0 8.955072805074451 -45.211331477079966 0 0 0 0 48.037096924017533 -0.66215439010102273 0 -0.66215439010102273 -41.947397467812152 0 0 0 0 32.379355215363148 -0.33252491057241684 0 -0.33252491057241684 -1.6449282092638779 0 0 0 0 14.491868987159251 65.36945197381192 0 65.36945197381192 -293.93972980136914 0 0 0 0 30.829677191839693 2.1032866150145253 0 2.1032866150145253 -1.5209713601417758 0 0 0 0 -31.908363266804372 -40.235705308309434 0 -40.235705308309434 -27.676009321596666 0 0 0 0 -17.22665735528426 21.979337508346362 0 21.979337508346362 -34.354154407411443 0 0 0 0 24.504502689602305 -1.901282941456202 0 -1.901282941456202 -21.140041534418742 0 0 0 0 204.03079667483689 152.08609316419461 0 152.08609316419461 -217.73539148310931 0 0 0 0 44.76911961643782 -48.226611889445394 0 -48.226611889445394 -102.79952066084843 0 0 0 0 101.32247663800626 -34.115551198644539 0 -34.115551198644539 -37.837620522372163 0 0 0 0 78.665423961501801 6.4169197519040608 0 6.4169197519040608 -15.004819696729555 0 0 0 0 214.29918393218395 186.64907359443077 0 186.64907359443077 -583.9289516057961 0 0 0 0 132.85738236513862 -158.63060585554013 0 -158.63060585554013 -103.40072246081854 0 0 0 0 -3.6678828377189348 2.9791417880103381 0 2.9791417880103381 -111.25819912719544 0 0 0 0 21.737913643883076 221.13770166788709 0 221.13770166788709 -284.60439024449988 0 0 0 0 35.156599988269988 -7.7739610954619351 0 -7.7739610954619351 -0.6909625314857335 0 0 0 0 53.289481588435592 0.52434619529731208 0 0.52434619529731208 -50.514006861307735 0 0 0 0 33.639670166987344 19.291150845248922 0 19.291150845248922 -67.996246994597357 0 0 0 0 27.690486648949445 17.427981838218784 0 17.427981838218784 -29.407279526590173 0 0 0 0 56.274355306617508 -2.9898417416887924 0 -2.9898417416887924 -26.946168837823734 0 0 0 0 53.11725228022533 7.535172332956293 0 7.535172332956293 -49.371229034648422 0 0 0 0 57.567583880277027 2.8299869572252163 0 2.8299869572252163 -3.5187146309320099 0 0 0 0 42.555875096804812 12.281179054729819 0 12.281179054729819 9.5480817917205059 0 0 0 0 46.246731659284706 6.2660377980272415 0 6.2660377980272415 -23.027908209273846 0 0 0 0 28.09692993965291 3.1835255428384244 0 3.1835255428384244 1.5494842130674442 0 0 0 0 58.069815140639548 6.7020686650334937 0 6.7020686650334937 -0.127960928840821 0 0 0 0 59.614664798908052 29.648617487331535 0 29.648617487331535 6.0065207685073858 0 0 0 0 28.112944146351396 -12.461524048038243 0 -12.461524048038243 -13.808644331560146 0 0 0 0 26.509103654541832 -45.188513889246906 0 -45.188513889246906 -26.425003742063382 0 0 0 0 41.033211470856259 -17.898030085550317 0 -17.898030085550317 -21.86177937287448 0 0 0 0 71.03409646457294 -12.52831393563531 0 -12.52831393563531 -18.531827756441089 0 0 0 0 39.03098460847832 -28.202871999102172 0 -28.202871999102172 -22.5547116151929 0 0 0 0 18.713689384123427 -15.903746681974553 0 -15.903746681974553 -6.7309594747025585 0 0 0 0 30.753455182864855 6.4259128062922173 0 6.4259128062922173 -16.973678588291932 0 0 0 0 45.49970705130545 -4.7852243195109168 0 -4.7852243195109168 -2.1414427014315152 0 0 0 0 38.936808978312911 0.45833576553087596 0 0.45833576553087596 9.9684747226233412 0 0 0 0 42.021036416699644 -8.9756065961062177 0 -8.9756065961062177 -2.8676989583336763 0 0 0 0 49.624295341796824 1.3534262918946069 0 1.3534262918946069 1.03934933282153 0 0 0 0 49.190137624631461 0.63770929674399213 0 0.63770929674399213 2.4191517877743536 0 0 0 0 52.868660555445786 13.351705187449426 0 13.351705187449426 13.343408958403643 0 0 0 0 49.451436477706011 3.1041154484785238 0 3.1041154484785238 6.4572128933409658 0 0 0 0 61.541553906426998 9.376577804615863 0 9.376577804615863 -36.942015339076534 0 0 0 0 -3.9438316895520984 -26.514890977439279 0 -26.514890977439279 -7.5517783523673643 0 0 0 0 15.197803469207429 -95.295609594793859 0 -95.295609594793859 -32.915000679394325 0 0 0 0 30.189797361712166 -13.03145573411804 0 -13.03145573411804 -12.976177487087327 0 0 0 0 89.087782044225605 10.122702895378552 0 10.122702895378552 -24.821884589914362 0 0 0 0 72.810365634926711 -9.8318363306257197 0 -9.8318363306257197 -5.8870835783789062 0 0 0 0 100.81531171107054 39.26778622918664 0 39.26778622918664 0.87599111900857451 0 0 0 0 109.82916590261448 35.647359132945894 0 35.647359132945894 15.780442474679603 0 0 0 0 121.27259255541139 -11.249801570422733 0 -11.249801570422733 -18.272514069228237 0 0 0 0 79.3679970632802 21.705430714891463 0 21.705430714891463 42.760305833516668 0 0 0 0 81.652661954813084 -3.3511185327358817 0 -3.3511185327358817 -38.97680169774867 0 0 0 0 90.937885016239306 -19.682468792999771 0 -19.682468792999771 -10.376687950862106 0 0 0 0 88.798393114964711 -16.463650393513035 0 -16.463650393513035 -35.153150489252766 0 0 0 0 39.47387987832613 -7.1589963495025017 0 -7.1589963495025017 -16.68560214936376 0 0 0 0 53.243429498630576 26.4218755107795 0 26.4218755107795 -15.225789360502858 0 0 0 0 97.483239418470475 15.953280727290348 0 15.953280727290348 -64.464158898947517 0 0 0 0 79.422921221608703 -0.51750585729723753 0 -0.51750585729723753 -38.584906790497371 0 0 0 0 134.86386786492221 -14.381718293373069 0 -14.381718293373069 -20.50981151164433 0 0 0 0 116.89045583800544 5.2783826012107511 0 5.2783826012107511 -38.506568888949914 0 0 0 0 67.332269239275774 34.90215648186404 0 34.90215648186404 -14.636946545470892 0 0 0 0 111.90165187152161 64.077561362714732 0 64.077561362714732 -11.031549302522762 0 0 0 0 27.425085851202311 91.843529882159146 0 91.843529882159146 212.24250477836358 0 0 0 0 215.04417508238112 48.288138195684041 0 48.288138195684041 -9.1105765007515629 0 0 0 0 118.04866422453142 11.882343859561615 0 11.882343859561615 18.837823505886263 0 0 0 0 172.10886860793835 -44.980433577395615 0 -44.980433577395615 75.680915972976436 0 0 0 0 124.59226233474328 70.123503530905509 0 70.123503530905509 134.48657450885548 0 0 0 0 107.50782004532084 35.932853816279703 0 35.932853816279703 69.185488042399811 0 0 0 0 213.23906773296767 75.636205491211058 0 75.636205491211058 41.130166149048819 0 0 0 0 107.54242964209698 -13.782251086950055 0 -13.782251086950055 -28.008437222956672 0 0 0 0 1.7826619170971014 1.3622247634268065 0 1.3622247634268065 0.047401947435847913 0 0 0 0 198.98894702423422 6.8589492881947081 0 6.8589492881947081 -26.852019875807855 0 0 0 0 118.10721534961613 -6.4607504844810819 0 -6.4607504844810819 -5.9340383304170246 0 0 0 0 38.720401739570661 -13.53248265223101 0 -13.53248265223101 8.4070175526774165 0 0 0 0 94.372790557197732 5.6352087128975654 0 5.6352087128975654 7.407285430365846 0 0 0 0 105.56839653298812 38.780509229394056 0 38.780509229394056 15.715654411693322 0 0 0 0 83.945396313414676 26.716615810025814 0 26.716615810025814 10.594897956602608 0 0 0 0 122.56546879034431 31.762393021437219 0 31.762393021437219 0.57057946067425291 0 0 0 0 119.51912027678827 58.598207439333208 0 58.598207439333208 19.42203651179716 0 0 0 0 130.43075428899647 44.484350400000778 0 44.484350400000778 13.034078941684129 0 0 0 0 146.25315282098018 35.735288424202281 0 35.735288424202281 17.671278300523682 0 0 0 0 143.88210943597369 75.540822444466713 0 75.540822444466713 33.241315794104594 0 0 0 0 118.34547771458165 57.788146394327214 0 57.788146394327214 20.942973299539517 0 0 0 0 104.29770928480139 54.866189220302203 0 54.866189220302203 38.104513073798444 0 0 0 0 118.04834113401012 61.139844917121991 0 61.139844917121991 16.954684342807013 0 0 0 0 97.788910112314625 37.381175084054235 0 37.381175084054235 14.541175480223501 0 0 0 0 124.58835136855487 51.660616888102595 0 51.660616888102595 14.394313706016451 0 0 0 0 114.77324001905799 40.204538480599695 0 40.204538480599695 2.271643346928613 0 0 0 0 179.47141579017625 59.117066617673572 0 59.117066617673572 7.6264544365049005 0 0 0 0 109.47746946340339 62.850189415098839 0 62.850189415098839 23.735263151698291 0 0 0 0 121.79661547531759 62.059786032544821 0 62.059786032544821 16.077066228244803 0 0 0 0 99.503669241719763 45.807971895473656 0 45.807971895473656 11.829196555310091 0 0 0 0 117.58238578356395 61.900791803211177 0 61.900791803211177 21.682619800251132 0 0 0 0 74.622998505190481 57.545695218479295 0 57.545695218479295 48.877842615193231 0 0 0 0 119.53753999068431 76.006062979169428 0 76.006062979169428 35.895746076052092 0 0 0 0 155.6783158087128 92.738585520265133 0 92.738585520265133 36.944123819454944 0 0 0 0 148.54711494552612 86.119081789786378 0 86.119081789786378 37.256304777301921 0 0 0 0 88.164530171750812 96.654212601226504 0 96.654212601226504 96.719869129733524 0 0 0 0 37.340127377887256 41.083724941402124 0 41.083724941402124 48.786847288160061 0 0 0 0 70.8513063902883 40.69068984958065 0 40.69068984958065 38.74223293949899 0 0 0 0 29.626831112785027 -9.9455786118568383 0 -9.9455786118568383 2.8062169202408058 0 0 0 0 34.868573724117596 -12.082357797590589 0 -12.082357797590589 15.428043887230046 0 0 0 0 69.871417013782775 12.510735220897459 0 12.510735220897459 20.175520044467021 0 0 0 0 54.700976029533194 27.875114691984788 0 27.875114691984788 -209.55902900940259 0 0 0 0 16.421662906359416 -2.9652972975004559 0 -2.9652972975004559 -4.4678654802867186 0 0 0 0 25.0125997011084 -1.7593591383818676 0 -1.7593591383818676 0.94276523106870025 0 0 0 0 25.186793762077286 -13.362487607987759 0 -13.362487607987759 -11.456802411508761 0 0 0 0 20.768591110555974 -0.68473211507422604 0 -0.68473211507422604 -3.5585111994880885 0 0 0 0 5.6191960037803028 -4.1977596559059975 0 -4.1977596559059975 1.5013822896839484 0 0 0 0 37.709160938145942 18.059728477534009 0 18.059728477534009 8.5917917274682623 0 0 0 0 76.786864759153104 17.360394539044592 0 17.360394539044592 6.7410803705333819 0 0 0 0 46.817719859653153 0.94705314674069996 0 0.94705314674069996 15.246183080008905 0 0 0 0 40.828031971053861 7.3775049257965293 0 7.3775049257965293 15.693888290182258 0 0 0 0 75.628340414637933 22.668673498084445 0 22.668673498084445 23.018158971008347 0 0 0 0 61.561743158876197 15.358747583861657 0 15.358747583861657 19.638474465229137 0 0 0 0 -0.64097690545719388 -4.7077114412882235 0 -4.7077114412882235 -1.8232083663789851 0 0 0 0 46.891684585090843 -40.175063017529283 0 -40.175063017529283 -52.133628537550067 0 0 0 0 0.23766620749773892 -5.0169422336173497 0 -5.0169422336173497 -2.4186334490069843 0 0 0 0 -15.418331852066331 -21.79800579415587 0 -21.79800579415587 -1.5085316487604814 0 0 0 0 -3.4231650258298032 -10.547646553342929 0 -10.547646553342929 -4.8929631282162518 0 0 0 0 1.1537303630611859 2.183986629544961 0 2.183986629544961 8.2412950689018771 0 0 0 0 1.3216675630235102 -0.25560664352626361 0 -0.25560664352626361 -1.5788443595822894 0 0 0 0 -10.598085204721428 -9.5711970913898767 0 -9.5711970913898767 9.8931500356981132 0 0 0 0 52.927767198176298 6.9453230386486666 0 6.9453230386486666 6.3166797295165775 0 0 0 0 32.137164919032585 -11.975684112929414 0 -11.975684112929414 -10.957963411043877 0 0 0 0 -12.78681474467885 7.7030997275951449 0 7.7030997275951449 -32.317868195614906 0 0 0 0 -19.01170651443681 -57.756321469431441 0 -57.756321469431441 -2.305528449232952 0 0 0 0 -33.211514094509766 -16.399271949001104 0 -16.399271949001104 16.970227524167967 0 0 0 0 58.083101582618838 10.807863566013566 0 10.807863566013566 -61.672795363354453 0 0 0 0 106.89513227837597 -41.573254587479596 0 -41.573254587479596 -12.625973701395196 0 0 0 0 31.091549226839561 -62.959727973351619 0 -62.959727973351619 76.243244964515725 0 0 0 0 1.096836860380165 1.563766975164766 0 1.563766975164766 -0.48956844173750547 0 0 0 0 123.41702751042612 11.336502037212085 0 11.336502037212085 19.707935936058746 0 0 0 0 67.626451921620173 11.632623114623129 0 11.632623114623129 19.706474202259415 0 0 0 0 130.70142217633111 3.4090029234450867 0 3.4090029234450867 3.5676343613663448 0 0 0 0 276.20480202778708 45.229071399338409 0 45.229071399338409 -12.377411641429035 0 0 0 0 149.74283254108013 15.312855536764459 0 15.312855536764459 -19.388444854631871 0 0 0 0 342.93245514545561 -77.857378217128044 0 -77.857378217128044 29.481716516651431 0 0 0 0 282.76367376859707 187.26118525774473 0 187.26118525774473 70.564242115276102 0 0 0 0 0.39756995321604904 0.60818735704510374 0 0.60818735704510374 0.5603225605071005 0 0 0 0 41.203632513803313 114.71285039479221 0 114.71285039479221 -118.74431024941055 0 0 0 0 134.07660771748124 -53.435826009169773 0 -53.435826009169773 30.784954024871695 0 0 0 0 25.879003075941 -9.4505734881226999 0 -9.4505734881226999 28.259340557106498 0 0 0 0 26.153119525049988 -13.747777923519379 0 -13.747777923519379 17.087540621383596 0 0 0 0 1.7360110193785943 0.56368763136833167 0 0.56368763136833167 -0.1099302126128201 0 0 0 0 23.299509571355884 -17.596095913897443 0 -17.596095913897443 11.921653487126605 0 0 0 0 4.3987368732923642 -22.148701864311306 0 -22.148701864311306 -69.323477084819956 0 0 0 0 4.3798427606961923 -28.086008494875728 0 -28.086008494875728 -50.003501739890908 0 0 0 0 3.3748464069649344 -8.7540638504278832 0 -8.7540638504278832 -48.617831565723009 0 0 0 0 3.3626817924086936 -9.6978477676923376 0 -9.6978477676923376 -78.383763301990825 0 0 0 0 222.70602019646321 36.186277247353388 0 36.186277247353388 -234.85281539939649 0 0 0 0 10.179658671084127 -1.0541612885098104 0 -1.0541612885098104 -0.47603038367579287 0 0 0 0 273.90035017413902 -242.68687591325789 0 -242.68687591325789 -392.1163032681539 0 0 0 0 5.9065099251456559 5.2549970657000813 0 5.2549970657000813 -52.152695109255433 0 0 0 0 10.297952103297575 -20.706791946366138 0 -20.706791946366138 -90.149555707901527 0 0 0 0 9.4863664446102121 -13.266473340938091 0 -13.266473340938091 -59.084443505919808 0 0 0 0 -2.082206641411176 -6.5787723334295833 0 -6.5787723334295833 -62.493660633299157 0 0 0 0 -3.1778295511103352 -9.702505096326604 0 -9.702505096326604 -51.063718630445692 0 0 0 0 -329.26320854572987 -92.597487645080648 0 -92.597487645080648 161.21999083628481 0 0 0 0 -122.32648378086742 501.22316239954756 0 501.22316239954756 563.06041878006738 0 0 0 0 251.55319635238266 449.92983131183792 0 449.92983131183792 394.5924531276342 0 0 0 0 724.71610666680499 438.18608521079545 0 438.18608521079545 338.24558489214655 0 0 0 0 5.4576238282606937 -25.420568852258043 0 -25.420568852258043 59.952801106057649 0 0 0 0 649.6715229709589 445.76281789563126 0 445.76281789563126 107.13032337042375 0 0 0 0 3.9122321618063438 1.9045981350604322 0 1.9045981350604322 -0.5636309930266501 0 0 0 0 37.959324924231623 -8.6867221466815749 0 -8.6867221466815749 -111.099139827621 0 0 0 0 6.4051414770113979 0.84078570019132215 0 0.84078570019132215 -0.61208412782201727 0 0 0 0 188.32351389862015 -182.88092762754829 0 -182.88092762754829 167.04161593307836 0 0 0 0 562.64890842916793 86.97688129530502 0 86.97688129530502 -129.94263546772788 0 0 0 0 189.89967783246539 133.66353840222428 0 133.66353840222428 87.958806614557545 0 0 0 0 276.16697199747432 309.52585155865859 0 309.52585155865859 230.41589497924087 0 0 0 0 97.02774883182974 61.080026551970143 0 61.080026551970143 83.124522041301589 0 0 0 0 99.657861330721062 112.06016247084381 0 112.06016247084381 440.99267151122081 0 0 0 0 9.3552881815921864 -2.1249580649722475 0 -2.1249580649722475 -3.5676594662330672 0 0 0 0 7.0719863641189136 -0.64200730338217937 0 -0.64200730338217937 -0.32604512901720828 0 0 0 0 6.3468594608437172 0.16272637795314893 0 0.16272637795314893 -0.84895394400670865 0 0 0 0 -9.0589796482527163 -3.9983734253170269 0 -3.9983734253170269 29.035600385865756 0 0 0 0 191.47524906444596 -62.341335094566091 0 -62.341335094566091 -76.500856040435565 0 0 0 0 10.188027116171725 10.41312937187095 0 10.41312937187095 -15.204210287152492 0 0 0 0 7.5443308371541207 7.3848749581741604 0 7.3848749581741604 -11.684358908218385 0 0 0 0 5.5747190269830753 26.321289737537981 0 26.321289737537981 0.03536940202135818 0 0 0 0 5.692087781142618 15.97248196426809 0 15.97248196426809 -21.750985072357967 0 0 0 0 47.148184731660876 19.543420500472518 0 19.543420500472518 -22.242133764306217 0 0 0 0 70.326049526502175 -50.017760489358452 0 -50.017760489358452 3.6588621839932784 0 0 0 0 2.8223421302659517 0.59222612216208859 0 0.59222612216208859 -0.4844842333936541 0 0 0 0 14.637729203244817 7.7403420784215431 0 7.7403420784215431 -74.789671675299417 0 0 0 0 109.89002000496839 71.436979168533242 0 71.436979168533242 36.341973582527416 0 0 0 0 -1.9177302080934169 40.464207471640137 0 40.464207471640137 -25.176994117241314 0 0 0 0 7.2537953543797187 -0.93286265907920551 0 -0.93286265907920551 -0.27229760849400442 0 0 0 0 -36.567105197646015 -20.310233676834201 0 -20.310233676834201 -1.1049825081443743 0 0 0 0 -82.129515064007137 19.065940292171177 0 19.065940292171177 277.47635830834116 0 0 0 0 2.8423813862306133 -0.17415304618123173 0 -0.17415304618123173 -0.12363251909616763 0 0 0 0 82.510399856342701 -94.070632494165835 0 -94.070632494165835 -125.21327402758321 0 0 0 0 374.26294871655409 526.33233568633739 0 526.33233568633739 335.73097049856398 0 0 0 0 693.3854023985914 458.92820406209387 0 458.92820406209387 33.156246024419858 0 0 0 0 453.24784015663317 281.64169936169185 0 281.64169936169185 251.0518237599247 0 0 0 0 621.35187739222602 241.097800370534 0 241.097800370534 234.16053395863273 0 0 0 0 490.61210199043853 276.48201421669251 0 276.48201421669251 457.53905072588867 0 0 0 0 601.28399753203848 273.65202676095868 0 273.65202676095868 457.4756983202667 0 0 0 0 182.32300409160962 34.83372701841396 0 34.83372701841396 -0.08016774722999119 0 0 0 0 573.89241673549986 13.971885289018118 0 13.971885289018118 -105.49829529987809 0 0 0 0 258.27693268111034 -35.330133609689895 0 -35.330133609689895 460.22240335732863 0 0 0 0 384.31491006762371 172.72814771508891 0 172.72814771508891 142.91367070351629 0 0 0 0 380.87683564666077 143.2858254208972 0 143.2858254208972 48.061437903114097 0 0 0 0 320.20107765326975 -5.9557753426347197 0 -5.9557753426347197 74.732501019892069 0 0 0 0 182.12340835560462 -188.14137996007045 0 -188.14137996007045 265.62119365790124 0 0 0 0 635.82040680060163 143.76201953474646 0 143.76201953474646 468.7055097377222 0 0 0 0 459.72717084593023 163.62016802374461 0 163.62016802374461 468.29379416530139 0 0 0 0 618.54725207900628 83.691034453693732 0 83.691034453693732 196.53155029036856 0 0 0 0 204.37777299187292 -165.9253345154041 0 -165.9253345154041 115.96096535151264 0 0 0 0 10.906578974681906 20.806352628804405 0 20.806352628804405 12.024994794157976 0 0 0 0 -15.646452767308801 3.5536003084913546 0 3.5536003084913546 16.618592465422552 0 0 0 0 38.882768279057927 -2.4768036784407315 0 -2.4768036784407315 14.911125106577224 0 0 0 0 30.195784529583761 -14.089353791828856 0 -14.089353791828856 1.4551790298882565 0 0 0 0 37.078913268109318 23.199986930808116 0 23.199986930808116 10.710673855068432 0 0 0 0 77.308983052113035 3.0000054640104992 0 3.0000054640104992 -23.833255341510991 0 0 0 0 44.12081234359357 -33.892743425225305 0 -33.892743425225305 -38.937766456545802 0 0 0 0 -0.47507707494007967 0.027233476532529721 0 0.027233476532529721 0.68412624615465267 0 0 0 0 95.144962328595284 -28.03861711096188 0 -28.03861711096188 -150.90609485797984 0 0 0 0 87.792345997666416 5.9255870934925881 0 5.9255870934925881 -41.100030708907923 0 0 0 0 7.7261235334497176 -0.45089171440709208 0 -0.45089171440709208 0.20168479812055787 0 0 0 0 72.046688175800227 -128.35893751662942 0 -128.35893751662942 -8.5704064372269109 0 0 0 0 -8.9717328542537871 2.0028201743602096 0 2.0028201743602096 318.55800271035878 0 0 0 0 131.43887883913703 119.83736748968906 0 119.83736748968906 -67.865962218145867 0 0 0 0 151.07042343485227 94.561923926831355 0 94.561923926831355 -132.15874071054978 0 0 0 0 -17.444269230181817 44.370534169517441 0 44.370534169517441 44.546889675251279 0 0 0 0 2.4440144355076256 -0.16490485907778663 0 -0.16490485907778663 0.15785924671359525 0 0 0 0 56.502504622127162 90.747587324691366 0 90.747587324691366 62.864203098002349 0 0 0 0 47.66485371383169 -0.82550004743995942 0 -0.82550004743995942 22.756273300896851 0 0 0 0 6.0838142917588414 -3.9831169111470182 0 -3.9831169111470182 0.49389804048567881 0 0 0 0 -10.590293105758974 -55.410027897433636 0 -55.410027897433636 -2.3549871252466801 0 0 0 0 20.551064864439297 -5.9548276740388602 0 -5.9548276740388602 1.0427481093294095 0 0 0 0 14.952223030588357 26.919504853350986 0 26.919504853350986 90.678041835200588 0 0 0 0 72.077115141248214 184.90067329040562 0 184.90067329040562 153.11969686528028 0 0 0 0 40.399023923411733 38.074912634049042 0 38.074912634049042 69.291334075171562 0 0 0 0 7.0418215583853794 -2.2459498569818521 0 -2.2459498569818521 0.2415075559103057 0 0 0 0 -43.196518044220284 72.978188619427897 0 72.978188619427897 83.561841445825166 0 0 0 0 -81.936618352447113 70.28609592401267 0 70.28609592401267 92.405933850944621 0 0 0 0 -58.182525483658537 27.643365562183362 0 27.643365562183362 156.31323262336082 0 0 0 0 7.9593244656862225 2.5875724694483964 0 2.5875724694483964 -15.928332681716149 0 0 0 0 9.8924735290263186 -2.6969447290797959 0 -2.6969447290797959 -0.5050033293058519 0 0 0 0 17.736531864138669 0.43473176464948438 0 0.43473176464948438 1.3801580805346703 0 0 0 0 -151.447046819143 -47.882595488643346 0 -47.882595488643346 -37.703223741629699 0 0 0 0 11.896128982661793 -8.4850865229722103 0 -8.4850865229722103 0.72792621404842639 0 0 0 0 13.188402358463463 -6.0631641338774074 0 -6.0631641338774074 0.82030558743248427 0 0 0 0 8.9091366989596281 -4.2004594097086283 0 -4.2004594097086283 -0.23902733554055544 0 0 0 0 21.651255677017616 -0.984001693561531 0 -0.984001693561531 3.5329215703299077 0 0 0 0 53.516709307907149 -23.853724160829074 0 -23.853724160829074 -11.513584596534514 0 0 0 0 -2.9031949895979778 -36.674370845753515 0 -36.674370845753515 17.165671560521844 0 0 0 0 47.188845552896964 -26.377969211767024 0 -26.377969211767024 9.8748040318158132 0 0 0 0 -1.1579553029476983 -1.4876665916200267 0 -1.4876665916200267 1.0481374690193026 0 0 0 0 -6.4038480603048811 -1.1504026546542221 0 -1.1504026546542221 -11.968665309304043 0 0 0 0 46.109487334702862 0.32956808136019333 0 0.32956808136019333 -0.10028525457636306 0 0 0 0 1.9537838230384494 -0.87497506542587189 0 -0.87497506542587189 -0.18190490032061124 0 0 0 0 30.535473127067235 -14.209942318287741 0 -14.209942318287741 1.3438853378333135 0 0 0 0 7.3978721670355299 2.5009525792386924 0 2.5009525792386924 -12.290686886875619 0 0 0 0 3.4052567719481885 11.834101616386015 0 11.834101616386015 -14.74012422414124 0 0 0 0 3.7649916780064814 10.013827073715401 0 10.013827073715401 -5.5502952327522959 0 0 0 0 -7.4901256393350195 13.056985843094097 0 13.056985843094097 -0.032764965692280802 0 0 0 0 -0.11218209054290185 0.013290151038049203 0 0.013290151038049203 -0.15836525747864438 0 0 0 0 22.429006645572372 -10.121931678491944 0 -10.121931678491944 6.085609310228115 0 0 0 0 42.428460834882571 -25.705348185801146 0 -25.705348185801146 0.00071947170711935966 0 0 0 0 61.562357285198232 -7.6883529567817668 0 -7.6883529567817668 4.9569093704300613 0 0 0 0 45.005286975974741 -21.338583504265465 0 -21.338583504265465 2.9886037314985785 0 0 0 0 43.922015873104101 -15.651546609618748 0 -15.651546609618748 -1.2642777121761171 0 0 0 0 63.63130971663486 -14.982875443013857 0 -14.982875443013857 -15.231545949362495 0 0 0 0 59.217594333262241 -3.2711436229615831 0 -3.2711436229615831 19.714977836203325 0 0 0 0 109.17854788525392 -7.6295531484845727 0 -7.6295531484845727 -13.444282634822841 0 0 0 0 77.527799319490441 -23.063205469890089 0 -23.063205469890089 0.021443663454475313 0 0 0 0 0.21208518680898969 -0.10353323140381576 0 -0.10353323140381576 0.15840574960092543 0 0 0 0 58.06861190393829 6.3677218505313524 0 6.3677218505313524 -0.018770624633014904 0 0 0 0 65.498232448444014 4.2686982795473973 0 4.2686982795473973 -3.4589951233285881 0 0 0 0 54.687920609241701 5.9825583846312007 0 5.9825583846312007 0.07155736725358712 0 0 0 0 56.232108228214202 4.3541350694251673 0 4.3541350694251673 -1.1158988265108274 0 0 0 0 12.287211674907894 3.0060384965194515 0 3.0060384965194515 0.066485401010287867 0 0 0 0 56.174082955207268 17.818101035998133 0 17.818101035998133 2.7441838461531347 0 0 0 0 51.816863676067442 11.883175550417103 0 11.883175550417103 -5.3337787249116762 0 0 0 0 54.400803289296164 4.5234413718941759 0 4.5234413718941759 2.2932380185668393 0 0 0 0 55.651138840917156 5.3522610255879073 0 5.3522610255879073 0.75712971680085417 0 0 0 0 41.35231245525938 1.1762829254778886 0 1.1762829254778886 2.8477236005590285 0 0 0 0 36.20979026992427 19.97247510851674 0 19.97247510851674 3.6169106689805233 0 0 0 0 28.307599636369304 14.293803227103794 0 14.293803227103794 2.5698931529283375 0 0 0 0 45.351716595774633 3.1376984895710365 0 3.1376984895710365 0.12508578183563657 0 0 0 0 25.601881002034759 9.1250164092000432 0 9.1250164092000432 -0.20253487305414597 0 0 0 0 64.901524966095167 51.046920833007675 0 51.046920833007675 18.734841708854503 0 0 0 0 106.69466070866838 -1.6741565155467981 0 -1.6741565155467981 -36.656770379574823 0 0 0 0 124.66313366339455 32.764511610969933 0 32.764511610969933 -3.1445070204329113 0 0 0 0 4.8686099465441259 8.4771694874111319 0 8.4771694874111319 -2.6762590724396027 0 0 0 0 35.221366810983454 11.340229510800327 0 11.340229510800327 -4.2378320925002981 0 0 0 0 48.417623456743001 18.467048423330205 0 18.467048423330205 1.7385899648874334 0 0 0 0 84.501584152654686 12.935264351654496 0 12.935264351654496 0.38128662536702507 0 0 0 0 64.933465931084356 6.2627896338161122 0 6.2627896338161122 8.4692306923795542 0 0 0 0 46.030235302396946 -21.043424959999982 0 -21.043424959999982 -6.1635090873319136 0 0 0 0 82.440934108335568 9.47484286363607 0 9.47484286363607 8.7691526358620422 0 0 0 0 9.6026251770234694 -5.3721840436955404 0 -5.3721840436955404 -4.4566426282379297 0 0 0 0 51.548800730030052 10.581632387793483 0 10.581632387793483 -0.055574272476764941 0 0 0 0 88.204366386911715 26.523641607867155 0 26.523641607867155 -7.1639049963262105 0 0 0 0 -152.14174123157864 -277.24262121844805 0 -277.24262121844805 0.53264806123337904 0 0 0 0 5.559916579831679 2.0850093519633788 0 2.0850093519633788 -0.45902070070563999 0 0 0 0 -37.199878060760966 -121.26011389176952 0 -121.26011389176952 -211.12486441827338 0 0 0 0 -152.25154403468841 -253.51749240101393 0 -253.51749240101393 -333.48479808981244 0 0 0 0 -113.00466731313645 -407.93288300956067 0 -407.93288300956067 -2.5811842055290808 0 0 0 0 32.507475521262677 -228.04216861558075 0 -228.04216861558075 -474.84783691714165 0 0 0 0 25.104155967666884 19.607581230559845 0 19.607581230559845 -30.600956991152742 0 0 0 0 -70.771674048446584 -313.11030103887299 0 -313.11030103887299 -305.14299062656187 0 0 0 0 22.091649304158636 -136.22432920271046 0 -136.22432920271046 -199.89986825691778 0 0 0 0 -137.97144795939676 -164.05569616877801 0 -164.05569616877801 9.704346080534151 0 0 0 0 1265.3104124595993 -1073.2312593284651 0 -1073.2312593284651 -954.74559179564085 0 0 0 0 -4.8940413214731961 -490.0620825405482 0 -490.0620825405482 -605.21868834890688 0 0 0 0 174.1988507052738 -893.61601879561738 0 -893.61601879561738 7.4234111006692913 0 0 0 0 -66.222144804240088 -214.78290238795478 0 -214.78290238795478 -409.77006980183864 0 0 0 0 677.32160468413349 -142.34813073676673 0 -142.34813073676673 -2087.5383792422099 0 0 0 0 60.905515950209036 12.731618299323802 0 12.731618299323802 0.022602271280382169 0 0 0 0 223.05601767834014 217.7224428162813 0 217.7224428162813 -283.99640066808661 0 0 0 0 139.86384283556254 12.872077810149563 0 12.872077810149563 -41.018869824538001 0 0 0 0 808.68596623527992 8.5488676998924689 0 8.5488676998924689 -123.17460233377895 0 0 0 0 728.06694433780649 -174.84642604792921 0 -174.84642604792921 92.894854282433471 0 0 0 0 66.111483540266931 10.055318473125368 0 10.055318473125368 -1.3090003900772749 0 0 0 0 -84.169183512101881 157.6317311667467 0 157.6317311667467 -88.280313982870325 0 0 0 0 6.5095295986538986 246.91153751890954 0 246.91153751890954 -61.857813505505192 0 0 0 0 111.04082580981776 13.539441767053063 0 13.539441767053063 -126.52426212359171 0 0 0 0 -138.78206619378034 214.95616799121018 0 214.95616799121018 14.632508939621687 0 0 0 0 -205.95063121680141 104.3676245753399 0 104.3676245753399 -41.043431393926028 0 0 0 0 47.129059972074174 106.8788797642892 0 106.8788797642892 -152.26550024800122 0 0 0 0 10.710412528848053 5.1064439421715377 0 5.1064439421715377 -3.0406830561831262 0 0 0 0 61.538465355355584 -16.750236131722701 0 -16.750236131722701 -93.800696863811254 0 0 0 0 -142.38861267553148 146.8864628140451 0 146.8864628140451 12.399983113357393 0 0 0 0 -171.50697443232366 -22.039821238606415 0 -22.039821238606415 161.71358639150503 0 0 0 0 20.589787857461488 -29.19203687113486 0 -29.19203687113486 65.566793291766203 0 0 0 0 18.591589751344145 48.668956354987984 0 48.668956354987984 68.098290140866766 0 0 0 0 -13.370700702311296 52.629443756861292 0 52.629443756861292 68.752396688079898 0 0 0 0 185.42975056623982 231.53463661604366 0 231.53463661604366 235.33227553553479 0 0 0 0 3.1050395164033517 2.6280787114311863 0 2.6280787114311863 3.0862889751022209 0 0 0 0 25.704688321435242 -65.858512008241746 0 -65.858512008241746 247.08844949403635 0 0 0 0 960.29781712599652 155.99304166736536 0 155.99304166736536 6.5459099723004925 0 0 0 0 1034.5635555795525 -138.86708397407168 0 -138.86708397407168 25.991999170763648 0 0 0 0 540.6435370527397 23.507745722041534 0 23.507745722041534 -77.292540725109575 0 0 0 0 736.79005119876456 89.31161520831202 0 89.31161520831202 -60.438228898779812 0 0 0 0 229.06336078109598 73.679242374528656 0 73.679242374528656 18.449287261549443 0 0 0 0 7.4955727370348058 7.7939212528079906 0 7.7939212528079906 8.139390448145674 0 0 0 0 329.24322092757211 -179.94971187325734 0 -179.94971187325734 31.284543403662553 0 0 0 0 320.68952067253122 73.899675346521633 0 73.899675346521633 -5.6274856335912773 0 0 0 0 213.13279155375494 -58.050113725810434 0 -58.050113725810434 -35.276836860341746 0 0 0 0 415.71475877857301 55.572353803970145 0 55.572353803970145 -19.217538960501997 0 0 0 0 -1.5332206369421328 -7.2489894783795989 0 -7.2489894783795989 52.383424504329923 0 0 0 0 -11.502019296043727 11.459499976115353 0 11.459499976115353 28.782355925653746 0 0 0 0 -25.402986266461085 17.829069951403653 0 17.829069951403653 86.904120167167093 0 0 0 0 5.0184797733958249 10.983180082567571 0 10.983180082567571 15.408534343353026 0 0 0 0 -23.329288179556897 58.220155506049082 0 58.220155506049082 42.519019060728169 0 0 0 0 11.055569352065504 47.048942802852366 0 47.048942802852366 6.4887976603267816 0 0 0 0 -2.1547172250165971 5.2752192537759868 0 5.2752192537759868 7.471723061952682 0 0 0 0 1.9572805527423043 16.613540845300122 0 16.613540845300122 27.002479682707929 0 0 0 0 47.758503541175742 45.021240245955141 0 45.021240245955141 -13.09683778439512 0 0 0 0 21.171855052845785 52.062751439810199 0 52.062751439810199 -2.9439823971524675 0 0 0 0 5.0460272314521717 17.379585313315602 0 17.379585313315602 4.59438265307449 0 0 0 0 54.468036069680238 27.05156966676816 0 27.05156966676816 -2.2440471276458993 0 0 0 0 21.592135374987265 7.7030397583075683 0 7.7030397583075683 -6.8490675798697112 0 0 0 0 24.966047242927743 72.899704571720349 0 72.899704571720349 -45.511026282236344 0 0 0 0 83.836747117922641 -67.786887943467718 0 -67.786887943467718 165.26780174751366 0 0 0 0 14.389368750082213 -9.6707234639302442 0 -9.6707234639302442 54.809617934757739 0 0 0 0 2.1223847083353178 0.38620914410206098 0 0.38620914410206098 -0.68534930285529949 0 0 0 0 -4.2625531710845053 3.7752323092997386 0 3.7752323092997386 3.7705821156281996 0 0 0 0 158.9845050007425 15.765470597763851 0 15.765470597763851 -107.01773923111023 0 0 0 0 31.322224057279527 -1.9004027083974506 0 -1.9004027083974506 -7.9954978643945651 0 0 0 0 78.831663423021382 -46.673156984999878 0 -46.673156984999878 34.138387237448114 0 0 0 0 1.8674438987218309 9.3208805543818016 0 9.3208805543818016 28.084549401776485 0 0 0 0 12.04142944238265 -10.890039451989651 0 -10.890039451989651 35.155364988594101 0 0 0 0 0.093427740343031473 5.9693362164935024 0 5.9693362164935024 11.583237300680594 0 0 0 0 2.2866639255953487 0.17433213100412104 0 0.17433213100412104 12.010956191441437 0 0 0 0 0.18089781001617666 -7.1576778704265962 0 -7.1576778704265962 -3.2066946493459909 0 0 0 0 22.226194997456332 5.4900991309123128 0 5.4900991309123128 -1.2380239097255981 0 0 0 0 -3.6598748588585295 18.759296178634486 0 18.759296178634486 -11.042655899055262 0 0 0 0 2.8247371626348468 2.2491854975833121 0 2.2491854975833121 -1.2519719545393855 0 0 0 0 -9.5837500652560266 10.324413060707229 0 10.324413060707229 12.37346543603735 0 0 0 0 0.68691800220295818 0.85171227397692917 0 0.85171227397692917 -0.29965224322351869 0 0 0 0 35.516380453627789 -27.637493871040533 0 -27.637493871040533 -6.2820636930673572 0 0 0 0 -2.1409691274457145 -7.4783441110962485 0 -7.4783441110962485 20.382813832551847 0 0 0 0 -23.815705879431334 6.6807342606948623 0 6.6807342606948623 14.823847874571811 0 0 0 0 30.138833264296409 -0.030290656630086232 0 -0.030290656630086232 17.070636509241922 0 0 0 0 3.2282385928847361 -1.2721408731349584 0 -1.2721408731349584 21.792684587118515 0 0 0 0 3.2872138486418407 -0.70539556084645483 0 -0.70539556084645483 20.210811962410617 0 0 0 0 -3.0113600402110023 0.86328361184439473 0 0.86328361184439473 21.498807034919992 0 0 0 0 4.5941880797650754 -0.68541126965030941 0 -0.68541126965030941 -0.40381164763862287 0 0 0 0 32.923394748686405 40.7204186571023 0 40.7204186571023 44.175897578212926 0 0 0 0 3.3658048174402211 3.59823392134399 0 3.59823392134399 6.9958392782891679 0 0 0 0 24.403355837341223 -3.7779534611537429 0 -3.7779534611537429 0.31035249909359663 0 0 0 0 4.2379542881381411 -1.14446624720388 0 -1.14446624720388 -0.041411266372213262 0 0 0 0 24.60447935281627 18.965454605360549 0 18.965454605360549 0.5444721292799386 0 0 0 0 8.5180916004262599 -0.58414505943213157 0 -0.58414505943213157 0.12011208340127144 0 0 0 0 21.31130748387659 16.086849086291295 0 16.086849086291295 11.037402918836278 0 0 0 0 11.59353440158884 3.0712840152832541 0 3.0712840152832541 5.7891913870212193 0 0 0 0 25.989845894710584 -0.77985554109450561 0 -0.77985554109450561 -1.7738415363717119 0 0 0 0 23.93353506215135 13.101239288651811 0 13.101239288651811 12.169843873422678 0 0 0 0 24.270139791267866 19.317698035011063 0 19.317698035011063 8.9245100756577358 0 0 0 0 12.404618536951602 7.9751768909363818 0 7.9751768909363818 10.182669724214975 0 0 0 0 42.062876626820071 11.498620378327018 0 11.498620378327018 -5.071536713687351 0 0 0 0 131.85200509354763 107.43155855108341 0 107.43155855108341 -30.521017635375756 0 0 0 0 -5.6880392103398378 5.1315007978238043 0 5.1315007978238043 0.85868971379829162 0 0 0 0 -7.7055971761365072 133.01486032225341 0 133.01486032225341 101.71203468948806 0 0 0 0 69.393619023219799 9.4073164043202269 0 9.4073164043202269 -4.2725522181872293 0 0 0 0 2054.5497298864575 1202.2816638562217 0 1202.2816638562217 176.07927452926515 0 0 0 0 12.898289253543396 -3.7826945553648841 0 -3.7826945553648841 4.0856632827729698 0 0 0 0 808.5001117431384 1382.172981313113 0 1382.172981313113 1544.403095538888 0 0 0 0 175.13180252293387 -238.72342777772747 0 -238.72342777772747 149.81696758003295 0 0 0 0 435.55239829144557 -216.19693283988431 0 -216.19693283988431 102.27380146978237 0 0 0 0 873.74622692572302 503.19609093042118 0 503.19609093042118 380.275780166701 0 0 0 0 31.602429839595231 -12.916889633286068 0 -12.916889633286068 4.2392995503183775 0 0 0 0 840.73826946616464 289.2000847265856 0 289.2000847265856 181.86841829587291 0 0 0 0 1110.762117945982 378.30374276611718 0 378.30374276611718 188.02183150527472 0 0 0 0 1071.5401448248012 677.00478633600449 0 677.00478633600449 -12.011352322303253 0 0 0 0 14.805568219613619 -3.5424321512974615 0 -3.5424321512974615 -0.17291639100066081 0 0 0 0 414.11762645126146 390.52890207324901 0 390.52890207324901 355.49858716833251 0 0 0 0 2496.4133147826942 554.37495264415816 0 554.37495264415816 -313.42311986051777 0 0 0 0 1796.5794482694764 98.231773829597017 0 98.231773829597017 1.4055527567684145 0 0 0 0 1551.8665866352894 -7.6722008453735242 0 -7.6722008453735242 -101.89559487356843 0 0 0 0 1421.6363170327095 325.29977801561682 0 325.29977801561682 -2.838260215288301 0 0 0 0 682.09664447179239 -125.92203841681291 0 -125.92203841681291 40.4544041250399 0 0 0 0 1579.9968913392986 138.69852325137336 0 138.69852325137336 -141.9383887604078 0 0 0 0 16.519395973278876 0.050183976649265105 0 0.050183976649265105 1.1223260812246125 0 0 0 0 74.792781414646015 -15.915190395687599 0 -15.915190395687599 4.0883398427111368 0 0 0 0 67.674682423841659 -11.875492816614193 0 -11.875492816614193 0.018056762025345063 0 0 0 0 0.94614484089329665 1.5218159631389057 0 1.5218159631389057 0.64882309878459443 0 0 0 0 64.34042896767096 -10.883717223967293 0 -10.883717223967293 1.3895876459724548 0 0 0 0 64.538684317012667 -12.103451619461211 0 -12.103451619461211 4.1581190949640572 0 0 0 0 67.371232613368193 -9.3210754328710337 0 -9.3210754328710337 6.0242896920688054 0 0 0 0 56.407880152577889 -15.556261410216777 0 -15.556261410216777 1.8478035440336278 0 0 0 0 114.20684037782485 -53.676663670347239 0 -53.676663670347239 -15.293831485720375 0 0 0 0 421.16166130840429 143.00122334597336 0 143.00122334597336 68.669186983026606 0 0 0 0 60.874634527659509 -19.378060149771898 0 -19.378060149771898 26.030606692514837 0 0 0 0 49.652883795616532 -15.319211619187087 0 -15.319211619187087 1.9046180064997524 0 0 0 0 106.92315945856535 -24.907330527442696 0 -24.907330527442696 -6.1985291938556202 0 0 0 0 58.660684597081854 -46.859899887154086 0 -46.859899887154086 215.82474190041671 0 0 0 0 101.21460250223026 -5.945789744299816 0 -5.945789744299816 -10.129213783394789 0 0 0 0 80.256151884394058 -25.706356036795398 0 -25.706356036795398 5.7365070420855773 0 0 0 0 8.1773221965411835 -5.5496868334554108 0 -5.5496868334554108 -3.0860734895915503 0 0 0 0 75.207973701404626 -8.4488916299234234 0 -8.4488916299234234 3.8602249779937665 0 0 0 0 47.790460807478667 5.5998655242653399 0 5.5998655242653399 59.136865991572449 0 0 0 0 281.95867895709671 -16.480658623873637 0 -16.480658623873637 -44.670565301712259 0 0 0 0 15.046980539731216 -1.7660237635832061 0 -1.7660237635832061 -2.6166468038597359 0 0 0 0 278.90861701734684 60.654315898615835 0 60.654315898615835 11.362906169761345 0 0 0 0 484.30407829039177 177.41627455257913 0 177.41627455257913 3.5138886328693388 0 0 0 0 526.73409462408745 111.38011338942624 0 111.38011338942624 -32.319087487729462 0 0 0 0 425.72777625077651 218.70854875417976 0 218.70854875417976 81.564103146089792 0 0 0 0 168.0632503068191 567.64032052176526 0 567.64032052176526 -15.58641468129963 0 0 0 0 119.87693290165771 107.83041793308576 0 107.83041793308576 107.86576860158772 0 0 0 0 58.347027043877461 -14.395193922875798 0 -14.395193922875798 -0.00097204418656799546 0 0 0 0 58.277034894399549 -15.15938417453139 0 -15.15938417453139 0.82123894927611474 0 0 0 0 56.93900128815585 -14.479131683439091 0 -14.479131683439091 5.1366933227850353 0 0 0 0 56.779068192788941 -16.083439885291284 0 -16.083439885291284 2.398638715993493 0 0 0 0 53.093732133682352 -14.774098333481293 0 -14.774098333481293 2.0616826829019232 0 0 0 0 -307.10266840571421 13.050466573505901 0 13.050466573505901 45.113920578772678 0 0 0 0 -159.72340752529726 1063.66070842108 0 1063.66070842108 465.75483980389299 0 0 0 0 1839.9257607518521 1400.0595729905431 0 1400.0595729905431 366.35770317632387 0 0 0 0 1423.8697442220291 675.18135670627862 0 675.18135670627862 -18.525497893790543 0 0 0 0 1507.1179587314255 729.54725108248704 0 729.54725108248704 -243.99386327710943 0 0 0 0 2644.6831923294376 -249.58323314433528 0 -249.58323314433528 -281.25048078514033 0 0 0 0 3298.1668043148002 -320.80692413029936 0 -320.80692413029936 -354.60664360624287 0 0 0 0 3431.3374004635261 520.91708546231689 0 520.91708546231689 -223.30550224395074 0 0 0 0 50.270232571405955 -11.879779222494342 0 -11.879779222494342 1.3690880747112641 0 0 0 0 47.74749494241405 -7.9590790591029519 0 -7.9590790591029519 -5.3002716674982935 0 0 0 0 3881.5473129036254 -1419.1107158431173 0 -1419.1107158431173 1920.1023036350712 0 0 0 0 36.135985209897626 -11.657762012341088 0 -11.657762012341088 -0.018287765953967559 0 0 0 0 1783.2311632619449 3403.7174865230759 0 3403.7174865230759 789.75482905453441 0 0 0 0 24.397292793906075 -1.3114107164088651 0 -1.3114107164088651 -0.24348223966269522 0 0 0 0 1782.6961100611079 -881.49322942544995 0 -881.49322942544995 315.09676587769582 0 0 0 0 -445.08141796503332 2203.5425497550577 0 2203.5425497550577 146.56835833897776 0 0 0 0 27.340508857316252 8.2905032150819054 0 8.2905032150819054 2.0523551565464206 0 0 0 0 1331.8565290562328 -190.48151087840535 0 -190.48151087840535 -220.04342364379931 0 0 0 0 315.08007595148774 -679.28257372214887 0 -679.28257372214887 301.09510200071054 0 0 0 0 1271.0335461433133 277.74214219483724 0 277.74214219483724 -148.85545961184573 0 0 0 0 1130.2689108739578 60.07692809866171 0 60.07692809866171 -275.25281287545545 0 0 0 0 733.07545842532272 251.06108143199913 0 251.06108143199913 -145.60455884013973 0 0 0 0 1013.1858845675197 19.443370099401761 0 19.443370099401761 -88.084363943852622 0 0 0 0 892.92807135003386 -166.00068159860541 0 -166.00068159860541 -220.49414815073905 0 0 0 0 759.59910265116923 103.15719788351169 0 103.15719788351169 210.57641757896528 0 0 0 0 728.10614949263254 130.86380516928244 0 130.86380516928244 -54.56585381850126 0 0 0 0 762.88604672307702 105.07715001926438 0 105.07715001926438 -35.693236714293725 0 0 0 0 707.67328853832441 157.03551041623356 0 157.03551041623356 -9.0073144132709899 0 0 0 0 693.26726080590743 109.33910711513693 0 109.33910711513693 -0.030316887276498505 0 0 0 0 764.17634510976859 158.65408842339249 0 158.65408842339249 -68.533486317856728 0 0 0 0 707.90982587917097 160.94389568713979 0 160.94389568713979 -73.429998713981604 0 0 0 0 726.21156396061997 145.41416521444148 0 145.41416521444148 -62.777937659252302 0 0 0 0 635.44809304953378 111.81513590182431 0 111.81513590182431 -56.822883071289596 0 0 0 0 733.27348098202765 176.73217516629467 0 176.73217516629467 -60.714099784593145 0 0 0 0 776.80126722385467 173.56914476673751 0 173.56914476673751 -60.554584165582384 0 0 0 0 781.81623205293727 161.66932099901737 0 161.66932099901737 -75.209611860057834 0 0 0 0 746.62977324018357 175.59067623321539 0 175.59067623321539 -38.515551312767457 0 0 0 0 726.63006365056935 147.40920484311363 0 147.40920484311363 -72.47222626017151 0 0 0 0 726.53268922227653 133.85928799494292 0 133.85928799494292 -42.614611602302432 0 0 0 0 759.25824045289482 131.70161584046588 0 131.70161584046588 -77.110021792886982 0 0 0 0 685.99285939104448 68.332511083607699 0 68.332511083607699 -69.432582176259643 0 0 0 0 823.64572856550512 77.58022796338264 0 77.58022796338264 -116.03526377710205 0 0 0 0 629.64295710779516 -151.64580797417921 0 -151.64580797417921 -183.11980731078916 0 0 0 0 1.5438157825255132 1.2058659373932699 0 1.2058659373932699 -0.52889713114895953 0 0 0 0 672.36956028890563 66.649976016602238 0 66.649976016602238 -69.626333734591128 0 0 0 0 524.61333695441135 -16.297313160451679 0 -16.297313160451679 -23.55891169567829 0 0 0 0 745.73496411415545 2.9842336454037337 0 2.9842336454037337 -33.527989677834071 0 0 0 0 701.84391600935578 131.67409065331586 0 131.67409065331586 -40.743472915659382 0 0 0 0 628.66413734715024 133.19021504271169 0 133.19021504271169 -28.824894855315904 0 0 0 0 637.5021350920797 126.56942312945088 0 126.56942312945088 -46.691512607966956 0 0 0 0 728.16761365495847 135.12812593729723 0 135.12812593729723 -69.605998435306788 0 0 0 0 614.42437056786002 168.67409767543415 0 168.67409767543415 -29.334495850267899 0 0 0 0 300.97662623356155 -7.513407227313067 0 -7.513407227313067 19.156516449446514 0 0 0 0 493.51319868394057 86.928599361523084 0 86.928599361523084 -20.40903604664058 0 0 0 0 497.89555697145261 81.184652780890872 0 81.184652780890872 -29.901456129115786 0 0 0 0 0.61302160575772291 1.9871453625847408 0 1.9871453625847408 -1.0855666364766761 0 0 0 0 57.608113435249834 -18.417370192901927 0 -18.417370192901927 24.783836924777106 0 0 0 0 255.38647522784595 51.611435173761194 0 51.611435173761194 16.126457922964732 0 0 0 0 579.75150773586938 -522.63130350808251 0 -522.63130350808251 217.98241600339156 0 0 0 0 -1.5130338089156226 -2.0592028909750724 0 -2.0592028909750724 -1.4004067302799825 0 0 0 0 425.7943894778291 -351.35706970599222 0 -351.35706970599222 292.51346985520667 0 0 0 0 691.00374630845181 -390.81868276207308 0 -390.81868276207308 125.64201053197586 0 0 0 0 167.66678023562054 -21.590184128687056 0 -21.590184128687056 -32.579667512890609 0 0 0 0 901.84779067346972 -382.51607967849236 0 -382.51607967849236 -63.24188404038 0 0 0 0 7.7284814696686226 -7.7155612115904404 0 -7.7155612115904404 56.604882696543527 0 0 0 0 249.75755426535034 -18.218703909282908 0 -18.218703909282908 -49.132381681713809 0 0 0 0 0.76069628812636836 -0.74779503412315762 0 -0.74779503412315762 -0.93282966544270685 0 0 0 0 947.3120034633539 -358.63516068005845 0 -358.63516068005845 -51.425126934402101 0 0 0 0 917.14945364153391 -39.98047247131035 0 -39.98047247131035 -169.69546174778881 0 0 0 0 949.38291740696877 -359.85183449868271 0 -359.85183449868271 -196.40257658357552 0 0 0 0 993.79953013073828 -367.63767910948638 0 -367.63767910948638 -233.03165071202579 0 0 0 0 916.45884078285599 -461.69842876477662 0 -461.69842876477662 -72.289688622517531 0 0 0 0 890.0964885208632 -387.90144150191867 0 -387.90144150191867 97.356332086742782 0 0 0 0 1081.4415146025785 -676.7545369501222 0 -676.7545369501222 53.998370428028281 0 0 0 0 911.79348475887946 -436.17852798060323 0 -436.17852798060323 -127.16050932402152 0 0 0 0 1033.1135835487075 -593.32662840802323 0 -593.32662840802323 -4.4710252218996445 0 0 0 0 1090.8325218422324 -506.43846149439452 0 -506.43846149439452 -303.93242306185039 0 0 0 0 999.13834309250524 -268.70677549336574 0 -268.70677549336574 -554.83438593043525 0 0 0 0 958.60695697824394 -45.451700289443856 0 -45.451700289443856 -445.76075308734806 0 0 0 0 2494.8191787668547 610.18138669246707 0 610.18138669246707 -842.89146794046769 0 0 0 0 1852.831968631479 -255.61015009216356 0 -255.61015009216356 -418.02272603919471 0 0 0 0 2501.3836987899122 -653.34647866714204 0 -653.34647866714204 -400.2596411866229 0 0 0 0 1671.4482238437486 -836.26313334738563 0 -836.26313334738563 82.920160673810017 0 0 0 0 1669.1037425226968 -896.2990062506733 0 -896.2990062506733 -171.70665938767917 0 0 0 0 699.99190657457802 -448.67704025182769 0 -448.67704025182769 220.27625294427304 0 0 0 0 658.28037147962141 -981.84951391295681 0 -981.84951391295681 841.17884788481592 0 0 0 0 707.04481628165149 -597.8294271332984 0 -597.8294271332984 352.97881880650039 0 0 0 0 241.81502748771891 -336.13572963459137 0 -336.13572963459137 529.7400129623345 0 0 0 0 262.9957575952285 -12.3924782964516 0 -12.3924782964516 146.16370893190674 0 0 0 0 795.63747027612408 -1580.9213309917798 0 -1580.9213309917798 2169.4212284404321 0 0 0 0 2494.7447077841189 -1418.96624684518 0 -1418.96624684518 68.194071673946766 0 0 0 0 2500.1157812438432 -57.082101253305346 0 -57.082101253305346 -168.57657304450856 0 0 0 0 165.98597521832198 -73.617859547565331 0 -73.617859547565331 -57.086517122540954 0 0 0 0 27.28096622336669 21.360238672286364 0 21.360238672286364 11.304521997849807 0 0 0 0 120.82984676716467 58.495129234801055 0 58.495129234801055 -154.72237549013516 0 0 0 0 8.701175536146442 -10.258788753022003 0 -10.258788753022003 -30.789477872192762 0 0 0 0 1799.2271114716277 -360.60925879887202 0 -360.60925879887202 15.307659142058384 0 0 0 0 2497.5427416437124 -710.00993577468989 0 -710.00993577468989 141.51021377006794 0 0 0 0 10.105675674559407 4.4877992521438443 0 4.4877992521438443 -0.50773950900745568 0 0 0 0 9.1442380195330664 2.1601358404883655 0 2.1601358404883655 -8.2063338292007533 0 0 0 0 52.671430949338628 11.1246844069671 0 11.1246844069671 -135.7414527109936 0 0 0 0 430.19555933407082 -58.197617205158444 0 -58.197617205158444 -34.651763143202061 0 0 0 0 741.35095632039156 -11.656291076914613 0 -11.656291076914613 -423.12312968373453 0 0 0 0 772.60553780185728 -247.3611329431742 0 -247.3611329431742 94.736061405615487 0 0 0 0 643.76620276003086 -229.08598938293176 0 -229.08598938293176 100.97581575097865 0 0 0 0 770.93264664063463 -222.17775049825968 0 -222.17775049825968 107.63481428894818 0 0 0 0 939.20449609171192 -312.31582135629947 0 -312.31582135629947 71.428255253065799 0 0 0 0 801.40885548318329 -166.785617118814 0 -166.785617118814 -82.227980733336608 0 0 0 0 892.61173798018717 -242.68975219088179 0 -242.68975219088179 -100.83391960400979 0 0 0 0 1013.4436916905797 -246.00287805131637 0 -246.00287805131637 -289.28003738558823 0 0 0 0 785.2855312136453 -236.14240865220881 0 -236.14240865220881 -143.65752090921774 0 0 0 0 970.79154722862404 -169.34370967517876 0 -169.34370967517876 -127.25180933610091 0 0 0 0 1014.4566634335497 -32.282885053019413 0 -32.282885053019413 -54.019883407172074 0 0 0 0 1239.215613413573 -182.85984954618493 0 -182.85984954618493 -143.64627388024223 0 0 0 0 1625.2889433901 102.98078631489238 0 102.98078631489238 -30.455502856860221 0 0 0 0 1240.4066509105687 -498.29136784843274 0 -498.29136784843274 233.12206993632981 0 0 0 0 2410.7436231009633 -641.19712047233816 0 -641.19712047233816 231.37116682499303 0 0 0 0 9.4143189789790824 6.7324769250166341 0 6.7324769250166341 6.7980498092645085 0 0 0 0 30.312501927859557 447.50689863401112 0 447.50689863401112 413.47669275197131 0 0 0 0 1958.3244022621839 440.79765228713347 0 440.79765228713347 394.6472524362166 0 0 0 0 1080.7202335375114 301.46033696863719 0 301.46033696863719 815.47255969514595 0 0 0 0 890.06072145037979 300.23863761689768 0 300.23863761689768 517.13794528436483 0 0 0 0 940.10495853898465 32.06136029085792 0 32.06136029085792 363.25349675596931 0 0 0 0 743.18614717594028 107.05443736541224 0 107.05443736541224 264.3464224100108 0 0 0 0 1169.4638899946913 196.77395470148087 0 196.77395470148087 125.31904202977694 0 0 0 0 1155.8604328616493 190.3935658401042 0 190.3935658401042 346.6002079876107 0 0 0 0 951.1925333433901 122.60868219310078 0 122.60868219310078 121.08521916656355 0 0 0 0 1122.1722560136295 166.30830209642909 0 166.30830209642909 -25.354266333395117 0 0 0 0 852.29343708322995 69.372370633233686 0 69.372370633233686 -60.132722130988896 0 0 0 0 792.59326763176068 95.333791960741678 0 95.333791960741678 -70.000222040062226 0 0 0 0 908.31905281572836 141.43117255036668 0 141.43117255036668 -88.50960793305137 0 0 0 0 835.91150929297874 229.77815471840165 0 229.77815471840165 -9.700114029380984 0 0 0 0 880.96804955148946 297.70269233399006 0 297.70269233399006 216.6283689804236 0 0 0 0 796.82483610937197 183.66890512825694 0 183.66890512825694 69.922964084588557 0 0 0 0 732.16064180120884 191.67265820484408 0 191.67265820484408 79.684826566407651 0 0 0 0 710.83827660477255 185.50467447172127 0 185.50467447172127 2.1888613375988371 0 0 0 0 703.28052675045546 142.29703530825464 0 142.29703530825464 -2.6573164986357369 0 0 0 0 566.87954313962109 102.14322065116312 0 102.14322065116312 1.5431152291598664 0 0 0 0 528.32346940311982 106.95503699067217 0 106.95503699067217 126.10948132182193 0 0 0 0 633.20769142123754 181.38193996653695 0 181.38193996653695 80.110091668772839 0 0 0 0 595.25359656104774 136.716575613229 0 136.716575613229 138.63248610220444 0 0 0 0 453.94417252585845 129.55178750197706 0 129.55178750197706 196.64305580111386 0 0 0 0 738.05371801245929 151.78044902063198 0 151.78044902063198 175.32947090632797 0 0 0 0 604.52275946774898 172.4353875659508 0 172.4353875659508 236.58296757957714 0 0 0 0 530.20222180507335 99.044878411667696 0 99.044878411667696 340.25103140371129 0 0 0 0 490.83095740467434 -13.57459825518896 0 -13.57459825518896 108.09275530741434 0 0 0 0 428.50453558389563 -84.939522743232374 0 -84.939522743232374 314.79040293780997 0 0 0 0 635.45828743096354 -17.176114002154009 0 -17.176114002154009 223.87622894264723 0 0 0 0 602.78161366984205 11.008148311147352 0 11.008148311147352 264.33223160290618 0 0 0 0 433.15089132778576 -82.460803498622482 0 -82.460803498622482 165.87648339498855 0 0 0 0 352.57090208500631 -182.65136544918454 0 -182.65136544918454 201.08370987602507 0 0 0 0 421.88250313161552 -90.989226154777157 0 -90.989226154777157 192.11899765581882 0 0 0 0 407.69663433896767 -21.920172125457867 0 -21.920172125457867 225.26387250951393 0 0 0 0 626.74900726805572 -113.88418730942271 0 -113.88418730942271 226.28452930569802 0 0 0 0 739.82871977664763 127.29535450860067 0 127.29535450860067 109.52513898719701 0 0 0 0 546.03695022291504 228.69164213657666 0 228.69164213657666 141.58022813686443 0 0 0 0 873.94360910408432 115.20766863981839 0 115.20766863981839 89.935161397668196 0 0 0 0 886.35424947877982 332.30632927921147 0 332.30632927921147 -23.302535582544067 0 0 0 0 1070.430237454284 -72.063565280856722 0 -72.063565280856722 218.06326760937054 0 0 0 0 946.68896722415229 90.668596729232831 0 90.668596729232831 303.338458810784 0 0 0 0 686.42732016351692 86.755260386097007 0 86.755260386097007 416.05330508779116 0 0 0 0 771.02523735426075 -95.612026924515249 0 -95.612026924515249 316.30033373141032 0 0 0 0 1148.6403947503313 -167.71182280184871 0 -167.71182280184871 619.7794075398524 0 0 0 0 1742.6538069192284 1.0958193404758276 0 1.0958193404758276 107.61343747093315 0 0 0 0 1278.4103887595538 814.36891122052009 0 814.36891122052009 183.01236377883106 0 0 0 0 945.58433833637901 480.15831957545379 0 480.15831957545379 148.65247556805934 0 0 0 0 708.39372874806577 328.81596814017621 0 328.81596814017621 138.46528045324573 0 0 0 0 1181.1286932281801 268.23304063051523 0 268.23304063051523 -12.658378498903858 0 0 0 0 1063.5207999530248 261.79450293940545 0 261.79450293940545 4.6355815921283465 0 0 0 0 1071.4896845856997 391.07295152982437 0 391.07295152982437 -90.30138954545555 0 0 0 0 1091.1571313907043 144.87843592317267 0 144.87843592317267 -369.62810048114926 0 0 0 0 1087.5190919280894 325.89405362565537 0 325.89405362565537 -196.00298056589554 0 0 0 0 959.72520575698582 259.8639598857817 0 259.8639598857817 -74.767259647305309 0 0 0 0 1171.502184484063 396.24781711989965 0 396.24781711989965 -2.3896897564709434 0 0 0 0 962.79866716036918 294.47166368754233 0 294.47166368754233 158.46920299967269 0 0 0 0 777.12243216737261 339.04045302605664 0 339.04045302605664 149.48958514712206 0 0 0 0 1745.9845462134981 780.45799659214231 0 780.45799659214231 -338.96565963551438 0 0 0 0 1001.6164601938799 131.88247904005834 0 131.88247904005834 -60.208552867823755 0 0 0 0 1398.9609372654159 882.19411394209351 0 882.19411394209351 -448.92264127719523 0 0 0 0 2.599517187823551 -0.043748681425711311 0 -0.043748681425711311 -4.9615382111173494 0 0 0 0 2499.9319276905117 118.77548898055426 0 118.77548898055426 -123.29689569835043 0 0 0 0 2429.5492365697064 106.02835959932978 0 106.02835959932978 -74.264831161740844 0 0 0 0 3.4275606824118854 -1.4324965306807371 0 -1.4324965306807371 -12.536030584349021 0 0 0 0 788.7540662592437 345.67140335303998 0 345.67140335303998 113.35471232141936 0 0 0 0 768.45017237381944 202.07439203267734 0 202.07439203267734 -149.92748039741673 0 0 0 0 129.96584451038871 52.234615711871584 0 52.234615711871584 279.71814505273824 0 0 0 0 2499.8064768080594 46.087882289075559 0 46.087882289075559 -24.506119875247585 0 0 0 0 2.0607837446336581 -7.5567689250640342 0 -7.5567689250640342 -20.174644861615185 0 0 0 0 2393.6853352213948 -47.702514553812023 0 -47.702514553812023 -103.67985961295865 0 0 0 0 35.104908583558426 5.7820773571113477 0 5.7820773571113477 6.1836300418153769 0 0 0 0 11.072061349412252 -0.24863913068247712 0 -0.24863913068247712 16.015923236006529 0 0 0 0 9.515904134590528 2.9116566467318989 0 2.9116566467318989 9.7801075986376418 0 0 0 0 -3.0274027624618611 10.432828992312807 0 10.432828992312807 18.173610716246799 0 0 0 0 9.4185737727348169 0.88776996727710866 0 0.88776996727710866 14.631968754795707 0 0 0 0 13.464300574734807 7.9674575828439629 0 7.9674575828439629 20.583438764303537 0 0 0 0 14.194220100282109 5.3024897294026232 0 5.3024897294026232 15.760641849967982 0 0 0 0 26.892724138306221 -0.96159742551890304 0 -0.96159742551890304 17.036418337598661 0 0 0 0 46.909812847057765 11.939509451586446 0 11.939509451586446 18.039719893167899 0 0 0 0 -0.51919258880553798 1.0618613575605167 0 1.0618613575605167 3.3714131639876967 0 0 0 0 27.586366790341344 -4.4530039488891475 0 -4.4530039488891475 29.81084929181452 0 0 0 0 54.439318381176008 1.7043968056831602 0 1.7043968056831602 0.71674021637995544 0 0 0 0 59.18299229893455 32.876566922472193 0 32.876566922472193 -27.809772681139293 0 0 0 0 47.142767262412235 55.940904233260198 0 55.940904233260198 45.782520653950087 0 0 0 0 28.930358480742143 26.878512285854413 0 26.878512285854413 4.9303100907318367 0 0 0 0 5.7069167702126826 12.635974102561917 0 12.635974102561917 7.8121739929719602 0 0 0 0 50.321584277426155 -1.7410523165706309 0 -1.7410523165706309 7.4842172271387426 0 0 0 0 -38.28918027223699 43.215174794387167 0 43.215174794387167 113.01028883513936 0 0 0 0 11.201858682963802 11.455409197503627 0 11.455409197503627 63.374202238545877 0 0 0 0 4.4590348204879398 1.225394865447484 0 1.225394865447484 -0.067017655901036477 0 0 0 0 61.420719876099611 50.106931017983698 0 50.106931017983698 4.1558167341445369 0 0 0 0 -0.18636585175170239 4.2833789582482336 0 4.2833789582482336 1.9118899536086178 0 0 0 0 6.3051452410290949 14.568649675740744 0 14.568649675740744 -15.311225310234022 0 0 0 0 64.597950879237032 16.291358988018146 0 16.291358988018146 26.432010667219402 0 0 0 0 -49.573261285491753 0.78472372503892984 0 0.78472372503892984 25.272576395039323 0 0 0 0 5.2253699149522106 2.0641415083022432 0 2.0641415083022432 0.021957056671628061 0 0 0 0 -17.123635442985687 12.755692256881048 0 12.755692256881048 -10.67763012197247 0 0 0 0 1.1232162051414605 1.0035969184663474 0 1.0035969184663474 -0.40220636423092015 0 0 0 0 22.41019494671491 1.4028633311650083 0 1.4028633311650083 -13.10643077009081 0 0 0 0 8.8936095568937219 1.6845664693169198 0 1.6845664693169198 -0.45881755275018388 0 0 0 0 -30.522692924118019 -1.900827068727267 0 -1.900827068727267 -3.2695068296488898 0 0 0 0 13.088402447676344 -1.9968731605617904 0 -1.9968731605617904 -28.586290841751179 0 0 0 0 13.72284048734582 11.088878950230537 0 11.088878950230537 52.824212483263182 0 0 0 0 22.154712318956172 3.6679336428212288 0 3.6679336428212288 -1.2513002649033838 0 0 0 0 28.800599034650077 9.5544492509829979 0 9.5544492509829979 35.554826832141401 0 0 0 0 9.1370467329143139 3.9190468834774492 0 3.9190468834774492 42.672962028352231 0 0 0 0 19.532847650887561 35.564411920482598 0 35.564411920482598 25.717340264653103 0 0 0 0 17.1509608883498 40.61120788055814 0 40.61120788055814 29.292571864653837 0 0 0 0 0.70699465777857995 0.9308024355498894 0 0.9308024355498894 -0.32862868127592426 0 0 0 0 23.248400003954885 -1.0412732253898866 0 -1.0412732253898866 -24.454747922580282 0 0 0 0 13.047058294148002 3.9869205137285801 0 3.9869205137285801 3.9966790578025946 0 0 0 0 78.997627710443339 17.203418001979117 0 17.203418001979117 26.369037174477853 0 0 0 0 39.852924651582725 23.262712498992187 0 23.262712498992187 32.175656919533139 0 0 0 0 47.981200051784981 12.239754002228437 0 12.239754002228437 -21.828641764052009 0 0 0 0 18.095240681021096 34.926559462468163 0 34.926559462468163 21.507563349029624 0 0 0 0 -29.400882531634124 -27.146885277224328 0 -27.146885277224328 30.275277045897383 0 0 0 0 -7.1236927971085038 6.498341429929809 0 6.498341429929809 24.714777268905479 0 0 0 0 -4.7411875931429677 46.450335938551689 0 46.450335938551689 37.587641990161501 0 0 0 0 -9.9129556503431218 -2.7599198583924505 0 -2.7599198583924505 8.8203610278653812 0 0 0 0 -3.4902062486408738 -1.728045253050329 0 -1.728045253050329 9.8574856294569848 0 0 0 0 -28.489198709270568 -11.342657519073555 0 -11.342657519073555 23.025743910294693 0 0 0 0 14.53374519625504 -10.052458412913893 0 -10.052458412913893 18.477484544454001 0 0 0 0 4.7021618230210152 -8.4147028959796444 0 -8.4147028959796444 67.066388235125487 0 0 0 0 -7.6987924328896042 9.9169935779437992 0 9.9169935779437992 40.924692642201535 0 0 0 0 4.3128128870084765 5.9452204476273209 0 5.9452204476273209 17.163515117097155 0 0 0 0 2.2113224445929518 3.1683139483200193 0 3.1683139483200193 14.092249405852272 0 0 0 0 1.2889290812753416 -0.090721319381160015 0 -0.090721319381160015 17.873831706206808 0 0 0 0 5.6805603337068078 -10.169016535073709 0 -10.169016535073709 51.452941407964317 0 0 0 0 5.9445722962394711 19.406785001776285 0 19.406785001776285 41.247917001517635 0 0 0 0 27.315614711573289 20.544857214104923 0 20.544857214104923 -5.1091047194349812 0 0 0 0 3.6113344275458132 2.8147395154553863 0 2.8147395154553863 -2.9078859665994052 0 0 0 0 11.332911765857716 7.8698789602949546 0 7.8698789602949546 45.214708573342023 0 0 0 0 14.27418861471233 -4.4487233244890376 0 -4.4487233244890376 87.417695683780039 0 0 0 0 7.4706659557414241 8.9251005634564535 0 8.9251005634564535 48.34121661556037 0 0 0 0 14.651825816428754 13.222960547427647 0 13.222960547427647 29.988586218581077 0 0 0 0 10.278692872961983 23.05865049395652 0 23.05865049395652 40.998714488216137 0 0 0 0 525.5845236831592 140.23739009206565 0 140.23739009206565 4.9403129957618148 0 0 0 0 527.01761155982149 120.99960200245776 0 120.99960200245776 -46.664483962248596 0 0 0 0 499.68319313523534 146.59999978048199 0 146.59999978048199 34.851631357294082 0 0 0 0 416.70521852852835 127.11877760125617 0 127.11877760125617 23.243874418493306 0 0 0 0 449.15638845843205 112.45630406781038 0 112.45630406781038 18.944115105690685 0 0 0 0 247.47019493438711 196.95550924237068 0 196.95550924237068 213.82890745044961 0 0 0 0 27.353308550460497 51.398383486446164 0 51.398383486446164 117.76547675066047 0 0 0 0 150.83562306061503 164.67243161503347 0 164.67243161503347 132.07802746511879 0 0 0 0 194.78556597843999 56.771804017099839 0 56.771804017099839 22.3073796296203 0 0 0 0 373.22324138817203 81.858739274396839 0 81.858739274396839 19.099869507664152 0 0 0 0 97.751893471751828 20.501419655367954 0 20.501419655367954 50.463015676466512 0 0 0 0 147.29582562374708 98.578657195959295 0 98.578657195959295 79.383120884769596 0 0 0 0 35.889992692245869 45.297349348476473 0 45.297349348476473 81.151908702909665 0 0 0 0 65.959249777821242 23.210670774126356 0 23.210670774126356 57.385663884189853 0 0 0 0 0.23522511300883764 -1.4200228842935019 0 -1.4200228842935019 0.80712000658306593 0 0 0 0 -31.439493019075599 -6.4860388525266899 0 -6.4860388525266899 64.426544427160479 0 0 0 0 149.26663485425524 137.78005486580469 0 137.78005486580469 165.31912068365978 0 0 0 0 -87.680975866671361 37.643611955762253 0 37.643611955762253 133.50406347036187 0 0 0 0 0.11540029113876926 2.3375981033696007 0 2.3375981033696007 13.429854489650182 0 0 0 0 0.54259484008781556 -0.46390526832485879 0 -0.46390526832485879 2.1348008024238205 0 0 0 0 220.13545241895918 -39.571877388710618 0 -39.571877388710618 -133.36489251099965 0 0 0 0 434.01860631561794 176.73363686487619 0 176.73363686487619 6.0782911972632974 0 0 0 0 519.14285475396173 81.703437122299874 0 81.703437122299874 66.770083168280962 0 0 0 0 415.36407373885595 -0.29689508922501773 0 -0.29689508922501773 -17.985810875050674 0 0 0 0 148.36539423603244 -46.739032096939809 0 -46.739032096939809 -1.763584573481694 0 0 0 0 1.5785493943810138 0.68519961233362459 0 0.68519961233362459 4.2880002019852199 0 0 0 0 136.80974970615353 -63.523648896911254 0 -63.523648896911254 27.985249156097325 0 0 0 0 -81.043343249126337 18.383265604302323 0 18.383265604302323 13.095199148511256 0 0 0 0 -9.2169927855429705 -70.832126635933491 0 -70.832126635933491 50.190425397004219 0 0 0 0 -92.589765491342405 -2.9541542544184267 0 -2.9541542544184267 66.649492317072145 0 0 0 0 -68.992526054440532 -43.662969880183482 0 -43.662969880183482 85.394815969619685 0 0 0 0 -24.392852476868939 -16.913150740849915 0 -16.913150740849915 92.286825420832429 0 0 0 0 10.414996622654144 0.022199869300038699 0 0.022199869300038699 80.067032000222753 0 0 0 0 -15.695444024080643 19.180127237285205 0 19.180127237285205 74.024231366005552 0 0 0 0 98.929845415485033 -34.768231108937016 0 -34.768231108937016 59.60678639330672 0 0 0 0 -6.9577381456765579 20.660829629706768 0 20.660829629706768 63.60861355268753 0 0 0 0 117.68880130076286 -4.2833995393350506 0 -4.2833995393350506 96.239077207867922 0 0 0 0 154.16631886818686 -15.824779454116594 0 -15.824779454116594 92.985132670053645 0 0 0 0 374.15470016791369 34.655233608842082 0 34.655233608842082 150.11671495390249 0 0 0 0 243.7950904151221 -89.621276243665079 0 -89.621276243665079 80.423043077882994 0 0 0 0 10.085499847415491 3.2035388083422038 0 3.2035388083422038 1.8055928742305514 0 0 0 0 0.78842176088801352 4.2804416357048467 0 4.2804416357048467 14.067504194561479 0 0 0 0 3.5851817336724707 34.944499616806624 0 34.944499616806624 -6.6989148291863785 0 0 0 0 4.6262998939277367 7.1189455224006792 0 7.1189455224006792 11.72669966421906 0 0 0 0 8.0086316528031603 6.1281056544221428 0 6.1281056544221428 6.6759109110882946 0 0 0 0 8.8369828656940967 10.641603307445248 0 10.641603307445248 8.3460484638543075 0 0 0 0 8.9623259709987906 3.5411822131727604 0 3.5411822131727604 10.89181587114399 0 0 0 0 9.295521127351094 4.5123095824537813 0 4.5123095824537813 7.9688444383946262 0 0 0 0 -2.4825546823267359 5.2064641120794022 0 5.2064641120794022 10.024617836278367 0 0 0 0 0.22609986837230167 5.057754815800152 0 5.057754815800152 25.334741180315039 0 0 0 0 2.3906098626903258 3.928508508237428 0 3.928508508237428 12.332207593621206 0 0 0 0 4.2595978811220903 6.6619118131550863 0 6.6619118131550863 10.335430334601128 0 0 0 0 6.5560229930269998 1.3894320609397255 0 1.3894320609397255 13.46002368933523 0 0 0 0 -154.53038761281641 125.51087678999784 0 125.51087678999784 -134.11858130217115 0 0 0 0 0.83862382939561542 4.779213244428405 0 4.779213244428405 14.294547549041447 0 0 0 0 -154.33577032749599 -16.676320236081665 0 -16.676320236081665 64.561764120140651 0 0 0 0 8.9659143600729294 0.7984746391466615 0 0.7984746391466615 12.369737786285896 0 0 0 0 -98.335182909460855 -29.368782781291429 0 -29.368782781291429 -33.718644553386184 0 0 0 0 8.9516748463611293 4.4784412661665556 0 4.4784412661665556 14.912052614714412 0 0 0 0 9.8018594408058561 2.3727374020104435 0 2.3727374020104435 11.746777973766939 0 0 0 0 6.213240175628016 4.0060465897163908 0 4.0060465897163908 11.275260390742915 0 0 0 0 -106.33465162774928 94.719599230890083 0 94.719599230890083 57.404531340418544 0 0 0 0 13.337379493677872 6.7660701622327224 0 6.7660701622327224 16.089783406838364 0 0 0 0 12.590344709409692 4.0679334196796617 0 4.0679334196796617 14.555475985001067 0 0 0 0 -147.43761669566902 58.341608574299727 0 58.341608574299727 89.932485522565003 0 0 0 0 25.278080475152819 -35.192898633891275 0 -35.192898633891275 95.766556243687319 0 0 0 0 2.1919662523605226 5.4637558978151617 0 5.4637558978151617 15.629793480131553 0 0 0 0 -109.9640550618642 29.451817607568046 0 29.451817607568046 108.41184214014902 0 0 0 0 -95.42542267699173 18.883305601984603 0 18.883305601984603 84.030395353485801 0 0 0 0 -75.594836754869903 0.595848323433529 0 0.595848323433529 94.172241762169506 0 0 0 0 -69.76458370135515 53.792807868567252 0 53.792807868567252 79.667734351076433 0 0 0 0 -33.371812112261978 93.920728238796301 0 93.920728238796301 -32.691411153142326 0 0 0 0 -5.2720667802204844 20.437917986397224 0 20.437917986397224 55.263252505818855 0 0 0 0 60.032253421966743 30.496686694603682 0 30.496686694603682 -25.426915772994562 0 0 0 0 -34.978472775528644 -3.6050298346058298 0 -3.6050298346058298 70.635680675968047 0 0 0 0 42.601808400697337 8.6496863494778609 0 8.6496863494778609 -12.266024006355394 0 0 0 0 46.41093782576354 8.4041163596325248 0 8.4041163596325248 -13.338471942852493 0 0 0 0 3.8506499955340701 6.9172221447401796 0 6.9172221447401796 13.782276721675853 0 0 0 0 -0.51442756386555288 -0.33980294214120477 0 -0.33980294214120477 3.0168011366918712 0 0 0 0 40.268312830841751 -16.087736024258902 0 -16.087736024258902 55.248102968832427 0 0 0 0 49.180294570120168 -13.579165048907726 0 -13.579165048907726 -106.7092813703789 0 0 0 0 29.765600804734277 -100.38854258458468 0 -100.38854258458468 0.94714577764898422 0 0 0 0 15.583303507955861 -110.37113639771883 0 -110.37113639771883 91.723037957493943 0 0 0 0 -28.852788051603056 -24.060899689126586 0 -24.060899689126586 97.268866481621444 0 0 0 0 99.040884914837079 -140.36177837720584 0 -140.36177837720584 155.43512271084182 0 0 0 0 91.317091844139213 -16.689715391850086 0 -16.689715391850086 10.396737726550327 0 0 0 0 0.74505254266472321 2.9629313007383189 0 2.9629313007383189 11.348017223189878 0 0 0 0 266.69089514178631 -114.64761036583377 0 -114.64761036583377 210.42533496580779 0 0 0 0 248.77172281574894 -65.68306723348428 0 -65.68306723348428 88.025679799639875 0 0 0 0 106.05330012680497 -91.570774282742605 0 -91.570774282742605 126.05837375749024 0 0 0 0 115.39405020006234 -50.642487047847681 0 -50.642487047847681 29.06753800977765 0 0 0 0 136.44673733784748 -138.12571409791119 0 -138.12571409791119 180.21233908000249 0 0 0 0 131.1292299365814 -80.443361856787305 0 -80.443361856787305 78.015711917461886 0 0 0 0 257.04144798983907 -153.31245346311471 0 -153.31245346311471 139.48855058567892 0 0 0 0 258.17932707910222 -133.04668938777877 0 -133.04668938777877 256.39916149297972 0 0 0 0 221.62982834128343 -190.59243194090016 0 -190.59243194090016 191.47697715743209 0 0 0 0 155.48267376902368 -166.18813306915092 0 -166.18813306915092 216.57490357997062 0 0 0 0 161.16665119816571 -158.67338215976275 0 -158.67338215976275 110.10133847736188 0 0 0 0 161.76366194687944 -148.68339030961454 0 -148.68339030961454 166.10823989447408 0 0 0 0 237.31634728038625 -153.33539943792618 0 -153.33539943792618 226.50336622825921 0 0 0 0 166.68950518997008 -214.17295086348582 0 -214.17295086348582 200.47571121950415 0 0 0 0 0.45210074519015819 0.78746024281915084 0 0.78746024281915084 4.1268867935102032 0 0 0 0 113.51865128794088 21.528186312063923 0 21.528186312063923 41.326859881088012 0 0 0 0 234.7356894525692 -222.6403992368993 0 -222.6403992368993 244.79440593049537 0 0 0 0 135.73570623360865 -194.19098703027248 0 -194.19098703027248 228.25924314707038 0 0 0 0 215.32624110407414 -162.31783821999068 0 -162.31783821999068 61.552126068099824 0 0 0 0 155.33671963554661 -135.38936306119581 0 -135.38936306119581 250.57839139239042 0 0 0 0 138.64600148905811 -152.43583783810669 0 -152.43583783810669 380.31366931247624 0 0 0 0 6.3085905135885696 -93.202221668180215 0 -93.202221668180215 39.561381051243472 0 0 0 0 -10.61974062238005 -141.06407124133878 0 -141.06407124133878 556.9313646884475 0 0 0 0 109.30659833594837 2.6521238047380393 0 2.6521238047380393 -39.684186883846905 0 0 0 0 -164.30334218012285 52.489407630553771 0 52.489407630553771 179.62167354226139 0 0 0 0 0.73474581113319459 1.3022528885103668 0 1.3022528885103668 2.716393149331557 0 0 0 0 13.181382894466878 -21.013284756268362 0 -21.013284756268362 -32.710682716429574 0 0 0 0 -1.4032631851150654 22.130340216176364 0 22.130340216176364 14.709470949738716 0 0 0 0 -64.961991548581864 71.474572448823309 0 71.474572448823309 236.06337324804963 0 0 0 0 1.0492633477405917 2.9483578385237763 0 2.9483578385237763 7.5897474545902144 0 0 0 0 30.732482437626459 -54.834049054725995 0 -54.834049054725995 -29.109254710234854 0 0 0 0 2.7815588318040056 4.582455716532337 0 4.582455716532337 9.5204896823332898 0 0 0 0 5.499485953208918 4.4424225597569063 0 4.4424225597569063 5.4308779209427414 0 0 0 0 -2.7885131033617654 -13.226850002011588 0 -13.226850002011588 23.123759552046181 0 0 0 0 -15.715436712569499 40.491591667624732 0 40.491591667624732 1.0866177727852886 0 0 0 0 8.8066498664793471 16.596176482228771 0 16.596176482228771 12.797390495831678 0 0 0 0 14.484425007234677 2.4696037295498172 0 2.4696037295498172 16.9156876856282 0 0 0 0 28.16264498055898 5.4152309149492339 0 5.4152309149492339 16.481738800410312 0 0 0 0 7.105198909095634 1.5244903778377648 0 1.5244903778377648 20.808863458990345 0 0 0 0 51.321129789226688 -12.849311184610087 0 -12.849311184610087 9.7496738675149572 0 0 0 0 46.162576451908535 -24.624162677414461 0 -24.624162677414461 -12.707668815100988 0 0 0 0 5.2683690495246962 -8.4683629687698527 0 -8.4683629687698527 16.710918973811882 0 0 0 0 59.20602740310278 4.0686382127939851 0 4.0686382127939851 10.486269606638416 0 0 0 0 29.693869052804075 10.370103627257777 0 10.370103627257777 27.85150397376708 0 0 0 0 68.110427691928635 -6.7062560075141846 0 -6.7062560075141846 22.156721739604336 0 0 0 0 24.445637488375723 -10.771268305732065 0 -10.771268305732065 15.851264518464632 0 0 0 0 56.359474505734397 -48.837355538997144 0 -48.837355538997144 -51.660848310962137 0 0 0 0 56.188662618682429 -36.845382534967484 0 -36.845382534967484 -2.302673648399832 0 0 0 0 51.684308235860954 -140.60635023968189 0 -140.60635023968189 -59.627659256209881 0 0 0 0 -95.207614970127906 -82.991817868914495 0 -82.991817868914495 1.4443022258847122 0 0 0 0 58.398184425095678 -52.810131283307783 0 -52.810131283307783 -27.609188911352703 0 0 0 0 0.86851766699666921 -7.2108716185972952 0 -7.2108716185972952 7.5796841746048251 0 0 0 0 35.352712976338807 8.1833167768277235 0 8.1833167768277235 -0.6429369394081732 0 0 0 0 10.977275887183168 6.4357967559231568 0 6.4357967559231568 6.2848420854405438 0 0 0 0 -170.99058037244686 -34.341559631052988 0 -34.341559631052988 5.8506673252609858 0 0 0 0 2.6229665426976965 -2.5904570534250624 0 -2.5904570534250624 0.37933761853932424 0 0 0 0 115.81879267129989 -95.216869460919497 0 -95.216869460919497 -70.902283992519187 0 0 0 0 -770.04552725865506 -454.61067361700407 0 -454.61067361700407 -276.84255660209965 0 0 0 0 44.204865226929542 -49.839298963457622 0 -49.839298963457622 -85.188819884119766 0 0 0 0 350.36903866651119 206.59419273060212 0 206.59419273060212 -252.49266715877317 0 0 0 0 35.013963926656288 -122.89318358458604 0 -122.89318358458604 785.24022482040618 0 0 0 0 360.36126572607054 377.55226296418226 0 377.55226296418226 296.13331367914179 0 0 0 0 -314.80169926399321 361.62295233028766 0 361.62295233028766 68.567411840012596 0 0 0 0 266.93487256651861 -321.46849447987665 0 -321.46849447987665 338.54057596426992 0 0 0 0 0.76528297639818277 2.4749706415741173 0 2.4749706415741173 2.9954556447993426 0 0 0 0 187.19871618318575 -181.26510034698038 0 -181.26510034698038 93.769330785455168 0 0 0 0 1.6021887489233029 1.8922733176744515 0 1.8922733176744515 8.0407236995853548 0 0 0 0 -3.3203052823955659 -224.96474916465417 0 -224.96474916465417 639.28898488827122 0 0 0 0 -279.81279744439598 206.56432775940294 0 206.56432775940294 504.90220077380195 0 0 0 0 211.88335200757137 -146.53136768282434 0 -146.53136768282434 172.61356117774613 0 0 0 0 -158.45340700626548 -424.44510716937378 0 -424.44510716937378 475.87606908964653 0 0 0 0 518.04650486559694 -202.20077933665107 0 -202.20077933665107 -365.46371864686387 0 0 0 0 1.3222164251783397 24.03631916633401 0 24.03631916633401 -24.637963405074458 0 0 0 0 -1.4947349803372845 -5.4995642240212899 0 -5.4995642240212899 0.72452442979302667 0 0 0 0 -562.19920288296998 -31.760809620453301 0 -31.760809620453301 301.99240914026279 0 0 0 0 -0.047019317360536661 -30.201236556700621 0 -30.201236556700621 89.750884820272404 0 0 0 0 -1.9775885051977724 2.0072416202641961 0 2.0072416202641961 9.4170684742114794 0 0 0 0 -22.190517352817551 4.9432858520112006 0 4.9432858520112006 2.1709879711712574 0 0 0 0 -2.7611737077540326 -3.1109344335041698 0 -3.1109344335041698 -3.2016244854241531 0 0 0 0 -12.419829192891484 -10.372880618821057 0 -10.372880618821057 10.763032372446332 0 0 0 0 -2.4695509991142899 -10.090124140069122 0 -10.090124140069122 0.32208916715649138 0 0 0 0 -11.463083831375116 -16.54878317060097 0 -16.54878317060097 71.396652393503246 0 0 0 0 1.1382685548305744 -1.5506766316273115 0 -1.5506766316273115 8.5232978143423566 0 0 0 0 -7.5567029402591288 -0.2424490882872874 0 -0.2424490882872874 29.918197295606774 0 0 0 0 2.0678192986379145 -41.83751308686891 0 -41.83751308686891 39.012675019770725 0 0 0 0 -1.1490959969742107 -28.741332533284101 0 -28.741332533284101 4.4878781061870541 0 0 0 0 9.6992890802503098 -43.526877701949871 0 -43.526877701949871 20.816713500131726 0 0 0 0 201.98465412674705 -71.929901997294152 0 -71.929901997294152 39.614054053162761 0 0 0 0 33.975921929355991 2.2628165933533015 0 2.2628165933533015 123.38263373058163 0 0 0 0 31.382908474595752 -24.294233231944162 0 -24.294233231944162 40.752208259305803 0 0 0 0 -11.593265014213102 10.235384353456197 0 10.235384353456197 28.780146157200761 0 0 0 0 26.311718200304313 -50.476766734993816 0 -50.476766734993816 31.390733206794778 0 0 0 0 49.134797632505069 -42.180597611920007 0 -42.180597611920007 33.859394559481558 0 0 0 0 6.4334417121368688 -2.7566996962158052 0 -2.7566996962158052 -0.9382809903763133 0 0 0 0 95.649587644307758 -26.039148275228172 0 -26.039148275228172 -17.372406267787369 0 0 0 0 72.462866915433551 223.52269157454538 0 223.52269157454538 -282.20181587381313 0 0 0 0 125.98147355835317 -264.03258038954073 0 -264.03258038954073 283.4175039267185 0 0 0 0 -12.143733953635092 -268.65801260280455 0 -268.65801260280455 293.76805949879713 0 0 0 0 -204.89925516206131 -1.0535664365185369 0 -1.0535664365185369 154.48348136441916 0 0 0 0 48.469737614723272 88.186928797113012 0 88.186928797113012 272.46478875603344 0 0 0 0 307.82753843536921 -186.69748808683141 0 -186.69748808683141 215.95287223036121 0 0 0 0 307.78181343894903 -85.083314238765809 0 -85.083314238765809 -27.637421725990514 0 0 0 0 221.2309650422394 167.877788928174 0 167.877788928174 -348.04541958668017 0 0 0 0 211.22583447167563 -325.42390602985449 0 -325.42390602985449 427.14437089133338 0 0 0 0 3.6117220789662952 -0.982097825581147 0 -0.982097825581147 -0.066006559072878515 0 0 0 0 231.56779742204344 -225.56815250470754 0 -225.56815250470754 150.27230368531485 0 0 0 0 333.9651087049524 -204.47698039659807 0 -204.47698039659807 159.87544116776689 0 0 0 0 270.4089728253748 -174.49767050002754 0 -174.49767050002754 149.26901819812863 0 0 0 0 248.01592522783176 -175.33628889983729 0 -175.33628889983729 270.43738263667603 0 0 0 0 445.75794004548516 -96.457322016476439 0 -96.457322016476439 182.28620218311096 0 0 0 0 245.93587475882032 -158.88522065426082 0 -158.88522065426082 142.68192162697511 0 0 0 0 1.7807800121436799 0.25436663359454847 0 0.25436663359454847 -0.16591440823348036 0 0 0 0 117.34422364698185 -249.37284553593238 0 -249.37284553593238 80.125331065623826 0 0 0 0 163.28593922434629 45.107018763830354 0 45.107018763830354 -140.89464623525953 0 0 0 0 7.2281471378591959 5.5877200450168516 0 5.5877200450168516 54.316992021819203 0 0 0 0 222.56939180176778 -213.78319755359371 0 -213.78319755359371 120.74659455534862 0 0 0 0 292.42443433034714 -168.74492202957731 0 -168.74492202957731 -86.695851083693469 0 0 0 0 170.18905182524577 -232.20112413827769 0 -232.20112413827769 -93.595449746248164 0 0 0 0 52.228042688278947 -41.045764429545557 0 -41.045764429545557 -255.60227572570585 0 0 0 0 28.211863817370613 106.73183821339103 0 106.73183821339103 -384.84858606308785 0 0 0 0 166.23686871642258 8.91484002997435 0 8.91484002997435 -233.88667093506524 0 0 0 0 92.563669166316686 84.848742758517119 0 84.848742758517119 -403.22350423729551 0 0 0 0 -11.156077491003089 -34.022664515222402 0 -34.022664515222402 -172.46006210742928 0 0 0 0 212.37367098487812 -174.91283121922169 0 -174.91283121922169 114.95555211880264 0 0 0 0 -10.007543235751655 -54.247856215203171 0 -54.247856215203171 117.715502711976 0 0 0 0 486.76730171347299 -367.88435462955329 0 -367.88435462955329 74.853392387555971 0 0 0 0 328.23822885267873 -312.07456124206442 0 -312.07456124206442 81.139985111103243 0 0 0 0 387.1094947023812 -186.6365661729638 0 -186.6365661729638 -90.358172763383436 0 0 0 0 323.82329568303248 -185.52817977917485 0 -185.52817977917485 -265.79062551219857 0 0 0 0 300.86261263491906 -242.66818389725194 0 -242.66818389725194 -92.591040201135002 0 0 0 0 359.8117084772457 -229.52873704187851 0 -229.52873704187851 -95.966615171985893 0 0 0 0 361.47460492281971 -180.97074288674176 0 -180.97074288674176 -5.2550651528072194 0 0 0 0 222.39906039503694 -83.881582762213824 0 -83.881582762213824 -71.077879146082722 0 0 0 0 460.72592763530156 -176.30605630016981 0 -176.30605630016981 -332.30392054551169 0 0 0 0 561.13227918086704 92.70123234879506 0 92.70123234879506 9.811757071323143 0 0 0 0 319.8356289714211 -208.58518643793025 0 -208.58518643793025 -321.27074583453572 0 0 0 0 -40.780388526625757 142.94945430049449 0 142.94945430049449 556.05243985175468 0 0 0 0 7.1716618811977355 2.1561350613850738 0 2.1561350613850738 0.296241029480656 0 0 0 0 177.28802327340236 134.28643313018381 0 134.28643313018381 -118.55216081440449 0 0 0 0 178.50202137515589 365.18272581357769 0 365.18272581357769 280.03080518927516 0 0 0 0 607.85923206836196 -219.54306616859984 0 -219.54306616859984 -6.0435335840688253 0 0 0 0 44.095112673210679 -68.680936458511269 0 -68.680936458511269 -510.88294916991686 0 0 0 0 15.589570242196714 109.24580488664354 0 109.24580488664354 -25.285581641302315 0 0 0 0 19.17178887388306 5.7245833213393524 0 5.7245833213393524 -0.12016094180847525 0 0 0 0 122.06233271760357 103.64500028091993 0 103.64500028091993 -678.92897382931517 0 0 0 0 -163.75508632624405 169.31542832943455 0 169.31542832943455 -355.1255911783208 0 0 0 0 -222.19205403896922 -36.037582276334319 0 -36.037582276334319 -305.09261228301165 0 0 0 0 23.50435620121425 -251.05261097713742 0 -251.05261097713742 -247.8044925893231 0 0 0 0 -89.742964770586696 -187.23856367776648 0 -187.23856367776648 -244.99722520091919 0 0 0 0 135.85161761034396 -119.58881493990111 0 -119.58881493990111 -314.39797316893873 0 0 0 0 8.1435212977812625 116.51906607746434 0 116.51906607746434 204.69437062115281 0 0 0 0 91.49688734395022 202.04195847782012 0 202.04195847782012 -72.947501393712173 0 0 0 0 104.56177691815537 -33.870859405093768 0 -33.870859405093768 135.44657997271048 0 0 0 0 -15.797207873536536 148.20854791001369 0 148.20854791001369 187.30490280832691 0 0 0 0 17.151868919987464 -39.04443757274754 0 -39.04443757274754 -120.73980890178021 0 0 0 0 0.84836685320439642 2.3721844649579573 0 2.3721844649579573 -0.56903343653318295 0 0 0 0 57.998596521327272 34.706947540067858 0 34.706947540067858 -119.85040013319207 0 0 0 0 15.156363469473945 111.55374693750645 0 111.55374693750645 -48.036836036015757 0 0 0 0 128.5613800921783 208.94406498630042 0 208.94406498630042 -398.7986633816497 0 0 0 0 8.6133971120834758 -18.546334511388352 0 -18.546334511388352 22.405982359086011 0 0 0 0 85.431336410582219 8.6916837375670788 0 8.6916837375670788 -0.31674263758895244 0 0 0 0 6.0603205324732699 125.38772301107042 0 125.38772301107042 -196.75788731889872 0 0 0 0 -196.41550853719309 81.37591726566032 0 81.37591726566032 222.8470979484232 0 0 0 0 -5.0993005901018478 -31.594289748463495 0 -31.594289748463495 -63.357542477133109 0 0 0 0 -29.736165476439055 69.234446694261351 0 69.234446694261351 -100.30596352939034 0 0 0 0 384.79606071007947 71.731309258338797 0 71.731309258338797 -674.86747109105249 0 0 0 0 86.582747719247081 7.4979858649050293 0 7.4979858649050293 -0.48500603930060388 0 0 0 0 146.99016407378258 68.146387410765286 0 68.146387410765286 -91.43690726657627 0 0 0 0 6.6859867836847116 -11.120174498475819 0 -11.120174498475819 46.600984397361344 0 0 0 0 42.526415963911859 75.769335794187668 0 75.769335794187668 -22.981841511107746 0 0 0 0 177.40203685149754 30.349129556055686 0 30.349129556055686 -146.65996588154755 0 0 0 0 29.263938059768407 50.123375209002347 0 50.123375209002347 28.196460841533987 0 0 0 0 81.914352425221239 5.5351303361123705 0 5.5351303361123705 -0.23671106646402157 0 0 0 0 169.93659765361372 -58.834980603103389 0 -58.834980603103389 -414.11269178162263 0 0 0 0 65.49591658495774 -154.90786352800552 0 -154.90786352800552 -6.6371931800850348 0 0 0 0 74.14997959722011 4.9005571250714164 0 4.9005571250714164 0.21065000984435747 0 0 0 0 42.267724275094224 11.887655671523248 0 11.887655671523248 92.523505539789952 0 0 0 0 44.254143032370848 -63.780564760350828 0 -63.780564760350828 -14.235535500886385 0 0 0 0 43.239955341381574 -60.601455758615771 0 -60.601455758615771 -21.385794021412039 0 0 0 0 74.60153633174923 -86.131710372029943 0 -86.131710372029943 -235.93635069938608 0 0 0 0 8.1467628542013699 -91.963857537723015 0 -91.963857537723015 19.033848849287779 0 0 0 0 28.034149681596318 -83.460851128972308 0 -83.460851128972308 -25.279968166669335 0 0 0 0 40.09871724707773 -61.485078328855792 0 -61.485078328855792 14.259709934131365 0 0 0 0 19.972952651747619 -66.503997262164603 0 -66.503997262164603 15.433196848136731 0 0 0 0 4.0079884977069469 -55.894894555235453 0 -55.894894555235453 9.2885993663629733 0 0 0 0 -4.3143371145824858 -44.839332272218144 0 -44.839332272218144 97.445125896029936 0 0 0 0 -4.4593722317149513 -47.914505862672428 0 -47.914505862672428 33.354874673686027 0 0 0 0 3.5482572210705712 -66.148980325325041 0 -66.148980325325041 55.898838800080284 0 0 0 0 31.997528043473721 -83.040356075960034 0 -83.040356075960034 42.503362605947046 0 0 0 0 32.409688369436481 -105.31255809582629 0 -105.31255809582629 123.75181114093111 0 0 0 0 93.397004875660059 25.790060336992639 0 25.790060336992639 265.67069873763052 0 0 0 0 8.6084818331742667 -72.321435378015451 0 -72.321435378015451 37.685509635913434 0 0 0 0 596.67251157040664 1499.3047702555496 0 1499.3047702555496 2453.4515573848416 0 0 0 0 2496.7497195082688 1743.8779515871477 0 1743.8779515871477 787.44084633089449 0 0 0 0 61.332621374393057 668.28213709207739 0 668.28213709207739 1341.834849119723 0 0 0 0 916.15059715595271 1518.675976891921 0 1518.675976891921 936.78276522358863 0 0 0 0 471.20176594708028 1088.7898533566752 0 1088.7898533566752 526.66465733264386 0 0 0 0 320.87632860174745 1101.3410312285946 0 1101.3410312285946 526.68271684805188 0 0 0 0 1234.6363501817787 809.56564468582269 0 809.56564468582269 127.05841709844918 0 0 0 0 2494.3260329192562 1176.0039838388625 0 1176.0039838388625 -240.02036455348002 0 0 0 0 1066.6662681022026 -17.329860502592965 0 -17.329860502592965 -1237.2529125689794 0 0 0 0 1129.692615817461 1593.9618450087255 0 1593.9618450087255 652.72149772270143 0 0 0 0 8.3349474290293557 4.4868023231214842 0 4.4868023231214842 -1.6486938620898168 0 0 0 0 2496.0942802566683 1280.3284372654459 0 1280.3284372654459 -744.13959225831445 0 0 0 0 175.4493693766708 636.04970930878039 0 636.04970930878039 -294.22991469934271 0 0 0 0 8.1428926333412051 3.9255572314374891 0 3.9255572314374891 -1.578239586904052 0 0 0 0 673.23248540682835 1364.5788769792509 0 1364.5788769792509 623.91102519884544 0 0 0 0 638.43831346028037 -292.14736179233512 0 -292.14736179233512 -1259.781943133994 0 0 0 0 1215.1066685086334 528.28424507957197 0 528.28424507957197 -588.30734166474474 0 0 0 0 1198.0412444858121 597.39034114952619 0 597.39034114952619 -49.494360743112111 0 0 0 0 572.60090534073606 250.51005342873825 0 250.51005342873825 148.38294661880917 0 0 0 0 1162.6281038713769 799.31639077246859 0 799.31639077246859 171.10938107653897 0 0 0 0 277.65432480209347 440.955259640446 0 440.955259640446 56.790413256403554 0 0 0 0 43.342088303506898 163.23183876629037 0 163.23183876629037 227.64756063762911 0 0 0 0 620.41720868046468 972.55538898255645 0 972.55538898255645 579.90250847952188 0 0 0 0 70.82773088495378 456.6237377485777 0 456.6237377485777 109.58877924122976 0 0 0 0 219.56395728919233 -110.38936650867663 0 -110.38936650867663 -512.25860745986938 0 0 0 0 50.721316143128206 36.877042795690159 0 36.877042795690159 -359.62995823715886 0 0 0 0 -73.820395535076386 103.93632937695111 0 103.93632937695111 -385.12376453092509 0 0 0 0 19.324841357862169 -42.934918987976857 0 -42.934918987976857 -89.336133262346948 0 0 0 0 481.3302729497882 349.92480657313661 0 349.92480657313661 66.724342329598585 0 0 0 0 2.3699319912209376 1.6408264975258593 0 1.6408264975258593 -0.66978682989684879 0 0 0 0 682.88806521490187 522.05972591082309 0 522.05972591082309 259.30329095359417 0 0 0 0 455.68330290449558 159.79623138430125 0 159.79623138430125 135.67578195015471 0 0 0 0 319.89954591265996 237.56738656268658 0 237.56738656268658 114.72125838379128 0 0 0 0 -55.66638001249521 29.853748310680317 0 29.853748310680317 112.3595798701129 0 0 0 0 146.0208050330466 -109.3401183160848 0 -109.3401183160848 154.79569854872273 0 0 0 0 258.14657799193083 -34.510273438955039 0 -34.510273438955039 192.76644714976726 0 0 0 0 -50.06531550159707 46.406648731255402 0 46.406648731255402 54.351349323321649 0 0 0 0 48.973049852036638 6.7797233434316126 0 6.7797233434316126 -206.7848810164885 0 0 0 0 215.82064268157774 -66.886601315261061 0 -66.886601315261061 -244.69344820619429 0 0 0 0 3.7510850510331863 0.86695606997290753 0 0.86695606997290753 -0.66525468964335066 0 0 0 0 -68.404754709270492 14.251418742977876 0 14.251418742977876 -9.7721590244479444 0 0 0 0 53.499583109303444 -91.383499453797697 0 -91.383499453797697 -294.1004474571198 0 0 0 0 -74.063826857724052 -23.601197648742755 0 -23.601197648742755 -319.72549130379593 0 0 0 0 43.785353735649551 -39.688490052071074 0 -39.688490052071074 -496.26413963392042 0 0 0 0 -65.891021746123442 36.221822600046664 0 36.221822600046664 -213.91903262726305 0 0 0 0 46.80849127084366 24.107340795978075 0 24.107340795978075 -361.10569476140438 0 0 0 0 -100.81086773229617 33.376612454000906 0 33.376612454000906 -361.68717527284127 0 0 0 0 27.654105735486041 8.2703133425131306 0 8.2703133425131306 0.0044909277782604617 0 0 0 0 49.24417608224212 80.819547183730833 0 80.819547183730833 -608.66082309520698 0 0 0 0 23.550470903628593 54.615674738249197 0 54.615674738249197 -80.688840683098761 0 0 0 0 54.225041622390563 59.84587118746731 0 59.84587118746731 -102.67277464351861 0 0 0 0 19.096819887687161 52.550577044373995 0 52.550577044373995 -66.608608615780724 0 0 0 0 9.8869190332552535 59.749702288891854 0 59.749702288891854 -72.062299725590151 0 0 0 0 1.3961329320342202 3.0262701521180109 0 3.0262701521180109 -0.91080332826861943 0 0 0 0 33.21357951475602 63.61116957404785 0 63.61116957404785 -89.460494814430604 0 0 0 0 35.635094680677867 44.971911173619503 0 44.971911173619503 -73.432509259415042 0 0 0 0 36.629981980950106 37.276090859053056 0 37.276090859053056 -0.80771464139388627 0 0 0 0 55.341642840234272 75.116361829165726 0 75.116361829165726 -84.159476816081906 0 0 0 0 55.964196627519414 101.8340643974941 0 101.8340643974941 -122.10804046686781 0 0 0 0 696.69285077317909 -34.076924237025054 0 -34.076924237025054 -484.21605242405388 0 0 0 0 77.006665254403103 7.8492551357380522 0 7.8492551357380522 -0.26318147089604987 0 0 0 0 -167.64535411832367 -19.152482683439885 0 -19.152482683439885 188.33813542773333 0 0 0 0 -13.189745363040856 -40.448542252408004 0 -40.448542252408004 -71.370679808200293 0 0 0 0 64.241624672835314 66.573874966934284 0 66.573874966934284 -98.230739476730378 0 0 0 0 0.98691738580600941 51.648241081989909 0 51.648241081989909 46.956644594713907 0 0 0 0 62.127003914792674 6.2066650484899117 0 6.2066650484899117 0.11666662369425218 0 0 0 0 61.693301321287436 -86.42898412005232 0 -86.42898412005232 -135.43191894512879 0 0 0 0 53.695131262611085 -48.5638263547702 0 -48.5638263547702 -33.657233116753957 0 0 0 0 0.46062252800766146 -40.581941198908282 0 -40.581941198908282 66.676943407776548 0 0 0 0 45.25473392789354 -19.009276033518915 0 -19.009276033518915 3.4707195586503872 0 0 0 0 91.567383825284196 56.215664653931697 0 56.215664653931697 -169.79844686266756 0 0 0 0 37.663535825964573 15.368873784622053 0 15.368873784622053 62.006177881225994 0 0 0 0 -22.517312202769972 35.730177958897684 0 35.730177958897684 70.435809937849939 0 0 0 0 0.95330334736422628 2.2254707898849113 0 2.2254707898849113 -0.71077184995120013 0 0 0 0 108.13058434847699 -12.08681652532232 0 -12.08681652532232 -241.00273130153062 0 0 0 0 111.12335789215285 88.396957666561605 0 88.396957666561605 -166.17864704355031 0 0 0 0 32.302138140020617 10.340129272011129 0 10.340129272011129 0.037323838631785455 0 0 0 0 213.65099607798402 35.52817529812819 0 35.52817529812819 -714.46175436564067 0 0 0 0 31.894486236627927 49.916449372086419 0 49.916449372086419 -272.6554776432784 0 0 0 0 28.960438579587475 11.647450263981845 0 11.647450263981845 0.56514705750308214 0 0 0 0 372.16287320670381 367.45674071283975 0 367.45674071283975 -382.90904873269119 0 0 0 0 -105.13944049916972 86.625724773525093 0 86.625724773525093 -65.268151696613671 0 0 0 0 1.2312102227770083 -7.2611043326360232 0 -7.2611043326360232 -65.703323864793219 0 0 0 0 32.076275245613942 68.638969848075249 0 68.638969848075249 -31.640467699225837 0 0 0 0 45.985811974268046 5.4530196069772039 0 5.4530196069772039 0.30399303448928877 0 0 0 0 85.758017166115678 -10.448692354790225 0 -10.448692354790225 -43.554708580588994 0 0 0 0 52.371112172942958 -64.868262152293909 0 -64.868262152293909 2.8854849298038516 0 0 0 0 -19.346464464681048 2.1361572632832662 0 2.1361572632832662 138.52832293488831 0 0 0 0 -27.827465391914302 -19.311430938718701 0 -19.311430938718701 155.77239482572381 0 0 0 0 17.582451678114012 -53.814085305312972 0 -53.814085305312972 -18.165570664052979 0 0 0 0 33.277282644557999 -35.06329979637934 0 -35.06329979637934 -37.544556420512095 0 0 0 0 30.666602263347158 36.19278191582044 0 36.19278191582044 46.982302813697686 0 0 0 0 19.313465390954889 -38.20236769692621 0 -38.20236769692621 -10.884935154208733 0 0 0 0 32.417669724090416 5.5895129100374259 0 5.5895129100374259 0.69373489178146719 0 0 0 0 -5.6196379645116394 -2.4642884410168335 0 -2.4642884410168335 88.897765122791441 0 0 0 0 68.808765189951373 -68.803084859209434 0 -68.803084859209434 -25.577338472897509 0 0 0 0 10.995461649474109 8.5009855547678015 0 8.5009855547678015 7.2306709571513963 0 0 0 0 17.219636695816007 13.769096664898683 0 13.769096664898683 171.54091385705362 0 0 0 0 7.0045998737714399 36.90215611974223 0 36.90215611974223 256.02670324505652 0 0 0 0 -9.6278369681822369 -95.664198282696375 0 -95.664198282696375 120.41802347979072 0 0 0 0 -14.53240387637743 -65.658522848962306 0 -65.658522848962306 316.63912809700412 0 0 0 0 15.791004926868482 -64.911814611847376 0 -64.911814611847376 20.341403693387221 0 0 0 0 12.38204981340823 -48.965584215816307 0 -48.965584215816307 16.791751755306095 0 0 0 0 7.5643160433828598 -56.673506225552586 0 -56.673506225552586 67.335943749784889 0 0 0 0 41.393846888444386 -125.86490794705509 0 -125.86490794705509 49.164129484378662 0 0 0 0 316.72911661253966 -169.5198416930582 0 -169.5198416930582 362.17092133184252 0 0 0 0 5.0955433536969608 1.9136739745996145 0 1.9136739745996145 0.17334519331187448 0 0 0 0 42.59867791070792 547.6098785151396 0 547.6098785151396 -73.26753363567002 0 0 0 0 98.193187500186468 -234.05124895389073 0 -234.05124895389073 23.26619971429329 0 0 0 0 2201.5047895205716 536.6334940522371 0 536.6334940522371 -76.349789599315827 0 0 0 0 2495.3431575671839 228.06454410302152 0 228.06454410302152 -7.1089539706698162 0 0 0 0 739.21452972840052 406.93372844753543 0 406.93372844753543 239.89264540451023 0 0 0 0 3.1232353142980287 3.3660957270177696 0 3.3660957270177696 2.8937234610082618 0 0 0 0 1259.3682244924785 435.32373457702386 0 435.32373457702386 64.239340080785055 0 0 0 0 2190.8489202109449 -237.30409413007601 0 -237.30409413007601 -200.9692691163834 0 0 0 0 1031.5225008549533 -500.14571762285084 0 -500.14571762285084 -102.59651271673661 0 0 0 0 50.761845809689476 92.998245599086957 0 92.998245599086957 -145.7866411587523 0 0 0 0 5.7828200150984017 3.1937446403146268 0 3.1937446403146268 2.6225332818316827 0 0 0 0 2499.5092248246328 -844.77318538967609 0 -844.77318538967609 -64.717756346113276 0 0 0 0 114.29493743619605 -25.19251827622621 0 -25.19251827622621 -30.895697935252077 0 0 0 0 -104.85009777908635 -143.93652581759721 0 -143.93652581759721 -46.731688190595378 0 0 0 0 12.180958640234707 7.5994553838308772 0 7.5994553838308772 2.4369149876483838 0 0 0 0 473.67830486431922 6.1179299129942999 0 6.1179299129942999 -393.50210540569407 0 0 0 0 2455.3057561719179 1005.9152032188957 0 1005.9152032188957 98.016234645104561 0 0 0 0 1373.1075162906127 -886.27170880406868 0 -886.27170880406868 124.08818604556883 0 0 0 0 2496.2513447255205 -134.75340093067587 0 -134.75340093067587 -536.36207695301891 0 0 0 0 708.38628274468101 183.19166659404866 0 183.19166659404866 -190.76230045285274 0 0 0 0 471.42991456841628 -270.9984860671052 0 -270.9984860671052 -28.746376694057112 0 0 0 0 -116.2354611138926 113.09793575513706 0 113.09793575513706 276.878412546883 0 0 0 0 -160.66174563648974 -8.6917927779643378 0 -8.6917927779643378 62.247806052612987 0 0 0 0 264.57765130826556 158.91545875765422 0 158.91545875765422 -98.058080149821535 0 0 0 0 56.761228658126129 -472.29840626879491 0 -472.29840626879491 421.85468735915714 0 0 0 0 2487.1509394300474 77.696043323021669 0 77.696043323021669 -176.39264354266243 0 0 0 0 4.5453062748652613 -2.7071589706295764 0 -2.7071589706295764 2.3553034893700064 0 0 0 0 6.6492226742531813 -0.54437695131977915 0 -0.54437695131977915 1.1092329986835028 0 0 0 0 41.248409841704415 -81.569979273945705 0 -81.569979273945705 177.55797139485293 0 0 0 0 733.51186258183952 497.70662627253898 0 497.70662627253898 351.43806186121162 0 0 0 0 2499.0700301102629 -509.71968645643915 0 -509.71968645643915 -347.14397799833358 0 0 0 0 2493.0019850056506 -511.17485761538296 0 -511.17485761538296 -346.26741686855615 0 0 0 0 65.160185842396459 -57.607372625638277 0 -57.607372625638277 -111.33516404855544 0 0 0 0 68.223074815261498 -56.277444243777921 0 -56.277444243777921 -134.0590808338419 0 0 0 0 59.092970230602077 -55.777304886787491 0 -55.777304886787491 -109.06025179700003 0 0 0 0 57.388422228037598 -61.737058082356505 0 -61.737058082356505 -67.745483302378489 0 0 0 0 39.101903819246218 -103.06295173326512 0 -103.06295173326512 -69.624022954255338 0 0 0 0 129.76129630480864 -157.03796736086736 0 -157.03796736086736 -202.98036632876955 0 0 0 0 125.78568138304399 -37.230682463123173 0 -37.230682463123173 -270.76341053437454 0 0 0 0 12.237186584384453 0.14234104750245891 0 0.14234104750245891 0.22340750896287209 0 0 0 0 14.089385592174949 77.453589918242187 0 77.453589918242187 -215.11761533274748 0 0 0 0 41.176600644950668 -16.056825951593652 0 -16.056825951593652 -45.947175413969262 0 0 0 0 4.2604057109347195 -8.3148477412091779 0 -8.3148477412091779 -9.5864369692134233 0 0 0 0 24.659604602260515 1.4192041117617009 0 1.4192041117617009 -63.310318478661657 0 0 0 0 47.135123615471457 -5.546866439492419 0 -5.546866439492419 -210.77302279680725 0 0 0 0 20.193208204592082 -11.999630134422588 0 -11.999630134422588 -0.00036176823026468075 0 0 0 0 23.728063157466067 62.589163511000109 0 62.589163511000109 -62.040728601278488 0 0 0 0 13.175262129065175 -4.934331556830589 0 -4.934331556830589 2.2151461884821524 0 0 0 0 27.57730467227487 -14.415390090919358 0 -14.415390090919358 -1.7518454649572903 0 0 0 0 21.078439913442708 12.152257386400834 0 12.152257386400834 16.442746708215509 0 0 0 0 10.475477533666883 -5.4547984870116846 0 -5.4547984870116846 2.9238437257880072 0 0 0 0 5.1735367685857732 -4.5026201199658047 0 -4.5026201199658047 1.0515667364362242 0 0 0 0 59.378625219826063 -178.20614499979979 0 -178.20614499979979 -121.35428975388183 0 0 0 0 88.700087784694915 -18.008477537958925 0 -18.008477537958925 -10.12243225300972 0 0 0 0 0.11590056730954146 0.59416381350904857 0 0.59416381350904857 0.11011719806560016 0 0 0 0 -196.76747639871155 -2.0335112631379388 0 -2.0335112631379388 46.153256457857424 0 0 0 0 36.274504225577402 -59.793112765941487 0 -59.793112765941487 -70.295277789201691 0 0 0 0 -88.353597169858404 -16.686202824418842 0 -16.686202824418842 -85.198973568837118 0 0 0 0 -40.552631635604484 -0.74189686672275457 0 -0.74189686672275457 0.53911543144613461 0 0 0 0 0.15340045501943678 27.621525499166012 0 27.621525499166012 -63.34927513429102 0 0 0 0 -17.965521004320181 -3.1526898674476342 0 -3.1526898674476342 -3.1829119073842094 0 0 0 0 34.280388734690931 -5.0197235574703178 0 -5.0197235574703178 -1.0278257015507923 0 0 0 0 53.895558004483973 -82.646319711226539 0 -82.646319711226539 -14.841157709746994 0 0 0 0 6.898729415520588 -3.9339661596502662 0 -3.9339661596502662 0.65152220430608754 0 0 0 0 -2.137036290295697 -6.2845870786314428 0 -6.2845870786314428 1.8233078563199934 0 0 0 0 57.868556924593577 -10.514410714357837 0 -10.514410714357837 -138.22063394268139 0 0 0 0 65.765967231767718 -34.905104743460697 0 -34.905104743460697 -154.84758118373765 0 0 0 0 96.172501973887847 -34.278835805621043 0 -34.278835805621043 -155.69298866866643 0 0 0 0 15.0912697312815 -21.761813378939962 0 -21.761813378939962 -131.30662603920405 0 0 0 0 15.024794378026854 -83.724190133143736 0 -83.724190133143736 -205.94938954336794 0 0 0 0 5.7845300825071746 2.9560889740936638 0 2.9560889740936638 -3.3031622532134906 0 0 0 0 13.673144108008273 6.422147790818002 0 6.422147790818002 -128.93844277616677 0 0 0 0 -0.024533377029001713 -48.377333626482255 0 -48.377333626482255 -42.66058048364831 0 0 0 0 7.471209413226461 -19.538192527727801 0 -19.538192527727801 -38.951364943923068 0 0 0 0 41.672780618464458 -35.278692455747205 0 -35.278692455747205 -62.490557587845714 0 0 0 0 36.275563472299837 -35.056411573517579 0 -35.056411573517579 -62.499297601817943 0 0 0 0 51.2606807036791 -32.379702436879143 0 -32.379702436879143 -114.98430623371701 0 0 0 0 62.594423528729749 -42.497777990131908 0 -42.497777990131908 -140.92207257669133 0 0 0 0 35.235196294495836 -10.038272600046582 0 -10.038272600046582 -131.68885870125473 0 0 0 0 24.986651420042612 -4.9408753218639321 0 -4.9408753218639321 0.73285607120546403 0 0 0 0 158.30487919985899 -14.970515457824376 0 -14.970515457824376 -2.8852904619284558 0 0 0 0 30.566360532684484 -13.19850777099191 0 -13.19850777099191 -131.37279171139676 0 0 0 0 59.375960946132182 -29.309479744232078 0 -29.309479744232078 -130.21790446696912 0 0 0 0 0.054456777190353023 4.6437446928547956 0 4.6437446928547956 -50.31331047425482 0 0 0 0 0.28478053906556156 2.0399857133202701 0 2.0399857133202701 4.4142082164868617 0 0 0 0 280.9889208781608 -10.566964255328003 0 -10.566964255328003 -16.306688235312322 0 0 0 0 66.895453442317091 339.78900645975631 0 339.78900645975631 17.066873818419481 0 0 0 0 57.243116043446207 19.634313705073055 0 19.634313705073055 225.25874954828785 0 0 0 0 16.271229077010503 -408.00536132247248 0 -408.00536132247248 217.64310508146264 0 0 0 0 251.16480241015233 100.7606135218424 0 100.7606135218424 18.826446528479664 0 0 0 0 0.6512625476255387 0.43778463317115701 0 0.43778463317115701 0.6870320328590247 0 0 0 0 177.08847074374717 17.496771559198464 0 17.496771559198464 1.0486335419055308 0 0 0 0 153.20629198509505 -30.156619812979471 0 -30.156619812979471 -4.2508301021173338 0 0 0 0 -0.15535896012436456 -1.889701831219714 0 -1.889701831219714 3.423701866647316 0 0 0 0 5.7314290459175936 12.557331405325101 0 12.557331405325101 35.462521112992135 0 0 0 0 -6.3390062140256305 -8.882578747972218 0 -8.882578747972218 27.913432773173554 0 0 0 0 25.295785622132826 7.3370392184286857 0 7.3370392184286857 2.7041119124169199 0 0 0 0 162.35132434273783 22.803374893048613 0 22.803374893048613 -5.9108586651786936 0 0 0 0 50.217037492371674 46.814955428604264 0 46.814955428604264 43.560346291454834 0 0 0 0 47.493989614593374 2.1266659889190009 0 2.1266659889190009 14.3333584746415 0 0 0 0 57.125716116151125 -36.70611433717454 0 -36.70611433717454 86.646596663239507 0 0 0 0 8.3866019559506508 5.3589710731959581 0 5.3589710731959581 10.076027784115817 0 0 0 0 -3.6913994821238703 -228.88354368232831 0 -228.88354368232831 -43.123789079397284 0 0 0 0 7.5795937020116781 3.5097047833367725 0 3.5097047833367725 -0.72176547198142238 0 0 0 0 35.892454754269238 11.121052571628979 0 11.121052571628979 -61.286328830519437 0 0 0 0 36.311750771839797 28.537648057975957 0 28.537648057975957 -37.167946693202111 0 0 0 0 -28.569556920525429 20.305872295201425 0 20.305872295201425 -14.244187236358357 0 0 0 0 -43.869202438247157 56.637370750426612 0 56.637370750426612 83.908689176335884 0 0 0 0 -39.861622635187814 103.20978814843306 0 103.20978814843306 116.01345232142 0 0 0 0 -39.652497581760144 90.767218999609327 0 90.767218999609327 41.42315660270242 0 0 0 0 -260.32786416465387 22.591697064365121 0 22.591697064365121 61.117496460587745 0 0 0 0 16.037931813591179 -2.3843893888860617 0 -2.3843893888860617 0.40064225953133431 0 0 0 0 7.0678786600922265 0.47606980695090018 0 0.47606980695090018 -0.439852999600854 0 0 0 0 57.628376993669008 96.357406944403806 0 96.357406944403806 -124.4973874743601 0 0 0 0 39.938089193759879 -61.743687066820229 0 -61.743687066820229 -40.536266057511568 0 0 0 0 13.894610157638454 37.109576543246476 0 37.109576543246476 11.441854784264024 0 0 0 0 -10.7608219861213 -50.071513897453315 0 -50.071513897453315 -9.1980280576858036 0 0 0 0 -654.56986426575168 27.95294014637193 0 27.95294014637193 183.62164562022355 0 0 0 0 122.38339949265901 153.1664747895735 0 153.1664747895735 190.61932362438881 0 0 0 0 401.57724951035925 7.3363783468855672 0 7.3363783468855672 61.397722782722212 0 0 0 0 2.4901879455768352 0.87103454253807922 0 0.87103454253807922 -0.20233979619143561 0 0 0 0 12.991009183444476 38.527900000239072 0 38.527900000239072 79.870865691312702 0 0 0 0 138.5880886887644 68.508846656273818 0 68.508846656273818 -45.279971930154261 0 0 0 0 29.415369581640562 97.469698312711387 0 97.469698312711387 72.98420016977434 0 0 0 0 26.044479259207947 73.976391402290801 0 73.976391402290801 38.487818920008067 0 0 0 0 234.34353209007895 58.447288579008728 0 58.447288579008728 -0.87930234853627098 0 0 0 0 112.97268921213617 -35.038873546380273 0 -35.038873546380273 -61.67481419008277 0 0 0 0 5.4150732886988493 -0.70582382510660224 0 -0.70582382510660224 0.35436657097141505 0 0 0 0 360.02338495403274 -15.578938333320536 0 -15.578938333320536 36.357480334216916 0 0 0 0 736.94452200926025 54.748977524533075 0 54.748977524533075 175.10367399880528 0 0 0 0 223.98259394668094 -6.5848298190532546 0 -6.5848298190532546 80.861133880660191 0 0 0 0 200.49869676576418 -21.136464956062468 0 -21.136464956062468 258.47614647816329 0 0 0 0 184.12813433273459 -88.795025774846152 0 -88.795025774846152 41.270269907511192 0 0 0 0 185.7988649833552 14.233260275427355 0 14.233260275427355 -52.775694059095258 0 0 0 0 186.39541271026809 56.001499788482278 0 56.001499788482278 -177.17949731705858 0 0 0 0 163.82881569959864 119.69976154394544 0 119.69976154394544 -104.03789479896341 0 0 0 0 154.00123528894255 98.45538827186283 0 98.45538827186283 -74.159967428904565 0 0 0 0 517.94759555640121 -282.9534674376157 0 -282.9534674376157 -102.5188166834705 0 0 0 0 393.29179103058414 258.40766152049173 0 258.40766152049173 31.43719782948574 0 0 0 0 138.62061007992907 118.08992728064527 0 118.08992728064527 27.310582805615013 0 0 0 0 65.167734758302686 38.308480990202952 0 38.308480990202952 -54.427924509210243 0 0 0 0 27.689507679726375 20.180479781130543 0 20.180479781130543 -31.035432375677374 0 0 0 0 12.004706140451724 6.1117959750903914 0 6.1117959750903914 -0.54008321671360537 0 0 0 0 -2.0406931811412505 13.747341541386959 0 13.747341541386959 37.367434217833591 0 0 0 0 59.230191029238085 156.03341386534487 0 156.03341386534487 216.71611688839403 0 0 0 0 4.1274995670071633 1.7819915969569955 0 1.7819915969569955 1.0890304300113334 0 0 0 0 196.02748954732851 -293.97461503572958 0 -293.97461503572958 353.62741916168898 0 0 0 0 261.04750146605011 -355.11285749048767 0 -355.11285749048767 -57.352205828180558 0 0 0 0 379.51163369753976 -45.343840913229769 0 -45.343840913229769 -62.730845768657673 0 0 0 0 158.20224685368794 -181.18812015313858 0 -181.18812015313858 17.927758234272005 0 0 0 0 6.1761231210105763 0.34291713775162513 0 0.34291713775162513 0.42969888315382754 0 0 0 0 238.09031245407414 -65.385634011861043 0 -65.385634011861043 -111.61394501958648 0 0 0 0 55.000777865308919 -11.676531421185473 0 -11.676531421185473 276.15918289076853 0 0 0 0 169.71283186377514 -183.92917657235341 0 -183.92917657235341 85.289183745765513 0 0 0 0 -3.8002841842740054 56.800092447876438 0 56.800092447876438 35.111409438482553 0 0 0 0 31.038109113334844 20.755767420982334 0 20.755767420982334 0.42107611330725936 0 0 0 0 72.396559227005582 43.496603038271658 0 43.496603038271658 -70.822130724893668 0 0 0 0 59.237341266712974 -10.697439092756923 0 -10.697439092756923 22.018471515634815 0 0 0 0 61.177658207504692 -17.427982786734134 0 -17.427982786734134 2.7063163458324198 0 0 0 0 63.464744844293818 163.78665920488606 0 163.78665920488606 -108.31123084120779 0 0 0 0 12.188712261795899 51.679738046417697 0 51.679738046417697 22.61658096434121 0 0 0 0 68.481446299180789 25.233542921663002 0 25.233542921663002 -15.096930567735114 0 0 0 0 29.025105092099402 27.398733092740486 0 27.398733092740486 8.2813912458931718 0 0 0 0 60.828115727798149 30.724667707197824 0 30.724667707197824 77.018447961369816 0 0 0 0 164.93445705737486 39.707016121936078 0 39.707016121936078 3.8603700300752735 0 0 0 0 102.77576545253669 -26.394629023975625 0 -26.394629023975625 34.096310119095165 0 0 0 0 53.624801441653517 4.7601334619997147 0 4.7601334619997147 14.882362283591647 0 0 0 0 157.41610199609295 38.612733531691219 0 38.612733531691219 -6.3975270848498198 0 0 0 0 96.953530121907988 91.241123450937536 0 91.241123450937536 35.090657131815419 0 0 0 0 82.154885282345276 58.242196504884589 0 58.242196504884589 -21.786667165502877 0 0 0 0 5.8328080675147511 -4.6703858481102856 0 -4.6703858481102856 -1.037121197643827 0 0 0 0 38.676053153120847 32.95458155544614 0 32.95458155544614 82.78284779673325 0 0 0 0 153.26945952981907 -36.457184935959503 0 -36.457184935959503 1.6247034533633951 0 0 0 0 97.571696717559462 28.741905391760383 0 28.741905391760383 2.6243245397988204 0 0 0 0 23.856258407511902 -16.761266663093977 0 -16.761266663093977 -3.4041745436810147 0 0 0 0 83.113394561141945 -33.133452529482419 0 -33.133452529482419 6.9931105151682686 0 0 0 0 63.039709618664347 6.5234026714853144 0 6.5234026714853144 -5.7167636344811399 0 0 0 0 86.412427612172451 18.358867745167629 0 18.358867745167629 -6.7679637389505842 0 0 0 0 80.231557567652089 32.062026869084093 0 32.062026869084093 -1.927974597650838 0 0 0 0 33.334192940876079 28.358715514226038 0 28.358715514226038 12.410453356295877 0 0 0 0 31.295982280868657 476.28546606205009 0 476.28546606205009 223.90285215333734 0 0 0 0 50.407988105448567 -30.284538403565989 0 -30.284538403565989 16.712171008971836 0 0 0 0 27.267235020833468 -14.791188706265881 0 -14.791188706265881 -1.721173455257806 0 0 0 0 79.439215034087738 6.8551511061003225 0 6.8551511061003225 -8.584188118217071 0 0 0 0 66.353374937194531 10.208712545080743 0 10.208712545080743 -7.4454472845450255 0 0 0 0 33.542344449850134 32.29439873165984 0 32.29439873165984 15.63500920400412 0 0 0 0 72.218724917106101 17.900763935418013 0 17.900763935418013 -2.5158518143884976 0 0 0 0 65.266362344482332 -0.95843216259950914 0 -0.95843216259950914 0.75087199609152933 0 0 0 0 43.999618706015099 20.105685250819761 0 20.105685250819761 -2.5434761491757918 0 0 0 0 42.82594971322942 17.500328078033419 0 17.500328078033419 -4.1554934718835739 0 0 0 0 42.808078185180378 10.724599055927037 0 10.724599055927037 2.5367784305877046 0 0 0 0 62.024257012797534 5.8157755156755684 0 5.8157755156755684 -5.1902328665762525 0 0 0 0 62.668995631314829 5.7881549340003176 0 5.7881549340003176 -6.4043597628768794 0 0 0 0 61.586331091546526 5.0775863396689829 0 5.0775863396689829 -5.8554218246249548 0 0 0 0 30.776486952763662 29.082978573743617 0 29.082978573743617 -18.03712484632797 0 0 0 0 41.944926966203148 11.160810979202944 0 11.160810979202944 1.2090016901537712 0 0 0 0 44.993961359692548 15.350777297892876 0 15.350777297892876 -10.435740076345724 0 0 0 0 9.2479224493406171 1.5520274141888519 0 1.5520274141888519 -1.2787039336433976 0 0 0 0 21.538410961528371 -4.0794639663454291 0 -4.0794639663454291 16.708217582520319 0 0 0 0 48.711637754902995 54.860784469688987 0 54.860784469688987 -31.959571541112382 0 0 0 0 48.118154704189692 69.861944700977261 0 69.861944700977261 3.6326602793400298 0 0 0 0 74.765194948603494 38.501184404153094 0 38.501184404153094 -21.703863136358962 0 0 0 0 110.82956396046939 28.25195602892245 0 28.25195602892245 -72.009062317682265 0 0 0 0 79.627012046487835 18.932002953122151 0 18.932002953122151 -68.133159154299335 0 0 0 0 60.037303059980331 -5.1906019622666122 0 -5.1906019622666122 -25.857967242766307 0 0 0 0 43.732668215285685 11.239690366885657 0 11.239690366885657 -5.5298191393785032 0 0 0 0 77.492324071774419 11.014787533892775 0 11.014787533892775 -7.587186224988919 0 0 0 0 61.958370743316891 2.1751218892485014 0 2.1751218892485014 0.66028518079906462 0 0 0 0 25.849931151559758 -71.754982816920062 0 -71.754982816920062 -64.750861951284577 0 0 0 0 110.70990899384378 -7.1584283731623373 0 -7.1584283731623373 -153.10865962055891 0 0 0 0 133.35606377773229 12.616632324933221 0 12.616632324933221 -136.95752118562882 0 0 0 0 2159.8026861887183 512.26474201693998 0 512.26474201693998 121.78097894617744 0 0 0 0 8.7978594664671235 -12.852666802552779 0 -12.852666802552779 2.587115002894083 0 0 0 0 6.2073021166488616 -121.59975707521423 0 -121.59975707521423 -172.71486961790657 0 0 0 0 2498.4139819420579 400.01449093664388 0 400.01449093664388 -247.99853237172758 0 0 0 0 1594.7045703907515 225.75389097013587 0 225.75389097013587 -206.95825676665825 0 0 0 0 2026.3106624845186 -719.54165421352968 0 -719.54165421352968 203.33555438966971 0 0 0 0 2500.9282684610798 -120.61304198388225 0 -120.61304198388225 435.50467792128336 0 0 0 0 2526.6322376120665 -162.92559824317078 0 -162.92559824317078 -214.79100587673173 0 0 0 0 1135.3928298447374 -445.49412799257846 0 -445.49412799257846 228.21728273170964 0 0 0 0 16.460633288786084 -14.481334202840234 0 -14.481334202840234 1.1715636660283184 0 0 0 0 17.763178312873151 14.039403921612461 0 14.039403921612461 9.6602735289488919 0 0 0 0 -216.70856828439446 -178.1967329123766 0 -178.1967329123766 345.39916126375834 0 0 0 0 8.2517464326926557 -2.4297692460323521 0 -2.4297692460323521 4.5338297270360322 0 0 0 0 345.54210365719246 517.14960796440562 0 517.14960796440562 102.68438145939412 0 0 0 0 1524.6794000424852 506.07072132237391 0 506.07072132237391 -94.752316030831579 0 0 0 0 10.880678893049884 -1.3850132024805015 0 -1.3850132024805015 1.0445481952703881 0 0 0 0 2483.863525194145 -386.16021988209764 0 -386.16021988209764 -65.01259079247194 0 0 0 0 42.6716104449456 -31.063187498718264 0 -31.063187498718264 36.938778514301248 0 0 0 0 47.951435219236373 -17.334106782843378 0 -17.334106782843378 -3.3757288561153018 0 0 0 0 58.048357569885411 -45.075818151143835 0 -45.075818151143835 58.585322813613686 0 0 0 0 98.33980558197436 -8.9547556863752789 0 -8.9547556863752789 -16.853228695009761 0 0 0 0 115.02930826674401 2.1256204698964893 0 2.1256204698964893 -16.359926804945644 0 0 0 0 19.652739904906412 6.1952790966983002 0 6.1952790966983002 3.4677045707620664 0 0 0 0 38.574384848197951 -4.719676840841089 0 -4.719676840841089 8.3724107150433156 0 0 0 0 48.75749424569949 12.835026142732431 0 12.835026142732431 -22.069485649904436 0 0 0 0 23.22555484564662 8.874477207436879 0 8.874477207436879 4.8003240177136668 0 0 0 0 39.338833402340242 -7.137446057628722 0 -7.137446057628722 10.672800179654587 0 0 0 0 38.532687216269551 -9.8877475836759459 0 -9.8877475836759459 -14.423230852363304 0 0 0 0 30.143429355142644 -1.6823660231888482 0 -1.6823660231888482 -21.86474030330055 0 0 0 0 14.652408749314091 8.3252994250660279 0 8.3252994250660279 4.5142638907659514 0 0 0 0 33.000535884111741 24.869270615530354 0 24.869270615530354 -74.445843597916564 0 0 0 0 47.055950662819669 -28.940415887114227 0 -28.940415887114227 -44.879779832419104 0 0 0 0 17.393645615797141 -54.980000464411432 0 -54.980000464411432 17.539155377235829 0 0 0 0 61.084880580663594 -28.438274619675838 0 -28.438274619675838 -50.441914199981738 0 0 0 0 89.019413432555666 20.27386002799733 0 20.27386002799733 -22.5172012918365 0 0 0 0 70.86852341040958 21.413102096812977 0 21.413102096812977 -38.44272613220528 0 0 0 0 67.483270169288517 -21.160648962363723 0 -21.160648962363723 -1.2029305237582548 0 0 0 0 21.149197781224075 70.095465747707507 0 70.095465747707507 -105.20564883343468 0 0 0 0 14.883871247489878 4.5368898509633482 0 4.5368898509633482 -40.850716006088305 0 0 0 0 9.4707570105254675 5.0239502342060867 0 5.0239502342060867 2.661787350344885 0 0 0 0 113.16280225268565 -56.047149620170785 0 -56.047149620170785 60.715632029842595 0 0 0 0 -31.809146368319489 9.6610634525188175 0 9.6610634525188175 -21.888441492135144 0 0 0 0 55.135062818529832 59.515883201724392 0 59.515883201724392 1.5264858291426435 0 0 0 0 -134.45944773551309 -306.9396641130952 0 -306.9396641130952 49.297304481640822 0 0 0 0 11.440395012832596 138.74601456928622 0 138.74601456928622 -10.687066511138482 0 0 0 0 192.08962625850108 120.73593238570822 0 120.73593238570822 -19.859758633857496 0 0 0 0 322.06601626186966 -28.232478981870599 0 -28.232478981870599 -62.832552847737531 0 0 0 0 869.43371036604367 10.76664321820374 0 10.76664321820374 -140.98529125347181 0 0 0 0 151.46070911133393 -115.31391765483733 0 -115.31391765483733 115.01836237823863 0 0 0 0 -28.444412169137649 15.734784988543993 0 15.734784988543993 222.75509323918311 0 0 0 0 -51.639847402000669 -173.48831331494239 0 -173.48831331494239 -45.042206418898331 0 0 0 0 0.44339687363599012 0.61176402344378644 0 0.61176402344378644 -2.470303744771547 0 0 0 0 228.68825294588987 3.9533282219068724 0 3.9533282219068724 22.853629052285896 0 0 0 0 197.71752296089107 -104.95769360980557 0 -104.95769360980557 167.73183797297986 0 0 0 0 119.68700316355421 -6.4687961566665564 0 -6.4687961566665564 54.229001025020807 0 0 0 0 2.7726421537679826 1.9867181863439498 0 1.9867181863439498 1.498898042228783 0 0 0 0 -71.057164629723047 17.725501229097461 0 17.725501229097461 92.143168888682794 0 0 0 0 51.46878518671474 -115.40386225911811 0 -115.40386225911811 178.3171818910543 0 0 0 0 -36.134271420669393 51.790340150627486 0 51.790340150627486 61.68773672809084 0 0 0 0 -4.6341141720367887 32.951875655289655 0 32.951875655289655 71.808149694032579 0 0 0 0 -9.0483923424908426 70.328123880270141 0 70.328123880270141 24.434265797887292 0 0 0 0 -16.785919719197409 36.102477795150435 0 36.102477795150435 74.954793048976398 0 0 0 0 91.263638070617162 -0.51693113868054752 0 -0.51693113868054752 -37.613605116539929 0 0 0 0 -25.425603872273769 5.5050648524139092 0 5.5050648524139092 95.399963553813905 0 0 0 0 78.523107831812013 -28.372536097249395 0 -28.372536097249395 18.737216338020289 0 0 0 0 -9.7109462204825832 -35.933559535448126 0 -35.933559535448126 -48.313790195739102 0 0 0 0 45.229984811792747 27.312408600800723 0 27.312408600800723 -61.04189343779808 0 0 0 0 -1.4414776131062439 2.8547027850424733 0 2.8547027850424733 -6.6509848626676433 0 0 0 0 63.301656217144227 34.558134018557894 0 34.558134018557894 -28.326328535807079 0 0 0 0 47.974245671361132 20.993358196935105 0 20.993358196935105 6.6943859311302276 0 0 0 0 53.814196629058642 29.057704758552632 0 29.057704758552632 2.8132310439982007 0 0 0 0 131.5250914902208 56.336086740963765 0 56.336086740963765 2.8120451283471652 0 0 0 0 146.02922354906877 -34.944552094473352 0 -34.944552094473352 26.405911003884853 0 0 0 0 91.298564177592198 -12.658390904713258 0 -12.658390904713258 -6.7672134241622643 0 0 0 0 81.213412786630215 7.9778752361160059 0 7.9778752361160059 -21.281235581248666 0 0 0 0 45.430663495350018 34.328388731147584 0 34.328388731147584 -51.485862435413765 0 0 0 0 35.189191627858236 7.9052436301296467 0 7.9052436301296467 -7.7485978980375876 0 0 0 0 30.459968561689266 25.25160868283352 0 25.25160868283352 -20.019251684047958 0 0 0 0 1.1392503931821523 7.6905504626123395 0 7.6905504626123395 -11.912983999453662 0 0 0 0 15.134481578577834 -8.5017678457711554 0 -8.5017678457711554 -22.848697977191989 0 0 0 0 27.460218045882357 12.0207351163466 0 12.0207351163466 -7.4173568921685273 0 0 0 0 14.929887812602828 22.432031609966316 0 22.432031609966316 -7.2767051354330938 0 0 0 0 21.381747106534931 35.665388781816773 0 35.665388781816773 -24.680381489833735 0 0 0 0 36.82873853701858 32.601042031627912 0 32.601042031627912 35.272654971194811 0 0 0 0 31.052702308700134 2.240456827699802 0 2.240456827699802 -6.5292950327565986 0 0 0 0 8.6338360436748189 -31.659043672627377 0 -31.659043672627377 166.82615430808846 0 0 0 0 69.228459241212477 -59.574666495853762 0 -59.574666495853762 42.519618105403111 0 0 0 0 76.535313927879542 -145.16163400694722 0 -145.16163400694722 205.94241623787593 0 0 0 0 66.731805692164926 -82.418085409308105 0 -82.418085409308105 70.627382507001585 0 0 0 0 40.426873134678544 -33.233297824565341 0 -33.233297824565341 56.341789519195345 0 0 0 0 83.720702513468268 -61.39866970585922 0 -61.39866970585922 40.263932508986727 0 0 0 0 94.343485348009835 -46.897091290261301 0 -46.897091290261301 24.150828384351144 0 0 0 0 191.26845199447598 -85.833510266669464 0 -85.833510266669464 29.460972922760334 0 0 0 0 0.77992462407158669 1.3027884651589616 0 1.3027884651589616 -0.26729908247978784 0 0 0 0 55.480805799586051 -53.102346071414445 0 -53.102346071414445 -61.442087547113033 0 0 0 0 66.125094930562227 -3.0499674837170119 0 -3.0499674837170119 13.657157546966573 0 0 0 0 47.145108169248402 9.0005313018673867 0 9.0005313018673867 -2.4436589058111191 0 0 0 0 65.296234314790127 26.82343139951729 0 26.82343139951729 -53.653175933411148 0 0 0 0 66.631314913403003 -22.346286877569355 0 -22.346286877569355 -22.102783600977659 0 0 0 0 39.4753449272051 5.6698486314621217 0 5.6698486314621217 -3.9397117994472626 0 0 0 0 74.269711541631295 -54.053818367917131 0 -54.053818367917131 44.060475695318587 0 0 0 0 58.837978929620931 -56.304276810517564 0 -56.304276810517564 52.93947110619888 0 0 0 0 115.33172351152666 -84.877154218020223 0 -84.877154218020223 29.435104022846303 0 0 0 0 80.083119151687001 7.3868745097245281 0 7.3868745097245281 -76.347753080249504 0 0 0 0 51.383395576714427 14.216118604204134 0 14.216118604204134 -1.2297281188320432 0 0 0 0 11.243997265197207 -0.036428143299101379 0 -0.036428143299101379 -1.4131041572430192 0 0 0 0 52.223368748575012 4.78040750700427 0 4.78040750700427 4.7932674471111341 0 0 0 0 89.563258368143579 3.3173024078436129 0 3.3173024078436129 -29.80465468661032 0 0 0 0 51.091311604263865 6.1337919271113606 0 6.1337919271113606 5.0444642684192331 0 0 0 0 29.531262875795647 70.321757594919177 0 70.321757594919177 -109.33221883210012 0 0 0 0 28.377438345972394 9.1522612423083629 0 9.1522612423083629 -0.81421076933171177 0 0 0 0 48.184429858494696 -1.0146237896491357 0 -1.0146237896491357 -6.321596550561253 0 0 0 0 53.761557877762243 -6.4216935240281146 0 -6.4216935240281146 9.370182255817781 0 0 0 0 121.04261995928755 -16.038727970940045 0 -16.038727970940045 -19.401214130964377 0 0 0 0 30.046276624708298 -0.51709853219833235 0 -0.51709853219833235 3.5815407039096954 0 0 0 0 -0.79769866412376089 0.1248546088573157 0 0.1248546088573157 -0.81214367769948925 0 0 0 0 41.80031352041442 -1.7247554441606781 0 -1.7247554441606781 -4.3727168956853006 0 0 0 0 34.960718134036142 -9.1560178314226732 0 -9.1560178314226732 3.4263157676114133 0 0 0 0 0.30641252491967563 0.15388147567405142 0 0.15388147567405142 -0.38897570326475162 0 0 0 0 77.393009061710472 -15.971096630236104 0 -15.971096630236104 13.441666828286998 0 0 0 0 126.07895898956485 -32.190568286113034 0 -32.190568286113034 -7.4580947936944995 0 0 0 0 47.395583137577887 -1.5912055312130065 0 -1.5912055312130065 1.8948830809454194 0 0 0 0 38.654245104893562 -1.9114904015214051 0 -1.9114904015214051 6.8598437240980275 0 0 0 0 14.138715924876248 -9.0867561172798865 0 -9.0867561172798865 3.4807071935166594 0 0 0 0 40.830479882090913 -0.88328735002443182 0 -0.88328735002443182 6.5882809385170731 0 0 0 0 51.918916026679653 5.1971634989755557 0 5.1971634989755557 -1.1464440487857246 0 0 0 0 6.3940716716784998 -9.8476630302899508 0 -9.8476630302899508 1.0478025490642526 0 0 0 0 34.071238093001739 -5.8972679298240678 0 -5.8972679298240678 1.3451660653295221 0 0 0 0 32.283189577265148 -6.737592345897383 0 -6.737592345897383 3.5722868802668017 0 0 0 0 28.603082167259799 -4.6168034109627456 0 -4.6168034109627456 1.3205853787640081 0 0 0 0 46.124069574730584 4.3351038748478459 0 4.3351038748478459 8.9415857344492906 0 0 0 0 54.291817613866442 9.3699827014073662 0 9.3699827014073662 3.1719319446117424 0 0 0 0 11.759099996718604 -7.7338418914660778 0 -7.7338418914660778 -1.095579849532184 0 0 0 0 19.987022725422321 -5.7159065047127342 0 -5.7159065047127342 2.6037255657564629 0 0 0 0 21.679843672887728 -3.5534389478570461 0 -3.5534389478570461 3.1641956761986876 0 0 0 0 27.216755945073601 -6.6736712356702981 0 -6.6736712356702981 2.265689337829599 0 0 0 0 27.214978033951411 -8.0085642365265812 0 -8.0085642365265812 12.545062251273635 0 0 0 0 27.800699404066108 -6.6314611770832244 0 -6.6314611770832244 2.920797638290594 0 0 0 0 27.412613860313286 -6.2888285335434659 0 -6.2888285335434659 2.8137553641502109 0 0 0 0 24.4893277960673 -3.041588885107501 0 -3.041588885107501 5.9052808974379332 0 0 0 0 29.605650209137593 -21.454716659403424 0 -21.454716659403424 4.2730281054099351 0 0 0 0 16.890163880059333 -9.7222329312183575 0 -9.7222329312183575 4.4590187404044572 0 0 0 0 16.874342630957472 -1.5226567683818075 0 -1.5226567683818075 6.4307120976690157 0 0 0 0 3.3690800297445627 -4.5608338813548839 0 -4.5608338813548839 0.095405576392107561 0 0 0 0 34.144202296288313 -14.450378591635584 0 -14.450378591635584 4.2069064925553903 0 0 0 0 35.61420847723457 -6.7014041226792074 0 -6.7014041226792074 -0.18642006251093335 0 0 0 0 22.531137741450948 -4.8363508930856369 0 -4.8363508930856369 0.076150398516574569 0 0 0 0 33.13468825855125 -9.6281787027461405 0 -9.6281787027461405 -0.96620914445202288 0 0 0 0 31.039270385019336 -10.484087331124329 0 -10.484087331124329 0.90489985415911178 0 0 0 0 30.91367686761987 -10.387592346933843 0 -10.387592346933843 1.3559916755098129 0 0 0 0 30.949149645673515 -9.5529312420499082 0 -9.5529312420499082 3.3800024553104322 0 0 0 0 13.318591958724255 -4.8112395025788146 0 -4.8112395025788146 3.2210898044615988 0 0 0 0 11.138614058891108 -7.3780856256937568 0 -7.3780856256937568 3.8028106401044397 0 0 0 0 10.260491772427029 -3.1816646777091 0 -3.1816646777091 0.50905890565966039 0 0 0 0 10.048841164086761 -5.3501814168790096 0 -5.3501814168790096 3.36747003911097 0 0 0 0 17.037762538422726 -8.4769365235886678 0 -8.4769365235886678 0.8959753773515331 0 0 0 0 18.104013209656841 -7.7591402006610224 0 -7.7591402006610224 0.70918760941731307 0 0 0 0 16.641530908680579 -5.4667713400622233 0 -5.4667713400622233 1.6378161951445236 0 0 0 0 9.4770782549348951 -4.2486457291472561 0 -4.2486457291472561 2.7315157198245856 0 0 0 0 13.890399203049128 -4.9981050951384987 0 -4.9981050951384987 2.9201468145938634 0 0 0 0 8.6610068758398029 -10.450340114197125 0 -10.450340114197125 2.4126719056284855 0 0 0 0 10.157011903902957 -6.4963548180069068 0 -6.4963548180069068 3.7485408215340694 0 0 0 0 1.8875068499528425 -16.856342813579317 0 -16.856342813579317 25.287896161286199 0 0 0 0 20.846941985262674 -30.035419083605433 0 -30.035419083605433 32.457890417032786 0 0 0 0 12.541598964352659 -6.0192964595201399 0 -6.0192964595201399 -2.4170425748040048 0 0 0 0 12.04580835795241 -9.309312103854154 0 -9.309312103854154 1.9744325941412626 0 0 0 0 13.675958198180524 -10.230318349891832 0 -10.230318349891832 5.9413104482034669 0 0 0 0 9.108367593444342 -2.6839061571070317 0 -2.6839061571070317 -5.5661089628200102 0 0 0 0 11.410955544423587 -6.1974412478855641 0 -6.1974412478855641 2.0721250676888303 0 0 0 0 3.6111795670707636 -1.8870024519561248 0 -1.8870024519561248 0.6286027843912354 0 0 0 0 17.50709191601527 -5.5727821401029018 0 -5.5727821401029018 0.64091537840704405 0 0 0 0 21.69292275186308 -29.245226140230272 0 -29.245226140230272 24.322628083356562 0 0 0 0 51.916522163197442 -20.628027490646559 0 -20.628027490646559 -21.880546295217016 0 0 0 0 2.5501099297196443 -3.9213482725982232 0 -3.9213482725982232 -2.0252293346051093 0 0 0 0 28.048821311164829 -29.875239205018431 0 -29.875239205018431 -29.30725083093887 0 0 0 0 8.267724679031744 22.086984632325638 0 22.086984632325638 -33.110761525884072 0 0 0 0 -0.43615055362123911 -0.064169934213490265 0 -0.064169934213490265 -0.076200476291633956 0 0 0 0 34.317326816817513 -7.9842672125619174 0 -7.9842672125619174 0.24055157938624916 0 0 0 0 32.346328760457254 -10.483624686632083 0 -10.483624686632083 -0.96241982620199451 0 0 0 0 23.282108161667566 -7.7601504615413432 0 -7.7601504615413432 -0.040349500610773248 0 0 0 0 24.422363167812364 -6.4400438881680202 0 -6.4400438881680202 -1.6907169668645565 0 0 0 0 26.604567091257195 -7.3326452968241256 0 -7.3326452968241256 -2.5515734855543997 0 0 0 0 15.162021029645985 -1.5473344247048146 0 -1.5473344247048146 -3.4894226163912094 0 0 0 0 22.364987160395231 -8.2379800756125405 0 -8.2379800756125405 3.1170708494009887 0 0 0 0 23.733390424344179 -5.8678465309403691 0 -5.8678465309403691 -3.0262039273957271 0 0 0 0 13.142361317051236 -0.35018523932665069 0 -0.35018523932665069 -4.9866567187576161 0 0 0 0 16.565082880069628 -3.2072282301924755 0 -3.2072282301924755 -4.4313868163789145 0 0 0 0 39.30346019470926 -10.743842150309774 0 -10.743842150309774 8.0430949691517526 0 0 0 0 39.311112322247936 -10.748118683594839 0 -10.748118683594839 0.27592198156344239 0 0 0 0 15.936382944162858 -6.2197209711116273 0 -6.2197209711116273 -7.4015332639225768 0 0 0 0 32.27217593839039 4.0291656002113889 0 4.0291656002113889 -6.3010103351053095 0 0 0 0 25.767755370118721 -2.0114786338196211 0 -2.0114786338196211 -3.5594940843552649 0 0 0 0 26.676147000507626 4.5618585577426529 0 4.5618585577426529 -4.8816185378245791 0 0 0 0 34.189887854558037 2.6665299979783867 0 2.6665299979783867 -6.1782909160401687 0 0 0 0 33.221791601226869 3.4374489197737148 0 3.4374489197737148 -0.95718700112172428 0 0 0 0 11.114155634361101 -9.278739598232022 0 -9.278739598232022 -3.6896460386233398 0 0 0 0 32.118273968414542 -3.5337779972499561 0 -3.5337779972499561 -4.996121109124033 0 0 0 0 31.418142133876245 -1.0964250387133916 0 -1.0964250387133916 -5.3376116793313031 0 0 0 0 35.566997531357629 -5.1319115094222525 0 -5.1319115094222525 -3.3644754733131776 0 0 0 0 20.768492247102458 7.1738781887596552 0 7.1738781887596552 -1.7569229895363732 0 0 0 0 14.475183296424802 2.6549825564461571 0 2.6549825564461571 -5.0240211502750753 0 0 0 0 25.309160453862997 -3.8165576781809705 0 -3.8165576781809705 -7.8241914110298296 0 0 0 0 25.270258715288946 -4.8827450469423184 0 -4.8827450469423184 -7.5674441599635429 0 0 0 0 30.814987000834357 -5.9377657686699621 0 -5.9377657686699621 -13.189167478086842 0 0 0 0 15.857377468451745 -11.898033856602451 0 -11.898033856602451 -7.098773022735303 0 0 0 0 15.524806880864425 -4.0905628650875911 0 -4.0905628650875911 -3.8885554292448301 0 0 0 0 21.149815995486279 -6.4399601639346145 0 -6.4399601639346145 -3.1147343792482047 0 0 0 0 7.0534044509074558 -2.7317079050410022 0 -2.7317079050410022 -3.1089867539803233 0 0 0 0 27.74185069563282 -3.7845208183242676 0 -3.7845208183242676 -5.225987953022468 0 0 0 0 48.695634850841088 -2.9202920538137818 0 -2.9202920538137818 -14.395015299775821 0 0 0 0 9.399875937440811 -18.848761716887012 0 -18.848761716887012 6.5196741392102808 0 0 0 0 6.9764296865369744 -3.9185591637228754 0 -3.9185591637228754 -1.1613984191365891 0 0 0 0 26.89371590313749 -1.7614611149092809 0 -1.7614611149092809 -0.15285428409835333 0 0 0 0 23.71174542490553 -35.920730544537236 0 -35.920730544537236 20.140171990722308 0 0 0 0 18.31401698834452 -17.737670543811511 0 -17.737670543811511 16.361329324036646 0 0 0 0 21.516468813128995 -19.806461093578513 0 -19.806461093578513 2.3387507034604624 0 0 0 0 22.527659014988785 -17.481320066907266 0 -17.481320066907266 -4.6663849106716953 0 0 0 0 17.911821673156737 -17.624529252443459 0 -17.624529252443459 2.6064220332343098 0 0 0 0 15.468811552122133 -24.992974657549183 0 -24.992974657549183 2.2736203992059916 0 0 0 0 29.087089253449449 -23.060542281821949 0 -23.060542281821949 2.2588743767209891 0 0 0 0 40.721848173863691 -30.825938392090166 0 -30.825938392090166 -23.957280522731025 0 0 0 0 24.787071205654925 -14.861696669999573 0 -14.861696669999573 4.4735157555285658 0 0 0 0 49.180798819601478 -18.813936556849967 0 -18.813936556849967 -21.955785814738874 0 0 0 0 16.516133938286657 -22.620616736863496 0 -22.620616736863496 -5.6828776937535537 0 0 0 0 22.660851748421845 -12.90157806469812 0 -12.90157806469812 5.1223572105038713 0 0 0 0 9.5888222062239947 -33.242001807413203 0 -33.242001807413203 -20.902743897072241 0 0 0 0 5.8948379117155127 -21.734412335979783 0 -21.734412335979783 -0.72199018107937718 0 0 0 0 8.3430765897173842 -19.48375151499738 0 -19.48375151499738 -3.9934341699683955 0 0 0 0 9.9938921697521437 -36.843624175479171 0 -36.843624175479171 10.227524772540733 0 0 0 0 52.694220880772264 -19.830665645340758 0 -19.830665645340758 2.8864133064749922 0 0 0 0 121.94772109309997 -79.738982569712476 0 -79.738982569712476 -29.356334062611609 0 0 0 0 6.8948586835011199 -7.9370462270193585 0 -7.9370462270193585 -1.4686079498213258 0 0 0 0 62.098570159472729 -32.95615542367797 0 -32.95615542367797 9.2653590981924125 0 0 0 0 -64.11348474658007 -102.26379302352962 0 -102.26379302352962 138.24579595672913 0 0 0 0 62.624759308200737 24.782957395458766 0 24.782957395458766 -93.819380968630981 0 0 0 0 48.488616848235324 -37.018494698750629 0 -37.018494698750629 -0.045589413535253698 0 0 0 0 0.30766416935512098 28.375433967061326 0 28.375433967061326 -83.588281421268675 0 0 0 0 47.177050439815503 -2.6527285892927921 0 -2.6527285892927921 -9.2005812694974338 0 0 0 0 4.7179569614727654 -0.8533921686277921 0 -0.8533921686277921 -1.9662326251208349 0 0 0 0 1.4554374559009204 -1.6798932150720702 0 -1.6798932150720702 0.70012285306500122 0 0 0 0 1.7394794618645975 -8.9944376628916842 0 -8.9944376628916842 -11.541875004534912 0 0 0 0 47.857472313320613 -15.185078729614361 0 -15.185078729614361 0.033257761443110212 0 0 0 0 50.155523610517776 -21.812977527530109 0 -21.812977527530109 -20.358062996258468 0 0 0 0 127.19013809914759 8.2720767186081616 0 8.2720767186081616 -40.121919344612252 0 0 0 0 -27.081612740876153 134.2616805574803 0 134.2616805574803 -109.43281667013616 0 0 0 0 50.70532576799269 -80.72565155663824 0 -80.72565155663824 42.531692259792067 0 0 0 0 54.905256026209827 -72.508797578807332 0 -72.508797578807332 -36.58602111305936 0 0 0 0 16.811302269528824 -63.781772618262266 0 -63.781772618262266 49.792372985181771 0 0 0 0 7.0408605072843784 67.618977316844393 0 67.618977316844393 -133.49251064810221 0 0 0 0 174.58831716188433 -90.165050485390111 0 -90.165050485390111 -166.19859767099479 0 0 0 0 65.960599538786482 -31.519992894187453 0 -31.519992894187453 -45.055457717594891 0 0 0 0 32.362406499483768 -17.668990980894705 0 -17.668990980894705 -32.203816419423902 0 0 0 0 0.30848713500624569 -8.7725414038722356 0 -8.7725414038722356 -11.544230175522678 0 0 0 0 19.189304874154914 -19.302204608912746 0 -19.302204608912746 -0.9910845700541131 0 0 0 0 61.649722929569066 -58.856187410913492 0 -58.856187410913492 -12.259866135867014 0 0 0 0 19.057843069497721 -17.44570832839122 0 -17.44570832839122 -3.478704909674093 0 0 0 0 11.50226161073806 -29.708967651292085 0 -29.708967651292085 -18.090747784843074 0 0 0 0 19.448796713958487 -13.910021868130343 0 -13.910021868130343 0.033752864673935901 0 0 0 0 16.744402045056404 -17.413488069705469 0 -17.413488069705469 -2.0795943396343546 0 0 0 0 15.248319485803222 -17.991098999751344 0 -17.991098999751344 -1.3303282733829729 0 0 0 0 19.519120271668726 -17.367837464447533 0 -17.367837464447533 -2.4262799437871294 0 0 0 0 18.140986317874194 -15.940322945876449 0 -15.940322945876449 -0.83066341014881573 0 0 0 0 19.705471024963117 -19.180132540228783 0 -19.180132540228783 -0.43078343535201924 0 0 0 0 18.434289895685652 -19.272327406545372 0 -19.272327406545372 5.1582457601882652 0 0 0 0 22.311862215763767 -29.494493409611778 0 -29.494493409611778 -0.17967077135347154 0 0 0 0 15.575944157154481 -16.414961451553864 0 -16.414961451553864 -1.1488997657436357 0 0 0 0 16.761814456663018 -8.8689836837505958 0 -8.8689836837505958 1.8887771319082995 0 0 0 0 14.390227573637276 -17.696723076078445 0 -17.696723076078445 -2.116870495012904 0 0 0 0 12.627975078794407 -14.608841665899181 0 -14.608841665899181 -1.9573909548078845 0 0 0 0 0.8789329213658128 -5.073795055066439 0 -5.073795055066439 -7.3627766395802281 0 0 0 0 22.12275957792167 -27.03735129431638 0 -27.03735129431638 221.88515396158891 0 0 0 0 -140.96861524960792 838.37725237680445 0 838.37725237680445 -507.49532067915925 0 0 0 0 -47.275604375676266 -592.6622385874748 0 -592.6622385874748 -96.858462011185111 0 0 0 0 3.3389351090776067 -0.85269242625897235 0 -0.85269242625897235 1.4295843747176267 0 0 0 0 625.09526613720118 -816.06745541728424 0 -816.06745541728424 -25.449606677719203 0 0 0 0 1412.8135419817258 664.10403502434053 0 664.10403502434053 -522.92455421748218 0 0 0 0 181.42855206283912 376.03492065106184 0 376.03492065106184 481.97439207941989 0 0 0 0 1064.4290757861154 -320.13957986381894 0 -320.13957986381894 -143.84723075541388 0 0 0 0 342.99425127418544 149.34892506569258 0 149.34892506569258 -7.2791473391421277 0 0 0 0 1120.4703246850579 334.35341686545507 0 334.35341686545507 27.475332761201571 0 0 0 0 -401.90523916931102 -108.11632675200588 0 -108.11632675200588 172.05512904237708 0 0 0 0 21.50943239637536 174.92639254606257 0 174.92639254606257 65.642915057680057 0 0 0 0 -11.255303768842623 53.52356541434051 0 53.52356541434051 -16.82286769665734 0 0 0 0 -0.45510718786102977 0.5634099839918556 0 0.5634099839918556 -0.3630236994740148 0 0 0 0 65.642321770595572 82.244754717371734 0 82.244754717371734 -152.50798527672305 0 0 0 0 75.25653842003976 50.937898999645313 0 50.937898999645313 -93.822649336897484 0 0 0 0 585.67600696166573 -238.44296926642255 0 -238.44296926642255 -139.26453457346821 0 0 0 0 810.79164396551732 -203.29069231511039 0 -203.29069231511039 -142.72310056892638 0 0 0 0 169.43522678718318 -35.643737825723406 0 -35.643737825723406 -127.22453278054581 0 0 0 0 23.770568880940118 -21.91942114909034 0 -21.91942114909034 -9.688199692316914 0 0 0 0 15.675622530778128 2.5686276811206596 0 2.5686276811206596 5.8004974230628932 0 0 0 0 26.25673008857666 -16.535911334740774 0 -16.535911334740774 -1.1964228204471539 0 0 0 0 18.704185091968704 -13.605154909299012 0 -13.605154909299012 8.9159699049507708 0 0 0 0 14.132279025121534 48.161937862545074 0 48.161937862545074 -15.321366433570347 0 0 0 0 -58.084386121284126 12.282895873266057 0 12.282895873266057 29.807216515589062 0 0 0 0 28.018956087089464 -7.1624702683976409 0 -7.1624702683976409 9.5650670557379271 0 0 0 0 21.247620098135091 -16.000888443564538 0 -16.000888443564538 10.284513290434777 0 0 0 0 -50.274146188907253 -38.067935243943793 0 -38.067935243943793 17.551143418137144 0 0 0 0 -11.255235518309746 -26.673042373911358 0 -26.673042373911358 14.760164598696292 0 0 0 0 1.6129882060420009 -2.5506716867684265 0 -2.5506716867684265 3.9101982202913366 0 0 0 0 11.846261529267395 -7.8622672809058258 0 -7.8622672809058258 5.4529575179935819 0 0 0 0 12.343522963923078 14.435910759452781 0 14.435910759452781 -1.5787485659550384 0 0 0 0 6.3987470416385577 34.997676464121355 0 34.997676464121355 36.739401931783505 0 0 0 0 1.0744676040385208 3.164893961342405 0 3.164893961342405 -0.40828414712682459 0 0 0 0 29.597222264899671 -34.104519332545351 0 -34.104519332545351 -45.227610733961683 0 0 0 0 13.951344085111383 4.8311858146901265 0 4.8311858146901265 1.1287069266328809 0 0 0 0 18.996653162392747 5.1146903256367935 0 5.1146903256367935 -54.374865465541916 0 0 0 0 11.916471116359133 -15.234710918525025 0 -15.234710918525025 -8.5468632772067394 0 0 0 0 10.299483712859447 -4.6572329629157805 0 -4.6572329629157805 3.2480188672867722 0 0 0 0 17.661557927945911 -12.657731300587244 0 -12.657731300587244 -7.7700645421323316 0 0 0 0 11.283105239694443 -6.5819027609735663 0 -6.5819027609735663 2.9221959920750686 0 0 0 0 538.2105821169298 -213.62597273228403 0 -213.62597273228403 -75.516585431957537 0 0 0 0 103.4039226453483 -26.345638819721387 0 -26.345638819721387 -29.79602492516824 0 0 0 0 -0.24521044136690406 -0.89224245248218281 0 -0.89224245248218281 0.026129883374757412 0 0 0 0 23.389575398897477 -14.759793727611793 0 -14.759793727611793 28.741051076841359 0 0 0 0 27.136934157515498 2.3611307351789037 0 2.3611307351789037 5.215172435551267 0 0 0 0 6.4049931479312363 6.8437537151487504 0 6.8437537151487504 9.7891702184110727 0 0 0 0 28.477800315215973 -1.1330894769921542 0 -1.1330894769921542 -5.297579554299773 0 0 0 0 74.212072930629517 146.87999369508998 0 146.87999369508998 -3.5407673725906932 0 0 0 0 -22.702368240799615 -54.428325621629938 0 -54.428325621629938 48.024640737662963 0 0 0 0 13.771065072647506 5.3168274164575084 0 5.3168274164575084 1.2450364258750977 0 0 0 0 12.073083154455162 13.834628745948748 0 13.834628745948748 15.906645238860619 0 0 0 0 21.894907438769224 24.631576081885669 0 24.631576081885669 -13.916448913447311 0 0 0 0 0.14628957442808099 -2.1046141312122204 0 -2.1046141312122204 1.126881410330304 0 0 0 0 377.95332965829084 -233.81079365417554 0 -233.81079365417554 134.44076943845266 0 0 0 0 465.53260459627609 -243.24221414782983 0 -243.24221414782983 89.902965262584075 0 0 0 0 514.77680935896933 -161.12391118923347 0 -161.12391118923347 59.444502867429037 0 0 0 0 316.7138964941737 -270.60246789490975 0 -270.60246789490975 3.5563779522972254 0 0 0 0 276.74218591668841 -139.21675855934177 0 -139.21675855934177 56.305403910964742 0 0 0 0 278.5761028115362 -185.13340396114063 0 -185.13340396114063 93.346654624323037 0 0 0 0 418.91427226402084 -197.94450684164951 0 -197.94450684164951 94.159043120495426 0 0 0 0 357.4952548130359 -152.77712045863035 0 -152.77712045863035 81.373790847667806 0 0 0 0 235.64993267353202 -78.311237116015491 0 -78.311237116015491 95.002111377342885 0 0 0 0 352.99058761142669 -102.68644179131502 0 -102.68644179131502 89.068481993715977 0 0 0 0 183.74908741647187 27.977929024059222 0 27.977929024059222 85.408633721060596 0 0 0 0 310.37286897574768 10.603825773186713 0 10.603825773186713 80.214955558059501 0 0 0 0 262.44954263549835 -30.011517086565391 0 -30.011517086565391 81.352659510509511 0 0 0 0 201.18418968093283 -81.964766186998077 0 -81.964766186998077 67.891238817936937 0 0 0 0 117.17980400457554 -19.514069182589537 0 -19.514069182589537 81.651131344138292 0 0 0 0 238.14499948183175 -63.897234086631215 0 -63.897234086631215 70.512201138938508 0 0 0 0 137.54741498895262 -199.93135739479163 0 -199.93135739479163 50.3574334325167 0 0 0 0 132.38636839038224 -31.381606033592412 0 -31.381606033592412 45.928702362835793 0 0 0 0 83.797591399806606 -74.195027459060839 0 -74.195027459060839 13.925525031831512 0 0 0 0 -11.955768139931024 -96.027013186770546 0 -96.027013186770546 -93.421544762366239 0 0 0 0 3.9762061235205692 0.23747198203227526 0 0.23747198203227526 -30.021194596485202 0 0 0 0 56.978245409136889 -12.561650014501311 0 -12.561650014501311 -134.15828417524426 0 0 0 0 69.284526562604242 -366.10742431991071 0 -366.10742431991071 49.637630794831466 0 0 0 0 38.456695843649413 -169.72636987289684 0 -169.72636987289684 -4.5196934910923119 0 0 0 0 632.41216860461191 -482.67569112896581 0 -482.67569112896581 -7.4833370759490663 0 0 0 0 511.31663097677665 -315.53984631061962 0 -315.53984631061962 -89.96318227791744 0 0 0 0 507.30531837820831 -304.53311966677143 0 -304.53311966677143 -11.544368441601364 0 0 0 0 628.83082390025993 -342.50945689978153 0 -342.50945689978153 -144.81513533098803 0 0 0 0 137.63698941378516 -123.66107452919186 0 -123.66107452919186 11.237847394324945 0 0 0 0 185.92507621897403 124.05761209598063 0 124.05761209598063 57.659930444820347 0 0 0 0 136.08178811102971 123.74723352154115 0 123.74723352154115 66.568992790832908 0 0 0 0 118.32968145798623 106.95037757436194 0 106.95037757436194 58.055159707115664 0 0 0 0 121.99386941661487 132.55781198629757 0 132.55781198629757 84.751375584665311 0 0 0 0 127.08164610112681 135.3513628472308 0 135.3513628472308 81.717318343180523 0 0 0 0 116.94918351579099 136.0487633092448 0 136.0487633092448 89.931308914611691 0 0 0 0 113.41473386331563 141.2328787457086 0 141.2328787457086 82.937618993685078 0 0 0 0 144.33551171441377 105.37719031613824 0 105.37719031613824 86.954264928321663 0 0 0 0 88.07877756221751 103.75184573152956 0 103.75184573152956 89.302709350710757 0 0 0 0 141.69331575561546 103.19105181361874 0 103.19105181361874 95.460337961687401 0 0 0 0 143.81000630806739 102.13640934926661 0 102.13640934926661 90.597162178485632 0 0 0 0 186.80273512398571 28.374970777325643 0 28.374970777325643 80.203898520450366 0 0 0 0 142.90027439822461 105.27710636314237 0 105.27710636314237 92.171292963828364 0 0 0 0 141.39051996406954 48.299571595369969 0 48.299571595369969 72.766192948798107 0 0 0 0 87.875695950106547 25.051039055448655 0 25.051039055448655 63.971443950189723 0 0 0 0 38.704607689227487 55.641496851640795 0 55.641496851640795 47.969786487293732 0 0 0 0 56.296088226812572 16.255175861732823 0 16.255175861732823 -24.661043938453986 0 0 0 0 -25.726610558749599 -17.610837034135102 0 -17.610837034135102 -13.089585122202948 0 0 0 0 12.448731004060619 80.878952951640031 0 80.878952951640031 70.667375406178508 0 0 0 0 54.346341090240458 67.0657165306975 0 67.0657165306975 24.74163623217737 0 0 0 0 81.189011628469416 89.60943467027073 0 89.60943467027073 58.523717888686861 0 0 0 0 84.373298620340961 109.28947881109099 0 109.28947881109099 83.131597855770451 0 0 0 0 58.443573828875287 119.1932245896204 0 119.1932245896204 94.960421060595763 0 0 0 0 100.24348626959727 139.61777367378318 0 139.61777367378318 87.965268908476446 0 0 0 0 69.030707756274296 147.34083349800324 0 147.34083349800324 153.8182189687418 0 0 0 0 20.120286257807948 86.943445612398591 0 86.943445612398591 104.90565699066337 0 0 0 0 150.5406398616733 183.42943161489916 0 183.42943161489916 223.64962381109694 0 0 0 0 135.45937406516623 138.23970646647331 0 138.23970646647331 99.079998214491297 0 0 0 0 223.08012758625682 101.29805780006507 0 101.29805780006507 162.84053892639076 0 0 0 0 150.04491118420219 169.00043582520721 0 169.00043582520721 95.031018464725094 0 0 0 0 96.323074371474604 143.91881705159807 0 143.91881705159807 117.15864273898205 0 0 0 0 83.509831718598434 -15.793333226280538 0 -15.793333226280538 204.83178220445075 0 0 0 0 168.76779874786462 -181.9811227688964 0 -181.9811227688964 81.878549455599114 0 0 0 0 147.14742116143952 -105.62466804939868 0 -105.62466804939868 -178.92431310841357 0 0 0 0 1.7682503262694809 -103.79494988067449 0 -103.79494988067449 17.958986213226581 0 0 0 0 108.47749193353866 -36.055756645420502 0 -36.055756645420502 -12.547105733489843 0 0 0 0 68.429509370156666 23.325645524905667 0 23.325645524905667 105.50341249159101 0 0 0 0 81.181491993291274 88.359897238397934 0 88.359897238397934 254.44641801205239 0 0 0 0 13.852186534062398 -25.417533245241124 0 -25.417533245241124 -41.769451059249604 0 0 0 0 11.017996993071392 54.774648900402781 0 54.774648900402781 94.775945976997264 0 0 0 0 -25.453873840539671 -121.87688619882556 0 -121.87688619882556 -140.59335607556159 0 0 0 0 -26.891488265552653 -45.027698735254489 0 -45.027698735254489 -12.519405574712891 0 0 0 0 15.769918539303035 -92.831831403945671 0 -92.831831403945671 35.994977477164639 0 0 0 0 21.36348751212563 -144.2315559794784 0 -144.2315559794784 -127.80233310707808 0 0 0 0 -78.810098836902398 -100.80854571731925 0 -100.80854571731925 -145.15909576365289 0 0 0 0 -28.350107828853652 -192.46733051620049 0 -192.46733051620049 -244.84519946817977 0 0 0 0 -52.37609785938912 -122.57185248663882 0 -122.57185248663882 -135.5220534852831 0 0 0 0 -2.2546208224675865 -120.52702381889276 0 -120.52702381889276 -349.38710345855543 0 0 0 0 -34.28024230322535 -171.47599748541825 0 -171.47599748541825 -269.65269913776365 0 0 0 0 -46.490178718682273 -89.072658542310705 0 -89.072658542310705 -272.9323769594339 0 0 0 0 -66.764059040655411 -115.50685478349897 0 -115.50685478349897 -156.36107407754935 0 0 0 0 -16.703417167332191 -82.788106901517267 0 -82.788106901517267 -169.40409232758759 0 0 0 0 -30.586233380900012 21.069331532497699 0 21.069331532497699 58.695128271911244 0 0 0 0 23.495890637556613 -8.7736562377594964 0 -8.7736562377594964 -98.460087689533339 0 0 0 0 -48.03260601959937 -37.232512768126298 0 -37.232512768126298 -19.555788507687794 0 0 0 0 -53.083417809189996 -67.897642915077768 0 -67.897642915077768 -72.907664589380147 0 0 0 0 3.7292859781150582 -79.32402498373699 0 -79.32402498373699 -232.17432840514903 0 0 0 0 -37.272797549506549 -97.362261403589287 0 -97.362261403589287 -149.12327098620381 0 0 0 0 -1.2712966031724591 -174.37390468388071 0 -174.37390468388071 -354.97312052211873 0 0 0 0 -81.560926127512175 -140.75860811394045 0 -140.75860811394045 -212.47356765927026 0 0 0 0 -82.815256854274594 41.3707270215682 0 41.3707270215682 -99.74632304609122 0 0 0 0 -196.86238390863218 -73.160796192471366 0 -73.160796192471366 139.29715013898658 0 0 0 0 -128.28909376775118 -12.828740942012473 0 -12.828740942012473 160.74303768314167 0 0 0 0 -79.4582797037001 -64.373164786414691 0 -64.373164786414691 182.61415256770965 0 0 0 0 -128.50135658885938 -9.013354565543068 0 -9.013354565543068 203.73887487796674 0 0 0 0 123.62369075305469 -95.772652460859945 0 -95.772652460859945 102.89374054103564 0 0 0 0 112.82094389496706 -114.31809079526761 0 -114.31809079526761 107.34526014619104 0 0 0 0 0.7643886599343972 -0.76980719230613914 0 -0.76980719230613914 -0.065758199793815031 0 0 0 0 76.470438953643679 -50.643631381113664 0 -50.643631381113664 -2.9815858280594512 0 0 0 0 63.770622150612326 61.688682594117836 0 61.688682594117836 145.85378458431433 0 0 0 0 156.01120231221648 -208.5366627616354 0 -208.5366627616354 18.63664150431714 0 0 0 0 -30.843552568563609 -252.42506907375935 0 -252.42506907375935 -380.95035898691179 0 0 0 0 39.530211344322765 -16.033416496662987 0 -16.033416496662987 5.1773566248402574 0 0 0 0 -57.620351221761666 90.928859085660406 0 90.928859085660406 -62.445692923628712 0 0 0 0 -169.60941116593131 -207.70862929403461 0 -207.70862929403461 -225.89998625148871 0 0 0 0 10.141352709959392 -177.34765022189004 0 -177.34765022189004 -227.11971436319095 0 0 0 0 -132.54013801723795 -59.173544872878438 0 -59.173544872878438 -323.10490375137556 0 0 0 0 66.151075182697241 -113.39033673479017 0 -113.39033673479017 -509.15675125716359 0 0 0 0 31.180123168651335 47.215650425337117 0 47.215650425337117 30.160206131570703 0 0 0 0 -10.872579577775468 42.37852729913493 0 42.37852729913493 45.284507299456891 0 0 0 0 -42.462452503563327 13.649367486434585 0 13.649367486434585 43.608335913072551 0 0 0 0 35.94519771701016 -48.15704629873926 0 -48.15704629873926 37.909585178479574 0 0 0 0 16.528894815084641 8.4270429970993064 0 8.4270429970993064 14.061962234408384 0 0 0 0 79.603320795400577 -287.61839348486569 0 -287.61839348486569 -494.04235591562491 0 0 0 0 -24.567117910482921 4.1130221511068612 0 4.1130221511068612 21.128979267445629 0 0 0 0 4.598037518506942 1.3138096307735871 0 1.3138096307735871 4.7651326779516019 0 0 0 0 36.395490579019175 -9.3723005445201757 0 -9.3723005445201757 4.3569223954425338 0 0 0 0 -57.400370342318638 -299.53859175299397 0 -299.53859175299397 -335.87087217940933 0 0 0 0 42.731952309104599 -136.37924425142455 0 -136.37924425142455 -230.67861992504879 0 0 0 0 80.987930008721378 -177.25405665564313 0 -177.25405665564313 -297.09471702876863 0 0 0 0 94.316362754421789 -234.47260112015442 0 -234.47260112015442 -394.63671166883148 0 0 0 0 95.616509028390283 -224.87735164225433 0 -224.87735164225433 -336.54030261815114 0 0 0 0 50.499384813560937 -139.02940592956168 0 -139.02940592956168 -153.33451712050737 0 0 0 0 42.207527527662478 -74.678211321468041 0 -74.678211321468041 -329.22714499159747 0 0 0 0 150.65831334195718 -179.23050129442822 0 -179.23050129442822 -304.91772967989118 0 0 0 0 -210.64392563295519 -436.10286421492196 0 -436.10286421492196 93.09773749642909 0 0 0 0 -122.88641695118349 427.28421215337625 0 427.28421215337625 229.69577425005832 0 0 0 0 405.74762235255184 130.05216637315516 0 130.05216637315516 23.713064639062395 0 0 0 0 806.76519018245381 284.48305815376852 0 284.48305815376852 46.145526899969809 0 0 0 0 806.69598876423697 111.66235848695806 0 111.66235848695806 -0.33173018294380086 0 0 0 0 1284.7564649095184 288.05329159456551 0 288.05329159456551 -73.080511431814557 0 0 0 0 1282.4708524921261 287.99967655224509 0 287.99967655224509 8.9778408553360407 0 0 0 0 7.0398634019602966 -2.9901269294989277 0 -2.9901269294989277 -1.3538351447835328 0 0 0 0 1566.2514294363082 -37.504859995848278 0 -37.504859995848278 33.741488423089038 0 0 0 0 818.18146714330214 478.64029973497281 0 478.64029973497281 -54.850355766109942 0 0 0 0 914.15789493170269 686.13537588174597 0 686.13537588174597 -166.38172994656361 0 0 0 0 17.021035259917983 -4.5217676000838107 0 -4.5217676000838107 0.70334982911626742 0 0 0 0 1186.3333739117006 524.21642209472589 0 524.21642209472589 -117.0695757323565 0 0 0 0 30.570675422026852 -422.96027026760726 0 -422.96027026760726 39.525802081499819 0 0 0 0 1546.8982436110182 273.53355391769446 0 273.53355391769446 -237.98948170648418 0 0 0 0 -45.345450735423981 41.857351846944937 0 41.857351846944937 -190.25989281846159 0 0 0 0 60.125288054302928 -77.456765058136853 0 -77.456765058136853 -225.1307244001332 0 0 0 0 -68.784069669933615 -117.44615536009451 0 -117.44615536009451 -198.22453426104494 0 0 0 0 72.966201003129299 -160.21968658344088 0 -160.21968658344088 -471.71763609819777 0 0 0 0 41.981980590297098 -18.501768314629999 0 -18.501768314629999 -145.81742119848468 0 0 0 0 9.9924523236163623 -56.023387296655983 0 -56.023387296655983 -294.47916690682541 0 0 0 0 -109.17015519403867 -268.00114841050163 0 -268.00114841050163 -240.43899365935204 0 0 0 0 40.970567924823342 -16.49107509611779 0 -16.49107509611779 5.6030088673279952 0 0 0 0 -318.73526063409736 -108.70798099060823 0 -108.70798099060823 60.516659936378801 0 0 0 0 36.274172093307072 -13.682713201744384 0 -13.682713201744384 3.6315715311554042 0 0 0 0 185.13847549496495 -500.82047467409166 0 -500.82047467409166 -616.86634895393786 0 0 0 0 27.253646107175882 47.872971921670342 0 47.872971921670342 -307.65507273877074 0 0 0 0 207.647627212722 -241.86311735729691 0 -241.86311735729691 37.591956192076395 0 0 0 0 -78.292428429419942 38.547334853801658 0 38.547334853801658 289.95149514564673 0 0 0 0 1.6336176075992626 -136.66563879400132 0 -136.66563879400132 45.125674884916862 0 0 0 0 399.64220007469157 75.230989627283634 0 75.230989627283634 169.7784824792152 0 0 0 0 -184.59390875573445 -16.317495542291454 0 -16.317495542291454 198.30525925085931 0 0 0 0 -147.66735985535706 -120.22112325433363 0 -120.22112325433363 98.788006897642845 0 0 0 0 5.6420693480140471 -37.062021000594541 0 -37.062021000594541 181.84910388700155 0 0 0 0 26.396267838102801 -27.566204078153021 0 -27.566204078153021 158.82596233190088 0 0 0 0 -160.61519512040832 1.8866047421070107 0 1.8866047421070107 249.37083711466516 0 0 0 0 -159.36897058329851 -17.213100175842101 0 -17.213100175842101 185.92543900320698 0 0 0 0 -5.8022779326274758 -30.698911914686505 0 -30.698911914686505 259.64920962950009 0 0 0 0 26.277132532261021 -40.682906128748982 0 -40.682906128748982 195.58900730195637 0 0 0 0 312.39692608305631 103.7265708726004 0 103.7265708726004 221.33496876707432 0 0 0 0 366.90704190988799 -67.323881349473595 0 -67.323881349473595 192.65976202304591 0 0 0 0 480.00586117748389 11.005179491674426 0 11.005179491674426 143.96635312568196 0 0 0 0 695.29042947374182 11.013331762344023 0 11.013331762344023 105.01953006085159 0 0 0 0 880.83523708563098 -293.0024846945193 0 -293.0024846945193 158.05273803860928 0 0 0 0 1008.758764452461 75.279622227526033 0 75.279622227526033 125.89115445497782 0 0 0 0 403.16324763880766 51.927517590657772 0 51.927517590657772 322.11544370172169 0 0 0 0 1221.3246022240664 454.75682917598556 0 454.75682917598556 207.51789263572482 0 0 0 0 372.70521381641993 -11.225235744743031 0 -11.225235744743031 508.55562724628771 0 0 0 0 -388.27420132305269 399.73748484955695 0 399.73748484955695 87.013714384399009 0 0 0 0 2.078526933491343 1.8152416107094815 0 1.8152416107094815 0.80353070293898199 0 0 0 0 8.8271669342502719 -227.041957669358 0 -227.041957669358 100.01224971967349 0 0 0 0 1775.1612333731 -287.4475919373906 0 -287.4475919373906 -22.42492532131655 0 0 0 0 882.77108336207675 157.11586450205937 0 157.11586450205937 232.60035864071142 0 0 0 0 1205.8801471434126 831.24382771266392 0 831.24382771266392 29.789689677399679 0 0 0 0 9.1830976857182556 3.4495144483077027 0 3.4495144483077027 1.720007822787931 0 0 0 0 798.30300192063078 -224.63070184135313 0 -224.63070184135313 118.61840874698601 0 0 0 0 830.7386743460429 -261.37423453659198 0 -261.37423453659198 141.73919686814497 0 0 0 0 868.26243505343882 -88.892029391593496 0 -88.892029391593496 16.451200923025681 0 0 0 0 715.20649432610617 -240.60933229870534 0 -240.60933229870534 268.32325180453336 0 0 0 0 814.18884892727874 -116.45729607678641 0 -116.45729607678641 200.60985087305926 0 0 0 0 623.27222293640079 -180.45644067965441 0 -180.45644067965441 202.28719814175201 0 0 0 0 671.88346444361741 -515.459515736713 0 -515.459515736713 334.01213067095523 0 0 0 0 844.63854787084711 -593.93854677338368 0 -593.93854677338368 355.43974061441077 0 0 0 0 1.023057535749416 -0.05630932732261229 0 -0.05630932732261229 2.0371853750435482 0 0 0 0 821.09796728385118 -286.02544509355903 0 -286.02544509355903 139.48986738443728 0 0 0 0 1072.2428659986836 -380.63464093968014 0 -380.63464093968014 169.11952673978885 0 0 0 0 633.10990952596546 -367.40522555631304 0 -367.40522555631304 231.13459349048753 0 0 0 0 636.63412570356013 -262.52071297372413 0 -262.52071297372413 158.78921511735371 0 0 0 0 693.35791649026214 -283.46534612792311 0 -283.46534612792311 162.58012206987587 0 0 0 0 489.96833676190727 -140.62148666254598 0 -140.62148666254598 175.60784853569294 0 0 0 0 636.08169187595377 -119.46528916919078 0 -119.46528916919078 151.92569465104498 0 0 0 0 528.08989010544963 -122.20585152571897 0 -122.20585152571897 141.5897450424618 0 0 0 0 368.20734557040123 -91.414062723799361 0 -91.414062723799361 171.70204070562932 0 0 0 0 455.21160276704177 -187.78673270681156 0 -187.78673270681156 187.49111455930597 0 0 0 0 534.9416020908161 -245.64041933895658 0 -245.64041933895658 214.5604642188755 0 0 0 0 354.92902436411532 -38.729047179022928 0 -38.729047179022928 147.65682299338096 0 0 0 0 307.58098295783384 69.530562172343821 0 69.530562172343821 82.083156810863329 0 0 0 0 293.48837437612383 33.180200667589816 0 33.180200667589816 122.71170420747171 0 0 0 0 454.15388733254076 -83.996792277527675 0 -83.996792277527675 166.21011904117995 0 0 0 0 460.9838948548213 -16.52943768887917 0 -16.52943768887917 124.12448321882584 0 0 0 0 398.21684625307353 34.770684915793709 0 34.770684915793709 111.33695795902713 0 0 0 0 328.51925518609278 -41.433065292266292 0 -41.433065292266292 171.99362164261402 0 0 0 0 565.02844366739009 -155.43134228235158 0 -155.43134228235158 189.42839728211311 0 0 0 0 553.67730926252443 -55.637280405604542 0 -55.637280405604542 149.09526703860683 0 0 0 0 806.41785560065546 -208.32654984359488 0 -208.32654984359488 148.02251991961475 0 0 0 0 692.66715388331977 -127.95759691208605 0 -127.95759691208605 110.20658864530196 0 0 0 0 506.32868371735094 -84.653466197674334 0 -84.653466197674334 125.84050137216218 0 0 0 0 480.79399063192159 9.1959264903023268 0 9.1959264903023268 133.34557263837905 0 0 0 0 144.16397697292996 67.901119210071556 0 67.901119210071556 197.40367544276452 0 0 0 0 54.329822650768619 98.997468423733153 0 98.997468423733153 85.248772754503193 0 0 0 0 43.883018788841582 -56.773893102104921 0 -56.773893102104921 62.976898861674272 0 0 0 0 340.18522382648007 8.9915006603132497 0 8.9915006603132497 59.599820156830901 0 0 0 0 -72.285920907113905 1.1656697912285381 0 1.1656697912285381 167.98134857383775 0 0 0 0 -157.81424802228139 -90.175028397032975 0 -90.175028397032975 89.003072515080021 0 0 0 0 -76.672118236208917 129.23152804603978 0 129.23152804603978 -154.75494690636424 0 0 0 0 -343.75292139453086 -33.394769640132381 0 -33.394769640132381 33.620970669144299 0 0 0 0 -35.501013068071188 21.814157999550844 0 21.814157999550844 70.725166009238819 0 0 0 0 75.016190628070035 113.10102711856916 0 113.10102711856916 -43.764727857061644 0 0 0 0 -110.4842892183442 92.472760088018731 0 92.472760088018731 60.076156641445777 0 0 0 0 -99.644172434927214 40.105742856291499 0 40.105742856291499 2.8850160763777239 0 0 0 0 194.81294673519733 77.595488170611588 0 77.595488170611588 139.09670441016988 0 0 0 0 279.27382442067028 -4.4641100598773846 0 -4.4641100598773846 123.72979189414673 0 0 0 0 171.15498256074898 26.159962293670105 0 26.159962293670105 29.396397923086624 0 0 0 0 73.341456299149286 109.79687669822988 0 109.79687669822988 106.34373138668707 0 0 0 0 180.27394325874775 74.029046789229142 0 74.029046789229142 124.48806851738027 0 0 0 0 189.37308690288683 77.531458396097264 0 77.531458396097264 45.299841867992654 0 0 0 0 120.62612635098412 161.12393158498935 0 161.12393158498935 63.30820123339663 0 0 0 0 76.910692604469659 127.6058520839315 0 127.6058520839315 54.821350159232679 0 0 0 0 104.94538216900037 139.81471848683941 0 139.81471848683941 77.942440153539792 0 0 0 0 188.78551540117223 88.304709280264206 0 88.304709280264206 79.337871482185619 0 0 0 0 72.198854938735167 137.65548205564437 0 137.65548205564437 34.974290354312643 0 0 0 0 -72.402471711035105 30.587065601141148 0 30.587065601141148 6.1137080206099199 0 0 0 0 264.86346702526862 176.03645141975926 0 176.03645141975926 16.956339515205855 0 0 0 0 0.22298283171627276 0.89123921642239168 0 0.89123921642239168 4.4615689993187981 0 0 0 0 141.47200420694298 101.95906175967707 0 101.95906175967707 -25.96634857997924 0 0 0 0 85.756370209012857 194.43157883747665 0 194.43157883747665 76.94611951638035 0 0 0 0 159.16881922325047 275.71897919441926 0 275.71897919441926 156.80739243382777 0 0 0 0 114.45853871939289 145.13413670549903 0 145.13413670549903 75.963335102253041 0 0 0 0 89.740869992863736 182.44131544562606 0 182.44131544562606 44.864912080435488 0 0 0 0 63.081227076376308 175.53272055526031 0 175.53272055526031 103.81258627268016 0 0 0 0 62.643752965283056 182.95216064358965 0 182.95216064358965 81.293531773011409 0 0 0 0 21.848319145883579 137.18143577846422 0 137.18143577846422 76.738030169413832 0 0 0 0 96.383059552495979 99.518891841425557 0 99.518891841425557 46.546177601668887 0 0 0 0 95.057885612432074 71.966448545994126 0 71.966448545994126 -23.955426134184563 0 0 0 0 181.26725788592739 57.707073805692744 0 57.707073805692744 59.787631186302406 0 0 0 0 266.57095657222817 26.391902765373743 0 26.391902765373743 42.124182384923188 0 0 0 0 127.02560709974296 1.3874563108671509 0 1.3874563108671509 38.29223633435322 0 0 0 0 235.45221231503092 25.887690685635334 0 25.887690685635334 -88.919315278665124 0 0 0 0 249.69756782460536 -116.80444387888633 0 -116.80444387888633 113.55608339391165 0 0 0 0 193.77767157798007 49.20664477771038 0 49.20664477771038 65.129071135645063 0 0 0 0 216.00032660845682 -58.341301386935356 0 -58.341301386935356 170.11146597028846 0 0 0 0 356.63139403920286 -63.023555246380056 0 -63.023555246380056 128.87417399034666 0 0 0 0 319.79716791115425 -156.62056235993691 0 -156.62056235993691 305.12395982360613 0 0 0 0 525.89437629056556 -280.47863986866287 0 -280.47863986866287 245.14094311995359 0 0 0 0 498.69566056603799 -212.76141968159573 0 -212.76141968159573 210.75505550773869 0 0 0 0 481.97030372353765 -165.78243464465186 0 -165.78243464465186 189.49851707608832 0 0 0 0 314.95821541643818 -99.803474109658055 0 -99.803474109658055 217.80318493776849 0 0 0 0 398.18885582147232 -66.936737645325138 0 -66.936737645325138 150.67656762152546 0 0 0 0 293.949128352549 21.641112728164217 0 21.641112728164217 130.6845567740238 0 0 0 0 182.92523570977937 97.099150590077443 0 97.099150590077443 111.60230555919128 0 0 0 0 298.07514172378797 27.696309297751213 0 27.696309297751213 102.85714142330653 0 0 0 0 166.63157123859128 62.638671024250925 0 62.638671024250925 106.80391117170802 0 0 0 0 276.23202848275832 2.8183557796692185 0 2.8183557796692185 110.68774765663056 0 0 0 0 14.854828855734013 24.579120487479997 0 24.579120487479997 8.200424132038961 0 0 0 0 30.483735624775363 14.124128717601025 0 14.124128717601025 -2.0728298645997256 0 0 0 0 27.324771285488168 16.804413437779587 0 16.804413437779587 -2.973688147362509 0 0 0 0 18.0953474854443 12.417433734519658 0 12.417433734519658 12.389508169080701 0 0 0 0 -15.999796832162247 15.835872867132821 0 15.835872867132821 24.304739162357009 0 0 0 0 29.005842582493642 39.271515135440495 0 39.271515135440495 3.5945344984693293 0 0 0 0 -2.3335824166279053 23.26928521445052 0 23.26928521445052 32.357565934299146 0 0 0 0 -16.536766983991356 21.941806181060031 0 21.941806181060031 32.830796384651876 0 0 0 0 -6.4254354869099188 42.383802688326341 0 42.383802688326341 5.3171841889284224 0 0 0 0 16.46592074363798 31.488017221291102 0 31.488017221291102 -6.3963504701168858 0 0 0 0 16.275580386898817 14.349831782994212 0 14.349831782994212 11.72288758465087 0 0 0 0 25.337423287823185 6.7427014550285094 0 6.7427014550285094 -1.0419981409768297 0 0 0 0 36.658242514444282 22.485921787672851 0 22.485921787672851 -12.666531487217071 0 0 0 0 128.42220396579432 30.733348297151906 0 30.733348297151906 16.499730038198322 0 0 0 0 41.477799417174538 59.086915462969273 0 59.086915462969273 34.674390743812182 0 0 0 0 45.226683646564197 17.575773200088065 0 17.575773200088065 46.327492596983575 0 0 0 0 68.832968154159971 -3.4823593637511294 0 -3.4823593637511294 -2.7761207110506803 0 0 0 0 -0.098596417816953164 -0.025894962517757136 0 -0.025894962517757136 1.4226464396472505 0 0 0 0 -103.20045762195696 -28.279893359561811 0 -28.279893359561811 143.38164389811027 0 0 0 0 -217.8848102594975 94.062419775573744 0 94.062419775573744 50.848171211190675 0 0 0 0 -0.049453287135051482 2.1933727265145961 0 2.1933727265145961 1.1593342726936982 0 0 0 0 30.588944540251759 6.4385099770272518 0 6.4385099770272518 -3.1138802348511945 0 0 0 0 0.20679941350030617 1.9897340678653919 0 1.9897340678653919 2.7703958392301775 0 0 0 0 -12.404810384257871 32.508894436643459 0 32.508894436643459 -41.362977241777571 0 0 0 0 4.2877148409869719 5.1656014620821971 0 5.1656014620821971 -5.7421551671904334 0 0 0 0 13.632001051930274 13.717628257450542 0 13.717628257450542 -3.1121950292337033 0 0 0 0 -131.17195351589544 66.170173715529927 0 66.170173715529927 50.330224143703163 0 0 0 0 -7.0385698777408834 31.904885080323339 0 31.904885080323339 0.6634221379608789 0 0 0 0 -4.0323589186373283 25.045969300533272 0 25.045969300533272 -11.965118506167755 0 0 0 0 0.53089241040276036 4.4058674878819488 0 4.4058674878819488 10.938324797362071 0 0 0 0 24.735162929777289 4.3814096583603259 0 4.3814096583603259 -64.679447968601153 0 0 0 0 18.165198025899372 -14.981271001081765 0 -14.981271001081765 11.578663598583262 0 0 0 0 -55.745088289822888 24.252923388605154 0 24.252923388605154 158.21991216002834 0 0 0 0 -41.800629559369554 -17.060971770473998 0 -17.060971770473998 136.61880520816658 0 0 0 0 15.5502765217243 -51.477678867116992 0 -51.477678867116992 53.261736414611278 0 0 0 0 -1.9773465038107076 0.6592178067723502 0 0.6592178067723502 2.3446371383937512 0 0 0 0 15.92706491448007 40.814859902183912 0 40.814859902183912 36.778137856339072 0 0 0 0 -42.488038186896006 27.903058790931993 0 27.903058790931993 61.380164871803117 0 0 0 0 37.521499312606466 27.689315203150159 0 27.689315203150159 11.628067455631594 0 0 0 0 -5.3490447803582057 7.6466292093529411 0 7.6466292093529411 7.1174856857890161 0 0 0 0 4.230756762942228 4.4666078178147597 0 4.4666078178147597 0.64599459684034111 0 0 0 0 5.7093429009801184 20.632829970516923 0 20.632829970516923 9.7237296629841694 0 0 0 0 -1.1802884078751958 34.417306723188631 0 34.417306723188631 12.810048212887523 0 0 0 0 14.62522007771986 29.339047373613994 0 29.339047373613994 -11.491718878709548 0 0 0 0 14.209920300369596 15.753528368814262 0 15.753528368814262 11.459977890268185 0 0 0 0 -0.63217511792026926 20.500314791262781 0 20.500314791262781 14.29066298830196 0 0 0 0 16.4563575050488 26.494689030598124 0 26.494689030598124 15.594288707408623 0 0 0 0 13.072031234103633 19.175992602791894 0 19.175992602791894 27.810255282894275 0 0 0 0 1.5478719845596061 22.748613892568699 0 22.748613892568699 30.246589627930007 0 0 0 0 6.0267757480272479 3.2241817086539939 0 3.2241817086539939 1.7951022878171043 0 0 0 0 -2.3680222714053656 6.7769739803072113 0 6.7769739803072113 13.061077164515131 0 0 0 0 14.776499567313294 13.100790465153523 0 13.100790465153523 43.332381293762296 0 0 0 0 32.42737836373999 27.983995982302758 0 27.983995982302758 23.82496766936265 0 0 0 0 50.686365927154839 34.389785062455985 0 34.389785062455985 37.422351521542623 0 0 0 0 15.506616936043429 27.650538579625618 0 27.650538579625618 75.376177680883302 0 0 0 0 32.482514284776698 28.85983753746541 0 28.85983753746541 35.742494002410012 0 0 0 0 51.884480377262662 25.063326239717071 0 25.063326239717071 16.706599836005807 0 0 0 0 54.684116660187101 29.708626324836729 0 29.708626324836729 14.71916670060773 0 0 0 0 16.067073213318508 25.536489557131716 0 25.536489557131716 24.059993105778176 0 0 0 0 37.685944571254367 24.046007669129381 0 24.046007669129381 3.2767647591683726 0 0 0 0 50.311380604963233 15.778396835324486 0 15.778396835324486 0.37268884963714299 0 0 0 0 36.906603954772436 22.839999557156091 0 22.839999557156091 12.525784084575662 0 0 0 0 68.596692730990526 33.219696218279807 0 33.219696218279807 25.011223182460526 0 0 0 0 45.83961311289022 50.803886862257968 0 50.803886862257968 -2.6394975346138381 0 0 0 0 21.095628041144664 62.801831087174378 0 62.801831087174378 -8.4317440328659359 0 0 0 0 5.7422440826180434 3.7317187377604739 0 3.7317187377604739 4.9228625854071133 0 0 0 0 76.903648631254327 -9.7214956753427941 0 -9.7214956753427941 23.252599859695692 0 0 0 0 47.073661949085363 8.9618769756607435 0 8.9618769756607435 24.489856651710397 0 0 0 0 23.799724467474718 4.8359311091831767 0 4.8359311091831767 -5.7769402247397359 0 0 0 0 30.400295590043243 33.164446144671047 0 33.164446144671047 34.240682192194072 0 0 0 0 32.358768911530206 47.239309474102015 0 47.239309474102015 96.385441037266105 0 0 0 0 1.8008764985128209 -3.6176262268776345 0 -3.6176262268776345 -2.6206552399205956 0 0 0 0 19.438410040358448 11.861709785311014 0 11.861709785311014 2.9788196181087883 0 0 0 0 15.802424532877922 12.306280630450146 0 12.306280630450146 13.771623422980952 0 0 0 0 58.295405184995616 13.854033432536198 0 13.854033432536198 24.020332218967269 0 0 0 0 1.0729523623449495 27.276725141532097 0 27.276725141532097 -0.34958301275332815 0 0 0 0 40.847358549377532 38.522341897032675 0 38.522341897032675 1.1773002306599665 0 0 0 0 17.74757215189311 14.01734180513813 0 14.01734180513813 8.1662749875786176 0 0 0 0 65.936639145242225 28.251967380750557 0 28.251967380750557 7.6112947170213374 0 0 0 0 21.292044797166454 25.650985917513708 0 25.650985917513708 53.499339049371883 0 0 0 0 47.829286069594673 22.765460744890333 0 22.765460744890333 -20.528706432391118 0 0 0 0 23.815165432439244 11.96297230277969 0 11.96297230277969 61.609197244985808 0 0 0 0 -33.750785882471973 98.915646743599609 0 98.915646743599609 -0.45167480006648475 0 0 0 0 43.049489971014651 21.831033344676708 0 21.831033344676708 7.4222246399379816 0 0 0 0 224.4973759109198 412.32909974986478 0 412.32909974986478 -212.47221291493179 0 0 0 0 53.162049808516912 21.590500974722939 0 21.590500974722939 5.383235499286612 0 0 0 0 32.324023405455591 -19.148289787075782 0 -19.148289787075782 55.640966267481872 0 0 0 0 -69.993825920548261 34.696110024136033 0 34.696110024136033 117.7080091152103 0 0 0 0 39.414792530573322 19.694757735805524 0 19.694757735805524 21.694110646293666 0 0 0 0 37.561985275611733 -8.4129695720092741 0 -8.4129695720092741 44.106118574192806 0 0 0 0 41.45859275769817 -8.2973765646192419 0 -8.2973765646192419 3.932898732704416 0 0 0 0 32.305407367868611 -0.11691544253699249 0 -0.11691544253699249 -54.379713574411653 0 0 0 0 42.179064031279268 -5.7987539643277159 0 -5.7987539643277159 -23.810650438945231 0 0 0 0 25.687139393681719 12.840926128542378 0 12.840926128542378 -10.586363280976002 0 0 0 0 46.13577036037168 14.318932847618726 0 14.318932847618726 -37.333288579957298 0 0 0 0 -4.3423781080964545 21.399447761924876 0 21.399447761924876 -37.209868349773387 0 0 0 0 -43.672806970796955 165.64260789689843 0 165.64260789689843 36.90595299137749 0 0 0 0 17.962071117572989 7.5031002312181485 0 7.5031002312181485 2.8149924351612956 0 0 0 0 113.60238473172649 13.700562658388662 0 13.700562658388662 82.270843484937359 0 0 0 0 -78.458579421421746 194.34169926140567 0 194.34169926140567 150.71621101772689 0 0 0 0 240.95865736818814 64.114639177392746 0 64.114639177392746 15.217684085825567 0 0 0 0 170.6232987557305 -135.60042319670265 0 -135.60042319670265 -58.734977128393439 0 0 0 0 -12.020530495719868 -26.492280970078355 0 -26.492280970078355 -73.745630251234616 0 0 0 0 49.482834323418501 2.8294994836214755 0 2.8294994836214755 -172.81193834523856 0 0 0 0 32.789275301955058 6.1325509475982471 0 6.1325509475982471 -45.411512686310743 0 0 0 0 29.928585722679429 10.807601975622724 0 10.807601975622724 3.4774784998777442 0 0 0 0 42.295056613060297 21.477424895977492 0 21.477424895977492 -71.283347631727338 0 0 0 0 33.213541114761028 46.49626509568634 0 46.49626509568634 -79.069958082767698 0 0 0 0 14.041176412458299 23.76509663453362 0 23.76509663453362 -20.556430055148439 0 0 0 0 17.881541906364873 6.687603936906271 0 6.687603936906271 -48.495312558407022 0 0 0 0 19.711550942094618 5.0028003362367599 0 5.0028003362367599 -59.208213792473543 0 0 0 0 2.7835655217349995 -21.213129991840106 0 -21.213129991840106 -62.5807557852022 0 0 0 0 12.782762490547611 -5.1797434653872187 0 -5.1797434653872187 -33.700639484084604 0 0 0 0 12.65190846126643 -9.8607225860105245 0 -9.8607225860105245 -49.551001530195208 0 0 0 0 24.276690200669691 14.154945680327728 0 14.154945680327728 -39.784937954950237 0 0 0 0 24.026530616785749 6.848503519118367 0 6.848503519118367 -25.637502587655035 0 0 0 0 20.438650080890511 -1.2497554888723243 0 -1.2497554888723243 -43.755659598507918 0 0 0 0 31.76292355559417 8.717897208112845 0 8.717897208112845 -23.075397908065497 0 0 0 0 31.681939855014207 9.719760227633742 0 9.719760227633742 -33.739171621948117 0 0 0 0 33.092111832447699 10.804825147268275 0 10.804825147268275 -33.259009342653371 0 0 0 0 24.277258725909633 13.891006811947591 0 13.891006811947591 -28.432002082834515 0 0 0 0 34.595374069656827 22.090645867858257 0 22.090645867858257 -57.427955587104407 0 0 0 0 34.895786325843801 29.958628666927552 0 29.958628666927552 -40.521590807364191 0 0 0 0 153.33674233398415 4.5892792902623114 0 4.5892792902623114 -122.17081154168091 0 0 0 0 39.043678908267509 13.517454984185175 0 13.517454984185175 4.8249557620849917 0 0 0 0 58.436358772602233 20.008265454808274 0 20.008265454808274 4.7194553381358357 0 0 0 0 61.801336220738449 18.946158683095746 0 18.946158683095746 -50.208332314529798 0 0 0 0 115.19358531851321 39.964406990715815 0 39.964406990715815 -107.29131969929404 0 0 0 0 106.11150567396544 51.930487801596314 0 51.930487801596314 -89.968066043789918 0 0 0 0 106.70825887048986 -76.239572611743199 0 -76.239572611743199 -162.10329666077996 0 0 0 0 7.6744866060671484 87.6429026834262 0 87.6429026834262 -24.236260570326735 0 0 0 0 114.46307360762876 -5.326000173924001 0 -5.326000173924001 -263.30724392489333 0 0 0 0 33.549355205716893 132.05607162862941 0 132.05607162862941 -147.71711036663964 0 0 0 0 170.92920868549663 31.707086444525657 0 31.707086444525657 -474.70364986416234 0 0 0 0 -82.437518853374058 49.376469118560635 0 49.376469118560635 83.432376463965511 0 0 0 0 24.935907954828508 203.66256889494935 0 203.66256889494935 272.11443082334972 0 0 0 0 -73.659670718829148 -307.6036729349471 0 -307.6036729349471 80.367660254248676 0 0 0 0 67.736816179050948 13.941897502292704 0 13.941897502292704 -11.288928419184231 0 0 0 0 67.560408156288702 -2.7553422486058707 0 -2.7553422486058707 -20.71507065015976 0 0 0 0 52.476617890031775 -15.87140410918164 0 -15.87140410918164 -25.855852838036753 0 0 0 0 44.131007527219481 2.4413867607081556 0 2.4413867607081556 -7.0177667476382339 0 0 0 0 69.696298747861874 -10.825038339605271 0 -10.825038339605271 -45.402468805535591 0 0 0 0 80.969170534292061 -21.860046187216994 0 -21.860046187216994 -36.743509131521932 0 0 0 0 58.518694760023166 20.985952922790158 0 20.985952922790158 4.9699975640246388 0 0 0 0 53.453643753222423 -32.908035226434095 0 -32.908035226434095 -25.362423874225897 0 0 0 0 107.04957032494713 -43.018090893697263 0 -43.018090893697263 -24.665826898467458 0 0 0 0 103.32863297788936 -19.950432019144444 0 -19.950432019144444 -12.300266936365006 0 0 0 0 48.697062111466948 -15.796878678815119 0 -15.796878678815119 -24.267184348876981 0 0 0 0 23.002119698241586 11.932703804433913 0 11.932703804433913 -32.755845035072525 0 0 0 0 38.204686475452036 -16.050503682537055 0 -16.050503682537055 -16.053509446772296 0 0 0 0 -104.07071748179442 166.05048371271823 0 166.05048371271823 37.872194493724237 0 0 0 0 29.949503626594378 28.711824933212483 0 28.711824933212483 -71.036525614465972 0 0 0 0 -11.731972264031356 21.010096080163748 0 21.010096080163748 -23.34222604951799 0 0 0 0 5.4889729171949568 2.6577591323772864 0 2.6577591323772864 1.4841751654755839 0 0 0 0 130.48050538235111 -60.731528703433469 0 -60.731528703433469 16.789263249482246 0 0 0 0 7.502143503366824 -39.651557547187736 0 -39.651557547187736 22.538458265857116 0 0 0 0 236.48578850663307 217.65782901391827 0 217.65782901391827 240.96174123036326 0 0 0 0 267.39484438629734 4.7918890150331208 0 4.7918890150331208 -15.354486307989646 0 0 0 0 105.65086818534473 90.31898713203941 0 90.31898713203941 32.749860817617446 0 0 0 0 170.71223768169875 -6.7498706251058138 0 -6.7498706251058138 -44.478079896696727 0 0 0 0 47.422899494835292 31.434088253379741 0 31.434088253379741 -25.789500279253843 0 0 0 0 26.14444742631531 93.456935025704297 0 93.456935025704297 168.90328563335061 0 0 0 0 95.965851444991131 49.395078160270714 0 49.395078160270714 40.698059889268279 0 0 0 0 -7.6969309232372325 16.213222273718202 0 16.213222273718202 17.443870662321729 0 0 0 0 -14.435362609692675 24.299793081610233 0 24.299793081610233 54.109987061711763 0 0 0 0 -15.015012812506029 7.5604819612128722 0 7.5604819612128722 12.703913001507317 0 0 0 0 13.273771683266006 6.7348198946546276 0 6.7348198946546276 9.9825586557780088 0 0 0 0 41.990507294680356 -17.923884906350054 0 -17.923884906350054 -15.681799225636951 0 0 0 0 24.128656252090877 42.968173340741942 0 42.968173340741942 32.46361251324879 0 0 0 0 50.586565624757668 85.93613439710218 0 85.93613439710218 27.26777931540073 0 0 0 0 27.988406259824842 47.720417756911957 0 47.720417756911957 -30.771309799977644 0 0 0 0 12.38676401502045 -1.4638756947011053 0 -1.4638756947011053 -9.8781016107922657 0 0 0 0 53.560312852428979 -61.228779243293275 0 -61.228779243293275 -105.47757871359187 0 0 0 0 55.863855578209325 19.27930413567314 0 19.27930413567314 5.0104597942797309 0 0 0 0 86.997524011210771 -281.32365609358385 0 -281.32365609358385 138.47186612478231 0 0 0 0 925.53415629168012 141.72009545504125 0 141.72009545504125 252.5535985879269 0 0 0 0 730.94805484989774 -737.43770585945276 0 -737.43770585945276 1174.7588069357271 0 0 0 0 995.56347903420465 -645.42063672889981 0 -645.42063672889981 -135.73820038415761 0 0 0 0 373.47893775745615 -215.7066827457877 0 -215.7066827457877 449.01837606915706 0 0 0 0 -149.26317706946566 426.00761762827733 0 426.00761762827733 198.06555641649129 0 0 0 0 456.69163218049107 -327.04911276542589 0 -327.04911276542589 -308.87877852165229 0 0 0 0 -18.054210260004766 -247.79238309145265 0 -247.79238309145265 354.00068637800655 0 0 0 0 296.52768871862645 -155.28563854199092 0 -155.28563854199092 -321.78913916260899 0 0 0 0 8.2871607684073751 -4.7885102851618466 0 -4.7885102851618466 2.3166648007728927 0 0 0 0 109.46356542213471 -424.94911398022475 0 -424.94911398022475 587.2366853562396 0 0 0 0 223.90122218482429 96.822437684007127 0 96.822437684007127 30.418481834977911 0 0 0 0 580.87774509414521 -524.06278183379709 0 -524.06278183379709 245.3724864000435 0 0 0 0 147.99826904407018 -229.57057047021704 0 -229.57057047021704 144.13649716192992 0 0 0 0 32.135424070464524 -0.071146556961195984 0 -0.071146556961195984 -0.59633702826696977 0 0 0 0 446.80106311948111 -227.20228630551651 0 -227.20228630551651 -112.64408225284546 0 0 0 0 45.16178600603962 -595.54675291032743 0 -595.54675291032743 933.17614615012576 0 0 0 0 114.31533970882447 -291.50166978269158 0 -291.50166978269158 337.3582739077209 0 0 0 0 177.28762103574809 131.9148536293672 0 131.9148536293672 54.005564114234176 0 0 0 0 12.03571195775028 -2.6114402746412679 0 -2.6114402746412679 -0.45347018929948635 0 0 0 0 31.10516101175017 -36.897828169690456 0 -36.897828169690456 38.315906138558603 0 0 0 0 1.7263557937187031 4.4675918990713797 0 4.4675918990713797 7.1395979917629617 0 0 0 0 54.435823752768556 39.304377836534059 0 39.304377836534059 69.894190857160538 0 0 0 0 609.10468296377439 -85.734476269925381 0 -85.734476269925381 7.9473537657182476 0 0 0 0 209.95838921855466 18.585542338610367 0 18.585542338610367 3.0730216133888462 0 0 0 0 -4.2480824780795956 -81.974593859243782 0 -81.974593859243782 704.23796915350727 0 0 0 0 353.38014892918909 -420.52869878015923 0 -420.52869878015923 332.77005990596535 0 0 0 0 -29.554648071185511 -130.1181587354597 0 -130.1181587354597 333.6476250377284 0 0 0 0 -42.05704977978894 -172.39435316586287 0 -172.39435316586287 245.12136856029986 0 0 0 0 29.513260341598652 -198.66045555518599 0 -198.66045555518599 186.93424289304335 0 0 0 0 10.658923403156223 -206.23279734584821 0 -206.23279734584821 254.68499960506733 0 0 0 0 -189.61488424467098 -115.93705100099487 0 -115.93705100099487 289.32014138481873 0 0 0 0 -0.20299356303803506 -135.41796373558361 0 -135.41796373558361 38.274001094859273 0 0 0 0 -5.7466548814081762 -5.7988831304487007 0 -5.7988831304487007 35.630356477112855 0 0 0 0 -1.585323107128886 -3.2279981464837197 0 -3.2279981464837197 1.5578805151964938 0 0 0 0 -116.54940564071876 -54.328757498085793 0 -54.328757498085793 -10.951360988724474 0 0 0 0 -42.376907181387651 -2.8022533311966527 0 -2.8022533311966527 22.852552832076753 0 0 0 0 -154.24199253078405 96.769166557665628 0 96.769166557665628 215.90359299127726 0 0 0 0 73.829521923566062 161.11812924298937 0 161.11812924298937 51.08211311778831 0 0 0 0 -34.761742027621949 58.679782490842854 0 58.679782490842854 -29.338565510978697 0 0 0 0 45.042774817091413 54.089907965934799 0 54.089907965934799 -58.454552968955795 0 0 0 0 -33.712129392661041 24.052607412229936 0 24.052607412229936 -9.5511198104159121 0 0 0 0 757.56948720252694 -376.76867262366216 0 -376.76867262366216 143.42062402932004 0 0 0 0 338.12326040960761 311.21692367499941 0 311.21692367499941 268.58277182708059 0 0 0 0 95.477385008691272 77.157434727224938 0 77.157434727224938 54.261032960206421 0 0 0 0 52.043621300836094 -18.155513631682425 0 -18.155513631682425 -208.69676388514381 0 0 0 0 330.43475425841098 15.482722678857954 0 15.482722678857954 -450.34491986461126 0 0 0 0 166.79601166571956 162.05885780565904 0 162.05885780565904 -47.159178542155132 0 0 0 0 21.6008320165638 29.92367905262472 0 29.92367905262472 -154.30307775269148 0 0 0 0 -148.12173453604191 -228.96580090220277 0 -228.96580090220277 -290.46909591206054 0 0 0 0 6.2714566622203733 -0.15097964801672958 0 -0.15097964801672958 -3.0894604572651083 0 0 0 0 -252.33564899526391 -122.54009825595222 0 -122.54009825595222 135.78274642417131 0 0 0 0 24.225753443002802 -10.50125452663271 0 -10.50125452663271 -0.28318840343602725 0 0 0 0 18.956486240844242 -20.553766723727676 0 -20.553766723727676 -17.698685632939487 0 0 0 0 88.820291978365276 -55.921581434946802 0 -55.921581434946802 -170.65689703578255 0 0 0 0 13.839185710879946 -12.418724541406862 0 -12.418724541406862 3.1160747227785373 0 0 0 0 24.139935722363589 -13.090509578989128 0 -13.090509578989128 -25.54456443926108 0 0 0 0 23.798145997829124 -22.665702493052549 0 -22.665702493052549 -1.0452072371506347 0 0 0 0 17.083851737414079 -9.0129721218113446 0 -9.0129721218113446 -23.414867486575531 0 0 0 0 9.1416315147318983 -1.364318820061321 0 -1.364318820061321 -5.8217959189511177 0 0 0 0 14.052409627598536 -18.731980970332188 0 -18.731980970332188 -9.8104966556771842 0 0 0 0 9.4426115520139788 -8.2409565275677537 0 -8.2409565275677537 -12.327647302216256 0 0 0 0 20.81358904404442 -17.883534026859934 0 -17.883534026859934 -14.216070822139955 0 0 0 0 0.84086668341115001 -25.923624456078187 0 -25.923624456078187 0.88243085499334484 0 0 0 0 2.2561099040866779 -7.4378477375541081 0 -7.4378477375541081 -15.767889857842107 0 0 0 0 -8.9471118147703237 11.096770207753252 0 11.096770207753252 -40.460670250618932 0 0 0 0 71.887555649809656 -37.700677442695394 0 -37.700677442695394 -38.741299427278364 0 0 0 0 -3.4437039296038279 -8.4911558250302459 0 -8.4911558250302459 -1.0006534291278335 0 0 0 0 7.7565831375977723 13.14636640194658 0 13.14636640194658 -98.584181812451789 0 0 0 0 19.911079146486102 -15.131536311060621 0 -15.131536311060621 0.35337265202631363 0 0 0 0 25.520247068336175 -29.845014516707124 0 -29.845014516707124 -16.791945459717624 0 0 0 0 24.776753357822599 -25.868939424106657 0 -25.868939424106657 -6.5602502042725064 0 0 0 0 13.473644703939499 -16.54128480002953 0 -16.54128480002953 -14.098830335140065 0 0 0 0 29.484937965557037 -22.404202565186779 0 -22.404202565186779 -13.32660836988174 0 0 0 0 52.936621221953828 -58.982044444009603 0 -58.982044444009603 14.415972852660559 0 0 0 0 54.653525418074423 -66.195624034113223 0 -66.195624034113223 -15.467290450789733 0 0 0 0 36.368292833751184 -25.661253233766274 0 -25.661253233766274 -15.653965070484901 0 0 0 0 -6.3870896036893718 -20.141314021775216 0 -20.141314021775216 -7.7522714658937222 0 0 0 0 5.1051899197450119 -21.569033703188595 0 -21.569033703188595 -12.760621557932994 0 0 0 0 92.098706804332323 -43.872317741748986 0 -43.872317741748986 -77.441297086801626 0 0 0 0 34.79894311604221 -23.509226501807007 0 -23.509226501807007 -6.1040324670747736 0 0 0 0 29.030882091377862 -21.474105355214533 0 -21.474105355214533 -1.5429095936574413 0 0 0 0 68.586670646756829 -18.595636068785552 0 -18.595636068785552 -7.9168737808247442 0 0 0 0 34.036788267936998 -12.728591024041597 0 -12.728591024041597 -1.6559646699090629 0 0 0 0 66.502481785620375 0.25567655767784342 0 0.25567655767784342 -1.5099441987024886 0 0 0 0 55.150604184964322 -1.4600041303220621 0 -1.4600041303220621 71.512451634486496 0 0 0 0 13.378949436402763 -12.894759525242989 0 -12.894759525242989 -8.612741802571918 0 0 0 0 4.4959482677583082 -7.6124223980037122 0 -7.6124223980037122 -6.8033671184308346 0 0 0 0 7.4587584154612827 -5.5375362847617708 0 -5.5375362847617708 -12.356715324906702 0 0 0 0 15.015409554311191 -12.786565037591799 0 -12.786565037591799 -3.8095960889754679 0 0 0 0 9.5821547912963112 -11.733742762236304 0 -11.733742762236304 -1.0659202555776712 0 0 0 0 32.488722709596914 -19.548216101068419 0 -19.548216101068419 -4.8782172278463349 0 0 0 0 78.765792731128386 -23.085305709505604 0 -23.085305709505604 -7.7137755975868458 0 0 0 0 4.9224115758383071 -1.504992434915728 0 -1.504992434915728 -0.75255988398449136 0 0 0 0 10.473939866924454 -10.472329188731816 0 -10.472329188731816 -2.1110475769224148 0 0 0 0 7.2591636729521269 -20.215605465684604 0 -20.215605465684604 -3.7939583082096533 0 0 0 0 13.153013920102239 -10.730209167768862 0 -10.730209167768862 -5.7170380954644315 0 0 0 0 16.707440193997549 -10.674873481546769 0 -10.674873481546769 -5.1814811579633062 0 0 0 0 18.624729650811787 -12.902451279693878 0 -12.902451279693878 -14.31280132118718 0 0 0 0 19.594937865791508 -10.118845625044969 0 -10.118845625044969 -16.133492720501181 0 0 0 0 10.025989168528042 -15.709945322100094 0 -15.709945322100094 -9.0082252650538219 0 0 0 0 14.775139696488623 -15.539977451507184 0 -15.539977451507184 -3.6075714718817835 0 0 0 0 16.808449756405025 -12.958063533891163 0 -12.958063533891163 -4.2983224575218628 0 0 0 0 19.929839642863953 -15.277833375595037 0 -15.277833375595037 -5.423116338316504 0 0 0 0 14.122805176055408 -8.1441519756999696 0 -8.1441519756999696 2.5286697469871342 0 0 0 0 14.849762431943418 -12.718702493423052 0 -12.718702493423052 22.119439582696941 0 0 0 0 24.22777512576431 -53.03919156993652 0 -53.03919156993652 39.224906083893529 0 0 0 0 23.109117541687738 -30.54599916521056 0 -30.54599916521056 7.5281020924799122 0 0 0 0 34.139537930725055 -22.321534775121108 0 -22.321534775121108 -2.4733561105783792 0 0 0 0 25.826347067801866 -8.6191678855721996 0 -8.6191678855721996 -8.506069604103585 0 0 0 0 42.788125496204884 49.240465270225286 0 49.240465270225286 -7.722496755149507 0 0 0 0 53.787658032073523 -26.52361879766795 0 -26.52361879766795 -41.720669475171235 0 0 0 0 35.034048533132285 -6.783383716711441 0 -6.783383716711441 -0.13221754307789302 0 0 0 0 37.384872505484964 -30.324212769281985 0 -30.324212769281985 -28.936649367306018 0 0 0 0 29.978940294025122 -3.3883265817253063 0 -3.3883265817253063 0.20932143704219697 0 0 0 0 66.527224514684349 -20.003295365769191 0 -20.003295365769191 -73.89337844822586 0 0 0 0 60.18749389457389 1.8565078324108981 0 1.8565078324108981 -62.043818689037835 0 0 0 0 584.75975326165644 -368.33938701320972 0 -368.33938701320972 271.96598029683446 0 0 0 0 -0.20567291812894695 -3.4206048658590973 0 -3.4206048658590973 5.6750821035505403 0 0 0 0 3.0276450360979652 2.5289743372413795 0 2.5289743372413795 37.958294405110792 0 0 0 0 -10.305678520635411 -22.12243606072434 0 -22.12243606072434 164.60351439477745 0 0 0 0 580.37831625217405 -387.23965817542535 0 -387.23965817542535 258.30204752380087 0 0 0 0 112.12823369885155 -14.311079203102963 0 -14.311079203102963 -29.964307885924427 0 0 0 0 10.101534021665429 -104.62298732362569 0 -104.62298732362569 365.46239478848292 0 0 0 0 572.06158563307145 -351.50706383399552 0 -351.50706383399552 325.53427730840122 0 0 0 0 512.40291357245587 -288.69374593772045 0 -288.69374593772045 280.49787433921028 0 0 0 0 588.96954653149442 -334.34445449598388 0 -334.34445449598388 208.11935458447351 0 0 0 0 4.3692484315914228 -0.16718964323240471 0 -0.16718964323240471 -0.015802039314273486 0 0 0 0 84.128914094078937 44.058449961908082 0 44.058449961908082 -11.39530312574152 0 0 0 0 15.989436698582722 -20.793339218796064 0 -20.793339218796064 50.372969371877844 0 0 0 0 126.53449488363549 -39.891772655681962 0 -39.891772655681962 12.841261555236997 0 0 0 0 26.608043734748207 -57.371579835879857 0 -57.371579835879857 -12.574413766385987 0 0 0 0 36.759246187182725 -49.32004449365013 0 -49.32004449365013 -21.098530378344549 0 0 0 0 31.403649769861659 -81.504420460878464 0 -81.504420460878464 68.583785652343749 0 0 0 0 172.82167313281388 -102.96388681305143 0 -102.96388681305143 -115.34151632147405 0 0 0 0 49.96860452304827 -2.9048156089870645 0 -2.9048156089870645 -81.258675449217435 0 0 0 0 15.042997912527426 -60.593284406255634 0 -60.593284406255634 -26.635258217182127 0 0 0 0 933.51866079758111 -264.96500852907047 0 -264.96500852907047 139.38171452648021 0 0 0 0 483.65191485739342 -253.11616214842343 0 -253.11616214842343 342.88995371779674 0 0 0 0 547.32013527811068 -297.86498265257433 0 -297.86498265257433 274.24665848443874 0 0 0 0 545.54746085971692 -294.92239811599916 0 -294.92239811599916 401.90325938489877 0 0 0 0 596.36590541401529 -164.11298035104392 0 -164.11298035104392 388.14304898032537 0 0 0 0 437.24724725528358 -258.64746699605166 0 -258.64746699605166 297.30204888877961 0 0 0 0 580.05217411669764 -219.93932795586647 0 -219.93932795586647 252.56794696535144 0 0 0 0 278.81268760107196 -72.724293157334159 0 -72.724293157334159 168.24346908061125 0 0 0 0 529.10621528637421 -483.25997015101871 0 -483.25997015101871 262.10457789206976 0 0 0 0 325.57067938505861 -792.93871579273673 0 -792.93871579273673 88.620976187176893 0 0 0 0 -120.52787819464902 -271.97507885885921 0 -271.97507885885921 196.61639696812017 0 0 0 0 85.512068647960405 53.815879189559837 0 53.815879189559837 -48.815852415068093 0 0 0 0 -119.98817557722941 -37.373485565686224 0 -37.373485565686224 -5.7579911242028174 0 0 0 0 -0.19399462407181289 -0.80558180331196638 0 -0.80558180331196638 1.0783074128952173 0 0 0 0 948.62849148149689 -809.47435454526772 0 -809.47435454526772 108.76513124265148 0 0 0 0 261.01438754739138 -823.271821630864 0 -823.271821630864 555.30250243978628 0 0 0 0 -10.166876546491039 -339.66623250656062 0 -339.66623250656062 -40.048389315150416 0 0 0 0 145.18943484970077 -32.461701279170711 0 -32.461701279170711 -74.73736561183523 0 0 0 0 618.59185597903706 -48.562589511143869 0 -48.562589511143869 -121.84296240590447 0 0 0 0 27.55703050264492 31.081825178812778 0 31.081825178812778 16.78972589148907 0 0 0 0 76.4286719487136 -60.157764023529126 0 -60.157764023529126 -80.67360172831286 0 0 0 0 103.88301377806602 -13.332617030028814 0 -13.332617030028814 -41.087255123609793 0 0 0 0 9.8931827099513612 -32.142405102663361 0 -32.142405102663361 -26.400501565795594 0 0 0 0 -5.4950393710896606 -20.715500732463852 0 -20.715500732463852 -7.1526421552189277 0 0 0 0 19.014661686918771 -6.2858560248914728 0 -6.2858560248914728 0.31103452656043373 0 0 0 0 9.0624957155087031 -23.06009338708418 0 -23.06009338708418 -9.3077079091567612 0 0 0 0 14.607851361544817 -16.954434474189611 0 -16.954434474189611 -4.1643157803555368 0 0 0 0 18.868175464634987 -20.170449121631009 0 -20.170449121631009 -10.50888650484012 0 0 0 0 45.805124511498434 -20.70612375890596 0 -20.70612375890596 -10.594564665525638 0 0 0 0 37.319792702583072 -46.802655501312984 0 -46.802655501312984 -9.9693878438756087 0 0 0 0 21.370728170128132 -36.898677180005961 0 -36.898677180005961 -9.4364343202396412 0 0 0 0 41.702340028168692 -32.85727851146612 0 -32.85727851146612 -46.227526571143244 0 0 0 0 
</DataArray>
<DataArray type="Float64" Name="cross_section_updated" format="ascii">
1 1 1 1 1 1 0.011252214464315916 1 1 1 0.012205404114754095 1 1 1 0.010493816431726278 1 1 1 1 1 1 0.0099788760743153206 0.011319096485868183 1 1 1 1 0.0099894729195355025 0.0099943985024346666 1 0.010547891166798502 0.010682170895850537 1 0.0098194843588250025 1 1 1 0.011161364172098979 1 1 0.0098765507557421021 1 1 1 1 1 1 1 0.01095623540795063 1 1 1 1 1 1 1 1 0.015875002945960219 1 1 0.011640087077683606 1 0.01618175161984808 1 0.0098981041514032593 1 0.012900898808866437 1 1 1 1 1 1 1 1 1 1 1 1 1 1 1 1 0.0078972247424480523 1 1 1 1 1 1 1 1 0.011433290486991396 1 1 0.013491697054190203 0.010378440479288396 1 1 1 1 1 1 1 1 1 1 1 1 0.015324243640759318 1 1 1 1 1 0.010217600880918219 1 1 0.010116401453227283 1 1 1 1 1 1 1 1 1 1 1 1 1 1 1 1 1 1 1 0.010236704024879016 1 1 1 1 1 0.010072858545053175 1 1 1 1 1 1 1 1 1 1 1 1 1 1 1 1 1 1 1 1 1 1 1 1 0.010000045809991219 1 0.01103420138891263 1 1 1 0.012854605499030116 1 1 1 0.01351655744732155 1 1 1 0.0098425652454446934 0.01465796504430996 1 1 0.0083893075823808106 1 1 1 1 0.0088211913979244494 1 1 1 1 1 0.01023517313285946 1 1 1 1 0.0099820821546031547 1 0.010342816395531701 1 1 0.010271469225091572 1 1 1 0.010017466157075531 1 1 0.011938208452832352 1 1 1 1 1 1 1 1 1 1 0.010262592501050632 1 1 0.0099848925963213521 1 1 1 1 1 1 1 0.010329312177477991 1 1 1 1 1 1 1 1 1 1 1 1 1 1 1 1 1 1 1 1 1 0.01222820556540417 1 0.012549797281240942 1 1 1 1 1 0.010001140413326353 1 1 1 1 1 1 1 1 0.018315986830978882 1 1 1 0.010638587934756203 1 1 0.0090832222445129829 1 1 1 1 0.010194771178078011 1 1 0.01053919929631213 1 1 1 1 1 0.0099443872319945927 1 0.010965339988914006 1 1 1 1 1 1 1 1 1 1 1 1 1 1 1 1 1 1 0.0099842236070568219 1 1 1 1 1 0.014380666579047116 0.011554552955438453 1 1 1 1 1 1 1 1 1 1 0.010623345646605074 1 1 1 1 1 1 1 1 1 0.0098519886413941556 1 1 0.011773765963286506 0.0099988141274323893 1 1 1 0.010001903197487965 1 1 0.01149634722609638 1 1 1 1 1 1 1 1 1 1 1 1 1 1 1 0.010791502782924128 1 1 1 1 1 1 1 1 0.015468446305864051 1 1 0.010008601740594574 1 1 1 1 0.014335222457878471 1 1 1 1 1 1 1 1 1 1 1 1 1 1 0.011384691351137918 0.0098385703584311264 1 1 0.010303540342314489 0.013299784432897454 1 0.010095406570118339 1 0.013124953065241328 1 0.0096136515647548167 1 1 0.013995884377879851 1 1 1 1 1 1 1 1 1 0.010216681242066102 0.010943336312890923 1 1 0.010064403546923197 1 1 1 1 1 0.010089708600513565 1 1 0.0101384349133325 1 1 1 1 0.010150215630876033 1 1 1 0.013808458217779408 1 1 1 0.01292357041333672 1 0.010763884077620085 1 1 0.010183509632429142 1 1 1 1 1 1 1 1 1 1 1 0.0099945513801075452 1 1 1 1 1 1 0.010010344097007521 1 1 1 0.010011517335613057 1 1 1 1 1 1 1 0.011710223063260116 1 1 1 1 1 0.010724219420720525 1 0.011317258914820924 1 1 1 1 1 0.010506753941522305 0.010613594323851377 1 1 1 0.0099986664068217913 0.011501621437928284 1 0.011693500438611963 1 1 1 1 1 1 1 0.0097181663081233084 1 1 1 1 1 1 1 1 1 1 1 1 1 1 0.0096652213024085165 1 1 0.009394121636428979 1 0.009383387610531823 1 1 1 1 1 1 1 1 1 1 1 1 1 1 0.0099493993615944083 1 1 1 1 1 1 1 1 1 1 1 1 1 1 1 1 0.010010732312475921 1 1 1 1 1 1 1 1 1 1 1 0.010032457811616054 0.0099362621082715215 1 1 1 1 1 1 1 1 1 1 1 1 1 1 1 1 0.016806454000020236 1 1 1 1 1 1 1 0.015788555580590155 1 1 1 1 1 1 1 1 0.0114084038537076 1 1 1 0.0099292946782747332 1 1 1 1 1 1 1 1 1 1 1 1 1 1 1 1 1 1 1 1 1 1 1 1 1 1 1 1 0.010240358751780143 1 0.011004731991199784 1 1 1 1 1 1 1 1 1 1 1 1 1 0.012070803228314966 1 1 1 0.010073950472793266 1 1 1 1 1 1 1 1 1 1 1 1 1 0.011210841890163029 0.012593603237829737 1 1 1 1 1 1 1 0.013055900025608557 1 1 1 1 1 1 1 1 1 1 1 0.012891340503159085 1 1 1 1 1 1 1 0.011009946609937985 1 1 1 1 1 1 1 1 1 1 1 1 1 1 1 1 1 0.010079449052700525 1 1 1 1 1 1 1 1 1 1 0.0096879633379305073 1 1 1 1 1 0.0093521821080609947 1 1 1 0.0094892325294002322 1 1 1 1 0.013586292339923724 1 1 1 1 1 1 1 0.0090143769701292783 1 0.017930424311337397 1 1 0.0074635822516599237 1 0.0095019897920201705 1 1 1 1 1 1 1 1 1 1 1 1 1 1 1 1 1 1 1 1 1 1 1 1 1 1 1 1 1 1 1 1 1 1 1 0.010005794772923278 1 0.0083071478655344679 0.0099934401228283457 1 1 1 1 1 1 1 1 1 1 1 0.011151623805290313 1 1 1 1 1 1 1 0.012071032262644856 1 0.0099026014783722225 1 0.012470228275860714 1 1 1 1 1 1 0.010715385527865925 1 0.0098250137592697465 0.012169630541654862 1 1 1 1 1 1 1 1 1 1 1 1 1 1 1 1 1 0.010681463049470079 1 1 1 1 1 1 1 1 1 1 1 1 1 1 0.010235382830273324 1 1 1 1 1 1 1 1 1 1 1 1 1 0.010154337311288382 1 1 1 1 1 1 1 1 1 0.009714616459686274 1 1 1 1 1 0.01045853257503516 0.010021988262076311 1 1 1 1 0.010947240749089241 0.0099463603042492313 1 1 1 1 1 1 1 1 1 1 1 0.010202118154005797 1 1 1 1 0.010456896065791876 1 1 1 1 1 1 0.010994535961951189 1 1 0.0099270718288421104 1 0.010508731776651122 1 1 1 0.011092561994718742 1 1 1 1 1 1 1 0.010007544344738099 1 1 1 1 0.010834134332899856 0.011225886321566653 1 1 0.010021926157176579 1 1 1 0.010246075081965322 0.012545217959500216 0.010932221980924403 0.0099985401266819082 1 1 0.010379116859704437 1 1 1 1 1 1 1 1 0.01153771963601961 0.011551725021158189 1 1 1 1 1 1 0.011556511693554582 1 0.010695625005979061 1 1 1 0.010057474754019941 1 1 1 1 1 1 1 1 1 1 1 1 1 1 1 1 1 1 1 1 1 1 1 1 1 1 1 1 0.010136923806720466 1 1 1 1 1 1 1 1 1 1 1 1 1 1 1 1 1 1 1 1 1 0.016767695045813626 1 1 1 1 1 1 1 1 1 0.0098732634347075739 1 1 1 1 1 1 0.01000317446471026 1 1 1 1 1 0.016383593336732238 1 1 1 1 1 0.011127588130808264 1 1 1 1 1 1 1 1 1 1 0.011823151871188851 1 1 1 1 0.011839316446159322 0.010107154227706687 1 1 0.010194006335809781 1 1 1 1 0.010293905677391607 1 1 0.010131703348307238 1 1 1 1 1 0.016739910698282557 0.010318950928714125 1 1 1 1 1 1 0.01097515035002777 1 1 1 1 1 1 1 0.010568432787209809 0.0099234785082460628 1 1 1 0.01389085238741891 1 1 1 0.012845444254563245 1 1 0.010966616238996191 1 0.010801883744012138 1 1 1 0.011717692796092059 1 1 0.012286852139599843 0.010373267871158633 1 1 1 1 1 1 0.0113127056107243 1 0.010151200382772316 1 0.010065077169574799 1 1 1 0.010012386092673299 0.010325801250440393 1 0.010383312123100577 1 1 1 1 1 1 1 1 1 1 1 1 1 1 1 1 0.010786753513033697 1 1 1 1 1 1 1 0.010846794917000753 1 1 1 1 1 0.0097865017181467933 1 1 1 0.011340995561651589 1 1 1 1 0.01131907965447578 1 0.010002405490220344 1 0.011508174086720141 1 1 1 1 0.011393901583404739 1 1 0.0095467951749075713 1 1 1 1 1 1 1 1 1 1 1 0.012272862593221514 1 1 1 1 0.013652060467485315 1 1 1 1 0.0091261255659450535 1 1 1 1 1 1 0.010046695760633577 1 1 1 0.014339686497652628 1 0.0099998476420065738 0.01005490323277692 1 1 1 1 1 1 1 1 1 1 1 1 1 1 1 1 1 1 1 1 1 1 1 1 1 1 1 1 0.010146600933673066 1 1 0.010056237258386707 0.012978464593394363 1 0.013262339004496781 1 1 1 1 0.010085703075263797 1 1 0.010031312681412507 1 1 1 1 1 1 1 1 1 1 1 1 1 1 1 1 1 1 1 1 1 1 1 1 1 1 1 1 0.010448072475907389 1 1 1 1 1 1 1 1 0.010743080155560273 1 1 1 1 1 1 1 0.01177521318240158 1 0.01052705335867048 1 1 1 0.011624213746850427 1 1 1 1 1 1 1 0.011073541677082842 1 0.0097397624596103453 1 1 1 1 1 0.01162694057336958 1 1 1 1 1 1 1 1 1 1 1 1 1 1 1 1 1 1 1 1 1 1 1 1 1 1 1 1 1 1 1 1 1 1 1 1 1 1 1 0.012984257145591344 0.012849933005216595 1 1 0.013118338941473949 1 1 1 0.010532140612530147 1 1 1 0.010767916602938583 0.011488445960003504 1 1 0.01236705179123905 1 1 1 1 1 1 1 1 1 1 1 1 1 1 1 1 1 1 1 1 1 0.0092720479604891676 1 0.0098139214866379346 1 1 1 1 1 1 1 1 1 1 1 1 1 1 1 1 1 1 1 1 1 1 1 1 1 1 1 1 1 1 1 1 1 1 1 1 1 1 1 1 1 1 1 1 1 0.010288295765644041 1 0.013414044227019658 1 0.011114736628770329 1 1 0.012824067891051128 1 1 1 1 1 1 1 1 1 1 1 1 1 1 1 1 1 1 1 1 1 1 1 1 1 1 1 0.0099690715200837325 1 1 1 1 1 1 1 1 1 1 1 1 1 1 1 1 1 1 1 1 1 1 1 1 1 1 1 1 1 1 1 1 1 1 1 1 1 1 1 1 1 1 1 1 1 1 1 1 1 0.010059805407108944 1 1 1 1 0.010267904041732608 1 1 1 1 1 1 1 1 0.010066715660671887 1 1 1 1 1 0.010235350566078119 0.010640281563357178 0.01064931197250304 1 1 1 1 0.010562318432636957 0.010410093197317097 1 1 0.010695209889876963 1 1 1 1 1 1 1 1 1 1 1 1 1 1 0.011387774968760742 0.010009971438570719 1 0.010148515918495303 1 1 1 1 1 1 1 1 1 1 1 1 1 1 1 1 1 1 0.0099215094026386483 1 1 1 1 1 1 0.0097323035053806656 1 1 1 1 1 1 1 1 1 1 1 1 1 1 1 1 1 1 0.010121763039256227 1 1 1 1 1 1 1 1 1 0.010357214907777294 1 1 0.0099972025987257133 1 1 1 1 1 1 1 1 1 1 1 1 1 1 1 1 0.010619634433307438 1 0.012084204264445796 1 1 1 1 0.012545658523919657 1 0.010804847957652538 1 1 0.011508684403793655 0.010892966388862129 1 1 0.011215342828954202 1 1 1 0.010042674456530249 1 1 1 1 1 1 0.010001331500660965 1 1 1 0.012231366990958833 1 1 1 1 0.010848972686679658 1 1 1 1 1 1 1 0.010224602287681569 1 1 1 1 1 0.010589735727762079 1 1 0.010128988830762417 1 1 1 1 1 1 1 0.010141459063348844 1 1 1 0.010380000051448792 0.012393555273691591 1 1 1 0.010092355526709146 1 1 1 1 1 0.010003277605654113 0.01132146731672809 0.010928181686901893 1 1 1 1 1 1 1 1 1 0.01178784593935004 0.011911181189120467 1 0.011998416615201927 1 1 1 1 1 0.011116773193871554 1 1 0.01168706376159399 1 0.011753408991900419 1 1 1 0.011739060973599424 1 1 0.01020605715013327 1 1 1 1 1 1 1 0.010289484951662164 1 1 0.010006665807895217 0.012115558079137612 1 1 0.010091676004762035 1 0.010540287803468511 1 1 0.011546253265159515 1 1 0.010560461137047575 1 0.011228648661011923 1 1 1 0.010551231338314043 1 1 0.0095186020569251878 1 0.010092065180346145 1 1 0.010027412328440115 1 0.010037614564441077 1 1 1 1 0.010501341201176902 0.011310589755800878 1 1 1 1 1 1 1 1 1 0.010370044208672302 1 1 1 1 1 1 1 1 1 1 1 1 1 1 1 1 1 1 0.0099999636717921451 0.0072268537037510801 1 1 1 0.012790658750066911 1 1 1 1 0.012832507221639287 1 1 0.011005038077765997 1 1 1 0.010792743117990481 1 1 0.01127892177174308 1 1 1 1 0.010005753706955341 1 1 1 1 1 0.013125736886813795 1 1 1 0.0122944873331178 0.010000704343725398 1 1 0.01019579817068279 1 1 1 1 1 0.011360669172174874 0.013802968937925004 1 1 1 1 0.010999391162362336 1 1 1 1 0.011166951413200831 1 1 1 1 1 1 1 1 1 1 1 1 1 1 1 1 1 1 1 1 1 1 1 1 1 1 1 1 0.010736979960383452 1 1 1 1 1 1 1 1 1 1 1 0.012834049644252919 1 1 1 1 0.010242336156505953 1 1 1 0.012915746126731532 1 1 0.0099999808948946847 1 1 1 1 1 0.0098412653844530389 1 1 1 1 1 1 1 1 1 1 1 1 1 1 1 1 1 1 1 1 0.010625243829213885 1 1 1 1 1 0.010845783449101509 1 1 1 1 1 1 1 0.0098515216073848319 1 1 1 1 1 1 1 1 1 1 1 1 1 0.011998106024894057 1 1 1 1 1 0.0095722723915400293 0.013250586715074583 1 1 1 1 0.009191784181211941 1 0.010002664832262583 1 1 1 0.011077316352377799 0.010719866947835235 1 1 0.019294534087771015 1 1 1 0.018059311789764158 1 1 1 1 0.010109731429904801 1 1 0.011238693300336566 0.010457394800986893 1 1 1 1 1 1 0.0085610809383598642 1 1 0.010679024417339918 1 1 1 1 0.0097491180789102093 1 1 1 1 1 1 1 1 1 1 1 1 1 1 1 1 1 1 1 0.013591929402269522 1 0.0099881135617639477 1 1 1 0.0099695787809953498 1 0.010819065366322926 1 0.010026775283917148 1 1 0.011440260892441221 1 1 0.01195440534907285 0.012830846306762657 0.01045231628993611 1 1 1 0.012581132100722635 1 1 1 1 1 1 0.010042773626251143 1 1 1 1 1 1 1 0.011738464273848365 1 0.0098158631756198583 1 1 1 1 1 1 1 0.010259408930524334 1 1 1 1 1 1 1 1 1 1 1 0.010611877541047761 1 1 0.0099928332776526071 1 1 1 1 1 1 1 1 1 1 1 1 1 1 1 1 0.010410003130138502 1 1 1 1 1 1 1 1 1 1 1 1 1 1 1 1 1 1 1 1 1 0.010634947145586916 1 1 1 0.010282478535063488 1 1 1 1 1 1 1 1 1 1 0.010188566820474487 1 1 1 1 1 1 1 1 1 1 0.010411862145893166 1 1 1 1 1 1 0.010780455104342702 1 1 1 0.012467912748153679 1 1 1 1 1 1 1 1 1 1 1 1 1 1 1 1 1 1 1 1 1 0.010159368904016763 1 1 1 1 1 0.019117033199401442 1 1 0.0084071419482343694 1 1 1 1 1 1 0.0093312741942416892 1 1 1 1 0.009881004185059666 1 1 1 1 1 1 1 1 1 1 1 1 1 1 1 1 1 1 0.01000128469446256 1 1 1 1 1 0.011728277791576733 1 1 1 0.013118476122730477 1 0.021291264043427703 1 1 1 1 1 1 1 0.016587368679503819 1 1 1 0.018426720985400075 0.017787402208248232 1 1 1 1 1 0.0098323514334597937 1 1 1 0.0092501635364317606 1 1 1 1 1 1 1 1 1 1 1 1 1 1 1 0.01284276505960659 1 1 1 1 1 1 0.010934987527479954 1 1 1 1 1 1 1 1 1 1 1 0.010082272637860556 1 1 1 1 1 1 1 1 1 0.01146186038163452 1 1 1 1 0.012058270688227901 0.0098805326495062344 1 1 1 1 1 1 1 1 0.025607285511211449 0.010894614514944332 1 0.027635056072151311 1 1 1 1 1 0.0094897795068632617 1 1 1 1 1 1 0.01639301163077847 1 0.0098755349902883306 1 1 1 1 1 1 1 1 1 1 0.010696674798515158 1 1 1 1 1 1 0.010365479530969748 1 1 1 1 1 1 1 1 0.010595907377313678 1 1 1 1 1 0.011393773571137321 1 1 0.010216709145640775 1 1 1 1 1 1 0.011435293274926305 1 1 1 1 1 1 1 1 0.014098760818315731 1 1 1 1 0.016329152451781351 1 1 1 1 1 1 1 1 1 1 0.010548601330418371 1 1 1 1 1 1 1 1 1 0.018209601944022553 1 1 1 1 0.019863731658048084 1 1 1 1 1 1 1 1 0.0097733654319800446 1 0.014710935946842177 1 1 1 0.0099441171587438884 1 1 1 1 1 1 1 1 0.013412591502176562 1 1 1 0.014642326567279845 1 1 1 0.0096149794820168111 1 1 0.0099102027476003531 1 1 1 1 1 1 1 1 1 1 1 1 1 1 1 1 1 1 1 1 1 1 1 1 1 1 1 1 1 1 1 1 1 1 1 1 1 1 1 1 1 1 1 1 1 1 1 1 1 1 1 1 1 0.010626859408700753 1 1 1 0.010415390703365364 1 1 1 1 1 1 0.0099601889054102277 1 0.010095891411911882 1 1 1 1 0.010390611525282872 0.010675409532381358 1 1 1 1 1 1 1 1 1 1 1 1 1 1 1 1 1 1 1 1 1 1 0.017155985543179025 1 1 0.015840711953140213 1 1 1 0.010084297591099368 1 1 1 1 1 1 1 1 1 1 1 1 1 1 0.010673660641607989 1 0.012922410942472292 1 0.012780045783980135 1 1 1 1 1 1 1 1 1 1 1 1 1 1 1 1 1 0.011980796411822552 1 1 1 1 1 1 1 1 1 1 1 1 1 1 1 1 1 1 1 1 1 1 1 1 1 1 1 1 1 1 1 1 1 0.010141157020974302 1 1 1 1 1 1 0.012820982736639376 1 1 0.0087174027878864965 1 0.010017949795355774 1 1 0.013169493305138034 1 1 1 0.0097966167056870012 1 1 1 1 1 1 1 1 1 1 1 1 1 1 1 1 1 1 1 1 1 1 1 1 1 0.010113511801721216 1 1 1 1 0.010193510765113533 1 1 0.010080163689515368 1 1 1 1 1 1 1 1 1 1 1 1 1 1 1 1 1 1 1 1 1 1 1 1 1 1 1 1 1 1 0.0099481644591284391 1 1 1 0.010030259824385483 1 1 1 1 0.0098131650057552353 1 1 1 1 1 0.0096674685877034747 1 1 1 1 0.010209288706318273 1 1 1 1 1 1 1 1 1 1 1 1 1 1 0.010086704684748879 0.010252030352922506 1 0.010921269917727978 1 0.010634230565694949 1 1 1 1 1 1 1 1 1 1 1 1 1 1 1 1 1 1 1 1 1 1 1 1 1 0.010469922614774666 0.0096708748722336944 1 1 0.010106955917915359 1 1 0.010705354642007761 1 1 1 1 1 1 1 1 1 1 1 0.01045742643072407 1 1 0.010141732476331575 1 1 1 1 1 1 1 1 1 1 1 1 1 1 0.010154579701405594 0.010010758711722648 1 0.011577051985817537 0.0099780348951727174 1 1 1 1 0.010000930707966125 1 1 1 0.0094477308293952223 0.011841947002033613 1 1 1 1 1 1 1 0.0099907812475406605 1 1 1 1 1 1 1 1 1 1 1 1 1 1 1 1 0.0098256302369021317 1 1 1 1 0.0096231451375058709 1 1 1 1 1 1 1 0.011707153055767121 1 1 1 1 1 1 1 0.011350716398799667 1 1 0.010547407491147576 1 1 1 1 1 1 1 1 1 1 1 1 1 1 1 0.010054311594824533 1 1 1 1 1 1 1 1 0.010064594368633906 1 1 1 1 1 1 1 0.009994302834732148 1 1 1 1 1 0.0099790535089333554 1 1 1 1 0.010126631384976426 1 1 1 1 1 1 1 1 1 1 1 1 0.0099646455249342743 1 1 1 1 1 1 1 1 1 1 1 1 1 1 0.010564408275370408 1 1 1 1 1 1 1 1 1 1 1 1 1 0.010002113568882826 0.0099621601992213732 1 1 0.011487269534818413 1 1 1 1 0.010756919031579897 1 1 1 0.011168305254941592 1 1 0.010162116023707812 1 1 1 1 0.011356962881091105 1 1 1 1 1 1 1 1 1 1 1 1 1 1 1 1 1 1 1 1 1 1 1 1 1 1 1 1 1 1 1 1 1 1 0.01014720541474335 1 1 1 0.010326845796342557 1 0.010200214411366128 1 1 1 1 1 1 1 1 1 1 1 1 1 1 0.010061885071152223 1 1 1 1 1 1 1 1 0.016830072490771147 1 1 1 0.0100075734763277 1 1 1 1 1 1 1 0.015807918103240833 1 0.016716598845295673 1 1 1 1 1 1 1 1 1 1 1 1 1 1 0.010846804331154708 1 1 0.010311458346485785 1 1 1 1 1 1 1 0.016572476930991214 1 1 1 1 1 1 1 1 1 1 1 1 1 1 1 1 1 1 1 1 1 1 1 1 1 1 1 0.010952909695030637 1 1 0.019954080441747624 1 1 1 0.018907478898844116 1 1 0.013016983647071458 1 1 1 1 1 1 1 1 1 1 1 1 1 1 1 1 1 1 1 0.011017652138816957 1 1 1 1 1 1 1 1 1 1 1 1 1 0.010482306154148038 1 1 1 1 1 1 1 1 1 1 1 1 1 1 1 1 1 1 1 0.010581382671706659 1 1 1 1 1 1 1 1 1 1 1 1 1 1 1 1 0.010038117802542851 1 1 0.010676274442319767 1 1 1 0.010263729051264874 1 1 0.0098567715645620467 1 1 1 1 1 1 1 1 1 1 1 1 1 1 0.011731094416107753 1 1 0.012818057987315154 1 1 1 1 1 1 1 1 1 1 1 1 1 1 1 1 1 1 1 1 1 1 1 1 1 1 1 1 1 1 1 1 1 1 1 1 0.012006579372144506 1 1 1 1 0.011726912935963629 1 1 1 1 1 1 1 1 1 1 1 1 1 1 1 0.013846808933428149 1 0.0099063065998096812 0.015257147907056172 1 1 0.011416716597431317 1 0.012355770486655079 1 1 1 1 1 1 1 1 0.021920691503914087 1 1 0.011238430353228747 1 1 1 1 0.017173129642150554 0.014020170724351199 1 0.012932958733218265 1 1 1 1 1 1 1 1 1 1 1 1 1 1 1 1 1 1 1 1 1 0.010049345042835112 1 1 1 1 1 1 1 1 1 1 1 1 1 1 1 1 1 1 1 1 1 1 1 1 1 0.016454114915331816 1 1 1 1 1 0.015450091018105041 1 1 1 1 1 1 1 1 1 0.017592840754243479 1 1 1 1 1 1 1 1 1 1 1 1 1 1 1 1 1 0.020468076870074771 0.013620381306779047 1 1 0.018877504444751884 1 1 1 0.010091588189215104 1 1 1 1 1 1 1 1 1 1 0.015213410464684281 1 1 0.0099528289878704334 1 0.011667823686005045 1 1 1 1 0.010879122083107711 1 1 1 0.011371205102715706 1 1 1 1 1 1 0.010571409901546593 1 1 1 1 1 1 0.010567258493679378 1 1 1 1 1 1 1 1 1 1 1 1 1 1 0.010104212231006337 1 1 0.01030228851450344 1 1 1 0.010234108401029401 0.010108877978325142 1 1 1 1 1 1 1 1 1 1 0.015684796893965923 1 1 1 0.015840227166321802 1 1 1 1 0.010221841157310979 1 1 1 1 1 1 1 1 0.012509943434560964 1 1 1 1 1 0.011079303600531889 0.014735681917677041 1 1 1 0.016448434719304506 1 0.010372551046057615 0.010123824703064006 1 1 1 1 1 0.015212889279914045 1 1 1 1 1 1 0.010220268757380193 1 1 1 1 1 1 1 0.010503223729861927 1 1 0.010697649087995455 1 1 0.010095038334675937 1 1 1 1 1 1 1 1 1 1 1 1 1 1 0.010801795993095289 1 1 1 0.010000019526079476 1 1 0.010592259859344403 1 1 1 1 0.0099996007633941734 1 1 1 1 1 1 1 1 0.010436365433935932 1 1 1 1 0.013339456413652875 1 1 1 1 1 1 1 1 0.014878918955064168 1 1 1 1 1 1 1 1 1 0.010313161245372239 1 1 1 0.010984077332953595 1 1 0.016909951299746866 1 1 0.019203072136247099 1 1 1 1 1 1 1 1 1 0.014263624067919076 1 1 1 1 1 1 1 1 1 1 1 1 1 1 1 1 0.0099848273810082596 1 1 1 1 1 1 1 1 1 1 1 1 1 1 1 1 1 1 1 1 1 1 1 1 1 1 0.014721815619658674 1 0.014834317643637903 1 1 1 1 1 1 1 1 1 1 0.014522542734164852 1 1 0.010019924030354335 1 1 1 1 1 1 1 1 1 1 1 1 1 1 1 1 1 1 1 1 1 0.011458860847959785 1 1 1 1 1 1 1 1 1 0.013261231137859864 1 0.0097701229681422617 1 1 1 1 1 1 1 0.011011127485371856 1 0.010635541817116423 1 1 1 1 1 1 1 1 1 1 1 0.012816435239491414 1 1 1 1 0.010001008387010247 1 0.010938896902195818 1 1 1 1 1 1 0.012813125581530858 1 1 0.013017915037622205 1 1 0.012547143377289939 1 1 1 0.014287429792973341 0.011832616590569429 0.01153571777466009 1 1 1 1 1 1 1 1 1 1 1 1 1 0.010191257769822507 1 1 1 1 1 1 1 0.013147951790523634 1 0.010509077478538194 1 0.013051672733527444 1 1 0.013509670977919079 0.010000331968683614 1 1 1 1 1 1 0.010945132234935595 1 1 1 1 0.010096023793602943 1 0.012003267310753817 1 0.010185610650721289 1 0.012731018184822397 1 1 1 1 0.010860804423730042 1 1 1 1 1 0.010372859807687113 1 1 1 1 1 1 1 1 1 1 1 1 1 1 0.010903920724917953 1 1 1 1 1 0.010448393687523032 1 1 1 0.011160956709300607 1 1 1 1 1 1 1 1 1 1 1 1 1 1 1 1 1 0.013281980856388358 1 1 1 1 0.01323034223654007 1 1 1 1 1 1 0.0099794255401601233 1 1 1 1 1 1 1 1 1 1 0.011682995348432227 1 1 0.012392313841013334 1 0.0099611848314284171 1 1 1 1 1 1 1 1 1 1 1 0.011152082630780711 1 1 1 1 1 1 0.0098533108252052467 1 0.0082981444423791406 0.012090689343456943 1 0.01089351683667596 1 1 1 1 1 1 1 0.0094127908690330546 1 1 1 1 1 1 1 1 1 1 1 1 1 1 1 1 0.010928684792270917 1 1 1 1 1 1 1 1 1 1 0.010832077471145677 1 1 1 1 1 1 1 1 1 1 0.011453913587224022 1 1 1 1 0.010623309446649387 1 1 1 1 1 0.0098467444994722389 1 1 1 1 0.009981654840014325 1 1 1 1 1 1 1 1 1 1 1 1 1 1 1 1 1 1 0.0094849579189029178 1 1 1 1 1 1 1 1 0.0095619148694914349 1 0.010568689463343122 0.010002432769435847 1 1 1 1 1 0.010279194657227103 1 1 1 1 1 1 1 1 1 1 1 1 1 1 0.010247722049451761 1 1 0.01238140953271955 1 0.010019353884269515 0.0096214492425055215 1 1 1 1 1 1 0.010168216532051482 1 1 1 1 0.010147844257659697 1 0.010809171459685024 1 1 0.0096820711012209557 1 1 1 1 1 1 0.009953342754167524 0.010368742586789933 1 1 1 1 1 1 1 1 1 1 1 1 1 1 1 0.010661403523036107 1 1 1 1 1 1 1 0.010029384391038619 1 0.010326119700155199 1 1 1 0.010098794552673084 1 0.010399544725842945 1 1 1 1 1 1 1 1 0.0099885659264469743 1 1 1 1 1 0.010623053896349958 1 0.010044855188714945 1 1 1 1 0.010079691041511629 1 1 1 1 1 0.010045494860659337 1 1 1 1 1 1 1 1 1 1 1 1 1 1 1 1 1 1 1 1 1 1 1 1 0.014955748114078786 1 1 1 0.010543226992738285 1 0.015076836113387764 1 1 1 0.010197653432769084 1 1 1 1 1 1 1 1 1 1 1 1 1 1 1 1 1 0.010352696366609624 0.0099655082960706763 0.01018267025436536 0.010410225314597765 1 1 1 1 1 1 0.0098302800915682741 1 1 1 0.0094463375068183589 1 1 1 1 1 1 1 1 1 1 0.010806195714342881 0.013194019951162926 0.010106283635931509 1 1 0.01112410258981707 0.0099980505119250627 1 1 1 1 1 1 1 1 1 0.011625541614110025 1 1 1 1 1 1 1 1 0.012106317427667894 0.013897206752318951 1 1 1 0.010107716866542736 1 1 1 1 1 1 1 1 1 1 1 0.013308599632625411 1 0.010015873620661114 1 1 1 1 1 0.010010035006988344 0.011305912617081467 1 1 0.01038653905594307 0.012308737966663878 1 1 1 1 1 1 1 1 1 1 1 1 1 1 1 1 1 1 1 1 1 1 1 1 1 1 1 1 1 1 1 1 1 1 1 1 1 1 1 1 1 1 0.010656550300925445 0.010201048563473097 1 1 1 1 1 1 1 1 1 1 1 1 1 1 1 1 1 1 1 1 0.010310500461741664 1 1 1 1 1 1 1 1 1 1 1 1 1 1 1 1 0.010060881686169271 1 0.010635913625988425 1 1 1 1 1 1 1 1 0.010749734004602026 1 1 1 1 1 1 1 1 1 1 1 0.0099975615643562443 1 1 0.016468924272048081 1 1 0.013560508122985048 1 1 1 1 0.01679377658972734 1 1 1 1 0.0099853496642851557 1 1 0.017583130849837633 1 0.010538385630979554 1 1 1 1 1 0.011973617798417815 1 1 1 1 1 1 1 0.010604751799776879 1 1 1 1 1 1 1 1 1 1 1 1 1 1 1 1 1 1 1 1 1 1 1 1 0.0093205032433022438 1 1 1 0.0099962929121720431 1 1 0.0089320586877469476 1 1 1 0.010222513810363865 1 1 1 1 0.0098383367400082973 1 0.0085831169994608665 1 1 1 1 1 1 1 1 0.010013344521094493 1 1 1 1 1 1 1 1 1 1 0.018399686216790577 1 1 0.010012016511782823 1 1 0.014000084739741205 1 1 0.013403038320230352 0.0093148357685198212 1 1 1 1 1 1 1 0.010559771346473869 0.0078273540055012018 1 1 1 0.011097592977256968 1 1 0.010819844262174038 0.012518199205064223 1 1 1 0.01159885282968961 0.0091738405484406912 1 0.010668686586626732 1 1 0.010013009249392132 1 1 1 1 0.0070132352937644481 1 0.012952786103764231 0.011540589565778636 1 1 1 0.0096699030164502323 1 0.011950565502261569 0.010899874497264235 1 0.0091999533278242229 0.0095469672620526573 0.010080939512966125 0.0085370113619240538 1 0.0094714329708629145 1 0.010779416949380791 1 0.0095030111847577113 1 1 1 0.0097788634581739021 1 1 0.010567941116206226 1 0.0092895001088688367 0.011584210183602239 1 1 1 1 0.01017827398620123 1 0.0105460083886116 0.011077220441651887 1 1 1 0.010712170317605721 0.010675326612365347 1 1 0.011873042526965361 0.010621515903298826 1 1 1 1 0.0099786821782131881 1 1 1 1 0.010140606069259718 1 1 1 1 0.0099005063797791802 1 0.013757672914023918 1 0.0096170578955622945 1 0.010803587667051884 1 0.012105148203497347 1 0.0099987163128701546 1 1 1 1 1 0.0099299248087757284 1 1 0.012356775316810332 0.010000886150611522 0.010306033437246996 1 1 0.010147733918311015 0.010324314373361397 1 0.011262869928417341 1 1 0.011215940096196392 1 1 1 1 1 1 0.011438127122779801 1 1 0.010295530251214558 1 0.010575212797464087 1 1 1 1 0.011226568514296492 1 0.0099585251503497303 1 0.010416157177507384 1 1 1 0.010030689541841971 1 1 0.011620223399332493 1 0.010792443039120275 1 0.012021239483366766 1 1 1 1 1 0.010681167051947167 1 1 1 1 1 1 1 1 1 1 0.010660773463683432 1 1 1 1 0.01026487147708458 1 1 0.010542623061389188 1 1 1 1 1 0.0097601027231887898 1 1 0.0085902134818437673 1 1 1 0.011561530957032313 1 0.010149768243145897 1 1 1 0.010837418445271522 1 1 1 1 0.013384660771043529 1 1 1 1 0.014364871358451157 0.010199156411615284 1 1 1 1 1 1 0.010703057828588283 1 1 0.011796446259172247 1 1 1 1 1 1 1 1 1 1 1 1 1 1 1 1 1 1 1 1 1 1 1 1 1 1 1 1 1 1 1 1 1 1 1 1 1 1 1 1 1 1 1 1 1 1 1 1 1 1 1 1 1 1 1 1 1 1 0.011371778578988885 1 1 1 1 1 1 1 1 1 1 1 1 0.006546157876514783 1 1 0.010883237652601879 1 1 1 0.010147466569361769 1 1 1 1 1 1 1 1 1 1 1 1 1 1 1 0.013844750388831165 1 1 1 1 1 1 1 1 1 1 1 1 1 1 1 1 0.010172552388954596 1 1 1 1 1 1 1 1 1 1 1 1 1 0.012879444957668388 1 1 0.010164298144189721 1 1 0.011429810598397587 1 0.014054305851508186 1 1 1 1 1 1 1 0.014310861070540006 1 1 1 1 1 1 1 1 1 1 1 1 0.010016368768813681 1 1 1 0.010243643411831049 1 1 1 1 1 1 1 1 1 0.010050168576971366 1 1 1 1 1 1 0.015602392472472578 1 1 1 1 1 1 0.015070518130869463 1 1 1 0.0096750936699591013 1 1 1 1 1 1 1 0.0091483797483535353 1 1 1 1 1 1 1 1 1 1 0.015613658663306249 1 1 1 1 1 1 1 1 1 1 1 1 1 1 1 1 0.01159474926265255 1 0.010034530053724896 1 1 1 1 1 1 1 1 1 1 0.0088773510217319516 1 0.011642537562169031 1 1 1 1 1 1 1 1 1 1 1 0.015349932626106042 1 1 1 1 1 1 1 1 1 1 1 0.015616611237381506 1 1 1 1 1 1 1 0.010041810640210201 1 1 1 1 1 1 1 0.010022916732713162 1 1 1 1 1 1 1 1 1 1 1 0.0096217567498076504 1 1 1 1 1 1 1 1 0.014837792589836696 1 0.0088356722672743738 1 1 1 1 1 1 1 1 1 1 0.010366398677852693 1 1 1 0.010748867999031438 1 1 1 1 1 1 1 1 1 0.013298256658914355 1 1 1 1 1 1 1 1 1 1 1 1 1 1 1 1 0.010537941888531866 1 1 1 1 1 1 1 1 1 1 1 1 1 1 1 1 1 1 0.010290340869775406 1 1 0.010528391471336471 1 1 0.010355825280001958 1 1 1 1 1 0.010626905093212114 1 1 1 1 1 1 1 1 1 1 1 1 1 1 1 1 1 1 1 1 1 1 1 1 1 1 1 1 1 1 1 1 1 1 1 1 1 1 1 1 1 1 1 1 1 1 1 1 1 1 1 1 1 1 1 1 1 1 1 0.010111389507968589 1 1 0.010375457504734804 1 1 1 1 1 1 1 1 1 1 1 1 1 1 1 1 1 1 1 1 1 1 1 1 0.0097725089032224474 0.010403231254228113 1 1 1 1 1 1 1 1 1 1 1 1 1 1 1 1 0.0099805387035698089 0.010577625587754628 1 1 1 1 1 1 1 0.011031546601844997 1 0.010195986068742807 1 1 0.010969457204365965 0.0099877350072802833 1 1 1 1 1 1 1 1 1 1 1 0.01000199867393135 1 0.0078198722836332352 1 1 1 0.0084626955213011282 1 1 1 0.011129236286172114 1 0.011125726995044091 1 1 1 1 1 0.011229416809749241 0.011643059278434576 1 1 1 1 1 1 1 1 1 1 1 1 1 1 1 1 1 1 1 1 1 1 1 1 1 1 1 1 1 1 1 1 1 1 1 1 1 1 1 1 1 1 1 1 1 1 1 1 1 1 1 1 1 1 1 1 1 1 1 1 1 1 1 1 1 1 1 1 1 1 1 1 1 1 1 1 1 1 1 1 1 1 1 1 1 1 1 1 1 1 1 1 1 1 1 1 1 1 1 1 1 1 1 1 0.010897001028990185 0.009881203452857111 1 0.013176681274645793 1 0.010594430147616556 1 1 0.010518775750462412 1 1 1 1 0.0098712960080236528 1 1 1 1 1 1 1 0.014191031161812511 0.0096378872044571382 0.010245381870605894 1 1 1 1 1 0.013931633764410842 0.010433558543600474 1 1 1 1 1 1 1 1 1 1 1 1 1 1 1 1 1 1 1 1 1 1 1 1 1 1 1 1 1 1 1 1 1 1 0.01184570765367046 1 1 0.010659510795604732 1 1 1 1 1 1 1 1 1 1 1 0.01029897161018375 1 1 1 1 1 1 1 0.010673875540339373 1 1 1 1 1 1 1 1 1 1 1 1 1 1 1 1 0.013871863256043733 1 1 0.01242104183735848 1 1 1 1 1 1 1 1 1 1 1 1 1 1 1 1 1 1 1 1 1 1 1 0.009845356594609736 1 1 0.010044757368990567 1 1 0.010355753282581398 1 1 1 1 1 1 1 0.010730657212737024 1 1 1 1 1 1 0.010328534185437582 1 1 0.010787879707688868 1 1 1 1 0.010157817884187544 1 0.0099148969988116335 1 1 0.0124434164746302 1 1 1 1 0.010474079559254645 1 0.011949690495732071 1 1 0.011491082426128299 1 1 1 1 1 1 1 1 1 1 1 1 0.01279595682863113 1 1 1 0.011128489371749047 1 1 0.011114709360565562 1 1 1 1 0.010002362163126629 1 1 1 1 1 1 1 1 1 1 0.0099806304751946223 1 1 1 1 1 1 1 1 1 1 0.010244511718744371 1 1 1 1 1 1 1 1 1 1 1 1 0.011073155454106646 1 1 0.0093011315743574876 1 1 1 1 1 1 1 1 1 1 0.010291207629854913 1 1 1 1 1 0.0097471393818575666 1 0.0098307198113801886 0.010079363292824594 1 1 0.0099384132438175409 1 1 1 1 1 1 1 1 1 0.010179293757052647 0.0095422546755783988 1 1 1 1 1 1 0.010181884001180839 1 1 1 1 1 1 1 1 1 1 1 1 1 1 1 1 1 1 1 1 1 1 1 1 1 0.010033187465043187 1 1 1 1 1 1 1 1 1 1 1 1 1 1 1 1 1 1 1 1 1 1 1 1 1 1 1 1 1 1 1 1 1 1 1 1 1 1 1 1 0.01039958919484444 1 1 1 1 1 1 1 1 1 1 0.010060764912089017 1 1 1 0.0098241258399572005 1 0.0097679555396840648 1 1 1 0.011297915999268202 1 1 1 0.01001807449338726 1 0.0099695034106426859 1 0.010737008250057875 1 0.0095836591422537535 0.010500335620116494 1 1 0.011222766784251685 1 1 1 0.009962946389501029 1 1 1 1 1 0.0099713757719231515 1 1 1 1 0.010796588772082004 1 1 1 0.01029534970910106 1 1 1 1 0.011095558983073128 1 0.0099891278858653572 1 1 1 1 1 1 1 1 1 1 1 1 1 1 0.010127771033713919 1 1 1 1 0.010458469801373296 1 1 0.0099907827606873726 1 1 0.0089576869134909577 0.010010827510910399 1 1 0.0095588251543288153 1 0.010461141172699234 1 1 1 0.0098789889788072696 0.009629088686051732 0.010231526943471941 0.0099123382646295905 1 1 0.010942261325238931 1 1 1 1 0.0085094793937379714 1 0.01282341884932699 1 1 0.0098589250191339281 0.0097189733675652253 0.0099994505242104702 1 0.010283731217547359 1 1 0.01071627213570402 0.010353961197610608 0.0097314422150164594 1 1 1 1 1 1 1 1 1 0.010615803233161506 0.012526875004905133 1 1 1 1 0.01227855940184466 0.01055740131033911 1 1 1 0.01829754117832956 1 0.017419870549801639 1 1 1 1 1 1 1 1 1 1 1 0.018864447230241776 1 1 1 1 1 1 1 1 1 1 1 1 1 1 1 1 1 1 1 1 1 1 1 0.010242540548986219 1 1 1 1 1 1 1 1 1 1 1 1 1 1 1 1 0.021238081053104596 1 1 0.010654650043486633 1 1 1 1 1 1 1 1 1 0.010822947088767918 1 1 1 0.012211241816539277 0.010721200549952695 1 1 0.0099927605373952566 1 1 1 1 1 0.010196710500248897 1 0.010131862547927466 1 1 1 0.010834705943169494 1 1 1 1 1 1 1 0.01086346067626176 1 1 0.010040714611549886 1 1 1 1 0.01087277338006476 1 1 1 0.010091184251243222 0.010007934529824526 1 1 0.011377751350099972 1 1 1 0.019469281061429564 1 1 1 1 1 1 1 0.009726554899745431 1 1 0.019024714075413673 1 0.010584978325483933 0.015162548557473043 0.010664613463946256 1 0.010011211229492473 1 0.016401096690805035 0.015640233330814195 1 1 1 1 1 1 0.02079327702617555 1 1 0.020184236351154676 1 1 1 1 1 1 1 1 1 1 1 1 1 1 1 1 1 1 1 1 1 1 1 1 1 1 1 1 1 1 1 1 1 1 1 0.010064147199584374 0.017067873817090795 1 1 1 1 1 1 1 1 0.010182006904264995 0.0091891994769043635 0.017189015820975456 0.017273262749367451 1 1 0.0081752687741728051 1 1 1 1 1 1 1 1 0.008305223780548595 1 1 0.010196353681964454 1 1 1 0.0097511473985447666 1 1 1 1 0.0095620830262514063 1 1 1 1 1 1 1 1 1 1 1 1 1 1 0.01034011963165116 1 1 1 1 1 0.015159734442040235 1 1 1 1 1 1 1 1 0.011518174250999208 1 1 1 0.0092394608953564761 0.012918877275980177 1 1 0.012873860878234208 0.0090995236696768782 1 1 1 1 1 0.0099999828654478741 1 1 1 1 1 1 0.009845878672941755 1 0.018720787900206023 1 1 1 1 1 1 1 1 0.011626233752091385 0.012346693285829496 1 0.016416600127074181 0.010671309318195382 0.017750860715011807 1 0.012684180242979549 1 1 1 1 1 1 0.012032637548139069 1 1 1 1 1 1 1 0.011371633007285113 1 1 1 1 1 1 1 1 1 1 1 1 1 1 1 1 1 1 1 1 1 1 1 1 1 1 1 1 1 1 1 1 1 1 1 1 1 1 1 1 1 1 1 1 1 1 1 1 1 1 1 1 1 1 1 1 1 0.010328357138930065 1 1 1 1 1 1 1 0.011006851101526605 1 1 0.016527503468105716 1 1 1 0.0075075433579362971 1 0.010001729923696117 1 1 0.0098311956852124537 1 1 1 1 1 1 1 0.013445934727206829 1 1 1 0.010321469369117833 1 1 1 1 1 1 1 0.0094772670972444548 1 0.0099666808447322168 1 1 1 1 1 1 1 1 1 1 1 1 1 1 1 1 1 1 1 1 1 1 1 1 1 0.010073140502045146 0.015236528800201658 1 0.015807337421181095 1 1 1 1 1 1 1 0.010022177361578887 1 0.010387563763685392 1 0.011124900554514934 0.0093188671669463298 0.015429976040709356 1 1 0.016337365570997305 1 1 0.012362854533576707 1 1 1 0.011012819760942032 1 1 1 1 1 1 1 0.0092544258842094541 0.012691611167150814 1 1 0.01124900404577059 1 1 1 0.010482424390896885 1 1 1 1 0.0098600780398152253 1 0.012459146516510856 1 1 1 1 1 1 0.010403932588297285 1 0.010438592116160399 1 1 1 1 1 0.011301926954360383 1 1 0.010790252927916928 1 1 1 1 1 1 1 1 1 1 1 1 1 1 1 1 0.0099702016524389394 1 1 0.011249029175441402 0.0099957039206108201 1 0.010007449128085804 1 1 1 1 1 1 1 1 0.010141963178833197 1 1 1 1 1 1 1 1 1 1 1 1 1 1 1 1 0.014664749469273907 1 1 1 0.010514059163994786 1 1 0.016069539267608131 1 1 1 1 1 1 0.016231909664285418 1 1 1 1 1 1 1 1 1 1 1 1 1 1 1 1 1 1 1 0.0091289837172702018 0.010021207580317821 1 1 1 1 1 1 1 0.0097323758369445915 1 1 1 0.010000445718701198 1 1 0.009619012570913325 1 0.0093510922802816192 1 1 0.0092878670698974038 1 0.010236782236557117 0.01262211198081219 1 0.0090332014779198177 1 0.01154729102109853 1 0.012029264838813624 1 1 1 1 1 1 1 1 1 1 1 1 1 1 1 0.010343181296711504 0.0098505816387515922 1 1 1 1 1 1 1 0.010965716101093037 1 1 1 1 1 1 1 1 1 1 1 1 1 1 1 0.01037790627977286 1 0.010288392381625076 1 1 1 1 1 1 0.010631340076250438 1 1 1 0.011463571271571637 1 1 1 0.01062271011725842 1 1 1 1 1 1 1 1 1 1 1 1 1 1 1 1 1 1 1 1 1 0.0098995887124737215 1 1 1 1 0.011901664928173909 1 1 1 1 1 0.013772186863422849 1 1 1 0.013319159690308858 1 1 1 1 1 1 1 1 1 1 1 1 0.0099731776555647255 1 1 1 1 0.012636990939412044 1 1 1 1 1 1 1 1 0.011338126254570268 1 1 1 1 1 1 1 0.010905254687525389 1 1 1 1 0.0105155042665838 1 1 1 1 1 1 1 1 0.011107800526090273 1 1 1 1 1 1 1 1 1 0.010457066147871875 1 1 1 1 1 1 1 1 1 1 1 1 1 1 1 1 1 1 1 1 1 1 1 1 1 1 1 1 0.010230639642700495 1 1 1 1 1 1 1 0.011981119735653549 1 1 1 1 1 1 1 1 1 1 1 1 1 1 1 1 1 1 1 1 1 1 1 1 1 1 1 1 1 0.010334317735633345 1 1 1 1 1 1 1 1 1 1 1 1 1 1 1 1 1 1 1 1 1 1 1 1 1 1 1 1 1 1 1 1 0.010084794186149205 1 1 0.010044079574599322 1 1 1 1 0.015789834428662226 1 1 0.016114985119654424 1 1 1 1 0.015764769931853773 1 1 1 0.015650620960800214 1 1 1 0.010471322546116175 1 1 1 1 1 1 1 1 1 1 0.011384379460815986 1 1 0.011915934497140852 1 1 1 1 1 1 0.020664147712176631 1 1 1 1 1 0.01204788122197655 1 1 1 1 0.012044918995296104 1 1 1 1 1 1 1 1 1 1 0.011830251925392742 1 1 1 1 1 1 1 1 1 0.010596944540123172 1 1 1 1 1 1 1 1 1 1 1 1 1 0.020522206410381126 1 1 1 1 1 1 1 0.012141752544689712 1 1 1 1 1 0.010692831059222077 1 1 1 1 1 1 1 1 1 1 1 1 1 1 0.01110689251486593 1 1 1 1 1 1 1 1 0.011631804569946946 1 1 1 1 1 1 1 1 1 1 1 1 1 1 1 1 1 1 1 1 1 1 1 1 1 1 1 1 1 1 1 1 1 0.010818147873450323 1 1 1 1 0.011385547415014454 0.011660041455747276 1 1 0.013333327622093362 1 1 0.011642768754320999 1 1 0.016998749782120522 1 1 1 1 1 1 1 1 1 1 1 1 1 1 1 1 1 1 1 0.018707356660581251 1 1 1 1 0.019923521499846768 1 1 1 1 1 1 1 1 1 1 1 1 1 1 1 1 1 1 1 1 1 1 1 1 1 1 1 1 1 1 1 1 1 1 1 1 1 1 1 1 1 1 1 1 1 1 1 1 1 1 1 1 1 1 1 1 1 1 1 1 1 1 1 1 1 1 1 1 1 1 1 0.011092659415192647 1 1 1 1 0.010406858576455211 1 0.010222686998671736 1 1 0.011093778698125657 1 1 1 1 0.010052956863925966 1 1 0.010067274341626752 1 1 1 1 1 1 1 1 1 1 1 1 1 1 1 1 1 1 1 1 1 1 1 1 1 1 1 1 1 1 1 1 1 1 1 1 1 1 1 1 1 1 1 1 1 1 1 1 1 1 1 1 1 1 1 1 1 1 1 1 0.0099277587479836074 1 1 1 1 1 1 1 1 1 0.010318786038843068 1 1 1 1 1 1 1 0.010712261024436464 1 1 1 1 1 1 1 1 1 1 1 1 1 1 1 1 1 1 1 0.019079468485773979 0.013746899097657295 1 1 0.0099767566134580758 1 0.010013143403794019 1 1 1 1 1 1 1 1 1 1 1 1 1 1 1 1 1 1 1 1 1 1 1 1 1 1 1 1 1 1 1 1 1 1 1 1 1 1 1 1 1 1 1 1 1 1 1 1 1 1 1 1 1 1 1 0.01498893541059362 0.015340206619889862 1 1 1 1 1 1 1 1 1 1 1 1 1 1 1 1 1 1 1 1 0.010058780132719276 1 1 1 1 1 1 1 1 1 1 0.010017922121131333 1 1 1 0.0098040757837814275 1 1 1 1 1 1 0.010022212326575831 1 1 1 1 1 1 1 1 1 1 1 1 1 0.0097338858853353166 1 1 1 1 1 1 0.010002838055372134 0.0098754269290310514 1 0.011435381446212534 1 1 0.01007800336999309 1 1 1 0.011481268786963204 1 1 1 0.011463591403781949 1 1 1 1 1 0.010079388457487112 1 0.0096572322522680831 1 1 1 1 0.011707603419591333 1 1 1 1 0.0098633914814515999 1 0.0099767292745214786 1 1 0.010041647696168722 0.010026030635258596 1 1 1 1 1 0.010066289317946495 1 1 1 1 1 0.010137443790399787 0.0099661925744708203 0.010375990233804044 1 0.01082958546808566 1 0.0099955558855254756 1 1 1 1 1 0.010024007212342095 1 1 1 1 1 1 1 1 0.009993244635477315 0.010876898985245959 1 1 0.010459771252153589 1 1 1 1 0.011296541082071739 1 1 0.010112449296756254 1 1 0.010099926363960034 1 1 1 1 1 1 1 1 1 0.010082865564632837 1 1 1 1 1 1 1 1 0.010194372121343552 1 1 1 1 1 1 1 1 1 0.0099507502867790011 0.010286984106223612 1 1 1 1 1 1 1 1 1 1 1 1 1 1 1 1 1 1 1 1 1 1 1 1 1 1 1 1 1 1 1 1 1 1 1 0.010007636567556724 1 1 1 1 0.010036105984649159 1 1 1 1 1 1 1 1 1 1 1 1 1 1 1 1 0.010595835371763736 0.011859820319287003 1 1 1 1 1 1 1 1 1 0.011506333042515854 1 1 1 1 0.010654111774080894 1 1 0.010535220090391572 1 1 1 1 1 1 1 1 1 1 1 1 1 0.010101838843847704 1 1 1 1 1 1 1 1 1 1 1 1 1 1 1 1 1 1 1 1 1 1 1 1 1 0.010723138227066534 1 1 1 1 1 0.0099861904010046191 1 1 1 0.011789403455309187 1 1 1 0.009166025442552031 0.0099897916403154235 1 1 1 1 1 1 1 1 1 1 1 1 1 1 0.011067713670577031 1 1 1 0.013642680613607147 1 1 1 1 0.011509186283875452 0.011070870425399872 1 1 1 1 1 1 1 1 1 1 1 1 1 1 1 1 1 1 1 1 1 1 1 0.011028631950477746 1 1 1 1 1 1 1 1 1 0.0097124356086174986 1 1 1 1 0.010371911964876915 1 0.0098206449763386505 1 1 1 1 0.0099769639317616923 1 1 1 1 1 1 1 1 1 1 1 1 1 1 1 0.01008211761691765 1 1 0.010219530401530556 1 1 1 1 1 1 1 1 1 1 0.0096906960772056433 0.0096727413702104182 1 1 1 1 0.011533176163926559 1 1 1 0.011915464857503498 1 1 1 1 0.010410130094460943 0.010149300854247352 1 0.010375183022423677 1 0.0095785240247121609 1 0.013558095837683172 1 1 0.0097597863358596989 1 1 0.01282248427152621 1 1 0.0095279043712856795 1 1 1 0.011088836754061854 1 1 0.009999991588730885 1 0.010182093858340197 1 0.011358867060582124 1 1 0.010238838356283496 1 1 1 1 1 1 1 1 1 1 1 1 1 0.0099299009229733941 1 1 1 1 1 1 1 1 1 1 1 1 1 1 1 1 0.0093229009986789263 0.0088251286121699482 1 1 1 1 1 0.010817915782191219 1 1 1 1 0.011058569124295243 1 1 0.0083048600791665976 1 1 1 1 0.01033907748885904 1 1 1 1 1 1 1 1 1 1 1 1 1 1 1 1 1 1 1 1 1 1 1 1 1 1 1 1 1 1 1 1 1 1 1 1 1 1 0.010119005879793752 1 1 1 1 1 1 1 1 1 1 1 1 1 0.0097386369641143927 1 0.010138879177807633 1 1 1 1 0.0098070437477931118 1 1 1 1 1 1 1 1 1 1 1 1 1 1 1 1 1 1 0.0098857529050207487 1 0.0099613707066486552 1 1 0.0098266647138454052 1 1 1 0.0098376316134648756 1 1 1 1 1 1 1 1 1 1 1 1 1 1 1 1 1 1 1 1 1 1 1 1 1 1 1 0.010122320851881864 1 1 0.010270044412601632 1 1 1 1 1 1 1 1 1 1 1 1 1 1 1 1 1 1 1 1 1 1 1 1 1 1 1 1 1 1 1 1 1 1 1 0.010151038532807884 1 0.010521088577499924 1 1 1 1 1 1 1 1 1 1 1 1 1 1 1 1 1 0.01039135921422326 0.010830777376183797 1 1 1 1 1 0.010258591742473754 1 1 1 1 0.010601904463777708 1 1 1 1 0.010210901431652679 1 1 1 1 1 1 1 1 1 1 1 1 1 1 1 1 1 1 0.010439418161960543 1 1 1 1 1 1 0.010475050336244133 1 1 0.011215118000433996 1 1 1 1 1 1 1 1 1 1 1 1 0.010323746441079506 1 1 0.010410062441318752 1 1 1 1 1 1 1 1 0.010124585431413421 1 1 1 1 1 1 0.010236523758911931 1 1 0.010579836480215888 1 1 1 1 1 1 1 1 1 1 1 1 1 1 1 1 1 1 1 1 1 1 1 1 1 1 1 1 1 1 1 1 1 1 1 1 0.010076217539930018 1 1 1 0.010101256086675578 1 1 0.010222493749457039 1 1 1 1 1 1 0.010219587983249619 1 1 1 1 1 0.010096324775449521 1 1 1 1 1 1 0.01007973869527945 1 1 1 1 0.011192111736515329 1 0.010933721981914269 1 1 0.010613855819165258 1 1 1 0.010025038546745576 1 1 1 1 1 1 1 1 1 1 1 1 1 0.01007884946038577 1 1 1 1 1 1 1 1 1 1 1 1 1 1 1 1 1 1 1 1 1 1 1 1 0.0099994231677551712 1 0.0099986327901670068 1 0.0099786350427533525 1 0.009813643390460345 1 1 1 1 0.01003163638874709 1 1 1 1 0.010201912515849924 1 1 1 1 1 1 1 1 1 1 1 1 1 1 0.01057763591295097 1 1 1 0.010831092609620988 1 1 1 0.010241243319258065 1 1 0.010465032750553696 1 1 1 0.010441796470110206 1 1 1 1 0.010220757671337887 1 1 1 1 0.010370360796574947 1 1 1 1 1 1 1 1 1 1 0.014110116560086882 1 1 1 1 1 0.014151625406518207 1 0.010013053710951191 1 1 1 1 1 0.010639631506143374 0.012673430057751357 1 1 0.011478410230254985 1 0.010000911074053705 1 1 0.010047372253841395 1 1 1 1 1 1 1 1 1 1 1 1 1 0.0094682776278587257 1 1 1 1 1 0.014020287605321161 1 1 1 1 1 1 1 1 1 1 0.010095163744999277 1 0.011000574707915638 1 1 0.011411236728956151 1 1 0.0099586658470992399 1 0.012617753567943677 1 0.0093819279348252016 1 1 1 1 1 0.0098308041026776635 0.0095304831955160957 1 1 1 1 1 1 1 1 1 1 1 0.0099174395094972657 1 1 1 1 1 0.0099961206196258028 1 1 1 0.013661734555158216 1 0.010056740025192959 1 1 1 1 1 1 1 1 1 1 1 1 1 1 1 0.0099918645282130927 1 1 1 1 0.0099769361604048305 1 1 1 1 1 1 1 1 1 1 1 1 1 1 1 1 1 1 1 1 1 1 1 0.0099850716321917294 1 1 0.012122000153706007 1 1 1 1 1 1 1 0.012427624058177787 1 1 0.010711004278979556 1 0.011609285515912792 1 1 1 1 1 1 1 1 1 0.01066797142040807 1 1 0.013311663220498994 1 1 1 0.01297378224334962 1 1 1 1 1 1 1 0.010144498956746493 1 1 1 1 0.012675010607266782 0.0096429881822393312 1 1 1 1 1 1 1 1 1 0.0098689146584447184 1 1 1 1 1 1 1 1 1 1 1 1 1 1 1 1 0.010240075535326479 1 0.010085807264199288 1 1 1 0.010764556766277161 1 1 1 1 1 1 1 1 1 1 1 1 1 0.010263411121958034 1 1 1 1 1 0.010753418093153277 1 1 1 0.010253007020580424 0.010235663925711789 1 1 1 0.010817611676808652 1 1 0.01016957374621226 1 1 1 1 0.015692084237315052 0.010026627782397816 1 1 1 0.0094150246579490383 1 1 0.0098500801737345812 1 1 1 1 0.014911721940881202 1 0.018238535113812512 1 1 1 0.016797925898252311 1 1 1 1 1 1 1 1 1 1 1 1 1 1 1 1 1 1 1 1 1 0.010317193845159387 1 1 1 1 1 1 1 1 1 0.013508532286005561 1 1 1 0.013099642934550364 1 0.013084806150124022 1 1 1 1 1 1 1 1 1 1 1 0.013089851783835602 1 1 1 1 1 0.015637777440187722 1 1 1 1 1 0.011556305806014647 1 1 1 1 1 1 1 1 1 1 1 1 1 1 1 1 0.011746402779932082 1 1 1 1 1 1 1 1 1 0.011328815024953242 1 1 1 1 1 1 1 1 1 1 1 1 1 1 1 0.010169893973367381 1 1 1 1 1 1 1 1 1 1 1 1 1 1 1 1 1 1 1 1 1 1 1 1 1 1 1 1 1 0.013232454195912529 1 1 1 1 0.011434945896129863 1 0.011666345597810501 0.010002735518413183 1 1 1 1 1 1 0.010107389982133057 1 0.0095402819072632136 1 1 1 0.010018462374507797 1 1 0.011841540173255378 1 1 1 1 1 1 0.010045565014602492 1 1 1 1 1 1 1 0.010094702929092569 1 1 1 1 0.010178571846893468 1 1 1 1 1 1 0.011010730008792199 1 1 1 1 1 1 1 1 1 1 1 1 0.010304385362036867 1 0.010568933538681997 1 1 1 1 1 1 1 0.01070455673389303 0.010484549510665476 1 1 1 1 1 1 1 1 0.010172569359978876 1 1 1 0.010684990983595665 1 1 0.010254910862917216 1 1 1 1 1 1 1 1 1 1 1 1 1 1 1 1 1 1 1 1 1 1 1 1 1 0.010068130780068194 1 1 0.010023703929764066 1 1 1 1 1 0.010242340112196347 1 1 0.010736418853644269 1 0.012123133386268149 1 1 1 0.0099651195504391957 1 1 1 1 0.011031048274888811 1 1 0.0096358810371976796 0.011499913700102784 1 1 1 1 1 0.010018103899306055 1 1 0.0099512483364020809 1 1 1 1 1 0.009985785621690297 1 1 1 1 1 1 1 1 1 0.010016490121139358 1 1 1 1 0.0099856908821531233 1 1 1 1 1 1 0.013254453060396913 1 0.012481650547946147 1 1 1 0.0092269204035184457 1 0.014889224245595039 1 1 0.013209686785877429 1 0.0099173712697279912 1 1 1 0.0099652778425422476 1 1 1 1 1 1 1 1 1 1 1 1 1 0.016266687335381086 1 1 1 1 0.016572606909612715 1 1 1 1 1 1 0.0096887852685094908 1 1 1 1 1 1 1 0.01055619488863946 1 1 1 1 1 1 0.011525122384806571 1 1 1 1 1 1 1 0.012231124200253579 1 1 0.010195159166127152 1 1 1 1 1 1 1 1 1 0.010128292193951215 0.0099630392313719163 1 1 1 1 1 1 1 1 1 1 1 1 0.010037852801715989 1 1 1 1 1 1 1 0.010417893464306049 1 1 1 0.010003396283718968 1 0.010737429106429891 1 1 0.0098301603072584853 1 1 1 1 1 0.0095956133484569779 1 1 1 0.011419305883573167 1 1 1 1 0.01365411350311335 1 1 1 0.0099251040109555218 1 1 1 1 1 1 1 0.010287197789832029 1 1 0.010160573766977002 1 1 1 0.015826027648592717 1 1 1 0.015261066711385645 1 1 1 1 0.0094682977138045195 1 1 1 0.009824223848523668 1 1 1 1 1 1 1 1 1 0.015907877105611857 1 1 1 1 1 1 1 1 1 0.015031332191882563 1 1 1 1 0.012075453314656641 1 1 0.012980656881638972 1 1 1 1 1 1 1 1 1 1 1 1 1 1 1 1 1 1 1 1 1 1 1 1 1 1 0.010046172254937041 1 1 1 1 1 1 1 1 1 1 1 0.010035528293649442 1 1 1 0.0097304534367319596 1 1 1 1 1 1 0.0098785703598679754 1 1 1 1 1 1 1 1 1 1 1 1 1 1 1 1 1 1 1 1 1 1 1 1 1 1 0.013948618468481307 1 0.0069682223700140728 1 1 0.01085878249851863 0.009170683153336058 1 1 1 1 1 1 1 1 1 1 1 1 1 1 1 1 1 0.011462219122955654 1 1 1 1 1 1 1 1 1 1 1 1 1 1 1 1 1 1 1 1 1 1 1 1 1 1 1 1 1 1 1 1 1 1 1 1 1 1 1 1 1 1 1 1 1 1 1 1 1 1 1 1 1 1 1 1 1 1 1 1 1 0.0095044070597563382 1 1 0.0087534920526691103 1 1 1 1 0.0080169482086118304 1 1 1 1 1 1 1 1 1 1 0.010002525237479819 1 0.015309695195413971 1 1 1 0.010711467097234728 1 1 1 0.0099868930310044908 1 0.0099458864860701868 1 1 1 0.010509616596558921 1 0.010074968538447285 1 0.010878351921668163 1 1 1 0.012180671594498123 1 1 1 1 0.010037115736731292 1 0.011279840887271905 1 1 1 1 1 0.011460168487212676 1 0.010006483206997775 0.0096626141094825653 1 1 1 1 1 1 0.01151912336964717 1 1 1 0.010008775610346705 1 1 1 1 1 1 1 1 1 1 1 1 1 1 1 1 1 1 1 0.0099920449613786315 1 1 1 0.011353643385953979 0.01005720174324062 1 1 1 1 1 0.010152596120142583 1 1 1 1 1 1 1 1 1 1 1 1 1 1 0.010980289422546091 1 1 0.011574991867917087 1 0.010794559250062771 1 1 1 0.0099846883943757285 1 0.010437258431810719 1 1 0.011581893059089498 1 1 1 1 1 1 1 1 1 1 1 0.011755716057190035 1 1 1 1 1 1 1 1 1 1 0.011723470509014434 0.01007696132271217 1 1 1 1 1 1 1 0.011207850376396817 1 1 1 1 1 1 1 1 1 1 1 1 1 1 0.010423970682929863 1 1 1 1 1 1 1 1 1 1 0.010334950030271545 1 1 1 0.010871373431401722 1 0.011178359229838921 0.010989580974449534 1 1 1 1 1 1 1 1 0.011716861699927503 1 1 1 1 1 1 1 1 1 0.010797171831922326 1 0.011523561807761026 1 0.0099009976178395052 1 1 1 1 1 1 1 1 0.010393126104610649 1 0.010793162401771014 1 1 1 1 1 1 0.0097784158783259557 1 1 0.010973342518901832 1 0.0095513014329248712 1 1 1 1 1 1 1 1 1 1 1 1 1 1 0.010603434597365962 1 1 1 1 1 1 1 1 1 1 0.010346487641426004 1 1 1 1 1 1 0.010161817722256949 1 1 1 1 1 1 1 1 1 1 1 1 1 1 1 1 1 1 1 1 1 1 1 1 1 0.010736388581724619 1 1 1 1 1 0.011967972070359018 1 1 1 1 1 1 1 1 1 1 1 0.010023221487053665 1 1 1 1 0.018575642834296923 1 1 1 1 1 0.018685749884826703 1 1 1 1 1 0.018210940655485612 1 1 0.017432214732468528 1 1 1 1 1 1 1 1 1 1 1 1 1 1 1 1 1 1 1 1 1 1 1 1 1 1 0.01067628494484143 1 1 0.010674482879509057 1 1 1 1 1 1 1 1 1 1 1 1 1 1 1 0.010165702820708675 1 1 1 1 1 1 1 1 1 0.010327520542965615 1 1 1 1 1 1 1 0.012838843357883222 1 1 1 1 1 0.010060215522049403 1 1 1 1 1 1 0.017730032083085941 1 1 1 1 0.016235881123448564 1 1 1 1 1 1 1 0.010036994034995739 1 1 0.013322563693478966 1 1 0.013001928807509068 1 1 1 1 0.014619329723806767 1 1 1 1 1 1 1 1 0.013263691358347185 1 1 0.01157897743045206 1 1 1 1 1 1 1 1 1 0.010453370163283035 1 1 1 1 1 0.010326347322955428 1 1 1 1 0.010630872849045143 1 1 1 0.011289235324793166 1 1 1 1 1 1 1 1 1 1 1 0.010636316139378077 0.010663468688327045 1 1 1 1 1 1 1 1 1 1 1 0.01063375283057998 1 1 1 1 1 0.012416188006180141 1 0.011407826417668222 0.0098411878385846231 1 0.011305261943773156 0.009859796307597566 1 1 0.0099791849116886485 1 1 1 1 1 1 0.012684252497772684 1 0.010821552032294263 0.010017048738827788 1 1 1 1 1 0.0099828863572356159 1 1 1 1 1 1 1 1 0.012594787145449425 1 1 1 1 0.010510559567919962 1 1 1 1 1 0.010110702897399777 1 1 0.01041581190271201 1 1 1 1 1 1 1 0.011438765355112342 1 0.0098218059165820736 1 1 1 1 1 1 1 0.011637923256982773 0.01065607779863055 1 1 1 1 1 1 1 0.01020271195093061 1 1 1 1 1 1 0.010550264795627092 1 1 1 1 1 1 1 1 1 1 1 1 1 1 0.011440298623803425 1 1 0.010494719240524895 1 1 1 1 0.010205408390701687 1 1 1 1 0.012724536006467642 1 1 1 1 1 1 0.013833080038578634 1 1 1 1 1 1 1 0.010083676468862365 1 1 1 0.011677059505818165 1 1 1 1 0.014336373775959584 1 1 0.011719630430591642 1 1 1 1 1 1 1 0.014352766633408606 1 1 1 1 0.014291889960072943 1 0.0099800950792008347 1 1 1 1 1 1 1 1 1 1 1 1 1 1 0.010996608146663856 1 1 1 1 1 1 1 0.011013249543782716 1 1 0.010612728245264739 1 1 0.010790284838045398 1 1 1 1 1 1 1 1 1 0.012621925067559088 1 1 1 0.011931989056106884 1 1 1 1 1 1 1 1 1 0.011210762096696993 1 1 1 1 1 1 1 1 1 1 1 0.0097938712759818823 1 1 1 0.0104184461622801 1 1 1 1 1 1 1 1 1 1 1 0.0092412970908221995 1 1 1 1 1 1 1 1 1 1 0.0085232194068291158 1 1 1 1 1 0.012551614562593988 1 1 1 1 1 1 1 1 0.010011122960983335 1 1 0.014462469479540585 1 1 0.013551906220251242 1 1 1 1 0.015240363290332282 0.0099081041619911367 1 1 1 1 0.012994466407749906 1 1 1 1 0.0099237469685412947 1 1 0.0099699391490946348 1 1 1 1 0.01111723255179888 1 1 0.010853714579603499 1 1 1 1 1 0.010596697857335389 1 1 1 1 1 1 1 1 0.012095750449895389 1 0.010008808972883877 1 1 1 1 1 1 1 1 1 0.010711573846651608 0.01123590892461648 1 1 1 1 1 1 0.01137310721185977 1 1 0.010336923447388437 1 1 0.010293638954620109 1 0.0099974314409307392 1 1 1 0.0096540182421007651 1 1 0.0099680738386711612 1 1 1 1 1 1 1 1 0.010811939439569844 0.010815308761235263 1 1 0.010005172479240175 0.012606271446286427 1 1 1 1 0.010469931442620529 1 1 1 0.011661178000741316 1 0.0092103765658808068 1 0.010274289366908414 0.01171871128696415 0.011069857684366226 1 0.0096213693692421762 1 1 1 0.0098964550032263673 1 1 1 1 1 1 1 1 1 0.013028214980052431 1 1 0.012747515642549754 1 1 1 1 1 1 0.0095586269165357143 1 1 1 1 1 1 0.0099531418391662733 0.0099395645465390689 0.0085296267694706315 1 1 1 1 1 1 1 1 1 1 1 0.0085378456670240563 1 1 1 1 0.012440751705740239 1 1 1 1 1 1 1 1 0.011887831103888949 1 1 0.0091522738728713089 1 1 1 0.01014938816023841 1 1 1 1 1 1 1 1 1 0.0099026961101743964 1 1 1 1 1 1 1 1 0.012782825167430638 1 1 1 0.013222590182766151 1 1 0.009997257989541453 1 1 1 0.0097314227186149575 1 0.011485480331123557 1 1 0.011190487585531364 1 0.011423458426749982 1 1 0.0099382189355221567 1 1 1 1 1 1 0.011517777967598768 1 1 0.0099562373142195373 1 1 1 1 1 1 1 1 1 1 1 1 1 1 1 1 1 1 1 1 1 1 1 1 1 1 1 1 1 1 1 1 1 1 1 1 1 1 1 1 1 1 1 1 1 1 1 1 1 1 1 1 1 1 1 1 1 1 1 1 1 1 1 1 1 1 1 1 1 1 1 1 1 1 1 1 1 1 1 1 1 1 1 1 1 1 1 1 1 1 1 1 1 1 1 1 0.0101194135340744 1 1 1 1 0.014578750052106437 1 1 1 1 1 1 1 1 1 1 1 1 0.010366846480421407 0.013813442171872175 1 1 1 1 1 1 1 1 1 1 1 1 1 1 1 0.010622881689113893 1 1 1 0.011772195062657538 1 1 1 1 1 1 1 1 1 1 0.014740098811333029 1 0.014108031575503466 1 1 1 1 1 1 1 1 1 1 1 1 1 1 1 1 1 1 1 1 1 1 1 1 0.010241147403039162 1 1 1 1 0.01056638041053702 1 1 1 1 1 1 1 1 0.010102115079040196 1 1 1 1 1 1 1 1 1 1 1 1 1 1 1 1 1 1 1 1 1 1 1 1 1 1 1 1 1 1 1 1 1 1 1 1 1 1 1 1 1 1 1 1 1 1 1 1 1 0.010460003361088491 1 1 1 1 1 1 1 1 1 1 1 1 1 1 1 1 1 1 1 1 1 1 1 1 1 1 1 1 1 1 1 1 0.012735136759942523 1 1 1 1 1 1 0.01280847564218833 1 1 1 1 1 1 0.010128056567494156 1 1 0.0098531206335160486 1 0.010365876162487001 1 0.0093191952696193986 1 1 1 1 0.011250824620426517 1 1 1 1 1 0.010103538422818383 1 1 1 0.0094671583153341475 0.0099835757659463356 1 1 1 0.012839985590681065 1 1 1 1 0.010250843495340466 0.010028770571820521 1 1 1 1 1 1 1 1 1 1 1 1 1 1 0.010159580789265675 1 1 0.011363589294694366 1 1 0.01004826170450354 0.012289297192381332 1 1 1 1 1 1 1 1 1 1 0.014925795200623511 1 0.015895045495821346 1 1 1 1 1 1 1 1 1 1 1 0.0120841080430957 1 1 1 1 1 1 1 0.013369330406947825 1 1 1 1 1 1 1 1 1 1 1 1 1 1 1 1 1 1 0.014365866916724784 0.016353594634268592 1 1 1 1 1 1 1 1 1 1 1 1 1 1 1 1 1 0.016394576768153701 1 1 1 1 1 1 1 1 1 0.010662104238234611 1 1 1 1 1 1 1 1 1 1 1 1 0.011597347453569318 1 1 1 1 0.0093321843833480064 1 0.016080306034265308 1 1 1 1 1 1 1 1 1 0.010996428861327873 1 1 1 1 0.01311943555603373 1 1 1 1 0.011082346769785163 1 0.010962546457060704 1 1 1 1 1 1 1 1 1 1 1 1 0.0097999584668521985 1 1 1 1 1 1 1 1 1 1 1 1 1 1 1 0.009750036294075972 1 0.012741932498781326 1 1 0.01183907404324345 1 1 1 0.0099995960857901176 1 0.0092660451871017496 1 1 0.0081942547334591543 1 1 0.010008313584183337 1 0.012518142211684374 1 1 1 1 1 1 1 0.0083857203865660267 0.007901147944205239 1 1 1 1 0.013349059690312175 0.016648357395257343 1 1 0.0091012922630189334 0.0091619701692017587 1 0.010490455269179286 1 1 0.010025288827619121 0.011003186127155343 1 1 0.011625287247096619 1 1 0.0084429076629446397 1 1 1 1 1 1 1 1 0.01186714606685672 1 1 0.013473595085899445 1 0.012982473386880989 1 1 1 0.010203216303961794 1 1 1 1 1 1 1 1 0.010252493130103322 1 1 1 1 1 1 1 1 1 1 1 1 1 1 1 1 1 1 1 1 1 1 0.010024022335069631 1 1 1 1 1 1 1 1 1 1 1 1 1 1 1 1 1 1 
</DataArray>
</CellData>
</Piece>
</UnstructuredGrid>
</VTKFile>
