<?xml version="1.0"?>
<VTKFile type="UnstructuredGrid" version="0.1" byte_order="LittleEndian">
<UnstructuredGrid>
<Piece NumberOfPoints="30578" NumberOfCells="10723">
<Points>
<DataArray type="Float64" NumberOfComponents="3" format="ascii">
-0.5 -0.5 0 -0.47439485679867832 -0.48072581506667478 0 -0.5 -0.44765434486020428 0 -0.5 -0.5 0 -0.47439485679867832 -0.48072581506667478 0 -0.43702443379937372 -0.49999999999999922 0 -0.47439485679867832 -0.48072581506667478 0 -0.45530669598391149 -0.47718009944797551 0 -0.43702443379937372 -0.49999999999999922 0 -0.47439485679867832 -0.48072581506667478 0 -0.45530669598391149 -0.47718009944797551 0 -0.4597353119515426 -0.45943449384344293 0 -0.45530669598391149 -0.47718009944797551 0 -0.44381084376742141 -0.47114793899167112 0 -0.4597353119515426 -0.45943449384344293 0 -0.45530669598391149 -0.47718009944797551 0 -0.44381084376742141 -0.47114793899167112 0 -0.43702443379937372 -0.49999999999999922 0 -0.44381084376742141 -0.47114793899167112 0 -0.43702443379937372 -0.49999999999999922 0 -0.45059725373546922 -0.44229587798334291 0 -0.4339166039271336 -0.43498117536117131 0 -0.43309128002320102 -0.45351235807576151 0 -0.44381084376742141 -0.47114793899167112 0 -0.45059725373546922 -0.44229587798334291 0 -0.4597353119515426 -0.45943449384344293 0 -0.44381084376742141 -0.47114793899167112 0 -0.45059725373546922 -0.44229587798334291 0 -0.43309128002320102 -0.45351235807576151 0 -0.44381084376742141 -0.47114793899167112 0 -0.45059725373546922 -0.44229587798334291 0 -0.4597353119515426 -0.45943449384344293 0 -0.47505511338101108 -0.44868394208069429 0 -0.46517432262153441 -0.43649963461163338 0 -0.45059725373546922 -0.44229587798334291 0 -0.4597353119515426 -0.45943449384344293 0 -0.46517432262153441 -0.43649963461163338 0 -0.47505511338101108 -0.44868394208069429 0 -0.47820614292347569 -0.42776699273468149 0 -0.46517432262153441 -0.43649963461163338 0 -0.47505511338101108 -0.44868394208069429 0 -0.47820614292347569 -0.42776699273468149 0 -0.47439485679867832 -0.48072581506667478 0 -0.47505511338101108 -0.44868394208069429 0 -0.5 -0.44765434486020428 0 -0.47439485679867832 -0.48072581506667478 0 -0.4597353119515426 -0.45943449384344293 0 -0.47505511338101108 -0.44868394208069429 0 -0.47505511338101108 -0.44868394208069429 0 -0.5 -0.44765434486020428 0 -0.47820614292347569 -0.42776699273468149 0 -0.5 -0.44765434486020428 0 -0.49656450065014057 -0.42151023988558672 0 -0.47820614292347569 -0.42776699273468149 0 -0.5 -0.44765434486020428 0 -0.49656450065014057 -0.42151023988558672 0 -0.50000000000000089 -0.37904661106745707 0 -0.49656450065014057 -0.42151023988558672 0 -0.48135717246594062 -0.40685004338866881 0 -0.47820614292347569 -0.42776699273468149 0 -0.49656450065014057 -0.42151023988558672 0 -0.48135717246594062 -0.40685004338866881 0 -0.48135717246594062 -0.40685004338866881 0 -0.47820614292347569 -0.42776699273468149 0 -0.48135717246594062 -0.40685004338866881 0 -0.47820614292347569 -0.42776699273468149 0 -0.45738366370351707 -0.41344381697501481 0 -0.49656450065014057 -0.42151023988558672 0 -0.48135717246594062 -0.40685004338866881 0 -0.50000000000000089 -0.37904661106745707 0 -0.50000000000000089 -0.37904661106745707 0 -0.48466894952205442 -0.38486603086372417 0 -0.48717439863114548 -0.36823452950912272 0 -0.48135717246594062 -0.40685004338866881 0 -0.50000000000000089 -0.37904661106745707 0 -0.48466894952205442 -0.38486603086372417 0 -0.48466894952205442 -0.38486603086372417 0 -0.48717439863114548 -0.36823452950912272 0 -0.50000000000000089 -0.37904661106745707 0 -0.48466894952205442 -0.38486603086372417 0 -0.48135717246594062 -0.40685004338866881 0 -0.48466894952205442 -0.38486603086372417 0 -0.46593083509403682 -0.39197871725165279 0 -0.48135717246594062 -0.40685004338866881 0 -0.48466894952205442 -0.38486603086372417 0 -0.48135717246594062 -0.40685004338866881 0 -0.46593083509403682 -0.39197871725165279 0 -0.48466894952205442 -0.38486603086372417 0 -0.47195833844942919 -0.37959069520904498 0 -0.46593083509403682 -0.39197871725165279 0 -0.48466894952205442 -0.38486603086372417 0 -0.46593083509403682 -0.39197871725165279 0 -0.48466894952205442 -0.38486603086372417 0 -0.47195833844942919 -0.37959069520904498 0 -0.48717439863114548 -0.36823452950912272 0 -0.46593083509403682 -0.39197871725165279 0 -0.44890944387521442 -0.39029302340116001 0 -0.45132291774153199 -0.37789636588759368 0 -0.47195833844942919 -0.37959069520904498 0 -0.46593083509403682 -0.39197871725165279 0 -0.45132291774153199 -0.37789636588759368 0 -0.46593083509403682 -0.39197871725165279 0 -0.45132291774153199 -0.37789636588759368 0 -0.48135717246594062 -0.40685004338866881 0 -0.46593083509403682 -0.39197871725165279 0 -0.45738366370351707 -0.41344381697501481 0 -0.46593083509403682 -0.39197871725165279 0 -0.44275815558040038 -0.40077469311046232 0 -0.45738366370351707 -0.41344381697501481 0 -0.46593083509403682 -0.39197871725165279 0 -0.44275815558040038 -0.40077469311046232 0 -0.46593083509403682 -0.39197871725165279 0 -0.44275815558040038 -0.40077469311046232 0 -0.44890944387521442 -0.39029302340116001 0 -0.44275815558040038 -0.40077469311046232 0 -0.44064580868350911 -0.39542861624611658 0 -0.44890944387521442 -0.39029302340116001 0 -0.44225344557501872 -0.38376649822575309 0 -0.45132291774153199 -0.37789636588759368 0 -0.43671500038902772 -0.36381401452353412 0 -0.44890944387521442 -0.39029302340116001 0 -0.44225344557501872 -0.38376649822575309 0 -0.45132291774153199 -0.37789636588759368 0 -0.44064580868350911 -0.39542861624611658 0 -0.44225344557501872 -0.38376649822575309 0 -0.43040194378266172 -0.3881600185019185 0 -0.44064580868350911 -0.39542861624611658 0 -0.44890944387521442 -0.39029302340116001 0 -0.44225344557501872 -0.38376649822575309 0 -0.47820614292347569 -0.42776699273468149 0 -0.46517432262153441 -0.43649963461163338 0 -0.45738366370351707 -0.41344381697501481 0 -0.45059725373546922 -0.44229587798334291 0 -0.45738366370351707 -0.41344381697501481 0 -0.45059725373546922 -0.44229587798334291 0 -0.46517432262153441 -0.43649963461163338 0 -0.45738366370351707 -0.41344381697501481 0 -0.44275815558040038 -0.40077469311046232 0 -0.45738366370351707 -0.41344381697501481 0 -0.44164244492799948 -0.42121090558557039 0 -0.45059725373546922 -0.44229587798334291 0 -0.45738366370351707 -0.41344381697501481 0 -0.44164244492799948 -0.42121090558557039 0 -0.45059725373546922 -0.44229587798334291 0 -0.44164244492799948 -0.42121090558557039 0 -0.4339166039271336 -0.43498117536117131 0 -0.4339166039271336 -0.43498117536117131 0 -0.42355654769347711 -0.414558964497861 0 -0.41671115160429401 -0.44095791049380378 0 -0.44164244492799948 -0.42121090558557039 0 -0.4339166039271336 -0.43498117536117131 0 -0.42355654769347711 -0.414558964497861 0 -0.44275815558040038 -0.40077469311046232 0 -0.44164244492799948 -0.42121090558557039 0 -0.42355654769347711 -0.414558964497861 0 -0.42355654769347711 -0.414558964497861 0 -0.41056920252370888 -0.3963363404412637 0 -0.40050668374064252 -0.41734442193795029 0 -0.42355654769347711 -0.414558964497861 0 -0.41671115160429401 -0.44095791049380378 0 -0.42355654769347711 -0.414558964497861 0 -0.40050668374064252 -0.41734442193795029 0 -0.41671115160429401 -0.44095791049380378 0 -0.44225344557501872 -0.38376649822575309 0 -0.43040194378266172 -0.3881600185019185 0 -0.43671500038902772 -0.36381401452353412 0 -0.43040194378266172 -0.3881600185019185 0 -0.43671500038902772 -0.36381401452353412 0 -0.44064580868350911 -0.39542861624611658 0 -0.42355654769347711 -0.414558964497861 0 -0.43040194378266172 -0.3881600185019185 0 -0.42355654769347711 -0.414558964497861 0 -0.43040194378266172 -0.3881600185019185 0 -0.44275815558040038 -0.40077469311046232 0 -0.44064580868350911 -0.39542861624611658 0 -0.42355654769347711 -0.414558964497861 0 -0.44064580868350911 -0.39542861624611658 0 -0.43040194378266172 -0.3881600185019185 0 -0.42355654769347711 -0.414558964497861 0 -0.43040194378266172 -0.3881600185019185 0 -0.41056920252370888 -0.3963363404412637 0 -0.43040194378266172 -0.3881600185019185 0 -0.4079689369259607 -0.37224253963894771 0 -0.43040194378266172 -0.3881600185019185 0 -0.41056920252370888 -0.3963363404412637 0 -0.4079689369259607 -0.37224253963894771 0 -0.41056920252370888 -0.3963363404412637 0 -0.39195929229331972 -0.37982250283040359 0 -0.4079689369259607 -0.37224253963894771 0 -0.41056920252370888 -0.3963363404412637 0 -0.39195929229331972 -0.37982250283040359 0 -0.39357845321732049 -0.39746174547711199 0 -0.41056920252370888 -0.3963363404412637 0 -0.39357845321732049 -0.39746174547711199 0 -0.40050668374064252 -0.41734442193795029 0 -0.39357845321732049 -0.39746174547711199 0 -0.38114412328536468 -0.40833987260765031 0 -0.36544727141479139 -0.39026932065168712 0 -0.39195929229331972 -0.37982250283040359 0 -0.37549160074202448 -0.3732971907138336 0 -0.36544727141479139 -0.39026932065168712 0 -0.39195929229331972 -0.37982250283040359 0 -0.39357845321732049 -0.39746174547711199 0 -0.36544727141479139 -0.39026932065168712 0 -0.40050668374064252 -0.41734442193795029 0 -0.3944977858259317 -0.43926335073686201 0 -0.41671115160429401 -0.44095791049380378 0 -0.40050668374064252 -0.41734442193795029 0 -0.38028594703985957 -0.42392304976487449 0 -0.3944977858259317 -0.43926335073686201 0 -0.39357845321732049 -0.39746174547711199 0 -0.40050668374064252 -0.41734442193795029 0 -0.38114412328536468 -0.40833987260765031 0 -0.40050668374064252 -0.41734442193795029 0 -0.38114412328536468 -0.40833987260765031 0 -0.38028594703985957 -0.42392304976487449 0 -0.38114412328536468 -0.40833987260765031 0 -0.38028594703985957 -0.42392304976487449 0 -0.36590226101420908 -0.41270082520662749 0 -0.38028594703985957 -0.42392304976487449 0 -0.3944977858259317 -0.43926335073686201 0 -0.3723601590800425 -0.44005613486137668 0 -0.3944977858259317 -0.43926335073686201 0 -0.38265619596279349 -0.45813348326120767 0 -0.3723601590800425 -0.44005613486137668 0 -0.40093272222703252 -0.45142790024540502 0 -0.3944977858259317 -0.43926335073686201 0 -0.38265619596279349 -0.45813348326120767 0 -0.40093272222703252 -0.45142790024540502 0 -0.3944977858259317 -0.43926335073686201 0 -0.41671115160429401 -0.44095791049380378 0 -0.38265619596279349 -0.45813348326120767 0 -0.40986575551511062 -0.46735685648974662 0 -0.38265619596279349 -0.45813348326120767 0 -0.39389470715733632 -0.47355095168427308 0 -0.40986575551511062 -0.46735685648974662 0 -0.40093272222703252 -0.45142790024540502 0 -0.38265619596279349 -0.45813348326120767 0 -0.40986575551511062 -0.46735685648974662 0 -0.38265619596279349 -0.45813348326120767 0 -0.38272382101637098 -0.47243968377412587 0 -0.39389470715733632 -0.47355095168427308 0 -0.38272382101637098 -0.47243968377412587 0 -0.38859428369766791 -0.48614630665141417 0 -0.36652141413456929 -0.48474993749143802 0 -0.38272382101637098 -0.47243968377412587 0 -0.38859428369766791 -0.48614630665141417 0 -0.39389470715733632 -0.47355095168427308 0 -0.37500484199342449 -0.5 0 -0.38859428369766791 -0.48614630665141417 0 -0.40140120367436599 -0.49999999999999611 0 -0.37500484199342449 -0.5 0 -0.38859428369766791 -0.48614630665141417 0 -0.36652141413456929 -0.48474993749143802 0 -0.38859428369766791 -0.48614630665141417 0 -0.40140120367436599 -0.49999999999999611 0 -0.40563347959473789 -0.48367842824487117 0 -0.40140120367436599 -0.49999999999999611 0 -0.40563347959473789 -0.48367842824487117 0 -0.40563347959473789 -0.48367842824487117 0 -0.39389470715733632 -0.47355095168427308 0 -0.40986575551511062 -0.46735685648974662 0 -0.38859428369766791 -0.48614630665141417 0 -0.40563347959473789 -0.48367842824487117 0 -0.39389470715733632 -0.47355095168427308 0 -0.40563347959473789 -0.48367842824487117 0 -0.40986575551511062 -0.46735685648974662 0 -0.42809744812538553 -0.47353695305504512 0 -0.40986575551511062 -0.46735685648974662 0 -0.4199949121527507 -0.4855396040697898 0 -0.42809744812538553 -0.47353695305504512 0 -0.40986575551511062 -0.46735685648974662 0 -0.40563347959473789 -0.48367842824487117 0 -0.4199949121527507 -0.4855396040697898 0 -0.40986575551511062 -0.46735685648974662 0 -0.40563347959473789 -0.48367842824487117 0 -0.4199949121527507 -0.4855396040697898 0 -0.41921281873686977 -0.5 0 -0.40140120367436599 -0.49999999999999611 0 -0.40563347959473789 -0.48367842824487117 0 -0.41921281873686977 -0.5 0 -0.4199949121527507 -0.4855396040697898 0 -0.41921281873686977 -0.5 0 -0.43702443379937372 -0.49999999999999922 0 -0.4199949121527507 -0.4855396040697898 0 -0.43702443379937372 -0.49999999999999922 0 -0.42809744812538553 -0.47353695305504512 0 -0.44381084376742141 -0.47114793899167112 0 -0.43702443379937372 -0.49999999999999922 0 -0.42809744812538553 -0.47353695305504512 0 -0.42809744812538553 -0.47353695305504512 0 -0.42194140881699782 -0.45884101952858919 0 -0.43309128002320102 -0.45351235807576151 0 -0.44381084376742141 -0.47114793899167112 0 -0.42809744812538553 -0.47353695305504512 0 -0.43309128002320102 -0.45351235807576151 0 -0.4339166039271336 -0.43498117536117131 0 -0.43309128002320102 -0.45351235807576151 0 -0.41671115160429401 -0.44095791049380378 0 -0.42194140881699782 -0.45884101952858919 0 -0.43309128002320102 -0.45351235807576151 0 -0.41671115160429401 -0.44095791049380378 0 -0.42194140881699782 -0.45884101952858919 0 -0.41671115160429401 -0.44095791049380378 0 -0.40986575551511062 -0.46735685648974662 0 -0.41671115160429401 -0.44095791049380378 0 -0.40986575551511062 -0.46735685648974662 0 -0.40093272222703252 -0.45142790024540502 0 -0.41671115160429401 -0.44095791049380378 0 -0.40986575551511062 -0.46735685648974662 0 -0.42809744812538553 -0.47353695305504512 0 -0.42194140881699782 -0.45884101952858919 0 -0.40986575551511062 -0.46735685648974662 0 -0.45828666285701658 -0.26028432573271792 0 -0.43487007995442373 -0.25384069753834382 0 -0.45658005330295048 -0.2439827770756183 0 -0.43864273500925549 -0.2751587481676856 0 -0.45828666285701658 -0.26028432573271792 0 -0.43487007995442373 -0.25384069753834382 0 -0.43864273500925549 -0.2751587481676856 0 -0.45645423860141388 -0.27827293425430932 0 -0.45828666285701658 -0.26028432573271792 0 -0.43864273500925549 -0.2751587481676856 0 -0.45828666285701658 -0.26028432573271792 0 -0.45645423860141388 -0.27827293425430932 0 -0.47869064668718631 -0.2683854874950159 0 -0.47091363495918082 -0.28947603344621109 0 -0.45645423860141388 -0.27827293425430932 0 -0.45828666285701658 -0.26028432573271792 0 -0.47869064668718631 -0.2683854874950159 0 -0.45828666285701658 -0.26028432573271792 0 -0.47793059070477772 -0.24540990329775009 0 -0.45828666285701658 -0.26028432573271792 0 -0.47869064668718631 -0.2683854874950159 0 -0.47793059070477772 -0.24540990329775009 0 -0.4872249908214738 -0.25598993182963242 0 -0.47869064668718631 -0.2683854874950159 0 -0.47793059070477772 -0.24540990329775009 0 -0.4872249908214738 -0.25598993182963242 0 -0.5 -0.25006354863638108 0 -0.5 -0.27586016112259643 0 -0.4872249908214738 -0.25598993182963242 0 -0.5 -0.25006354863638108 0 -0.49068252501969761 -0.24549971615663649 0 -0.4872249908214738 -0.25598993182963242 0 -0.5 -0.27586016112259643 0 -0.47869064668718631 -0.2683854874950159 0 -0.5 -0.27586016112259643 0 -0.47869064668718631 -0.2683854874950159 0 -0.48721788021035761 -0.2882082846164955 0 -0.47869064668718631 -0.2683854874950159 0 -0.47091363495918082 -0.28947603344621109 0 -0.48721788021035761 -0.2882082846164955 0 -0.47091363495918082 -0.28947603344621109 0 -0.48721788021035761 -0.2882082846164955 0 -0.48161809245015419 -0.30465866835107641 0 -0.5 -0.27586016112259643 0 -0.48721788021035761 -0.2882082846164955 0 -0.5 -0.3016567736088116 0 -0.48721788021035761 -0.2882082846164955 0 -0.5 -0.3016567736088116 0 -0.48161809245015419 -0.30465866835107641 0 -0.5 -0.3016567736088116 0 -0.48161809245015419 -0.30465866835107641 0 -0.5 -0.32745338609502678 0 -0.47091363495918082 -0.28947603344621109 0 -0.48161809245015419 -0.30465866835107641 0 -0.45879166701778518 -0.3036258058313378 0 -0.48161809245015419 -0.30465866835107641 0 -0.45879166701778518 -0.3036258058313378 0 -0.47638885418803739 -0.32253493654140952 0 -0.45645423860141388 -0.27827293425430932 0 -0.47091363495918082 -0.28947603344621109 0 -0.45879166701778518 -0.3036258058313378 0 -0.45645423860141388 -0.27827293425430932 0 -0.45879166701778518 -0.3036258058313378 0 -0.43905227881958647 -0.29505920944709452 0 -0.43864273500925549 -0.2751587481676856 0 -0.45645423860141388 -0.27827293425430932 0 -0.43905227881958647 -0.29505920944709452 0 -0.45879166701778518 -0.3036258058313378 0 -0.43905227881958647 -0.29505920944709452 0 -0.4399695753826649 -0.31139282438396382 0 -0.4399695753826649 -0.31139282438396382 0 -0.45223868162566522 -0.32343332413938758 0 -0.42808850906329299 -0.32433171173736591 0 -0.45879166701778518 -0.3036258058313378 0 -0.4399695753826649 -0.31139282438396382 0 -0.45223868162566522 -0.32343332413938758 0 -0.45223868162566522 -0.32343332413938758 0 -0.42808850906329299 -0.32433171173736591 0 -0.45223868162566522 -0.32343332413938758 0 -0.44207286924452832 -0.33783824796895978 0 -0.46140244920768408 -0.33754740415941759 0 -0.44207286924452832 -0.33783824796895978 0 -0.46140244920768408 -0.33754740415941759 0 -0.45117994904742642 -0.3486532256997657 0 -0.45223868162566522 -0.32343332413938758 0 -0.44207286924452832 -0.33783824796895978 0 -0.42808850906329299 -0.32433171173736591 0 -0.45879166701778518 -0.3036258058313378 0 -0.45223868162566522 -0.32343332413938758 0 -0.47638885418803739 -0.32253493654140952 0 -0.45223868162566522 -0.32343332413938758 0 -0.46140244920768408 -0.33754740415941759 0 -0.47638885418803739 -0.32253493654140952 0 -0.45223868162566522 -0.32343332413938758 0 -0.47638885418803739 -0.32253493654140952 0 -0.48161809245015419 -0.30465866835107641 0 -0.47638885418803739 -0.32253493654140952 0 -0.5 -0.32745338609502678 0 -0.47638885418803739 -0.32253493654140952 0 -0.5 -0.32745338609502678 0 -0.48104103145021149 -0.34129537751375599 0 -0.5 -0.32745338609502678 0 -0.48104103145021149 -0.34129537751375599 0 -0.5 -0.35324999858124201 0 -0.46140244920768408 -0.33754740415941759 0 -0.48104103145021149 -0.34129537751375599 0 -0.46549330969023639 -0.35152931309322771 0 -0.46140244920768408 -0.33754740415941759 0 -0.47638885418803739 -0.32253493654140952 0 -0.48104103145021149 -0.34129537751375599 0 -0.48104103145021149 -0.34129537751375599 0 -0.48025743214923627 -0.35616585996071459 0 -0.46549330969023639 -0.35152931309322771 0 -0.48025743214923627 -0.35616585996071459 0 -0.46757842097458802 -0.36652008110622503 0 -0.46549330969023639 -0.35152931309322771 0 -0.48025743214923627 -0.35616585996071459 0 -0.5 -0.35324999858124201 0 -0.48717439863114548 -0.36823452950912272 0 -0.48104103145021149 -0.34129537751375599 0 -0.48025743214923627 -0.35616585996071459 0 -0.5 -0.35324999858124201 0 -0.50000000000000089 -0.37904661106745707 0 -0.5 -0.35324999858124201 0 -0.48717439863114548 -0.36823452950912272 0 -0.47195833844942919 -0.37959069520904498 0 -0.48717439863114548 -0.36823452950912272 0 -0.46757842097458802 -0.36652008110622503 0 -0.48025743214923627 -0.35616585996071459 0 -0.48717439863114548 -0.36823452950912272 0 -0.46757842097458802 -0.36652008110622503 0 -0.45132291774153199 -0.37789636588759368 0 -0.46757842097458802 -0.36652008110622503 0 -0.45216690816074923 -0.36231126303824313 0 -0.47195833844942919 -0.37959069520904498 0 -0.45132291774153199 -0.37789636588759368 0 -0.46757842097458802 -0.36652008110622503 0 -0.46757842097458802 -0.36652008110622503 0 -0.46549330969023639 -0.35152931309322771 0 -0.45216690816074923 -0.36231126303824313 0 -0.46140244920768408 -0.33754740415941759 0 -0.46549330969023639 -0.35152931309322771 0 -0.45117994904742642 -0.3486532256997657 0 -0.46549330969023639 -0.35152931309322771 0 -0.45117994904742642 -0.3486532256997657 0 -0.45216690816074923 -0.36231126303824313 0 -0.44599028472907742 -0.35554349803526408 0 -0.45117994904742642 -0.3486532256997657 0 -0.45216690816074923 -0.36231126303824313 0 -0.44599028472907742 -0.35554349803526408 0 -0.45117994904742642 -0.3486532256997657 0 -0.44228407783080631 -0.34851364977492799 0 -0.44207286924452832 -0.33783824796895978 0 -0.44228407783080631 -0.34851364977492799 0 -0.43394442261003058 -0.34546672586134508 0 -0.44228407783080631 -0.34851364977492799 0 -0.43858436747801349 -0.35660488883003821 0 -0.43394442261003058 -0.34546672586134508 0 -0.44207286924452832 -0.33783824796895978 0 -0.45117994904742642 -0.3486532256997657 0 -0.44228407783080631 -0.34851364977492799 0 -0.44599028472907742 -0.35554349803526408 0 -0.44228407783080631 -0.34851364977492799 0 -0.43858436747801349 -0.35660488883003821 0 -0.44599028472907742 -0.35554349803526408 0 -0.43858436747801349 -0.35660488883003821 0 -0.43671500038902772 -0.36381401452353412 0 -0.43858436747801349 -0.35660488883003821 0 -0.43671500038902772 -0.36381401452353412 0 -0.44599028472907742 -0.35554349803526408 0 -0.45216690816074923 -0.36231126303824313 0 -0.43671500038902772 -0.36381401452353412 0 -0.45132291774153199 -0.37789636588759368 0 -0.43671500038902772 -0.36381401452353412 0 -0.45132291774153199 -0.37789636588759368 0 -0.45216690816074923 -0.36231126303824313 0 -0.43671500038902772 -0.36381401452353412 0 -0.43040194378266172 -0.3881600185019185 0 -0.43671500038902772 -0.36381401452353412 0 -0.4079689369259607 -0.37224253963894771 0 -0.43858436747801349 -0.35660488883003821 0 -0.43671500038902772 -0.36381401452353412 0 -0.41901032175007979 -0.34674631764622038 0 -0.43671500038902772 -0.36381401452353412 0 -0.41901032175007979 -0.34674631764622038 0 -0.43858436747801349 -0.35660488883003821 0 -0.43394442261003058 -0.34546672586134508 0 -0.41901032175007979 -0.34674631764622038 0 -0.41901032175007979 -0.34674631764622038 0 -0.4079689369259607 -0.37224253963894771 0 -0.40160491304204049 -0.35527610236370899 0 -0.43671500038902772 -0.36381401452353412 0 -0.41901032175007979 -0.34674631764622038 0 -0.4079689369259607 -0.37224253963894771 0 -0.4079689369259607 -0.37224253963894771 0 -0.38553593006925752 -0.3563250607759802 0 -0.4079689369259607 -0.37224253963894771 0 -0.38553593006925752 -0.3563250607759802 0 -0.40160491304204049 -0.35527610236370899 0 -0.39195929229331972 -0.37982250283040359 0 -0.4079689369259607 -0.37224253963894771 0 -0.38553593006925752 -0.3563250607759802 0 -0.39195929229331972 -0.37982250283040359 0 -0.37549160074202448 -0.3732971907138336 0 -0.38553593006925752 -0.3563250607759802 0 -0.37549160074202448 -0.3732971907138336 0 -0.38553593006925752 -0.3563250607759802 0 -0.38553593006925752 -0.3563250607759802 0 -0.36666079927166728 -0.34293209489202431 0 -0.38553593006925752 -0.3563250607759802 0 -0.39342078659019603 -0.34300184077244372 0 -0.38006824781918919 -0.33243312042550199 0 -0.38553593006925752 -0.3563250607759802 0 -0.38006824781918919 -0.33243312042550199 0 -0.36666079927166728 -0.34293209489202431 0 -0.38553593006925752 -0.3563250607759802 0 -0.39342078659019603 -0.34300184077244372 0 -0.41901032175007979 -0.34674631764622038 0 -0.40160491304204049 -0.35527610236370899 0 -0.39342078659019603 -0.34300184077244372 0 -0.38553593006925752 -0.3563250607759802 0 -0.40160491304204049 -0.35527610236370899 0 -0.39342078659019603 -0.34300184077244372 0 -0.41901032175007979 -0.34674631764622038 0 -0.40130564311113259 -0.32967862076890581 0 -0.39342078659019603 -0.34300184077244372 0 -0.40130564311113259 -0.32967862076890581 0 -0.39064670272592411 -0.32967160323888278 0 -0.39342078659019603 -0.34300184077244372 0 -0.40130564311113259 -0.32967862076890581 0 -0.39342078659019603 -0.34300184077244372 0 -0.39064670272592411 -0.32967160323888278 0 -0.39342078659019603 -0.34300184077244372 0 -0.38006824781918919 -0.33243312042550199 0 -0.38006824781918919 -0.33243312042550199 0 -0.38935907146989862 -0.31816186479418052 0 -0.37140736883531977 -0.32183989730859341 0 -0.38935907146989862 -0.31816186479418052 0 -0.38351210912712752 -0.30253866195360818 0 -0.37140736883531977 -0.32183989730859341 0 -0.39064670272592411 -0.32967160323888278 0 -0.38006824781918919 -0.33243312042550199 0 -0.38935907146989862 -0.31816186479418052 0 -0.38935907146989862 -0.31816186479418052 0 -0.401514660155255 -0.31819685637317691 0 -0.39554973675391708 -0.30949047449279188 0 -0.40130564311113259 -0.32967862076890581 0 -0.38935907146989862 -0.31816186479418052 0 -0.40130564311113259 -0.32967862076890581 0 -0.38935907146989862 -0.31816186479418052 0 -0.39962023335203928 -0.32539073298322901 0 -0.38935907146989862 -0.31816186479418052 0 -0.39962023335203928 -0.32539073298322901 0 -0.401514660155255 -0.31819685637317691 0 -0.40130564311113259 -0.32967862076890581 0 -0.39064670272592411 -0.32967160323888278 0 -0.38935907146989862 -0.31816186479418052 0 -0.40130564311113259 -0.32967862076890581 0 -0.39962023335203928 -0.32539073298322901 0 -0.4039383365009207 -0.3252300993353433 0 -0.39962023335203928 -0.32539073298322901 0 -0.4039383365009207 -0.3252300993353433 0 -0.39962023335203928 -0.32539073298322901 0 -0.4039383365009207 -0.3252300993353433 0 -0.401514660155255 -0.31819685637317691 0 -0.40130564311113259 -0.32967862076890581 0 -0.4039383365009207 -0.3252300993353433 0 -0.401514660155255 -0.31819685637317691 0 -0.4088463285069534 -0.31693695448250642 0 -0.4053668684804122 -0.3086126184714344 0 -0.4039383365009207 -0.3252300993353433 0 -0.401514660155255 -0.31819685637317691 0 -0.4088463285069534 -0.31693695448250642 0 -0.4039383365009207 -0.3252300993353433 0 -0.42808850906329299 -0.32433171173736591 0 -0.4088463285069534 -0.31693695448250642 0 -0.42808850906329299 -0.32433171173736591 0 -0.41503252140001728 -0.31110728079830707 0 -0.4039383365009207 -0.3252300993353433 0 -0.4088463285069534 -0.31693695448250642 0 -0.42808850906329299 -0.32433171173736591 0 -0.4039383365009207 -0.3252300993353433 0 -0.41609663568284688 -0.33258428014908531 0 -0.42808850906329299 -0.32433171173736591 0 -0.4039383365009207 -0.3252300993353433 0 -0.4088463285069534 -0.31693695448250642 0 -0.40130564311113259 -0.32967862076890581 0 -0.4039383365009207 -0.3252300993353433 0 -0.41609663568284688 -0.33258428014908531 0 -0.41901032175007979 -0.34674631764622038 0 -0.40130564311113259 -0.32967862076890581 0 -0.41609663568284688 -0.33258428014908531 0 -0.41901032175007979 -0.34674631764622038 0 -0.40130564311113259 -0.32967862076890581 0 -0.41901032175007979 -0.34674631764622038 0 -0.41609663568284688 -0.33258428014908531 0 -0.42777047674672519 -0.33763052508657909 0 -0.41609663568284688 -0.33258428014908531 0 -0.42777047674672519 -0.33763052508657909 0 -0.42808850906329299 -0.32433171173736591 0 -0.43394442261003058 -0.34546672586134508 0 -0.41901032175007979 -0.34674631764622038 0 -0.42777047674672519 -0.33763052508657909 0 -0.44207286924452832 -0.33783824796895978 0 -0.43394442261003058 -0.34546672586134508 0 -0.42777047674672519 -0.33763052508657909 0 -0.44207286924452832 -0.33783824796895978 0 -0.42777047674672519 -0.33763052508657909 0 -0.42808850906329299 -0.32433171173736591 0 -0.4399695753826649 -0.31139282438396382 0 -0.42808850906329299 -0.32433171173736591 0 -0.42349591428063971 -0.31031667424466408 0 -0.42808850906329299 -0.32433171173736591 0 -0.42349591428063971 -0.31031667424466408 0 -0.41503252140001728 -0.31110728079830707 0 -0.43905227881958647 -0.29505920944709452 0 -0.42349591428063971 -0.31031667424466408 0 -0.41899880716149451 -0.29003317060265321 0 -0.43905227881958647 -0.29505920944709452 0 -0.4399695753826649 -0.31139282438396382 0 -0.42349591428063971 -0.31031667424466408 0 -0.43864273500925549 -0.2751587481676856 0 -0.43905227881958647 -0.29505920944709452 0 -0.41899880716149451 -0.29003317060265321 0 -0.43864273500925549 -0.2751587481676856 0 -0.41899880716149451 -0.29003317060265321 0 -0.41649742047364408 -0.2919272257303569 0 -0.41502826726935188 -0.28951283527362931 0 -0.41151645216318689 -0.29124877083691719 0 -0.41899880716149451 -0.29003317060265321 0 -0.41649742047364408 -0.2919272257303569 0 -0.41502826726935188 -0.28951283527362931 0 -0.41899880716149451 -0.29003317060265321 0 -0.41649742047364408 -0.2919272257303569 0 -0.41899880716149451 -0.29003317060265321 0 -0.41502826726935188 -0.28951283527362931 0 -0.41310038927908221 -0.28484217392458988 0 -0.41310038927908221 -0.28484217392458988 0 -0.40629814920556201 -0.2872410904076857 0 -0.40433064532645308 -0.27892106023783952 0 -0.41502826726935188 -0.28951283527362931 0 -0.41310038927908221 -0.28484217392458988 0 -0.41151645216318689 -0.29124877083691719 0 -0.41310038927908221 -0.28484217392458988 0 -0.40629814920556201 -0.2872410904076857 0 -0.41151645216318689 -0.29124877083691719 0 -0.41649742047364408 -0.2919272257303569 0 -0.41151645216318689 -0.29124877083691719 0 -0.41283916949633909 -0.29890888486812428 0 -0.40629814920556201 -0.2872410904076857 0 -0.41151645216318689 -0.29124877083691719 0 -0.4052488046064433 -0.29379102377099447 0 -0.41151645216318689 -0.29124877083691719 0 -0.41283916949633909 -0.29890888486812428 0 -0.4052488046064433 -0.29379102377099447 0 -0.42349591428063971 -0.31031667424466408 0 -0.41899880716149451 -0.29003317060265321 0 -0.42349591428063971 -0.31031667424466408 0 -0.41649742047364408 -0.2919272257303569 0 -0.41283916949633909 -0.29890888486812428 0 -0.42349591428063971 -0.31031667424466408 0 -0.41899880716149451 -0.29003317060265321 0 -0.41649742047364408 -0.2919272257303569 0 -0.40711072979061191 -0.30081998795009107 0 -0.41283916949633909 -0.29890888486812428 0 -0.4052488046064433 -0.29379102377099447 0 -0.40711072979061191 -0.30081998795009107 0 -0.41283916949633909 -0.29890888486812428 0 -0.41256685577174013 -0.30556786269479153 0 -0.42349591428063971 -0.31031667424466408 0 -0.41283916949633909 -0.29890888486812428 0 -0.41256685577174013 -0.30556786269479153 0 -0.42349591428063971 -0.31031667424466408 0 -0.41503252140001728 -0.31110728079830707 0 -0.41256685577174013 -0.30556786269479153 0 -0.4088463285069534 -0.31693695448250642 0 -0.41503252140001728 -0.31110728079830707 0 -0.4053668684804122 -0.3086126184714344 0 -0.41503252140001728 -0.31110728079830707 0 -0.41256685577174013 -0.30556786269479153 0 -0.4053668684804122 -0.3086126184714344 0 -0.40711072979061191 -0.30081998795009107 0 -0.41256685577174013 -0.30556786269479153 0 -0.4053668684804122 -0.3086126184714344 0 -0.401514660155255 -0.31819685637317691 0 -0.4053668684804122 -0.3086126184714344 0 -0.39554973675391708 -0.30949047449279188 0 -0.4053668684804122 -0.3086126184714344 0 -0.39799597453689262 -0.29994237087155962 0 -0.39554973675391708 -0.30949047449279188 0 -0.40711072979061191 -0.30081998795009107 0 -0.4053668684804122 -0.3086126184714344 0 -0.39799597453689262 -0.29994237087155962 0 -0.40711072979061191 -0.30081998795009107 0 -0.39799597453689262 -0.29994237087155962 0 -0.4052488046064433 -0.29379102377099447 0 -0.39799597453689262 -0.29994237087155962 0 -0.39554973675391708 -0.30949047449279188 0 -0.38351210912712752 -0.30253866195360818 0 -0.38935907146989862 -0.31816186479418052 0 -0.39554973675391708 -0.30949047449279188 0 -0.38351210912712752 -0.30253866195360818 0 -0.38351210912712752 -0.30253866195360818 0 -0.3950660262777419 -0.28803976586637831 0 -0.37433096522584453 -0.28132989654828328 0 -0.39799597453689262 -0.29994237087155962 0 -0.38351210912712752 -0.30253866195360818 0 -0.3950660262777419 -0.28803976586637831 0 -0.39799597453689262 -0.29994237087155962 0 -0.3950660262777419 -0.28803976586637831 0 -0.4052488046064433 -0.29379102377099447 0 -0.40629814920556201 -0.2872410904076857 0 -0.3950660262777419 -0.28803976586637831 0 -0.4052488046064433 -0.29379102377099447 0 -0.40629814920556201 -0.2872410904076857 0 -0.3950660262777419 -0.28803976586637831 0 -0.40433064532645308 -0.27892106023783952 0 -0.40433064532645308 -0.27892106023783952 0 -0.39374553591587069 -0.27251425727467649 0 -0.41316010660589619 -0.2636986180010682 0 -0.39374553591587069 -0.27251425727467649 0 -0.41316010660589619 -0.2636986180010682 0 -0.3950660262777419 -0.28803976586637831 0 -0.40433064532645308 -0.27892106023783952 0 -0.39374553591587069 -0.27251425727467649 0 -0.39374553591587069 -0.27251425727467649 0 -0.37433096522584453 -0.28132989654828328 0 -0.3950660262777419 -0.28803976586637831 0 -0.39374553591587069 -0.27251425727467649 0 -0.37433096522584453 -0.28132989654828328 0 -0.39374553591587069 -0.27251425727467649 0 -0.37648826808451968 -0.27741199289956509 0 -0.37433096522584453 -0.28132989654828328 0 -0.39374553591587069 -0.27251425727467649 0 -0.37598097480723441 -0.26745556380373348 0 -0.38363075469537122 -0.26088114511686322 0 -0.39374553591587069 -0.27251425727467649 0 -0.37598097480723441 -0.26745556380373348 0 -0.37648826808451968 -0.27741199289956509 0 -0.37598097480723441 -0.26745556380373348 0 -0.37648826808451968 -0.27741199289956509 0 -0.37277902062147272 -0.27405557492128901 0 -0.37648826808451968 -0.27741199289956509 0 -0.37433096522584453 -0.28132989654828328 0 -0.38363075469537122 -0.26088114511686322 0 -0.37393540655460039 -0.25504906339868932 0 -0.38258347849844832 -0.24967798674395081 0 -0.37598097480723441 -0.26745556380373348 0 -0.38363075469537122 -0.26088114511686322 0 -0.37393540655460039 -0.25504906339868932 0 -0.38363075469537122 -0.26088114511686322 0 -0.3945867816951415 -0.25828321704239809 0 -0.38258347849844832 -0.24967798674395081 0 -0.3945867816951415 -0.25828321704239809 0 -0.3933004523496676 -0.24484402304582939 0 -0.38258347849844832 -0.24967798674395081 0 -0.39374553591587069 -0.27251425727467649 0 -0.3945867816951415 -0.25828321704239809 0 -0.41316010660589619 -0.2636986180010682 0 -0.3945867816951415 -0.25828321704239809 0 -0.41316010660589619 -0.2636986180010682 0 -0.40847937369743209 -0.24258689873782929 0 -0.39374553591587069 -0.27251425727467649 0 -0.38363075469537122 -0.26088114511686322 0 -0.3945867816951415 -0.25828321704239809 0 -0.41316010660589619 -0.2636986180010682 0 -0.42931567121415071 -0.25028064732030619 0 -0.40847937369743209 -0.24258689873782929 0 -0.41316010660589619 -0.2636986180010682 0 -0.40847937369743209 -0.24258689873782929 0 -0.41899880716149451 -0.29003317060265321 0 -0.41310038927908221 -0.28484217392458988 0 -0.41316010660589619 -0.2636986180010682 0 -0.41310038927908221 -0.28484217392458988 0 -0.40433064532645308 -0.27892106023783952 0 -0.41316010660589619 -0.2636986180010682 0 -0.41899880716149451 -0.29003317060265321 0 -0.41316010660589619 -0.2636986180010682 0 -0.42551969657153998 -0.27199364899169498 0 -0.41899880716149451 -0.29003317060265321 0 -0.41316010660589619 -0.2636986180010682 0 -0.43864273500925549 -0.2751587481676856 0 -0.42551969657153998 -0.27199364899169498 0 -0.43487007995442373 -0.25384069753834382 0 -0.43864273500925549 -0.2751587481676856 0 -0.41899880716149451 -0.29003317060265321 0 -0.42551969657153998 -0.27199364899169498 0 -0.41316010660589619 -0.2636986180010682 0 -0.43487007995442373 -0.25384069753834382 0 -0.41316010660589619 -0.2636986180010682 0 -0.42551969657153998 -0.27199364899169498 0 -0.43487007995442373 -0.25384069753834382 0 -0.41316010660589619 -0.2636986180010682 0 -0.43487007995442373 -0.25384069753834382 0 -0.42931567121415071 -0.25028064732030619 0 -0.32316489217708799 -0.25890650528201359 0 -0.32888695585781391 -0.26910619260742191 0 -0.31032083431566337 -0.26180085087236171 0 -0.32316489217708799 -0.25890650528201359 0 -0.32888695585781391 -0.26910619260742191 0 -0.33131030172746923 -0.25321851497678438 0 -0.32888695585781391 -0.26910619260742191 0 -0.31032083431566337 -0.26180085087236171 0 -0.32316489217708799 -0.25890650528201359 0 -0.33131030172746923 -0.25321851497678438 0 -0.32202724095639168 -0.2495658441092535 0 -0.32316489217708799 -0.25890650528201359 0 -0.31032083431566337 -0.26180085087236171 0 -0.32202724095639168 -0.2495658441092535 0 -0.31032083431566337 -0.26180085087236171 0 -0.32202724095639168 -0.2495658441092535 0 -0.31283906540333922 -0.25031215033235238 0 -0.31032083431566337 -0.26180085087236171 0 -0.32202724095639168 -0.2495658441092535 0 -0.31480478096024378 -0.27564718726691712 0 -0.32888695585781391 -0.26910619260742191 0 -0.31032083431566337 -0.26180085087236171 0 -0.31480478096024378 -0.27564718726691712 0 -0.32888695585781391 -0.26910619260742191 0 -0.32507396769595592 -0.29410449247197662 0 -0.32888695585781391 -0.26910619260742191 0 -0.3381311227387106 -0.26238754928509761 0 -0.34453036853746388 -0.27526151563856671 0 -0.32888695585781391 -0.26910619260742191 0 -0.34453036853746388 -0.27526151563856671 0 -0.33279411355556121 -0.28213246275860349 0 -0.32888695585781391 -0.26910619260742191 0 -0.34453036853746388 -0.27526151563856671 0 -0.34453036853746388 -0.27526151563856671 0 -0.34450588037081892 -0.28462367662190302 0 -0.33279411355556121 -0.28213246275860349 0 -0.32888695585781391 -0.26910619260742191 0 -0.33131030172746923 -0.25321851497678438 0 -0.32888695585781391 -0.26910619260742191 0 -0.3381311227387106 -0.26238754928509761 0 -0.33131030172746923 -0.25321851497678438 0 -0.3381311227387106 -0.26238754928509761 0 -0.34897267059429732 -0.25990550268967838 0 -0.3420777495351906 -0.24844208584564559 0 -0.3381311227387106 -0.26238754928509761 0 -0.33131030172746923 -0.25321851497678438 0 -0.3420777495351906 -0.24844208584564559 0 -0.34897267059429732 -0.25990550268967838 0 -0.35255150303394622 -0.24812522560144931 0 -0.3420777495351906 -0.24844208584564559 0 -0.34897267059429732 -0.25990550268967838 0 -0.35751050643918753 -0.2560897164936603 0 -0.35722060467742811 -0.26762499714769428 0 -0.34897267059429732 -0.25990550268967838 0 -0.35751050643918753 -0.2560897164936603 0 -0.35255150303394622 -0.24812522560144931 0 -0.35751050643918753 -0.2560897164936603 0 -0.363557814049559 -0.2486896754833777 0 -0.35255150303394622 -0.24812522560144931 0 -0.35751050643918753 -0.2560897164936603 0 -0.36561260290989678 -0.26128521942254013 0 -0.363557814049559 -0.2486896754833777 0 -0.35751050643918753 -0.2560897164936603 0 -0.36561260290989678 -0.26128521942254013 0 -0.35722060467742811 -0.26762499714769428 0 -0.37598097480723441 -0.26745556380373348 0 -0.36561260290989678 -0.26128521942254013 0 -0.37393540655460039 -0.25504906339868932 0 -0.36561260290989678 -0.26128521942254013 0 -0.37393540655460039 -0.25504906339868932 0 -0.363557814049559 -0.2486896754833777 0 -0.37277902062147272 -0.27405557492128901 0 -0.36654922363893422 -0.27215591673696138 0 -0.37433096522584453 -0.28132989654828328 0 -0.37648826808451968 -0.27741199289956509 0 -0.37277902062147272 -0.27405557492128901 0 -0.37433096522584453 -0.28132989654828328 0 -0.37598097480723441 -0.26745556380373348 0 -0.37277902062147272 -0.27405557492128901 0 -0.36654922363893422 -0.27215591673696138 0 -0.37598097480723441 -0.26745556380373348 0 -0.36561260290989678 -0.26128521942254013 0 -0.36654922363893422 -0.27215591673696138 0 -0.36561260290989678 -0.26128521942254013 0 -0.36654922363893422 -0.27215591673696138 0 -0.35722060467742811 -0.26762499714769428 0 -0.36654922363893422 -0.27215591673696138 0 -0.35722060467742811 -0.26762499714769428 0 -0.36017378121711419 -0.28141683866971062 0 -0.36654922363893422 -0.27215591673696138 0 -0.36017378121711419 -0.28141683866971062 0 -0.37433096522584453 -0.28132989654828328 0 -0.34453036853746388 -0.27526151563856671 0 -0.36017378121711419 -0.28141683866971062 0 -0.35722060467742811 -0.26762499714769428 0 -0.34453036853746388 -0.27526151563856671 0 -0.36017378121711419 -0.28141683866971062 0 -0.34453036853746388 -0.27526151563856671 0 -0.34450588037081892 -0.28462367662190302 0 -0.36017378121711419 -0.28141683866971062 0 -0.34897267059429732 -0.25990550268967838 0 -0.35722060467742811 -0.26762499714769428 0 -0.34453036853746388 -0.27526151563856671 0 -0.3381311227387106 -0.26238754928509761 0 -0.34897267059429732 -0.25990550268967838 0 -0.34453036853746388 -0.27526151563856671 0 -0.34450588037081892 -0.28462367662190302 0 -0.34891652205724832 -0.29286991805537971 0 -0.36017378121711419 -0.28141683866971062 0 -0.37433096522584453 -0.28132989654828328 0 -0.36105831684996031 -0.30543451277817618 0 -0.34891652205724832 -0.29286991805537971 0 -0.37433096522584453 -0.28132989654828328 0 -0.34891652205724832 -0.29286991805537971 0 -0.36017378121711419 -0.28141683866971062 0 -0.37433096522584453 -0.28132989654828328 0 -0.38351210912712752 -0.30253866195360818 0 -0.37433096522584453 -0.28132989654828328 0 -0.36105831684996031 -0.30543451277817618 0 -0.34891652205724832 -0.29286991805537971 0 -0.37433096522584453 -0.28132989654828328 0 -0.36105831684996031 -0.30543451277817618 0 -0.38351210912712752 -0.30253866195360818 0 -0.36105831684996031 -0.30543451277817618 0 -0.37140736883531977 -0.32183989730859341 0 -0.36105831684996031 -0.30543451277817618 0 -0.3496688877197569 -0.30429177800002122 0 -0.34586440994984541 -0.3145735322147622 0 -0.34891652205724832 -0.29286991805537971 0 -0.36105831684996031 -0.30543451277817618 0 -0.3496688877197569 -0.30429177800002122 0 -0.34891652205724832 -0.29286991805537971 0 -0.3496688877197569 -0.30429177800002122 0 -0.33956299038192078 -0.30735077663143923 0 -0.3496688877197569 -0.30429177800002122 0 -0.33956299038192078 -0.30735077663143923 0 -0.34586440994984541 -0.3145735322147622 0 -0.34891652205724832 -0.29286991805537971 0 -0.33956299038192078 -0.30735077663143923 0 -0.32350207888865212 -0.30440993956247547 0 -0.33956299038192078 -0.30735077663143923 0 -0.3301339810941622 -0.31110503031331638 0 -0.32350207888865212 -0.30440993956247547 0 -0.34891652205724832 -0.29286991805537971 0 -0.32350207888865212 -0.30440993956247547 0 -0.33956299038192078 -0.30735077663143923 0 -0.3301339810941622 -0.31110503031331638 0 -0.33675509785737662 -0.31655799101612769 0 -0.34891652205724832 -0.29286991805537971 0 -0.33611461648670682 -0.29143764798725502 0 -0.32350207888865212 -0.30440993956247547 0 -0.32888695585781391 -0.26910619260742191 0 -0.33279411355556121 -0.28213246275860349 0 -0.32507396769595592 -0.29410449247197662 0 -0.34450588037081892 -0.28462367662190302 0 -0.34891652205724832 -0.29286991805537971 0 -0.33611461648670682 -0.29143764798725502 0 -0.34450588037081892 -0.28462367662190302 0 -0.33611461648670682 -0.29143764798725502 0 -0.33279411355556121 -0.28213246275860349 0 -0.33279411355556121 -0.28213246275860349 0 -0.33070524953878982 -0.29012978506972142 0 -0.32507396769595592 -0.29410449247197662 0 -0.33611461648670682 -0.29143764798725502 0 -0.33279411355556121 -0.28213246275860349 0 -0.33070524953878982 -0.29012978506972142 0 -0.33611461648670682 -0.29143764798725502 0 -0.32742439802278828 -0.29462709162158601 0 -0.32350207888865212 -0.30440993956247547 0 -0.33611461648670682 -0.29143764798725502 0 -0.33070524953878982 -0.29012978506972142 0 -0.32742439802278828 -0.29462709162158601 0 -0.32507396769595592 -0.29410449247197662 0 -0.30234930147786221 -0.28905184696057518 0 -0.32507396769595592 -0.29410449247197662 0 -0.32350207888865212 -0.30440993956247547 0 -0.30234930147786221 -0.28905184696057518 0 -0.31480478096024378 -0.27564718726691712 0 -0.32507396769595592 -0.29410449247197662 0 -0.30234930147786221 -0.28905184696057518 0 -0.32888695585781391 -0.26910619260742191 0 -0.32507396769595592 -0.29410449247197662 0 -0.32507396769595592 -0.29410449247197662 0 -0.32742439802278828 -0.29462709162158601 0 -0.33070524953878982 -0.29012978506972142 0 -0.32507396769595592 -0.29410449247197662 0 -0.32742439802278828 -0.29462709162158601 0 -0.32302725724223008 -0.30752291379569302 0 -0.32350207888865212 -0.30440993956247547 0 -0.2999756881373381 -0.31509264677165549 0 -0.3301339810941622 -0.31110503031331638 0 -0.32302725724223008 -0.30752291379569302 0 -0.32422013968378288 -0.31561436227230438 0 -0.32302725724223008 -0.30752291379569302 0 -0.32350207888865212 -0.30440993956247547 0 -0.3301339810941622 -0.31110503031331638 0 -0.32302725724223008 -0.30752291379569302 0 -0.32350207888865212 -0.30440993956247547 0 -0.32507396769595592 -0.29410449247197662 0 -0.32742439802278828 -0.29462709162158601 0 -0.32350207888865212 -0.30440993956247547 0 -0.32507396769595592 -0.29410449247197662 0 -0.32350207888865212 -0.30440993956247547 0 -0.32302725724223008 -0.30752291379569302 0 -0.31656029902357641 -0.31849097864348519 0 -0.2999756881373381 -0.31509264677165549 0 -0.32265466046617669 -0.32198754646013139 0 -0.33127214989488979 -0.33008610863815152 0 -0.32872450059276898 -0.31896534214889599 0 -0.32265466046617669 -0.32198754646013139 0 -0.31892782856615448 -0.32825501756413727 0 -0.33127214989488979 -0.33008610863815152 0 -0.32265466046617669 -0.32198754646013139 0 -0.32422013968378288 -0.31561436227230438 0 -0.32872450059276898 -0.31896534214889599 0 -0.32302725724223008 -0.30752291379569302 0 -0.32422013968378288 -0.31561436227230438 0 -0.31656029902357641 -0.31849097864348519 0 -0.3301339810941622 -0.31110503031331638 0 -0.32422013968378288 -0.31561436227230438 0 -0.32872450059276898 -0.31896534214889599 0 -0.32265466046617669 -0.32198754646013139 0 -0.32422013968378288 -0.31561436227230438 0 -0.31656029902357641 -0.31849097864348519 0 -0.32265466046617669 -0.32198754646013139 0 -0.31656029902357641 -0.31849097864348519 0 -0.31892782856615448 -0.32825501756413727 0 -0.31656029902357641 -0.31849097864348519 0 -0.31892782856615448 -0.32825501756413727 0 -0.30936258926988919 -0.3261434941065412 0 -0.31892782856615448 -0.32825501756413727 0 -0.31208723605418232 -0.33616024018399832 0 -0.30936258926988919 -0.3261434941065412 0 -0.31892782856615448 -0.32825501756413727 0 -0.32183099473442811 -0.33958013728355868 0 -0.31208723605418232 -0.33616024018399832 0 -0.32183099473442811 -0.33958013728355868 0 -0.31234840654553953 -0.34764506024843322 0 -0.31208723605418232 -0.33616024018399832 0 -0.31892782856615448 -0.32825501756413727 0 -0.32183099473442811 -0.33958013728355868 0 -0.33127214989488979 -0.33008610863815152 0 -0.33127214989488979 -0.33008610863815152 0 -0.34778566847407638 -0.32953912900806931 0 -0.33412452318830171 -0.35434929914508079 0 -0.32183099473442811 -0.33958013728355868 0 -0.33127214989488979 -0.33008610863815152 0 -0.33412452318830171 -0.35434929914508079 0 -0.34778566847407638 -0.32953912900806931 0 -0.33412452318830171 -0.35434929914508079 0 -0.33127214989488979 -0.33008610863815152 0 -0.34035549841598117 -0.32426700585474 0 -0.34778566847407638 -0.32953912900806931 0 -0.34035549841598117 -0.32426700585474 0 -0.33427681169025408 -0.32246911191447869 0 -0.33675509785737662 -0.31655799101612769 0 -0.33127214989488979 -0.33008610863815152 0 -0.34035549841598117 -0.32426700585474 0 -0.33427681169025408 -0.32246911191447869 0 -0.33127214989488979 -0.33008610863815152 0 -0.33427681169025408 -0.32246911191447869 0 -0.32872450059276898 -0.31896534214889599 0 -0.33427681169025408 -0.32246911191447869 0 -0.32872450059276898 -0.31896534214889599 0 -0.33675509785737662 -0.31655799101612769 0 -0.3301339810941622 -0.31110503031331638 0 -0.32872450059276898 -0.31896534214889599 0 -0.33675509785737662 -0.31655799101612769 0 -0.33956299038192078 -0.30735077663143923 0 -0.33675509785737662 -0.31655799101612769 0 -0.34586440994984541 -0.3145735322147622 0 -0.34035549841598117 -0.32426700585474 0 -0.33675509785737662 -0.31655799101612769 0 -0.34586440994984541 -0.3145735322147622 0 -0.36105831684996031 -0.30543451277817618 0 -0.34778566847407638 -0.32953912900806931 0 -0.36105831684996031 -0.30543451277817618 0 -0.34586440994984541 -0.3145735322147622 0 -0.34778566847407638 -0.32953912900806931 0 -0.34035549841598117 -0.32426700585474 0 -0.34586440994984541 -0.3145735322147622 0 -0.34778566847407638 -0.32953912900806931 0 -0.34035549841598117 -0.32426700585474 0 -0.34778566847407638 -0.32953912900806931 0 -0.36105831684996031 -0.30543451277817618 0 -0.37140736883531977 -0.32183989730859341 0 -0.34778566847407638 -0.32953912900806931 0 -0.38006824781918919 -0.33243312042550199 0 -0.37140736883531977 -0.32183989730859341 0 -0.36666079927166728 -0.34293209489202431 0 -0.37140736883531977 -0.32183989730859341 0 -0.36666079927166728 -0.34293209489202431 0 -0.34778566847407638 -0.32953912900806931 0 -0.34778566847407638 -0.32953912900806931 0 -0.35170181166344461 -0.34709871950800919 0 -0.33412452318830171 -0.35434929914508079 0 -0.36666079927166728 -0.34293209489202431 0 -0.34778566847407638 -0.32953912900806931 0 -0.36666079927166728 -0.34293209489202431 0 -0.34778566847407638 -0.32953912900806931 0 -0.35170181166344461 -0.34709871950800919 0 -0.36666079927166728 -0.34293209489202431 0 -0.35170181166344461 -0.34709871950800919 0 -0.35823625571973289 -0.36157435498686258 0 -0.35170181166344461 -0.34709871950800919 0 -0.35823625571973289 -0.36157435498686258 0 -0.33412452318830171 -0.35434929914508079 0 -0.38553593006925752 -0.3563250607759802 0 -0.36666079927166728 -0.34293209489202431 0 -0.35823625571973289 -0.36157435498686258 0 -0.37549160074202448 -0.3732971907138336 0 -0.38553593006925752 -0.3563250607759802 0 -0.35823625571973289 -0.36157435498686258 0 -0.37549160074202448 -0.3732971907138336 0 -0.35823625571973289 -0.36157435498686258 0 -0.35302350150803719 -0.38208755235937009 0 -0.35823625571973289 -0.36157435498686258 0 -0.34413293857164062 -0.37054757780120701 0 -0.35302350150803719 -0.38208755235937009 0 -0.35823625571973289 -0.36157435498686258 0 -0.34413293857164062 -0.37054757780120701 0 -0.33412452318830171 -0.35434929914508079 0 -0.34413293857164062 -0.37054757780120701 0 -0.33412452318830171 -0.35434929914508079 0 -0.33519042443293379 -0.3802220457599616 0 -0.33412452318830171 -0.35434929914508079 0 -0.33519042443293379 -0.3802220457599616 0 -0.32046337790252549 -0.37915946928209171 0 -0.32183099473442811 -0.33958013728355868 0 -0.33412452318830171 -0.35434929914508079 0 -0.31234840654553953 -0.34764506024843322 0 -0.33412452318830171 -0.35434929914508079 0 -0.316806384823896 -0.36257585725837499 0 -0.31234840654553953 -0.34764506024843322 0 -0.316806384823896 -0.36257585725837499 0 -0.3002892316592175 -0.36914960035789463 0 -0.32046337790252549 -0.37915946928209171 0 -0.33412452318830171 -0.35434929914508079 0 -0.316806384823896 -0.36257585725837499 0 -0.32046337790252549 -0.37915946928209171 0 -0.33412452318830171 -0.35434929914508079 0 -0.32046337790252549 -0.37915946928209171 0 -0.3002892316592175 -0.36914960035789463 0 -0.32046337790252549 -0.37915946928209171 0 -0.3002892316592175 -0.36914960035789463 0 -0.31234840654553953 -0.34764506024843322 0 -0.29527517448125451 -0.36666176000398298 0 -0.316806384823896 -0.36257585725837499 0 -0.3002892316592175 -0.36914960035789463 0 -0.31234840654553953 -0.34764506024843322 0 -0.3002892316592175 -0.36914960035789463 0 -0.29527517448125451 -0.36666176000398298 0 -0.3002892316592175 -0.36914960035789463 0 -0.29403121103535113 -0.38030922419454549 0 -0.31234840654553953 -0.34764506024843322 0 -0.29527517448125451 -0.36666176000398298 0 -0.2976254313092957 -0.34087720338781918 0 -0.3002892316592175 -0.36914960035789463 0 -0.31234840654553953 -0.34764506024843322 0 -0.29527517448125451 -0.36666176000398298 0 -0.26926364122666091 -0.35375553660024128 0 -0.28048823453243299 -0.34080574413418752 0 -0.29527517448125451 -0.36666176000398298 0 -0.2976254313092957 -0.34087720338781918 0 -0.29527517448125451 -0.36666176000398298 0 -0.28048823453243299 -0.34080574413418752 0 -0.2976254313092957 -0.34087720338781918 0 -0.29527517448125451 -0.36666176000398298 0 -0.26926364122666091 -0.35375553660024128 0 -0.29527517448125451 -0.36666176000398298 0 -0.27994264201103719 -0.36323993691456841 0 -0.26926364122666091 -0.35375553660024128 0 -0.29527517448125451 -0.36666176000398298 0 -0.28588261091775702 -0.37268605543787447 0 -0.29403121103535113 -0.38030922419454549 0 -0.29527517448125451 -0.36666176000398298 0 -0.29403121103535113 -0.38030922419454549 0 -0.3002892316592175 -0.36914960035789463 0 -0.29527517448125451 -0.36666176000398298 0 -0.29403121103535113 -0.38030922419454549 0 -0.29527517448125451 -0.36666176000398298 0 -0.28588261091775702 -0.37268605543787447 0 -0.27994264201103719 -0.36323993691456841 0 -0.28588261091775702 -0.37268605543787447 0 -0.27994264201103719 -0.36323993691456841 0 -0.2742629371717063 -0.37916463673385931 0 -0.27994264201103719 -0.36323993691456841 0 -0.26568404082974961 -0.36651666061706623 0 -0.2742629371717063 -0.37916463673385931 0 -0.27994264201103719 -0.36323993691456841 0 -0.26568404082974961 -0.36651666061706623 0 -0.26017799311385281 -0.35268912854855933 0 -0.26568404082974961 -0.36651666061706623 0 -0.25909124390184018 -0.37475905286733341 0 -0.2742629371717063 -0.37916463673385931 0 -0.26568404082974961 -0.36651666061706623 0 -0.25909124390184018 -0.37475905286733341 0 -0.25494538795031141 -0.36273054802101118 0 -0.26568404082974961 -0.36651666061706623 0 -0.25494538795031141 -0.36273054802101118 0 -0.26017799311385281 -0.35268912854855933 0 -0.25909124390184018 -0.37475905286733341 0 -0.25494538795031141 -0.36273054802101118 0 -0.24748772700216881 -0.3717564301773445 0 -0.26017799311385281 -0.35268912854855933 0 -0.2404133442166683 -0.34213832018255058 0 -0.26926364122666091 -0.35375553660024128 0 -0.24325210797206609 -0.34084931319650169 0 -0.26017799311385281 -0.35268912854855933 0 -0.26926364122666091 -0.35375553660024128 0 -0.24325210797206609 -0.34084931319650169 0 -0.25494538795031141 -0.36273054802101118 0 -0.26017799311385281 -0.35268912854855933 0 -0.24808760514302669 -0.3536558827211943 0 -0.27994264201103719 -0.36323993691456841 0 -0.26017799311385281 -0.35268912854855933 0 -0.27994264201103719 -0.36323993691456841 0 -0.26017799311385281 -0.35268912854855933 0 -0.26926364122666091 -0.35375553660024128 0 -0.28048823453243299 -0.34080574413418752 0 -0.2621599680271573 -0.33226375772155409 0 -0.28106782808224812 -0.3236782022466056 0 -0.26926364122666091 -0.35375553660024128 0 -0.28048823453243299 -0.34080574413418752 0 -0.2621599680271573 -0.33226375772155409 0 -0.2621599680271573 -0.33226375772155409 0 -0.24518994726652291 -0.33234415230164399 0 -0.24308922262768951 -0.32099342612622928 0 -0.2621599680271573 -0.33226375772155409 0 -0.24325210797206609 -0.34084931319650169 0 -0.24518994726652291 -0.33234415230164399 0 -0.2621599680271573 -0.33226375772155409 0 -0.24325210797206609 -0.34084931319650169 0 -0.26926364122666091 -0.35375553660024128 0 -0.2621599680271573 -0.33226375772155409 0 -0.24325210797206609 -0.34084931319650169 0 -0.2621599680271573 -0.33226375772155409 0 -0.25915672867891859 -0.31415112243359272 0 -0.24308922262768951 -0.32099342612622928 0 -0.2621599680271573 -0.33226375772155409 0 -0.28106782808224812 -0.3236782022466056 0 -0.25915672867891859 -0.31415112243359272 0 -0.28106782808224812 -0.3236782022466056 0 -0.2709678639136075 -0.30238435136382452 0 -0.2621599680271573 -0.33226375772155409 0 -0.25915672867891859 -0.31415112243359272 0 -0.28106782808224812 -0.3236782022466056 0 -0.28106782808224812 -0.3236782022466056 0 -0.2999756881373381 -0.31509264677165549 0 -0.28453315598845252 -0.30841843357299598 0 -0.28106782808224812 -0.3236782022466056 0 -0.2976254313092957 -0.34087720338781918 0 -0.2999756881373381 -0.31509264677165549 0 -0.28106782808224812 -0.3236782022466056 0 -0.2999756881373381 -0.31509264677165549 0 -0.28048823453243299 -0.34080574413418752 0 -0.28106782808224812 -0.3236782022466056 0 -0.2976254313092957 -0.34087720338781918 0 -0.31234840654553953 -0.34764506024843322 0 -0.2976254313092957 -0.34087720338781918 0 -0.31208723605418232 -0.33616024018399832 0 -0.2976254313092957 -0.34087720338781918 0 -0.31208723605418232 -0.33616024018399832 0 -0.30936258926988919 -0.3261434941065412 0 -0.2976254313092957 -0.34087720338781918 0 -0.2999756881373381 -0.31509264677165549 0 -0.2976254313092957 -0.34087720338781918 0 -0.30936258926988919 -0.3261434941065412 0 -0.2999756881373381 -0.31509264677165549 0 -0.31656029902357641 -0.31849097864348519 0 -0.30936258926988919 -0.3261434941065412 0 -0.2999756881373381 -0.31509264677165549 0 -0.32350207888865212 -0.30440993956247547 0 -0.2999756881373381 -0.31509264677165549 0 -0.30234930147786221 -0.28905184696057518 0 -0.2999756881373381 -0.31509264677165549 0 -0.30234930147786221 -0.28905184696057518 0 -0.2999756881373381 -0.31509264677165549 0 -0.30234930147786221 -0.28905184696057518 0 -0.29239547880504652 -0.30127313523009702 0 -0.32350207888865212 -0.30440993956247547 0 -0.2999756881373381 -0.31509264677165549 0 -0.30234930147786221 -0.28905184696057518 0 -0.29006270545698909 -0.29189763306700739 0 -0.29239547880504652 -0.30127313523009702 0 -0.30234930147786221 -0.28905184696057518 0 -0.29006270545698909 -0.29189763306700739 0 -0.28742262680475061 -0.28573302172180548 0 -0.30234930147786221 -0.28905184696057518 0 -0.28742262680475061 -0.28573302172180548 0 -0.29006270545698909 -0.29189763306700739 0 -0.28742262680475061 -0.28573302172180548 0 -0.28158089536532038 -0.29680102193740848 0 -0.29006270545698909 -0.29189763306700739 0 -0.28158089536532038 -0.29680102193740848 0 -0.29239547880504652 -0.30127313523009702 0 -0.28158089536532038 -0.29680102193740848 0 -0.29239547880504652 -0.30127313523009702 0 -0.28453315598845252 -0.30841843357299598 0 -0.2999756881373381 -0.31509264677165549 0 -0.29239547880504652 -0.30127313523009702 0 -0.28453315598845252 -0.30841843357299598 0 -0.28106782808224812 -0.3236782022466056 0 -0.28453315598845252 -0.30841843357299598 0 -0.2709678639136075 -0.30238435136382452 0 -0.28158089536532038 -0.29680102193740848 0 -0.28453315598845252 -0.30841843357299598 0 -0.2709678639136075 -0.30238435136382452 0 -0.25915672867891859 -0.31415112243359272 0 -0.25718459078837252 -0.29759752524363881 0 -0.24047089863443691 -0.30798947189970438 0 -0.25915672867891859 -0.31415112243359272 0 -0.2709678639136075 -0.30238435136382452 0 -0.25718459078837252 -0.29759752524363881 0 -0.25718459078837252 -0.29759752524363881 0 -0.25108388684634803 -0.28956965662021522 0 -0.26792751193251091 -0.28139844079955562 0 -0.25108388684634803 -0.28956965662021522 0 -0.26792751193251091 -0.28139844079955562 0 -0.2484323970602714 -0.27706385987730509 0 -0.2709678639136075 -0.30238435136382452 0 -0.25718459078837252 -0.29759752524363881 0 -0.26792751193251091 -0.28139844079955562 0 -0.28742262680475061 -0.28573302172180548 0 -0.26792751193251091 -0.28139844079955562 0 -0.28158089536532038 -0.29680102193740848 0 -0.2709678639136075 -0.30238435136382452 0 -0.26792751193251091 -0.28139844079955562 0 -0.28742262680475061 -0.28573302172180548 0 -0.28158089536532038 -0.29680102193740848 0 -0.26792751193251091 -0.28139844079955562 0 -0.26792751193251091 -0.28139844079955562 0 -0.27965676560653041 -0.27550351800418249 0 -0.27506057922854799 -0.26523935036500679 0 -0.28742262680475061 -0.28573302172180548 0 -0.26792751193251091 -0.28139844079955562 0 -0.27965676560653041 -0.27550351800418249 0 -0.26792751193251091 -0.28139844079955562 0 -0.26170023695288303 -0.26848976391570201 0 -0.27506057922854799 -0.26523935036500679 0 -0.27965676560653041 -0.27550351800418249 0 -0.27506057922854799 -0.26523935036500679 0 -0.28821634446031208 -0.2696432591303618 0 -0.26792751193251091 -0.28139844079955562 0 -0.2484323970602714 -0.27706385987730509 0 -0.26792751193251091 -0.28139844079955562 0 -0.26170023695288303 -0.26848976391570201 0 -0.2484323970602714 -0.27706385987730509 0 -0.26170023695288303 -0.26848976391570201 0 -0.25309751137434572 -0.26289123234143091 0 -0.2484323970602714 -0.27706385987730509 0 -0.2565674865322034 -0.25340195958415102 0 -0.26524553468775469 -0.25886506807255583 0 -0.27383001930629169 -0.24744255459442921 0 -0.2565674865322034 -0.25340195958415102 0 -0.27383001930629169 -0.24744255459442921 0 -0.2565674865322034 -0.25340195958415102 0 -0.25309751137434572 -0.26289123234143091 0 -0.24233717299785959 -0.25960849866204011 0 -0.2565674865322034 -0.25340195958415102 0 -0.25309751137434572 -0.26289123234143091 0 -0.26524553468775469 -0.25886506807255583 0 -0.26170023695288303 -0.26848976391570201 0 -0.25309751137434572 -0.26289123234143091 0 -0.26524553468775469 -0.25886506807255583 0 -0.27506057922854799 -0.26523935036500679 0 -0.28942662192718172 -0.25357945894426132 0 -0.27383001930629169 -0.24744255459442921 0 -0.26524553468775469 -0.25886506807255583 0 -0.27506057922854799 -0.26523935036500679 0 -0.27383001930629169 -0.24744255459442921 0 -0.26170023695288303 -0.26848976391570201 0 -0.26524553468775469 -0.25886506807255583 0 -0.27506057922854799 -0.26523935036500679 0 -0.28942662192718172 -0.25357945894426132 0 -0.29569431645386429 -0.26311293363000732 0 -0.28821634446031208 -0.2696432591303618 0 -0.28942662192718172 -0.25357945894426132 0 -0.27383001930629169 -0.24744255459442921 0 -0.27506057922854799 -0.26523935036500679 0 -0.28942662192718172 -0.25357945894426132 0 -0.28821634446031208 -0.2696432591303618 0 -0.28942662192718172 -0.25357945894426132 0 -0.29569431645386429 -0.26311293363000732 0 -0.30502322454807101 -0.25971636329409542 0 -0.29569431645386429 -0.26311293363000732 0 -0.28821634446031208 -0.2696432591303618 0 -0.30425539613548452 -0.26814017253042433 0 -0.28742262680475061 -0.28573302172180548 0 -0.27965676560653041 -0.27550351800418249 0 -0.28821634446031208 -0.2696432591303618 0 -0.28742262680475061 -0.28573302172180548 0 -0.28821634446031208 -0.2696432591303618 0 -0.30425539613548452 -0.26814017253042433 0 -0.28742262680475061 -0.28573302172180548 0 -0.30425539613548452 -0.26814017253042433 0 -0.31480478096024378 -0.27564718726691712 0 -0.30234930147786221 -0.28905184696057518 0 -0.30425539613548452 -0.26814017253042433 0 -0.30234930147786221 -0.28905184696057518 0 -0.30425539613548452 -0.26814017253042433 0 -0.30234930147786221 -0.28905184696057518 0 -0.28742262680475061 -0.28573302172180548 0 -0.30425539613548452 -0.26814017253042433 0 -0.31480478096024378 -0.27564718726691712 0 -0.30425539613548452 -0.26814017253042433 0 -0.31032083431566337 -0.26180085087236171 0 -0.30425539613548452 -0.26814017253042433 0 -0.31032083431566337 -0.26180085087236171 0 -0.30502322454807101 -0.25971636329409542 0 -0.28942662192718172 -0.25357945894426132 0 -0.30538593138510828 -0.25573712372202267 0 -0.29948497002523827 -0.2483657822867901 0 -0.28942662192718172 -0.25357945894426132 0 -0.30502322454807101 -0.25971636329409542 0 -0.30538593138510828 -0.25573712372202267 0 -0.30425539613548452 -0.26814017253042433 0 -0.31032083431566337 -0.26180085087236171 0 -0.31032083431566337 -0.26180085087236171 0 -0.30502322454807101 -0.25971636329409542 0 -0.31032083431566337 -0.26180085087236171 0 -0.30502322454807101 -0.25971636329409542 0 -0.30538593138510828 -0.25573712372202267 0 -0.31283906540333922 -0.25031215033235238 0 -0.31032083431566337 -0.26180085087236171 0 -0.30538593138510828 -0.25573712372202267 0 -0.31283906540333922 -0.25031215033235238 0 -0.30538593138510828 -0.25573712372202267 0 -0.30623861516307299 -0.24935013043731349 0 -0.30502322454807101 -0.25971636329409542 0 -0.30538593138510828 -0.25573712372202267 0 -0.28942662192718172 -0.25357945894426132 0 -0.30502322454807101 -0.25971636329409542 0 -0.30538593138510828 -0.25573712372202267 0 -0.29948497002523827 -0.2483657822867901 0 -0.30623861516307299 -0.24935013043731349 0 -0.30425539613548452 -0.26814017253042433 0 -0.30502322454807101 -0.25971636329409542 0 -0.29569431645386429 -0.26311293363000732 0 -0.30425539613548452 -0.26814017253042433 0 -0.30502322454807101 -0.25971636329409542 0 -0.33143192801526428 -0.45396038638140679 0 -0.33152258580119082 -0.46633970128806979 0 -0.34296165509457921 -0.45730971557378147 0 -0.34069406563311189 -0.44566521365826578 0 -0.32492704317595772 -0.44077768091168912 0 -0.33812272201467081 -0.43047089330918592 0 -0.33143192801526428 -0.45396038638140679 0 -0.34069406563311189 -0.44566521365826578 0 -0.32492704317595772 -0.44077768091168912 0 -0.33143192801526428 -0.45396038638140679 0 -0.34296165509457921 -0.45730971557378147 0 -0.34069406563311189 -0.44566521365826578 0 -0.33143192801526428 -0.45396038638140679 0 -0.32492704317595772 -0.44077768091168912 0 -0.31987457796333868 -0.4551426725204325 0 -0.32492704317595772 -0.44077768091168912 0 -0.31987457796333868 -0.4551426725204325 0 -0.31015853372433788 -0.44544301337781073 0 -0.33152258580119082 -0.46633970128806979 0 -0.30592196819360068 -0.46328971004504182 0 -0.33152258580119082 -0.46633970128806979 0 -0.31987457796333868 -0.4551426725204325 0 -0.30592196819360068 -0.46328971004504182 0 -0.33152258580119082 -0.46633970128806979 0 -0.32094261384274558 -0.46854088973335889 0 -0.30592196819360068 -0.46328971004504182 0 -0.33143192801526428 -0.45396038638140679 0 -0.33152258580119082 -0.46633970128806979 0 -0.31987457796333868 -0.4551426725204325 0 -0.33152258580119082 -0.46633970128806979 0 -0.32094261384274558 -0.46854088973335889 0 -0.32966732857214198 -0.4835879285261328 0 -0.32094261384274558 -0.46854088973335889 0 -0.32966732857214198 -0.4835879285261328 0 -0.31208929727375578 -0.48491526738579699 0 -0.32221211863154181 -0.5 0 -0.32966732857214198 -0.4835879285261328 0 -0.31208929727375578 -0.48491526738579699 0 -0.32221211863154181 -0.5 0 -0.32966732857214198 -0.4835879285261328 0 -0.34860848031248309 -0.5 0 -0.32966732857214198 -0.4835879285261328 0 -0.34707385437868848 -0.48052394199199022 0 -0.34860848031248309 -0.5 0 -0.33152258580119082 -0.46633970128806979 0 -0.32966732857214198 -0.4835879285261328 0 -0.34707385437868848 -0.48052394199199022 0 -0.33152258580119082 -0.46633970128806979 0 -0.3571232034087809 -0.46938969253109791 0 -0.34707385437868848 -0.48052394199199022 0 -0.3571232034087809 -0.46938969253109791 0 -0.34707385437868848 -0.48052394199199022 0 -0.36652141413456929 -0.48474993749143802 0 -0.34707385437868848 -0.48052394199199022 0 -0.34860848031248309 -0.5 0 -0.36652141413456929 -0.48474993749143802 0 -0.37500484199342449 -0.5 0 -0.34860848031248309 -0.5 0 -0.36652141413456929 -0.48474993749143802 0 -0.38272382101637098 -0.47243968377412587 0 -0.3571232034087809 -0.46938969253109791 0 -0.36652141413456929 -0.48474993749143802 0 -0.38272382101637098 -0.47243968377412587 0 -0.3571232034087809 -0.46938969253109791 0 -0.38265619596279349 -0.45813348326120767 0 -0.38272382101637098 -0.47243968377412587 0 -0.3571232034087809 -0.46938969253109791 0 -0.38265619596279349 -0.45813348326120767 0 -0.3571232034087809 -0.46938969253109791 0 -0.35544663641047641 -0.4489101100326689 0 -0.38265619596279349 -0.45813348326120767 0 -0.35544663641047641 -0.4489101100326689 0 -0.34296165509457921 -0.45730971557378147 0 -0.3571232034087809 -0.46938969253109791 0 -0.35544663641047641 -0.4489101100326689 0 -0.33152258580119082 -0.46633970128806979 0 -0.3571232034087809 -0.46938969253109791 0 -0.33152258580119082 -0.46633970128806979 0 -0.34296165509457921 -0.45730971557378147 0 -0.3571232034087809 -0.46938969253109791 0 -0.34069406563311189 -0.44566521365826578 0 -0.35544663641047641 -0.4489101100326689 0 -0.35372302635176472 -0.43532257313283612 0 -0.34296165509457921 -0.45730971557378147 0 -0.34069406563311189 -0.44566521365826578 0 -0.35544663641047641 -0.4489101100326689 0 -0.35544663641047641 -0.4489101100326689 0 -0.3723601590800425 -0.44005613486137668 0 -0.35372302635176472 -0.43532257313283612 0 -0.38265619596279349 -0.45813348326120767 0 -0.35544663641047641 -0.4489101100326689 0 -0.3723601590800425 -0.44005613486137668 0 -0.38028594703985957 -0.42392304976487449 0 -0.3723601590800425 -0.44005613486137668 0 -0.36423780173753523 -0.4264797532188066 0 -0.3723601590800425 -0.44005613486137668 0 -0.36423780173753523 -0.4264797532188066 0 -0.35372302635176472 -0.43532257313283612 0 -0.38028594703985957 -0.42392304976487449 0 -0.36423780173753523 -0.4264797532188066 0 -0.36590226101420908 -0.41270082520662749 0 -0.36423780173753523 -0.4264797532188066 0 -0.36590226101420908 -0.41270082520662749 0 -0.35147677323475168 -0.42035333371671318 0 -0.36590226101420908 -0.41270082520662749 0 -0.35147677323475168 -0.42035333371671318 0 -0.35184044830027089 -0.40346733636007898 0 -0.35147677323475168 -0.42035333371671318 0 -0.35184044830027089 -0.40346733636007898 0 -0.33675831632547681 -0.41105613646481343 0 -0.35147677323475168 -0.42035333371671318 0 -0.35372302635176472 -0.43532257313283612 0 -0.33812272201467081 -0.43047089330918592 0 -0.34069406563311189 -0.44566521365826578 0 -0.35372302635176472 -0.43532257313283612 0 -0.33812272201467081 -0.43047089330918592 0 -0.36423780173753523 -0.4264797532188066 0 -0.35147677323475168 -0.42035333371671318 0 -0.35372302635176472 -0.43532257313283612 0 -0.37549160074202448 -0.3732971907138336 0 -0.36544727141479139 -0.39026932065168712 0 -0.37549160074202448 -0.3732971907138336 0 -0.36544727141479139 -0.39026932065168712 0 -0.35302350150803719 -0.38208755235937009 0 -0.36590226101420908 -0.41270082520662749 0 -0.36544727141479139 -0.39026932065168712 0 -0.35184044830027089 -0.40346733636007898 0 -0.38114412328536468 -0.40833987260765031 0 -0.36590226101420908 -0.41270082520662749 0 -0.36544727141479139 -0.39026932065168712 0 -0.35184044830027089 -0.40346733636007898 0 -0.35302350150803719 -0.38208755235937009 0 -0.34082557137486691 -0.39523504024196021 0 -0.36544727141479139 -0.39026932065168712 0 -0.35184044830027089 -0.40346733636007898 0 -0.35302350150803719 -0.38208755235937009 0 -0.34413293857164062 -0.37054757780120701 0 -0.35302350150803719 -0.38208755235937009 0 -0.33519042443293379 -0.3802220457599616 0 -0.35302350150803719 -0.38208755235937009 0 -0.33519042443293379 -0.3802220457599616 0 -0.34082557137486691 -0.39523504024196021 0 -0.33519042443293379 -0.3802220457599616 0 -0.32808226850220168 -0.39240284671641351 0 -0.3247168406287716 -0.38559411673624039 0 -0.33519042443293379 -0.3802220457599616 0 -0.34082557137486691 -0.39523504024196021 0 -0.32808226850220168 -0.39240284671641351 0 -0.34082557137486691 -0.39523504024196021 0 -0.32808226850220168 -0.39240284671641351 0 -0.33675831632547681 -0.41105613646481343 0 -0.32808226850220168 -0.39240284671641351 0 -0.33675831632547681 -0.41105613646481343 0 -0.3206477944579052 -0.41019310838576051 0 -0.35184044830027089 -0.40346733636007898 0 -0.34082557137486691 -0.39523504024196021 0 -0.33675831632547681 -0.41105613646481343 0 -0.32808226850220168 -0.39240284671641351 0 -0.31437491003333667 -0.39021680895226152 0 -0.3206477944579052 -0.41019310838576051 0 -0.32808226850220168 -0.39240284671641351 0 -0.3247168406287716 -0.38559411673624039 0 -0.31437491003333667 -0.39021680895226152 0 -0.31437491003333667 -0.39021680895226152 0 -0.32046337790252549 -0.37915946928209171 0 -0.30588070030683939 -0.38181824174751872 0 -0.3247168406287716 -0.38559411673624039 0 -0.31437491003333667 -0.39021680895226152 0 -0.32046337790252549 -0.37915946928209171 0 -0.31437491003333667 -0.39021680895226152 0 -0.32046337790252549 -0.37915946928209171 0 -0.33519042443293379 -0.3802220457599616 0 -0.3247168406287716 -0.38559411673624039 0 -0.32046337790252549 -0.37915946928209171 0 -0.32492704317595772 -0.44077768091168912 0 -0.33812272201467081 -0.43047089330918592 0 -0.32670905357880831 -0.42305010768611329 0 -0.35147677323475168 -0.42035333371671318 0 -0.33812272201467081 -0.43047089330918592 0 -0.33675831632547681 -0.41105613646481343 0 -0.33812272201467081 -0.43047089330918592 0 -0.33675831632547681 -0.41105613646481343 0 -0.32670905357880831 -0.42305010768611329 0 -0.33675831632547681 -0.41105613646481343 0 -0.3206477944579052 -0.41019310838576051 0 -0.32670905357880831 -0.42305010768611329 0 -0.3206477944579052 -0.41019310838576051 0 -0.31307232924124478 -0.42559811140412351 0 -0.32670905357880831 -0.42305010768611329 0 -0.32492704317595772 -0.44077768091168912 0 -0.31307232924124478 -0.42559811140412351 0 -0.31015853372433788 -0.44544301337781073 0 -0.32492704317595772 -0.44077768091168912 0 -0.31307232924124478 -0.42559811140412351 0 -0.32670905357880831 -0.42305010768611329 0 -0.31307232924124478 -0.42559811140412351 0 -0.29907098912325059 -0.43374406761790368 0 -0.29851577765410048 -0.41098608612968202 0 -0.31307232924124478 -0.42559811140412351 0 -0.29907098912325059 -0.43374406761790368 0 -0.31015853372433788 -0.44544301337781073 0 -0.3206477944579052 -0.41019310838576051 0 -0.31307232924124478 -0.42559811140412351 0 -0.29851577765410048 -0.41098608612968202 0 -0.3206477944579052 -0.41019310838576051 0 -0.29851577765410048 -0.41098608612968202 0 -0.29851577765410048 -0.41098608612968202 0 -0.27638376085029581 -0.41177906387360241 0 -0.29851577765410048 -0.41098608612968202 0 -0.28520748594282241 -0.3960441440340734 0 -0.27638376085029581 -0.41177906387360241 0 -0.29851577765410048 -0.41098608612968202 0 -0.28540276919059199 -0.42535658303670731 0 -0.27638376085029581 -0.41177906387360241 0 -0.29907098912325059 -0.43374406761790368 0 -0.29851577765410048 -0.41098608612968202 0 -0.28540276919059199 -0.42535658303670731 0 -0.28540276919059199 -0.42535658303670731 0 -0.27848929033898201 -0.43669604725877897 0 -0.28902284908971709 -0.44016681433255572 0 -0.29907098912325059 -0.43374406761790368 0 -0.28540276919059199 -0.42535658303670731 0 -0.28902284908971709 -0.44016681433255572 0 -0.3002892316592175 -0.36914960035789463 0 -0.32046337790252549 -0.37915946928209171 0 -0.30588070030683939 -0.38181824174751872 0 -0.3002892316592175 -0.36914960035789463 0 -0.29819443980788141 -0.38001079285233907 0 -0.30588070030683939 -0.38181824174751872 0 -0.3002892316592175 -0.36914960035789463 0 -0.29819443980788141 -0.38001079285233907 0 -0.29403121103535113 -0.38030922419454549 0 -0.31437491003333667 -0.39021680895226152 0 -0.30588070030683939 -0.38181824174751872 0 -0.30232780815510779 -0.39560758766926629 0 -0.29819443980788141 -0.38001079285233907 0 -0.30588070030683939 -0.38181824174751872 0 -0.29681739610749358 -0.387616864260033 0 -0.30588070030683939 -0.38181824174751872 0 -0.30232780815510779 -0.39560758766926629 0 -0.29681739610749358 -0.387616864260033 0 -0.31437491003333667 -0.39021680895226152 0 -0.3206477944579052 -0.41019310838576051 0 -0.30232780815510779 -0.39560758766926629 0 -0.3206477944579052 -0.41019310838576051 0 -0.29851577765410048 -0.41098608612968202 0 -0.30232780815510779 -0.39560758766926629 0 -0.30232780815510779 -0.39560758766926629 0 -0.28520748594282241 -0.3960441440340734 0 -0.29681739610749358 -0.387616864260033 0 -0.29851577765410048 -0.41098608612968202 0 -0.30232780815510779 -0.39560758766926629 0 -0.28520748594282241 -0.3960441440340734 0 -0.28520748594282241 -0.3960441440340734 0 -0.28484606126690931 -0.38205101510008821 0 -0.29403121103535113 -0.38030922419454549 0 -0.28520748594282241 -0.3960441440340734 0 -0.29403121103535113 -0.38030922419454549 0 -0.28520748594282241 -0.3960441440340734 0 -0.29681739610749358 -0.387616864260033 0 -0.29403121103535113 -0.38030922419454549 0 -0.28520748594282241 -0.3960441440340734 0 -0.28484606126690931 -0.38205101510008821 0 -0.2742629371717063 -0.37916463673385931 0 -0.28588261091775702 -0.37268605543787447 0 -0.28484606126690931 -0.38205101510008821 0 -0.2742629371717063 -0.37916463673385931 0 -0.28588261091775702 -0.37268605543787447 0 -0.28484606126690931 -0.38205101510008821 0 -0.29403121103535113 -0.38030922419454549 0 -0.29819443980788141 -0.38001079285233907 0 -0.29681739610749358 -0.387616864260033 0 -0.29403121103535113 -0.38030922419454549 0 -0.28520748594282241 -0.3960441440340734 0 -0.2742629371717063 -0.37916463673385931 0 -0.26755910350718881 -0.39582792531461569 0 -0.2742629371717063 -0.37916463673385931 0 -0.26755910350718881 -0.39582792531461569 0 -0.26281209396899169 -0.38517470131063508 0 -0.28520748594282241 -0.3960441440340734 0 -0.27638376085029581 -0.41177906387360241 0 -0.28520748594282241 -0.3960441440340734 0 -0.26755910350718881 -0.39582792531461569 0 -0.27638376085029581 -0.41177906387360241 0 -0.26755910350718881 -0.39582792531461569 0 -0.25033509129523179 -0.39094719032673231 0 -0.25487024651921952 -0.41254988102096568 0 -0.26755910350718881 -0.39582792531461569 0 -0.25033509129523179 -0.39094719032673231 0 -0.26281209396899169 -0.38517470131063508 0 -0.25909124390184018 -0.37475905286733341 0 -0.25033509129523179 -0.39094719032673231 0 -0.26281209396899169 -0.38517470131063508 0 -0.25909124390184018 -0.37475905286733341 0 -0.25033509129523179 -0.39094719032673231 0 -0.24748772700216881 -0.3717564301773445 0 -0.25909124390184018 -0.37475905286733341 0 -0.2742629371717063 -0.37916463673385931 0 -0.26281209396899169 -0.38517470131063508 0 -0.26911429951178012 -0.42474234074800371 0 -0.27848929033898201 -0.43669604725877897 0 -0.26690007516498948 -0.44242471351124879 0 -0.28540276919059199 -0.42535658303670731 0 -0.26911429951178012 -0.42474234074800371 0 -0.27848929033898201 -0.43669604725877897 0 -0.27638376085029581 -0.41177906387360241 0 -0.25487024651921952 -0.41254988102096568 0 -0.28540276919059199 -0.42535658303670731 0 -0.26911429951178012 -0.42474234074800371 0 -0.27638376085029581 -0.41177906387360241 0 -0.26911429951178012 -0.42474234074800371 0 -0.27638376085029581 -0.41177906387360241 0 -0.25487024651921952 -0.41254988102096568 0 -0.26755910350718881 -0.39582792531461569 0 -0.27638376085029581 -0.41177906387360241 0 -0.25487024651921952 -0.41254988102096568 0 -0.26911429951178012 -0.42474234074800371 0 -0.27638376085029581 -0.41177906387360241 0 -0.26911429951178012 -0.42474234074800371 0 -0.25908880606166329 -0.43064529781943001 0 -0.26690007516498948 -0.44242471351124879 0 -0.25487024651921952 -0.41254988102096568 0 -0.25908880606166329 -0.43064529781943001 0 -0.2468605885266735 -0.43014712497011809 0 -0.26911429951178012 -0.42474234074800371 0 -0.25487024651921952 -0.41254988102096568 0 -0.25908880606166329 -0.43064529781943001 0 -0.25908880606166329 -0.43064529781943001 0 -0.25479397652280911 -0.44050862113911837 0 -0.2468605885266735 -0.43014712497011809 0 -0.25479397652280911 -0.44050862113911837 0 -0.2546108597688766 -0.45375703833677078 0 -0.2450571310604201 -0.44414202720417628 0 -0.25479397652280911 -0.44050862113911837 0 -0.2546108597688766 -0.45375703833677078 0 -0.26690007516498948 -0.44242471351124879 0 -0.2546108597688766 -0.45375703833677078 0 -0.26838297633475061 -0.45652413347846638 0 -0.26690007516498948 -0.44242471351124879 0 -0.25908880606166329 -0.43064529781943001 0 -0.25479397652280911 -0.44050862113911837 0 -0.26690007516498948 -0.44242471351124879 0 -0.25109629719050858 -0.46406488014867903 0 -0.2546108597688766 -0.45375703833677078 0 -0.26079873433517492 -0.46936342421069649 0 -0.2546108597688766 -0.45375703833677078 0 -0.26838297633475061 -0.45652413347846638 0 -0.26079873433517492 -0.46936342421069649 0 -0.27799569035848881 -0.46687050799545499 0 -0.26838297633475061 -0.45652413347846638 0 -0.26079873433517492 -0.46936342421069649 0 -0.27799569035848881 -0.46687050799545499 0 -0.26838297633475061 -0.45652413347846638 0 -0.28160952204622303 -0.450204983338161 0 -0.26838297633475061 -0.45652413347846638 0 -0.26690007516498948 -0.44242471351124879 0 -0.28160952204622303 -0.450204983338161 0 -0.27848929033898201 -0.43669604725877897 0 -0.26690007516498948 -0.44242471351124879 0 -0.28160952204622303 -0.450204983338161 0 -0.29907098912325059 -0.43374406761790368 0 -0.28902284908971709 -0.44016681433255572 0 -0.29708038679871529 -0.44973292283788502 0 -0.27848929033898201 -0.43669604725877897 0 -0.28902284908971709 -0.44016681433255572 0 -0.28160952204622303 -0.450204983338161 0 -0.28902284908971709 -0.44016681433255572 0 -0.28160952204622303 -0.450204983338161 0 -0.29708038679871529 -0.44973292283788502 0 -0.27799569035848881 -0.46687050799545499 0 -0.29150619976335518 -0.46129715127825488 0 -0.29492343141974797 -0.47638763217473168 0 -0.27799569035848881 -0.46687050799545499 0 -0.28160952204622303 -0.450204983338161 0 -0.29150619976335518 -0.46129715127825488 0 -0.28160952204622303 -0.450204983338161 0 -0.29150619976335518 -0.46129715127825488 0 -0.29708038679871529 -0.44973292283788502 0 -0.29150619976335518 -0.46129715127825488 0 -0.30592196819360068 -0.46328971004504182 0 -0.29708038679871529 -0.44973292283788502 0 -0.31987457796333868 -0.4551426725204325 0 -0.30592196819360068 -0.46328971004504182 0 -0.31015853372433788 -0.44544301337781073 0 -0.29150619976335518 -0.46129715127825488 0 -0.30592196819360068 -0.46328971004504182 0 -0.29492343141974797 -0.47638763217473168 0 -0.29907098912325059 -0.43374406761790368 0 -0.31015853372433788 -0.44544301337781073 0 -0.29708038679871529 -0.44973292283788502 0 -0.30592196819360068 -0.46328971004504182 0 -0.31015853372433788 -0.44544301337781073 0 -0.29708038679871529 -0.44973292283788502 0 -0.31208929727375578 -0.48491526738579699 0 -0.29492343141974797 -0.47638763217473168 0 -0.29581575695060047 -0.5 0 -0.32221211863154181 -0.5 0 -0.31208929727375578 -0.48491526738579699 0 -0.29581575695060047 -0.5 0 -0.32094261384274558 -0.46854088973335889 0 -0.30592196819360068 -0.46328971004504182 0 -0.29492343141974797 -0.47638763217473168 0 -0.32094261384274558 -0.46854088973335889 0 -0.29492343141974797 -0.47638763217473168 0 -0.32094261384274558 -0.46854088973335889 0 -0.31208929727375578 -0.48491526738579699 0 -0.29492343141974797 -0.47638763217473168 0 -0.29492343141974797 -0.47638763217473168 0 -0.26890424899675031 -0.48423437461610452 0 -0.29492343141974797 -0.47638763217473168 0 -0.28441593737837417 -0.48860776134254891 0 -0.26890424899675031 -0.48423437461610452 0 -0.29492343141974797 -0.47638763217473168 0 -0.28441593737837417 -0.48860776134254891 0 -0.29581575695060047 -0.5 0 -0.28441593737837417 -0.48860776134254891 0 -0.29581575695060047 -0.5 0 -0.26941939526965919 -0.5 0 -0.28441593737837417 -0.48860776134254891 0 -0.26941939526965919 -0.5 0 -0.26890424899675031 -0.48423437461610452 0 -0.27799569035848881 -0.46687050799545499 0 -0.29492343141974797 -0.47638763217473168 0 -0.26890424899675031 -0.48423437461610452 0 -0.27799569035848881 -0.46687050799545499 0 -0.26890424899675031 -0.48423437461610452 0 -0.26079873433517492 -0.46936342421069649 0 -0.26890424899675031 -0.48423437461610452 0 -0.26079873433517492 -0.46936342421069649 0 -0.25379328426056558 -0.48205965705463422 0 -0.26079873433517492 -0.46936342421069649 0 -0.25379328426056558 -0.48205965705463422 0 -0.250874604213362 -0.47391739130808008 0 -0.25109629719050858 -0.46406488014867903 0 -0.26079873433517492 -0.46936342421069649 0 -0.250874604213362 -0.47391739130808008 0 -0.26941939526965919 -0.5 0 -0.26890424899675031 -0.48423437461610452 0 -0.2544134183364497 -0.49413622749019132 0 -0.26941939526965919 -0.5 0 -0.2544134183364497 -0.49413622749019132 0 -0.2430230335887178 -0.5 0 -0.26890424899675031 -0.48423437461610452 0 -0.2544134183364497 -0.49413622749019132 0 -0.24288506657375261 -0.49208111705747781 0 -0.26890424899675031 -0.48423437461610452 0 -0.25379328426056558 -0.48205965705463422 0 -0.24288506657375261 -0.49208111705747781 0 -0.26890424899675031 -0.48423437461610452 0 -0.24288506657375261 -0.49208111705747781 0 -0.2544134183364497 -0.49413622749019132 0 -0.2430230335887178 -0.5 0 -0.24783534725336881 -0.49436564577737419 0 -0.2544134183364497 -0.49413622749019132 0 -0.24783534725336881 -0.49436564577737419 0 -0.24288506657375261 -0.49208111705747781 0 -0.2430230335887178 -0.5 0 -0.24783534725336881 -0.49436564577737419 0 -0.24288506657375261 -0.49208111705747781 0 -0.24783534725336881 -0.49436564577737419 0 -0.24288506657375261 -0.49208111705747781 0 -0.24288506657375261 -0.49208111705747781 0 -0.24429345028001889 -0.4821559175287794 0 -0.23457410743521059 -0.47899140825596259 0 -0.25379328426056558 -0.48205965705463422 0 -0.24288506657375261 -0.49208111705747781 0 -0.24429345028001889 -0.4821559175287794 0 -0.25379328426056558 -0.48205965705463422 0 -0.250874604213362 -0.47391739130808008 0 -0.24429345028001889 -0.4821559175287794 0 -0.24429345028001889 -0.4821559175287794 0 -0.2443912550005416 -0.47194307759761112 0 -0.2395637252682277 -0.47605318874815389 0 -0.25109629719050858 -0.46406488014867903 0 -0.250874604213362 -0.47391739130808008 0 -0.2443912550005416 -0.47194307759761112 0 -0.250874604213362 -0.47391739130808008 0 -0.24429345028001889 -0.4821559175287794 0 -0.2443912550005416 -0.47194307759761112 0 -0.2443912550005416 -0.47194307759761112 0 -0.2395637252682277 -0.47605318874815389 0 -0.23499608835713959 -0.47112235161026261 0 -0.2395637252682277 -0.47605318874815389 0 -0.23499608835713959 -0.47112235161026261 0 -0.23457410743521059 -0.47899140825596259 0 -0.24429345028001889 -0.4821559175287794 0 -0.2395637252682277 -0.47605318874815389 0 -0.23457410743521059 -0.47899140825596259 0 -0.23457410743521059 -0.47899140825596259 0 -0.2250369990674011 -0.47003999804886298 0 -0.2204246459600448 -0.48171575006642248 0 -0.24288506657375261 -0.49208111705747781 0 -0.23457410743521059 -0.47899140825596259 0 -0.2204246459600448 -0.48171575006642248 0 -0.23499608835713959 -0.47112235161026261 0 -0.23457410743521059 -0.47899140825596259 0 -0.2250369990674011 -0.47003999804886298 0 -0.2430230335887178 -0.5 0 -0.24288506657375261 -0.49208111705747781 0 -0.21662667190777651 -0.49999999999999939 0 -0.24288506657375261 -0.49208111705747781 0 -0.21662667190777651 -0.49999999999999939 0 -0.24288506657375261 -0.49208111705747781 0 -0.2204246459600448 -0.48171575006642248 0 -0.24288506657375261 -0.49208111705747781 0 -0.2204246459600448 -0.48171575006642248 0 -0.21662667190777651 -0.49999999999999939 0 -0.2450571310604201 -0.44414202720417628 0 -0.23716380350122879 -0.45645441389937441 0 -0.23280677558438309 -0.43386548686292281 0 -0.2546108597688766 -0.45375703833677078 0 -0.2450571310604201 -0.44414202720417628 0 -0.23716380350122879 -0.45645441389937441 0 -0.25479397652280911 -0.44050862113911837 0 -0.2450571310604201 -0.44414202720417628 0 -0.2468605885266735 -0.43014712497011809 0 -0.25109629719050858 -0.46406488014867903 0 -0.2546108597688766 -0.45375703833677078 0 -0.23716380350122879 -0.45645441389937441 0 -0.25109629719050858 -0.46406488014867903 0 -0.2443912550005416 -0.47194307759761112 0 -0.23716380350122879 -0.45645441389937441 0 -0.2443912550005416 -0.47194307759761112 0 -0.23499608835713959 -0.47112235161026261 0 -0.23716380350122879 -0.45645441389937441 0 -0.2250369990674011 -0.47003999804886298 0 -0.21844010846223411 -0.44206575668227449 0 -0.2250369990674011 -0.47003999804886298 0 -0.23716380350122879 -0.45645441389937441 0 -0.21844010846223411 -0.44206575668227449 0 -0.23499608835713959 -0.47112235161026261 0 -0.2250369990674011 -0.47003999804886298 0 -0.23716380350122879 -0.45645441389937441 0 -0.23716380350122879 -0.45645441389937441 0 -0.21844010846223411 -0.44206575668227449 0 -0.23280677558438309 -0.43386548686292281 0 -0.21844010846223411 -0.44206575668227449 0 -0.21054881561508179 -0.46151962797655111 0 -0.19087809923939161 -0.44242625200982799 0 -0.2250369990674011 -0.47003999804886298 0 -0.21844010846223411 -0.44206575668227449 0 -0.21054881561508179 -0.46151962797655111 0 -0.21054881561508179 -0.46151962797655111 0 -0.19087809923939161 -0.44242625200982799 0 -0.1979642253463372 -0.47135038307536692 0 -0.19087809923939161 -0.44242625200982799 0 -0.1979642253463372 -0.47135038307536692 0 -0.17550380473262961 -0.46098501608431119 0 -0.2039060436575347 -0.48788306012054039 0 -0.21662667190777651 -0.49999999999999939 0 -0.191185415407293 -0.5 0 -0.2204246459600448 -0.48171575006642248 0 -0.2039060436575347 -0.48788306012054039 0 -0.21662667190777651 -0.49999999999999939 0 -0.2250369990674011 -0.47003999804886298 0 -0.2204246459600448 -0.48171575006642248 0 -0.21054881561508179 -0.46151962797655111 0 -0.2204246459600448 -0.48171575006642248 0 -0.2039060436575347 -0.48788306012054039 0 -0.1979642253463372 -0.47135038307536692 0 -0.2204246459600448 -0.48171575006642248 0 -0.1979642253463372 -0.47135038307536692 0 -0.2204246459600448 -0.48171575006642248 0 -0.21054881561508179 -0.46151962797655111 0 -0.1979642253463372 -0.47135038307536692 0 -0.2039060436575347 -0.48788306012054039 0 -0.1979642253463372 -0.47135038307536692 0 -0.18170511770794731 -0.48283447360099019 0 -0.2039060436575347 -0.48788306012054039 0 -0.191185415407293 -0.5 0 -0.18170511770794731 -0.48283447360099019 0 -0.191185415407293 -0.5 0 -0.16574415890680941 -0.5 0 -0.18170511770794731 -0.48283447360099019 0 -0.16574415890680941 -0.5 0 -0.18170511770794731 -0.48283447360099019 0 -0.1559270581970803 -0.47678838232572268 0 -0.18170511770794731 -0.48283447360099019 0 -0.17550380473262961 -0.46098501608431119 0 -0.1559270581970803 -0.47678838232572268 0 -0.1979642253463372 -0.47135038307536692 0 -0.18170511770794731 -0.48283447360099019 0 -0.17550380473262961 -0.46098501608431119 0 -0.1979642253463372 -0.47135038307536692 0 -0.17550380473262961 -0.46098501608431119 0 -0.19087809923939161 -0.44242625200982799 0 -0.17550380473262961 -0.46098501608431119 0 -0.16487953686040341 -0.43668708651363358 0 -0.17550380473262961 -0.46098501608431119 0 -0.15866236735209521 -0.45377864165300308 0 -0.16487953686040341 -0.43668708651363358 0 -0.17550380473262961 -0.46098501608431119 0 -0.15866236735209521 -0.45377864165300308 0 -0.1559270581970803 -0.47678838232572268 0 -0.15866236735209521 -0.45377864165300308 0 -0.14280129841846509 -0.46103953978105727 0 -0.1559270581970803 -0.47678838232572268 0 -0.15866236735209521 -0.45377864165300308 0 -0.14280129841846509 -0.46103953978105727 0 -0.1438484805828521 -0.43705968193712769 0 -0.15866236735209521 -0.45377864165300308 0 -0.1438484805828521 -0.43705968193712769 0 -0.16487953686040341 -0.43668708651363358 0 -0.14280129841846509 -0.46103953978105727 0 -0.13093011984253891 -0.44972195681556543 0 -0.1438484805828521 -0.43705968193712769 0 -0.13093011984253891 -0.44972195681556543 0 -0.1438484805828521 -0.43705968193712769 0 -0.123519809913229 -0.43733662075251151 0 -0.14280129841846509 -0.46103953978105727 0 -0.13093011984253891 -0.44972195681556543 0 -0.12704973474613379 -0.46277216333596533 0 -0.14280129841846509 -0.46103953978105727 0 -0.12704973474613379 -0.46277216333596533 0 -0.13010403334985379 -0.48000251283874379 0 -0.13010403334985379 -0.48000251283874379 0 -0.1403029024063259 -0.5 0 -0.1148616459058424 -0.5 0 -0.16574415890680941 -0.5 0 -0.1403029024063259 -0.5 0 -0.1559270581970803 -0.47678838232572268 0 -0.13010403334985379 -0.48000251283874379 0 -0.1403029024063259 -0.5 0 -0.1559270581970803 -0.47678838232572268 0 -0.14280129841846509 -0.46103953978105727 0 -0.13010403334985379 -0.48000251283874379 0 -0.1559270581970803 -0.47678838232572268 0 -0.13724659116883831 -0.38156720383825199 0 -0.13696324729183901 -0.40051159333262831 0 -0.1562511533772393 -0.40085091578326698 0 -0.13696324729183901 -0.40051159333262831 0 -0.14428023194946249 -0.41611080081516499 0 -0.1562511533772393 -0.40085091578326698 0 -0.13724659116883831 -0.38156720383825199 0 -0.1562511533772393 -0.40085091578326698 0 -0.1663441030446621 -0.37717300760659073 0 -0.13724659116883831 -0.38156720383825199 0 -0.11827115974421661 -0.40327967795429231 0 -0.13724659116883831 -0.38156720383825199 0 -0.13696324729183901 -0.40051159333262831 0 -0.11827115974421661 -0.40327967795429231 0 -0.13696324729183901 -0.40051159333262831 0 -0.12597911368703019 -0.41952469120143437 0 -0.14428023194946249 -0.41611080081516499 0 -0.13696324729183901 -0.40051159333262831 0 -0.12597911368703019 -0.41952469120143437 0 -0.11827115974421661 -0.40327967795429231 0 -0.12597911368703019 -0.41952469120143437 0 -0.1438484805828521 -0.43705968193712769 0 -0.123519809913229 -0.43733662075251151 0 -0.12597911368703019 -0.41952469120143437 0 -0.1438484805828521 -0.43705968193712769 0 -0.14428023194946249 -0.41611080081516499 0 -0.1438484805828521 -0.43705968193712769 0 -0.16487953686040341 -0.43668708651363358 0 -0.1579375607246061 -0.42228606781690858 0 -0.1438484805828521 -0.43705968193712769 0 -0.14428023194946249 -0.41611080081516499 0 -0.1579375607246061 -0.42228606781690858 0 -0.14428023194946249 -0.41611080081516499 0 -0.1579375607246061 -0.42228606781690858 0 -0.1562511533772393 -0.40085091578326698 0 -0.1717517290487513 -0.41486076781395709 0 -0.1579375607246061 -0.42228606781690858 0 -0.1562511533772393 -0.40085091578326698 0 -0.1717517290487513 -0.41486076781395709 0 -0.16487953686040341 -0.43668708651363358 0 -0.1579375607246061 -0.42228606781690858 0 -0.1717517290487513 -0.41486076781395709 0 -0.16487953686040341 -0.43668708651363358 0 -0.19087809923939161 -0.44242625200982799 0 -0.16487953686040341 -0.43668708651363358 0 -0.18049207608238291 -0.42812424827546058 0 -0.1717517290487513 -0.41486076781395709 0 -0.16487953686040341 -0.43668708651363358 0 -0.18049207608238291 -0.42812424827546058 0 -0.1717517290487513 -0.41486076781395709 0 -0.18680736564207029 -0.41498853585306777 0 -0.17862392123709919 -0.39303444911428059 0 -0.1717517290487513 -0.41486076781395709 0 -0.18049207608238291 -0.42812424827546058 0 -0.18680736564207029 -0.41498853585306777 0 -0.18680736564207029 -0.41498853585306777 0 -0.17862392123709919 -0.39303444911428059 0 -0.19656737959219739 -0.40219111980173922 0 -0.1717517290487513 -0.41486076781395709 0 -0.17862392123709919 -0.39303444911428059 0 -0.1717517290487513 -0.41486076781395709 0 -0.17862392123709919 -0.39303444911428059 0 -0.1562511533772393 -0.40085091578326698 0 -0.17862392123709919 -0.39303444911428059 0 -0.1562511533772393 -0.40085091578326698 0 -0.1663441030446621 -0.37717300760659073 0 -0.17862392123709919 -0.39303444911428059 0 -0.1663441030446621 -0.37717300760659073 0 -0.1854961134254472 -0.37120813041460421 0 -0.17862392123709919 -0.39303444911428059 0 -0.1854961134254472 -0.37120813041460421 0 -0.17862392123709919 -0.39303444911428059 0 -0.20527564977482679 -0.38624161667098289 0 -0.1854961134254472 -0.37120813041460421 0 -0.17862392123709919 -0.39303444911428059 0 -0.19656737959219739 -0.40219111980173922 0 -0.20527564977482679 -0.38624161667098289 0 -0.20527564977482679 -0.38624161667098289 0 -0.2118432178570665 -0.41409151531568628 0 -0.2281799985799623 -0.39436158075255778 0 -0.19656737959219739 -0.40219111980173922 0 -0.20527564977482679 -0.38624161667098289 0 -0.2118432178570665 -0.41409151531568628 0 -0.20527564977482679 -0.38624161667098289 0 -0.2118432178570665 -0.41409151531568628 0 -0.20527564977482679 -0.38624161667098289 0 -0.22195794658956111 -0.37463091785279867 0 -0.21168543115216709 -0.36681117402183649 0 -0.20527564977482679 -0.38624161667098289 0 -0.2281799985799623 -0.39436158075255778 0 -0.22195794658956111 -0.37463091785279867 0 -0.18049207608238291 -0.42812424827546058 0 -0.18680736564207029 -0.41498853585306777 0 -0.19899408631087909 -0.4269358685541359 0 -0.19087809923939161 -0.44242625200982799 0 -0.18049207608238291 -0.42812424827546058 0 -0.19899408631087909 -0.4269358685541359 0 -0.21844010846223411 -0.44206575668227449 0 -0.19087809923939161 -0.44242625200982799 0 -0.19899408631087909 -0.4269358685541359 0 -0.18680736564207029 -0.41498853585306777 0 -0.19656737959219739 -0.40219111980173922 0 -0.2118432178570665 -0.41409151531568628 0 -0.18680736564207029 -0.41498853585306777 0 -0.19899408631087909 -0.4269358685541359 0 -0.2118432178570665 -0.41409151531568628 0 -0.18680736564207029 -0.41498853585306777 0 -0.2118432178570665 -0.41409151531568628 0 -0.21844010846223411 -0.44206575668227449 0 -0.19899408631087909 -0.4269358685541359 0 -0.2118432178570665 -0.41409151531568628 0 -0.21844010846223411 -0.44206575668227449 0 -0.2118432178570665 -0.41409151531568628 0 -0.21844010846223411 -0.44206575668227449 0 -0.2118432178570665 -0.41409151531568628 0 -0.23280677558438309 -0.43386548686292281 0 -0.2118432178570665 -0.41409151531568628 0 -0.23335673218814301 -0.41332069816832789 0 -0.2281799985799623 -0.39436158075255778 0 -0.2118432178570665 -0.41409151531568628 0 -0.23335673218814301 -0.41332069816832789 0 -0.2118432178570665 -0.41409151531568628 0 -0.23280677558438309 -0.43386548686292281 0 -0.23335673218814301 -0.41332069816832789 0 -0.25487024651921952 -0.41254988102096568 0 -0.23335673218814301 -0.41332069816832789 0 -0.25487024651921952 -0.41254988102096568 0 -0.23335673218814301 -0.41332069816832789 0 -0.24168551714563921 -0.4027948375671459 0 -0.25487024651921952 -0.41254988102096568 0 -0.23335673218814301 -0.41332069816832789 0 -0.2468605885266735 -0.43014712497011809 0 -0.23280677558438309 -0.43386548686292281 0 -0.23335673218814301 -0.41332069816832789 0 -0.2468605885266735 -0.43014712497011809 0 -0.2450571310604201 -0.44414202720417628 0 -0.23280677558438309 -0.43386548686292281 0 -0.2468605885266735 -0.43014712497011809 0 -0.2281799985799623 -0.39436158075255778 0 -0.2359431282162788 -0.37698905115118858 0 -0.22195794658956111 -0.37463091785279867 0 -0.25033509129523179 -0.39094719032673231 0 -0.2281799985799623 -0.39436158075255778 0 -0.24168551714563921 -0.4027948375671459 0 -0.25033509129523179 -0.39094719032673231 0 -0.25487024651921952 -0.41254988102096568 0 -0.24168551714563921 -0.4027948375671459 0 -0.23335673218814301 -0.41332069816832789 0 -0.2281799985799623 -0.39436158075255778 0 -0.24168551714563921 -0.4027948375671459 0 -0.25033509129523179 -0.39094719032673231 0 -0.2359431282162788 -0.37698905115118858 0 -0.24748772700216881 -0.3717564301773445 0 -0.25033509129523179 -0.39094719032673231 0 -0.2281799985799623 -0.39436158075255778 0 -0.2359431282162788 -0.37698905115118858 0 -0.25494538795031141 -0.36273054802101118 0 -0.24748772700216881 -0.3717564301773445 0 -0.24521251836493849 -0.35951647641646678 0 -0.24748772700216881 -0.3717564301773445 0 -0.24521251836493849 -0.35951647641646678 0 -0.23939899228441261 -0.3655962622813349 0 -0.23939899228441261 -0.3655962622813349 0 -0.23024759562621139 -0.36380396142485888 0 -0.23761117654761921 -0.35850429625613017 0 -0.24521251836493849 -0.35951647641646678 0 -0.23939899228441261 -0.3655962622813349 0 -0.23761117654761921 -0.35850429625613017 0 -0.2359431282162788 -0.37698905115118858 0 -0.23939899228441261 -0.3655962622813349 0 -0.23024759562621139 -0.36380396142485888 0 -0.2359431282162788 -0.37698905115118858 0 -0.24748772700216881 -0.3717564301773445 0 -0.23939899228441261 -0.3655962622813349 0 -0.2359431282162788 -0.37698905115118858 0 -0.23024759562621139 -0.36380396142485888 0 -0.22195794658956111 -0.37463091785279867 0 -0.23024759562621139 -0.36380396142485888 0 -0.22135664398937441 -0.36020929429952131 0 -0.2310785660723691 -0.35440187846705151 0 -0.23024759562621139 -0.36380396142485888 0 -0.22135664398937441 -0.36020929429952131 0 -0.22195794658956111 -0.37463091785279867 0 -0.22135664398937441 -0.36020929429952131 0 -0.22331676928072861 -0.34527245129667988 0 -0.2310785660723691 -0.35440187846705151 0 -0.23024759562621139 -0.36380396142485888 0 -0.2310785660723691 -0.35440187846705151 0 -0.23761117654761921 -0.35850429625613017 0 -0.22331676928072861 -0.34527245129667988 0 -0.2337118992122327 -0.34903918396608452 0 -0.23708401688859529 -0.34365007901650441 0 -0.22331676928072861 -0.34527245129667988 0 -0.2310785660723691 -0.35440187846705151 0 -0.2337118992122327 -0.34903918396608452 0 -0.26017799311385281 -0.35268912854855933 0 -0.24808760514302669 -0.3536558827211943 0 -0.2404133442166683 -0.34213832018255058 0 -0.2310785660723691 -0.35440187846705151 0 -0.2337118992122327 -0.34903918396608452 0 -0.2396887820693627 -0.35120494043738398 0 -0.26017799311385281 -0.35268912854855933 0 -0.24325210797206609 -0.34084931319650169 0 -0.2404133442166683 -0.34213832018255058 0 -0.2396887820693627 -0.35120494043738398 0 -0.23708401688859529 -0.34365007901650441 0 -0.2404133442166683 -0.34213832018255058 0 -0.2337118992122327 -0.34903918396608452 0 -0.2396887820693627 -0.35120494043738398 0 -0.23708401688859529 -0.34365007901650441 0 -0.2310785660723691 -0.35440187846705151 0 -0.2396887820693627 -0.35120494043738398 0 -0.23761117654761921 -0.35850429625613017 0 -0.24521251836493849 -0.35951647641646678 0 -0.2396887820693627 -0.35120494043738398 0 -0.23761117654761921 -0.35850429625613017 0 -0.24521251836493849 -0.35951647641646678 0 -0.2396887820693627 -0.35120494043738398 0 -0.24808760514302669 -0.3536558827211943 0 -0.25494538795031141 -0.36273054802101118 0 -0.24521251836493849 -0.35951647641646678 0 -0.24808760514302669 -0.3536558827211943 0 -0.2396887820693627 -0.35120494043738398 0 -0.24808760514302669 -0.3536558827211943 0 -0.2404133442166683 -0.34213832018255058 0 -0.24325210797206609 -0.34084931319650169 0 -0.24518994726652291 -0.33234415230164399 0 -0.23958942898634211 -0.33903199036576709 0 -0.24518994726652291 -0.33234415230164399 0 -0.23560348244150561 -0.32909319502054812 0 -0.23958942898634211 -0.33903199036576709 0 -0.23708401688859529 -0.34365007901650441 0 -0.2404133442166683 -0.34213832018255058 0 -0.24325210797206609 -0.34084931319650169 0 -0.2404133442166683 -0.34213832018255058 0 -0.23958942898634211 -0.33903199036576709 0 -0.24325210797206609 -0.34084931319650169 0 -0.2404133442166683 -0.34213832018255058 0 -0.24325210797206609 -0.34084931319650169 0 -0.23958942898634211 -0.33903199036576709 0 -0.25915672867891859 -0.31415112243359272 0 -0.24308922262768951 -0.32099342612622928 0 -0.24047089863443691 -0.30798947189970438 0 -0.24518994726652291 -0.33234415230164399 0 -0.23560348244150561 -0.32909319502054812 0 -0.24308922262768951 -0.32099342612622928 0 -0.23560348244150561 -0.32909319502054812 0 -0.24308922262768951 -0.32099342612622928 0 -0.22938765682563561 -0.32144886021699343 0 -0.24308922262768951 -0.32099342612622928 0 -0.22938765682563561 -0.32144886021699343 0 -0.23158309368585001 -0.31181085789310747 0 -0.24308922262768951 -0.32099342612622928 0 -0.24047089863443691 -0.30798947189970438 0 -0.23158309368585001 -0.31181085789310747 0 -0.22938765682563561 -0.32144886021699343 0 -0.23158309368585001 -0.31181085789310747 0 -0.22249387381410951 -0.31123320620709588 0 -0.23560348244150561 -0.32909319502054812 0 -0.22938765682563561 -0.32144886021699343 0 -0.22076115650133771 -0.33164754609210678 0 -0.22938765682563561 -0.32144886021699343 0 -0.22076115650133771 -0.33164754609210678 0 -0.2180259411870723 -0.31620608063285149 0 -0.22938765682563561 -0.32144886021699343 0 -0.2180259411870723 -0.31620608063285149 0 -0.22249387381410951 -0.31123320620709588 0 -0.22331676928072861 -0.34527245129667988 0 -0.23708401688859529 -0.34365007901650441 0 -0.22076115650133771 -0.33164754609210678 0 -0.23560348244150561 -0.32909319502054812 0 -0.23958942898634211 -0.33903199036576709 0 -0.22076115650133771 -0.33164754609210678 0 -0.2404133442166683 -0.34213832018255058 0 -0.22076115650133771 -0.33164754609210678 0 -0.2404133442166683 -0.34213832018255058 0 -0.23958942898634211 -0.33903199036576709 0 -0.22076115650133771 -0.33164754609210678 0 -0.23708401688859529 -0.34365007901650441 0 -0.2404133442166683 -0.34213832018255058 0 -0.22076115650133771 -0.33164754609210678 0 -0.22331676928072861 -0.34527245129667988 0 -0.22076115650133771 -0.33164754609210678 0 -0.20784983644103361 -0.34097302903627591 0 -0.22076115650133771 -0.33164754609210678 0 -0.20348412114368319 -0.33156666209817831 0 -0.20784983644103361 -0.34097302903627591 0 -0.2180259411870723 -0.31620608063285149 0 -0.19974136112887431 -0.31343603927203523 0 -0.20110896878600679 -0.32115677200166343 0 -0.22076115650133771 -0.33164754609210678 0 -0.2180259411870723 -0.31620608063285149 0 -0.20110896878600679 -0.32115677200166343 0 -0.22076115650133771 -0.33164754609210678 0 -0.20348412114368319 -0.33156666209817831 0 -0.20110896878600679 -0.32115677200166343 0 -0.22076115650133771 -0.33164754609210678 0 -0.20110896878600679 -0.32115677200166343 0 -0.2180259411870723 -0.31620608063285149 0 -0.19974136112887431 -0.31343603927203523 0 -0.20904493575850211 -0.30938578927939081 0 -0.2180259411870723 -0.31620608063285149 0 -0.19974136112887431 -0.31343603927203523 0 -0.19974136112887431 -0.31343603927203523 0 -0.20110896878600679 -0.32115677200166343 0 -0.1814567810706762 -0.3106659979112194 0 -0.20110896878600679 -0.32115677200166343 0 -0.1814567810706762 -0.3106659979112194 0 -0.20110896878600679 -0.32115677200166343 0 -0.19214051361034601 -0.33054181938157612 0 -0.1814567810706762 -0.3106659979112194 0 -0.20348412114368319 -0.33156666209817831 0 -0.20110896878600679 -0.32115677200166343 0 -0.19214051361034601 -0.33054181938157612 0 -0.20348412114368319 -0.33156666209817831 0 -0.20784983644103361 -0.34097302903627591 0 -0.19214051361034601 -0.33054181938157612 0 -0.20784983644103361 -0.34097302903627591 0 -0.19214051361034601 -0.33054181938157612 0 -0.20232946575910341 -0.34593351830387509 0 -0.19214051361034601 -0.33054181938157612 0 -0.19236830561379509 -0.34938181171492771 0 -0.18622265824693729 -0.34003474470360739 0 -0.19214051361034601 -0.33054181938157612 0 -0.19236830561379509 -0.34938181171492771 0 -0.19870808169258641 -0.35839171802627962 0 -0.19214051361034601 -0.33054181938157612 0 -0.19870808169258641 -0.35839171802627962 0 -0.19214051361034601 -0.33054181938157612 0 -0.20232946575910341 -0.34593351830387509 0 -0.19870808169258641 -0.35839171802627962 0 -0.19236830561379509 -0.34938181171492771 0 -0.1854961134254472 -0.37120813041460421 0 -0.20527564977482679 -0.38624161667098289 0 -0.19870808169258641 -0.35839171802627962 0 -0.20527564977482679 -0.38624161667098289 0 -0.19870808169258641 -0.35839171802627962 0 -0.1854961134254472 -0.37120813041460421 0 -0.19236830561379509 -0.34938181171492771 0 -0.19870808169258641 -0.35839171802627962 0 -0.1854961134254472 -0.37120813041460421 0 -0.20527564977482679 -0.38624161667098289 0 -0.19870808169258641 -0.35839171802627962 0 -0.21168543115216709 -0.36681117402183649 0 -0.19870808169258641 -0.35839171802627962 0 -0.21168543115216709 -0.36681117402183649 0 -0.21061943129244759 -0.3538275067713687 0 -0.22135664398937441 -0.36020929429952131 0 -0.22195794658956111 -0.37463091785279867 0 -0.21168543115216709 -0.36681117402183649 0 -0.22135664398937441 -0.36020929429952131 0 -0.21168543115216709 -0.36681117402183649 0 -0.21061943129244759 -0.3538275067713687 0 -0.22135664398937441 -0.36020929429952131 0 -0.22331676928072861 -0.34527245129667988 0 -0.21061943129244759 -0.3538275067713687 0 -0.22331676928072861 -0.34527245129667988 0 -0.20784983644103361 -0.34097302903627591 0 -0.21061943129244759 -0.3538275067713687 0 -0.20784983644103361 -0.34097302903627591 0 -0.20232946575910341 -0.34593351830387509 0 -0.21061943129244759 -0.3538275067713687 0 -0.20232946575910341 -0.34593351830387509 0 -0.19870808169258641 -0.35839171802627962 0 -0.21061943129244759 -0.3538275067713687 0 -0.22866545068461799 -0.25948943059043711 0 -0.21759888839251429 -0.26212753750200368 0 -0.22025275826160279 -0.2471257797298928 0 -0.22866545068461799 -0.25948943059043711 0 -0.22398633244919169 -0.27132847136955079 0 -0.21759888839251429 -0.26212753750200368 0 -0.22866545068461799 -0.25948943059043711 0 -0.23442911476228809 -0.24683612341654529 0 -0.22025275826160279 -0.2471257797298928 0 -0.22866545068461799 -0.25948943059043711 0 -0.24233717299785959 -0.25960849866204011 0 -0.23442911476228809 -0.24683612341654529 0 -0.2565674865322034 -0.25340195958415102 0 -0.24233717299785959 -0.25960849866204011 0 -0.25018128361314113 -0.24746468840205441 0 -0.22866545068461799 -0.25948943059043711 0 -0.24233717299785959 -0.25960849866204011 0 -0.2333815926018066 -0.27110706845475141 0 -0.24233717299785959 -0.25960849866204011 0 -0.2333815926018066 -0.27110706845475141 0 -0.24140403581614819 -0.28379898528087227 0 -0.24233717299785959 -0.25960849866204011 0 -0.24140403581614819 -0.28379898528087227 0 -0.24233717299785959 -0.25960849866204011 0 -0.2484323970602714 -0.27706385987730509 0 -0.24140403581614819 -0.28379898528087227 0 -0.25309751137434572 -0.26289123234143091 0 -0.24233717299785959 -0.25960849866204011 0 -0.2484323970602714 -0.27706385987730509 0 -0.2333815926018066 -0.27110706845475141 0 -0.2300547693907766 -0.28178467995593781 0 -0.24140403581614819 -0.28379898528087227 0 -0.2333815926018066 -0.27110706845475141 0 -0.22398633244919169 -0.27132847136955079 0 -0.2300547693907766 -0.28178467995593781 0 -0.22866545068461799 -0.25948943059043711 0 -0.2333815926018066 -0.27110706845475141 0 -0.22398633244919169 -0.27132847136955079 0 -0.22398633244919169 -0.27132847136955079 0 -0.21947311754018139 -0.28174823216008099 0 -0.2300547693907766 -0.28178467995593781 0 -0.21947311754018139 -0.28174823216008099 0 -0.22569627159534009 -0.29064390563822362 0 -0.2300547693907766 -0.28178467995593781 0 -0.21947311754018139 -0.28174823216008099 0 -0.22569627159534009 -0.29064390563822362 0 -0.21595054291829549 -0.29285447433738648 0 -0.22569627159534009 -0.29064390563822362 0 -0.22453607640027501 -0.29842387346705762 0 -0.21595054291829549 -0.29285447433738648 0 -0.22569627159534009 -0.29064390563822362 0 -0.2341156104824163 -0.28973116501788848 0 -0.23104294706112549 -0.29817392722980551 0 -0.22569627159534009 -0.29064390563822362 0 -0.23104294706112549 -0.29817392722980551 0 -0.22453607640027501 -0.29842387346705762 0 -0.22569627159534009 -0.29064390563822362 0 -0.2341156104824163 -0.28973116501788848 0 -0.2300547693907766 -0.28178467995593781 0 -0.25108388684634803 -0.28956965662021522 0 -0.24140403581614819 -0.28379898528087227 0 -0.24047089863443691 -0.30798947189970438 0 -0.2341156104824163 -0.28973116501788848 0 -0.24140403581614819 -0.28379898528087227 0 -0.24047089863443691 -0.30798947189970438 0 -0.24140403581614819 -0.28379898528087227 0 -0.24047089863443691 -0.30798947189970438 0 -0.2341156104824163 -0.28973116501788848 0 -0.2300547693907766 -0.28178467995593781 0 -0.24140403581614819 -0.28379898528087227 0 -0.25108388684634803 -0.28956965662021522 0 -0.2484323970602714 -0.27706385987730509 0 -0.24140403581614819 -0.28379898528087227 0 -0.25718459078837252 -0.29759752524363881 0 -0.25108388684634803 -0.28956965662021522 0 -0.24047089863443691 -0.30798947189970438 0 -0.2341156104824163 -0.28973116501788848 0 -0.24047089863443691 -0.30798947189970438 0 -0.23104294706112549 -0.29817392722980551 0 -0.24047089863443691 -0.30798947189970438 0 -0.23158309368585001 -0.31181085789310747 0 -0.2303958781931594 -0.30408122012615352 0 -0.23158309368585001 -0.31181085789310747 0 -0.2303958781931594 -0.30408122012615352 0 -0.2249978911063876 -0.30539226771637512 0 -0.24047089863443691 -0.30798947189970438 0 -0.23104294706112549 -0.29817392722980551 0 -0.2303958781931594 -0.30408122012615352 0 -0.23104294706112549 -0.29817392722980551 0 -0.2303958781931594 -0.30408122012615352 0 -0.22453607640027501 -0.29842387346705762 0 -0.2303958781931594 -0.30408122012615352 0 -0.22453607640027501 -0.29842387346705762 0 -0.2249978911063876 -0.30539226771637512 0 -0.22453607640027501 -0.29842387346705762 0 -0.2249978911063876 -0.30539226771637512 0 -0.21872282414136721 -0.30136563651957121 0 -0.22453607640027501 -0.29842387346705762 0 -0.21872282414136721 -0.30136563651957121 0 -0.21595054291829549 -0.29285447433738648 0 -0.22249387381410951 -0.31123320620709588 0 -0.2249978911063876 -0.30539226771637512 0 -0.21872282414136721 -0.30136563651957121 0 -0.23158309368585001 -0.31181085789310747 0 -0.22249387381410951 -0.31123320620709588 0 -0.2249978911063876 -0.30539226771637512 0 -0.22249387381410951 -0.31123320620709588 0 -0.20819654573008861 -0.30010144335043992 0 -0.2180259411870723 -0.31620608063285149 0 -0.2144403241224431 -0.30923162986744451 0 -0.20904493575850211 -0.30938578927939081 0 -0.22249387381410951 -0.31123320620709588 0 -0.2144403241224431 -0.30923162986744451 0 -0.20819654573008861 -0.30010144335043992 0 -0.2180259411870723 -0.31620608063285149 0 -0.22249387381410951 -0.31123320620709588 0 -0.2144403241224431 -0.30923162986744451 0 -0.21872282414136721 -0.30136563651957121 0 -0.20819654573008861 -0.30010144335043992 0 -0.21595054291829549 -0.29285447433738648 0 -0.22249387381410951 -0.31123320620709588 0 -0.21872282414136721 -0.30136563651957121 0 -0.20819654573008861 -0.30010144335043992 0 -0.20819654573008861 -0.30010144335043992 0 -0.20288915614788011 -0.30684576889979082 0 -0.200327377448308 -0.30070497350852549 0 -0.19974136112887431 -0.31343603927203523 0 -0.20904493575850211 -0.30938578927939081 0 -0.20288915614788011 -0.30684576889979082 0 -0.2144403241224431 -0.30923162986744451 0 -0.20819654573008861 -0.30010144335043992 0 -0.20904493575850211 -0.30938578927939081 0 -0.20819654573008861 -0.30010144335043992 0 -0.20904493575850211 -0.30938578927939081 0 -0.20288915614788011 -0.30684576889979082 0 -0.19974136112887431 -0.31343603927203523 0 -0.1814567810706762 -0.3106659979112194 0 -0.19974136112887431 -0.31343603927203523 0 -0.20288915614788011 -0.30684576889979082 0 -0.19308950921137841 -0.30535425612401718 0 -0.19974136112887431 -0.31343603927203523 0 -0.19308950921137841 -0.30535425612401718 0 -0.1814567810706762 -0.3106659979112194 0 -0.19308950921137841 -0.30535425612401718 0 -0.1899902243989981 -0.29832565749187118 0 -0.1817779539512053 -0.30255714357571323 0 -0.19308950921137841 -0.30535425612401718 0 -0.1899902243989981 -0.29832565749187118 0 -0.200327377448308 -0.30070497350852549 0 -0.20288915614788011 -0.30684576889979082 0 -0.19308950921137841 -0.30535425612401718 0 -0.200327377448308 -0.30070497350852549 0 -0.20819654573008861 -0.30010144335043992 0 -0.19389921764606771 -0.28896968049378402 0 -0.200327377448308 -0.30070497350852549 0 -0.19389921764606771 -0.28896968049378402 0 -0.20819654573008861 -0.30010144335043992 0 -0.200327377448308 -0.30070497350852549 0 -0.19389921764606771 -0.28896968049378402 0 -0.20819654573008861 -0.30010144335043992 0 -0.19389921764606771 -0.28896968049378402 0 -0.2049502680629153 -0.28953974020436019 0 -0.1899902243989981 -0.29832565749187118 0 -0.19389921764606771 -0.28896968049378402 0 -0.18066470514172869 -0.29420676669921531 0 -0.1899902243989981 -0.29832565749187118 0 -0.200327377448308 -0.30070497350852549 0 -0.19389921764606771 -0.28896968049378402 0 -0.19389921764606771 -0.28896968049378402 0 -0.18643891475010321 -0.2753500999052107 0 -0.19389921764606771 -0.28896968049378402 0 -0.1815972113741586 -0.27939145610981342 0 -0.19389921764606771 -0.28896968049378402 0 -0.2049502680629153 -0.28953974020436019 0 -0.20163083764207049 -0.27816255368004889 0 -0.2099333729274668 -0.28317129254800538 0 -0.2049502680629153 -0.28953974020436019 0 -0.20163083764207049 -0.27816255368004889 0 -0.2099333729274668 -0.28317129254800538 0 -0.2049502680629153 -0.28953974020436019 0 -0.21595054291829549 -0.29285447433738648 0 -0.20819654573008861 -0.30010144335043992 0 -0.2049502680629153 -0.28953974020436019 0 -0.21595054291829549 -0.29285447433738648 0 -0.21947311754018139 -0.28174823216008099 0 -0.2099333729274668 -0.28317129254800538 0 -0.21595054291829549 -0.29285447433738648 0 -0.2117440640613063 -0.2714560660025862 0 -0.20163083764207049 -0.27816255368004889 0 -0.20334583650585281 -0.26123793981755161 0 -0.22398633244919169 -0.27132847136955079 0 -0.21947311754018139 -0.28174823216008099 0 -0.2117440640613063 -0.2714560660025862 0 -0.21947311754018139 -0.28174823216008099 0 -0.2099333729274668 -0.28317129254800538 0 -0.2117440640613063 -0.2714560660025862 0 -0.22398633244919169 -0.27132847136955079 0 -0.2117440640613063 -0.2714560660025862 0 -0.21759888839251429 -0.26212753750200368 0 -0.2099333729274668 -0.28317129254800538 0 -0.2117440640613063 -0.2714560660025862 0 -0.20163083764207049 -0.27816255368004889 0 -0.20163083764207049 -0.27816255368004889 0 -0.20334583650585281 -0.26123793981755161 0 -0.18643891475010321 -0.2753500999052107 0 -0.20334583650585281 -0.26123793981755161 0 -0.18643891475010321 -0.2753500999052107 0 -0.1892261620383611 -0.26071341320317981 0 -0.20334583650585281 -0.26123793981755161 0 -0.18643891475010321 -0.2753500999052107 0 -0.19389921764606771 -0.28896968049378402 0 -0.20163083764207049 -0.27816255368004889 0 -0.18643891475010321 -0.2753500999052107 0 -0.1892261620383611 -0.26071341320317981 0 -0.20334583650585281 -0.26123793981755161 0 -0.1971211098569064 -0.2485562144643311 0 -0.20334583650585281 -0.26123793981755161 0 -0.21759888839251429 -0.26212753750200368 0 -0.22025275826160279 -0.2471257797298928 0 -0.20334583650585281 -0.26123793981755161 0 -0.22025275826160279 -0.2471257797298928 0 -0.20334583650585281 -0.26123793981755161 0 -0.1971211098569064 -0.2485562144643311 0 -0.22025275826160279 -0.2471257797298928 0 -0.2117440640613063 -0.2714560660025862 0 -0.20334583650585281 -0.26123793981755161 0 -0.21759888839251429 -0.26212753750200368 0 -0.15821309250511281 -0.26118480488572993 0 -0.17536452169406261 -0.25513261131262932 0 -0.1815972113741586 -0.27939145610981342 0 -0.15821309250511281 -0.26118480488572993 0 -0.17536452169406261 -0.25513261131262932 0 -0.15566934165753701 -0.24482136105764621 0 -0.1892261620383611 -0.26071341320317981 0 -0.17536452169406261 -0.25513261131262932 0 -0.1971211098569064 -0.2485562144643311 0 -0.1892261620383611 -0.26071341320317981 0 -0.17536452169406261 -0.25513261131262932 0 -0.18643891475010321 -0.2753500999052107 0 -0.17536452169406261 -0.25513261131262932 0 -0.18643891475010321 -0.2753500999052107 0 -0.17536452169406261 -0.25513261131262932 0 -0.18643891475010321 -0.2753500999052107 0 -0.1815972113741586 -0.27939145610981342 0 -0.19389921764606771 -0.28896968049378402 0 -0.18643891475010321 -0.2753500999052107 0 -0.1815972113741586 -0.27939145610981342 0 -0.18643891475010321 -0.2753500999052107 0 -0.1815972113741586 -0.27939145610981342 0 -0.15821309250511281 -0.26118480488572993 0 -0.1815972113741586 -0.27939145610981342 0 -0.1605334253196628 -0.27705414769848019 0 -0.15821309250511281 -0.26118480488572993 0 -0.1815972113741586 -0.27939145610981342 0 -0.1605334253196628 -0.27705414769848019 0 -0.16662117086531369 -0.29189191504570172 0 -0.1460397447830028 -0.28392096720827609 0 -0.1815972113741586 -0.27939145610981342 0 -0.1605334253196628 -0.27705414769848019 0 -0.16662117086531369 -0.29189191504570172 0 -0.16662117086531369 -0.29189191504570172 0 -0.18066470514172869 -0.29420676669921531 0 -0.16807172941449361 -0.30108874618849107 0 -0.1815972113741586 -0.27939145610981342 0 -0.16662117086531369 -0.29189191504570172 0 -0.1815972113741586 -0.27939145610981342 0 -0.16662117086531369 -0.29189191504570172 0 -0.18066470514172869 -0.29420676669921531 0 -0.19389921764606771 -0.28896968049378402 0 -0.1815972113741586 -0.27939145610981342 0 -0.18066470514172869 -0.29420676669921531 0 -0.18066470514172869 -0.29420676669921531 0 -0.1817779539512053 -0.30255714357571323 0 -0.16807172941449361 -0.30108874618849107 0 -0.1817779539512053 -0.30255714357571323 0 -0.17538193411824851 -0.30742310974349601 0 -0.16807172941449361 -0.30108874618849107 0 -0.1899902243989981 -0.29832565749187118 0 -0.18066470514172869 -0.29420676669921531 0 -0.1817779539512053 -0.30255714357571323 0 -0.19308950921137841 -0.30535425612401718 0 -0.1817779539512053 -0.30255714357571323 0 -0.1814567810706762 -0.3106659979112194 0 -0.1817779539512053 -0.30255714357571323 0 -0.1814567810706762 -0.3106659979112194 0 -0.17538193411824851 -0.30742310974349601 0 -0.1814567810706762 -0.3106659979112194 0 -0.17538193411824851 -0.30742310974349601 0 -0.1814567810706762 -0.3106659979112194 0 -0.17538193411824851 -0.30742310974349601 0 -0.1521471234576928 -0.30622570102712859 0 -0.16662117086531369 -0.29189191504570172 0 -0.16807172941449361 -0.30108874618849107 0 -0.15164513035647001 -0.30439237398159158 0 -0.17538193411824851 -0.30742310974349601 0 -0.16807172941449361 -0.30108874618849107 0 -0.1521471234576928 -0.30622570102712859 0 -0.16807172941449361 -0.30108874618849107 0 -0.1521471234576928 -0.30622570102712859 0 -0.15164513035647001 -0.30439237398159158 0 -0.1814567810706762 -0.3106659979112194 0 -0.1521471234576928 -0.30622570102712859 0 -0.16662117086531369 -0.29189191504570172 0 -0.15164513035647001 -0.30439237398159158 0 -0.14986325126998301 -0.30587970344869631 0 -0.1472482395654931 -0.30806244637126978 0 -0.13137693926794269 -0.30307910049847142 0 -0.14986325126998301 -0.30587970344869631 0 -0.13137693926794269 -0.30307910049847142 0 -0.14191197011226919 -0.29595195204747682 0 -0.1521471234576928 -0.30622570102712859 0 -0.15536928910057479 -0.31799335959440589 0 -0.1521471234576928 -0.30622570102712859 0 -0.1472482395654931 -0.30806244637126978 0 -0.1481744133336001 -0.31559103279323952 0 -0.1521471234576928 -0.30622570102712859 0 -0.14986325126998301 -0.30587970344869631 0 -0.1472482395654931 -0.30806244637126978 0 -0.1521471234576928 -0.30622570102712859 0 -0.14986325126998301 -0.30587970344869631 0 -0.15164513035647001 -0.30439237398159158 0 -0.1521471234576928 -0.30622570102712859 0 -0.14986325126998301 -0.30587970344869631 0 -0.1521471234576928 -0.30622570102712859 0 -0.15164513035647001 -0.30439237398159158 0 -0.14986325126998301 -0.30587970344869631 0 -0.15164513035647001 -0.30439237398159158 0 -0.14986325126998301 -0.30587970344869631 0 -0.1472482395654931 -0.30806244637126978 0 -0.14986325126998301 -0.30587970344869631 0 -0.15164513035647001 -0.30439237398159158 0 -0.14191197011226919 -0.29595195204747682 0 -0.1472482395654931 -0.30806244637126978 0 -0.13676428411235661 -0.311985534419285 0 -0.1481744133336001 -0.31559103279323952 0 -0.14986325126998301 -0.30587970344869631 0 -0.13137693926794269 -0.30307910049847142 0 -0.1472482395654931 -0.30806244637126978 0 -0.13676428411235661 -0.311985534419285 0 -0.13137693926794269 -0.30307910049847142 0 -0.13137693926794269 -0.30307910049847142 0 -0.14191197011226919 -0.29595195204747682 0 -0.12354370332633501 -0.29237215235494779 0 -0.13676428411235661 -0.311985534419285 0 -0.13137693926794269 -0.30307910049847142 0 -0.12202825811921469 -0.30947938976295097 0 -0.1460397447830028 -0.28392096720827609 0 -0.14191197011226919 -0.29595195204747682 0 -0.13317406737037779 -0.2802173890703723 0 -0.14191197011226919 -0.29595195204747682 0 -0.13317406737037779 -0.2802173890703723 0 -0.12354370332633501 -0.29237215235494779 0 -0.13317406737037779 -0.2802173890703723 0 -0.121176560474238 -0.27855216134530347 0 -0.12354370332633501 -0.29237215235494779 0 -0.16662117086531369 -0.29189191504570172 0 -0.15164513035647001 -0.30439237398159158 0 -0.1460397447830028 -0.28392096720827609 0 -0.15164513035647001 -0.30439237398159158 0 -0.1460397447830028 -0.28392096720827609 0 -0.14191197011226919 -0.29595195204747682 0 -0.15164513035647001 -0.30439237398159158 0 -0.1460397447830028 -0.28392096720827609 0 -0.1460397447830028 -0.28392096720827609 0 -0.14043435920953651 -0.26344956043496021 0 -0.1605334253196628 -0.27705414769848019 0 -0.1460397447830028 -0.28392096720827609 0 -0.14043435920953651 -0.26344956043496021 0 -0.15821309250511281 -0.26118480488572993 0 -0.1605334253196628 -0.27705414769848019 0 -0.14043435920953651 -0.26344956043496021 0 -0.13317406737037779 -0.2802173890703723 0 -0.1259380663168852 -0.26705754103126977 0 -0.14043435920953651 -0.26344956043496021 0 -0.1460397447830028 -0.28392096720827609 0 -0.13317406737037779 -0.2802173890703723 0 -0.14043435920953651 -0.26344956043496021 0 -0.13317406737037779 -0.2802173890703723 0 -0.1259380663168852 -0.26705754103126977 0 -0.121176560474238 -0.27855216134530347 0 -0.14043435920953651 -0.26344956043496021 0 -0.1283361407779757 -0.25159171728621699 0 -0.13482897363606841 -0.24297815366164491 0 -0.14043435920953651 -0.26344956043496021 0 -0.13482897363606841 -0.24297815366164491 0 -0.1259380663168852 -0.26705754103126977 0 -0.14043435920953651 -0.26344956043496021 0 -0.1283361407779757 -0.25159171728621699 0 -0.15821309250511281 -0.26118480488572993 0 -0.13482897363606841 -0.24297815366164491 0 -0.15821309250511281 -0.26118480488572993 0 -0.14043435920953651 -0.26344956043496021 0 -0.13482897363606841 -0.24297815366164491 0 -0.17697510949039719 -0.35596577996135209 0 -0.17519745401808179 -0.33814225560617162 0 -0.1562220225934601 -0.35985472972221177 0 -0.17519745401808179 -0.33814225560617162 0 -0.1532624182972378 -0.33871633494107939 0 -0.1562220225934601 -0.35985472972221177 0 -0.17519745401808179 -0.33814225560617162 0 -0.1562220225934601 -0.35985472972221177 0 -0.1663441030446621 -0.37717300760659073 0 -0.17697510949039719 -0.35596577996135209 0 -0.1562220225934601 -0.35985472972221177 0 -0.1663441030446621 -0.37717300760659073 0 -0.1854961134254472 -0.37120813041460421 0 -0.17697510949039719 -0.35596577996135209 0 -0.19236830561379509 -0.34938181171492771 0 -0.1854961134254472 -0.37120813041460421 0 -0.17697510949039719 -0.35596577996135209 0 -0.17697510949039719 -0.35596577996135209 0 -0.17519745401808179 -0.33814225560617162 0 -0.18622265824693729 -0.34003474470360739 0 -0.19236830561379509 -0.34938181171492771 0 -0.17697510949039719 -0.35596577996135209 0 -0.18622265824693729 -0.34003474470360739 0 -0.19214051361034601 -0.33054181938157612 0 -0.17519745401808179 -0.33814225560617162 0 -0.18622265824693729 -0.34003474470360739 0 -0.19214051361034601 -0.33054181938157612 0 -0.17519745401808179 -0.33814225560617162 0 -0.17075841890319021 -0.32267991232295651 0 -0.19214051361034601 -0.33054181938157612 0 -0.1814567810706762 -0.3106659979112194 0 -0.17075841890319021 -0.32267991232295651 0 -0.1814567810706762 -0.3106659979112194 0 -0.1521471234576928 -0.30622570102712859 0 -0.17075841890319021 -0.32267991232295651 0 -0.1521471234576928 -0.30622570102712859 0 -0.17075841890319021 -0.32267991232295651 0 -0.15536928910057479 -0.31799335959440589 0 -0.17075841890319021 -0.32267991232295651 0 -0.15536928910057479 -0.31799335959440589 0 -0.15041885550205389 -0.32708722206771829 0 -0.17519745401808179 -0.33814225560617162 0 -0.17075841890319021 -0.32267991232295651 0 -0.1532624182972378 -0.33871633494107939 0 -0.17075841890319021 -0.32267991232295651 0 -0.1532624182972378 -0.33871633494107939 0 -0.15041885550205389 -0.32708722206771829 0 -0.1532624182972378 -0.33871633494107939 0 -0.15041885550205389 -0.32708722206771829 0 -0.13403844172661231 -0.33095488736429202 0 -0.15041885550205389 -0.32708722206771829 0 -0.14028103823900179 -0.32077908792264309 0 -0.13403844172661231 -0.33095488736429202 0 -0.15536928910057479 -0.31799335959440589 0 -0.15041885550205389 -0.32708722206771829 0 -0.1481744133336001 -0.31559103279323952 0 -0.1521471234576928 -0.30622570102712859 0 -0.15536928910057479 -0.31799335959440589 0 -0.1481744133336001 -0.31559103279323952 0 -0.15041885550205389 -0.32708722206771829 0 -0.1481744133336001 -0.31559103279323952 0 -0.14028103823900179 -0.32077908792264309 0 -0.13676428411235661 -0.311985534419285 0 -0.1481744133336001 -0.31559103279323952 0 -0.14028103823900179 -0.32077908792264309 0 -0.13676428411235661 -0.311985534419285 0 -0.14028103823900179 -0.32077908792264309 0 -0.12839564496088529 -0.32005881249807028 0 -0.14028103823900179 -0.32077908792264309 0 -0.12839564496088529 -0.32005881249807028 0 -0.13403844172661231 -0.33095488736429202 0 -0.12839564496088529 -0.32005881249807028 0 -0.13403844172661231 -0.33095488736429202 0 -0.1231279148664025 -0.32697127933959502 0 -0.13676428411235661 -0.311985534419285 0 -0.12839564496088529 -0.32005881249807028 0 -0.12202825811921469 -0.30947938976295097 0 -0.13403844172661231 -0.33095488736429202 0 -0.13290241802702499 -0.35265178330474523 0 -0.1166361947753133 -0.33638206822001748 0 -0.1532624182972378 -0.33871633494107939 0 -0.13403844172661231 -0.33095488736429202 0 -0.13290241802702499 -0.35265178330474523 0 -0.1532624182972378 -0.33871633494107939 0 -0.13290241802702499 -0.35265178330474523 0 -0.1562220225934601 -0.35985472972221177 0 -0.13724659116883831 -0.38156720383825199 0 -0.13290241802702499 -0.35265178330474523 0 -0.1562220225934601 -0.35985472972221177 0 -0.13724659116883831 -0.38156720383825199 0 -0.1663441030446621 -0.37717300760659073 0 -0.1562220225934601 -0.35985472972221177 0 -0.13724659116883831 -0.38156720383825199 0 -0.1562220225934601 -0.35985472972221177 0 -0.13724659116883831 -0.38156720383825199 0 -0.13290241802702499 -0.35265178330474523 0 -0.1192781490478088 -0.36668410834504778 0 -0.1192781490478088 -0.36668410834504778 0 -0.1016352808315869 -0.36700177770792092 0 -0.11220573075163159 -0.38220411347121069 0 -0.1192781490478088 -0.36668410834504778 0 -0.1016352808315869 -0.36700177770792092 0 -0.1099844304083452 -0.35257743562026572 0 -0.1016352808315869 -0.36700177770792092 0 -0.091783481537845241 -0.36974840743822202 0 -0.093334558199797538 -0.36412034719781128 0 -0.1016352808315869 -0.36700177770792092 0 -0.094364811557621053 -0.35389299716276579 0 -0.093334558199797538 -0.36412034719781128 0 -0.1016352808315869 -0.36700177770792092 0 -0.091783481537845241 -0.36974840743822202 0 -0.093814789784828018 -0.38091150164421111 0 -0.094364811557621053 -0.35389299716276579 0 -0.1099844304083452 -0.35257743562026572 0 -0.096042697554356071 -0.3397062417384924 0 -0.1016352808315869 -0.36700177770792092 0 -0.094364811557621053 -0.35389299716276579 0 -0.1099844304083452 -0.35257743562026572 0 -0.13290241802702499 -0.35265178330474523 0 -0.1099844304083452 -0.35257743562026572 0 -0.1166361947753133 -0.33638206822001748 0 -0.13290241802702499 -0.35265178330474523 0 -0.1192781490478088 -0.36668410834504778 0 -0.1099844304083452 -0.35257743562026572 0 -0.13403844172661231 -0.33095488736429202 0 -0.1166361947753133 -0.33638206822001748 0 -0.1231279148664025 -0.32697127933959502 0 -0.1166361947753133 -0.33638206822001748 0 -0.1152881905332649 -0.31967160768574748 0 -0.098893476597157901 -0.32632392269665411 0 -0.1166361947753133 -0.33638206822001748 0 -0.1231279148664025 -0.32697127933959502 0 -0.1152881905332649 -0.31967160768574748 0 -0.12839564496088529 -0.32005881249807028 0 -0.1152881905332649 -0.31967160768574748 0 -0.12202825811921469 -0.30947938976295097 0 -0.12839564496088529 -0.32005881249807028 0 -0.1231279148664025 -0.32697127933959502 0 -0.1152881905332649 -0.31967160768574748 0 -0.1152881905332649 -0.31967160768574748 0 -0.11397155121489801 -0.30848478901155318 0 -0.10823649018657309 -0.3106210867482716 0 -0.1152881905332649 -0.31967160768574748 0 -0.12202825811921469 -0.30947938976295097 0 -0.11397155121489801 -0.30848478901155318 0 -0.1152881905332649 -0.31967160768574748 0 -0.098893476597157901 -0.32632392269665411 0 -0.10823649018657309 -0.3106210867482716 0 -0.1166361947753133 -0.33638206822001748 0 -0.098893476597157901 -0.32632392269665411 0 -0.096042697554356071 -0.3397062417384924 0 -0.1099844304083452 -0.35257743562026572 0 -0.1166361947753133 -0.33638206822001748 0 -0.096042697554356071 -0.3397062417384924 0 -0.081273045807338212 -0.32012122354728773 0 -0.072383893537199012 -0.33396092306611819 0 -0.082523744249277803 -0.34494336359321798 0 -0.081273045807338212 -0.32012122354728773 0 -0.082523744249277803 -0.34494336359321798 0 -0.096042697554356071 -0.3397062417384924 0 -0.081273045807338212 -0.32012122354728773 0 -0.082523744249277803 -0.34494336359321798 0 -0.098893476597157901 -0.32632392269665411 0 -0.096042697554356071 -0.3397062417384924 0 -0.081273045807338212 -0.32012122354728773 0 -0.098893476597157901 -0.32632392269665411 0 -0.081273045807338212 -0.32012122354728773 0 -0.088490963390462057 -0.3073149594937738 0 -0.081273045807338212 -0.32012122354728773 0 -0.06349485352407537 -0.31994243130957151 0 -0.072383893537199012 -0.33396092306611819 0 -0.081273045807338212 -0.32012122354728773 0 -0.06349485352407537 -0.31994243130957151 0 -0.071882199735688629 -0.30989172464331072 0 -0.06349485352407537 -0.31994243130957151 0 -0.072383893537199012 -0.33396092306611819 0 -0.062587044379988993 -0.33886333000968721 0 -0.072383893537199012 -0.33396092306611819 0 -0.072040779725314613 -0.34593426687082662 0 -0.082523744249277803 -0.34494336359321798 0 -0.072383893537199012 -0.33396092306611819 0 -0.062587044379988993 -0.33886333000968721 0 -0.072040779725314613 -0.34593426687082662 0 -0.062587044379988993 -0.33886333000968721 0 -0.072040779725314613 -0.34593426687082662 0 -0.05778126825204781 -0.35817517109810632 0 -0.081484465201393491 -0.35485127927681481 0 -0.05778126825204781 -0.35817517109810632 0 -0.072289445743601369 -0.36429171085611578 0 -0.081484465201393491 -0.35485127927681481 0 -0.05778126825204781 -0.35817517109810632 0 -0.072040779725314613 -0.34593426687082662 0 -0.081484465201393491 -0.35485127927681481 0 -0.05778126825204781 -0.35817517109810632 0 -0.066117606829746781 -0.37437488941039382 0 -0.072289445743601369 -0.36429171085611578 0 -0.05778126825204781 -0.35817517109810632 0 -0.066117606829746781 -0.37437488941039382 0 -0.072289445743601369 -0.36429171085611578 0 -0.083774442691217046 -0.36976550363914829 0 -0.072289445743601369 -0.36429171085611578 0 -0.083774442691217046 -0.36976550363914829 0 -0.081484465201393491 -0.35485127927681481 0 -0.085554658872136979 -0.36583820648233678 0 -0.083774442691217046 -0.36976550363914829 0 -0.082523744249277803 -0.34494336359321798 0 -0.085554658872136979 -0.36583820648233678 0 -0.083774442691217046 -0.36976550363914829 0 -0.083774442691217046 -0.36976550363914829 0 -0.091783481537845241 -0.36974840743822202 0 -0.093814789784828018 -0.38091150164421111 0 -0.085554658872136979 -0.36583820648233678 0 -0.083774442691217046 -0.36976550363914829 0 -0.091783481537845241 -0.36974840743822202 0 -0.094364811557621053 -0.35389299716276579 0 -0.085554658872136979 -0.36583820648233678 0 -0.093334558199797538 -0.36412034719781128 0 -0.085554658872136979 -0.36583820648233678 0 -0.091783481537845241 -0.36974840743822202 0 -0.093334558199797538 -0.36412034719781128 0 -0.094364811557621053 -0.35389299716276579 0 -0.085554658872136979 -0.36583820648233678 0 -0.082523744249277803 -0.34494336359321798 0 -0.083774442691217046 -0.36976550363914829 0 -0.082523744249277803 -0.34494336359321798 0 -0.083774442691217046 -0.36976550363914829 0 -0.082523744249277803 -0.34494336359321798 0 -0.081484465201393491 -0.35485127927681481 0 -0.094364811557621053 -0.35389299716276579 0 -0.096042697554356071 -0.3397062417384924 0 -0.082523744249277803 -0.34494336359321798 0 -0.072040779725314613 -0.34593426687082662 0 -0.082523744249277803 -0.34494336359321798 0 -0.081484465201393491 -0.35485127927681481 0 -0.101475907254733 -0.26829823342826459 0 -0.093680051977193257 -0.25300014610948141 0 -0.1025516661405015 -0.24412656761791199 0 -0.1097432552782682 -0.2572086698476283 0 -0.101475907254733 -0.26829823342826459 0 -0.1025516661405015 -0.24412656761791199 0 -0.101475907254733 -0.26829823342826459 0 -0.1025516661405015 -0.24412656761791199 0 -0.101475907254733 -0.26829823342826459 0 -0.092490388530258719 -0.26367462890309928 0 -0.093680051977193257 -0.25300014610948141 0 -0.1097432552782682 -0.2572086698476283 0 -0.11415052326640381 -0.26847741843797612 0 -0.101475907254733 -0.26829823342826459 0 -0.1097432552782682 -0.2572086698476283 0 -0.1183855941197941 -0.25651062511641259 0 -0.1121525856099083 -0.24863050463757599 0 -0.1283361407779757 -0.25159171728621699 0 -0.1183855941197941 -0.25651062511641259 0 -0.11992695639240671 -0.24305274461581289 0 -0.1259380663168852 -0.26705754103126977 0 -0.1183855941197941 -0.25651062511641259 0 -0.11415052326640381 -0.26847741843797612 0 -0.1259380663168852 -0.26705754103126977 0 -0.1283361407779757 -0.25159171728621699 0 -0.1183855941197941 -0.25651062511641259 0 -0.1097432552782682 -0.2572086698476283 0 -0.1183855941197941 -0.25651062511641259 0 -0.11415052326640381 -0.26847741843797612 0 -0.1259380663168852 -0.26705754103126977 0 -0.11415052326640381 -0.26847741843797612 0 -0.121176560474238 -0.27855216134530347 0 -0.11415052326640381 -0.26847741843797612 0 -0.121176560474238 -0.27855216134530347 0 -0.112272911659429 -0.28340806039222649 0 -0.101475907254733 -0.26829823342826459 0 -0.1004001483689636 -0.29246989923861699 0 -0.089806853404465051 -0.2713401455271785 0 -0.101475907254733 -0.26829823342826459 0 -0.1004001483689636 -0.29246989923861699 0 -0.11415052326640381 -0.26847741843797612 0 -0.101475907254733 -0.26829823342826459 0 -0.112272911659429 -0.28340806039222649 0 -0.101475907254733 -0.26829823342826459 0 -0.089806853404465051 -0.2713401455271785 0 -0.092490388530258719 -0.26367462890309928 0 -0.1004001483689636 -0.29246989923861699 0 -0.112272911659429 -0.28340806039222649 0 -0.11289062726590229 -0.30027849754824781 0 -0.101475907254733 -0.26829823342826459 0 -0.1004001483689636 -0.29246989923861699 0 -0.112272911659429 -0.28340806039222649 0 -0.1004001483689636 -0.29246989923861699 0 -0.10013860532164209 -0.29834661679915908 0 -0.1004001483689636 -0.29246989923861699 0 -0.11289062726590229 -0.30027849754824781 0 -0.112272911659429 -0.28340806039222649 0 -0.12354370332633501 -0.29237215235494779 0 -0.11289062726590229 -0.30027849754824781 0 -0.121176560474238 -0.27855216134530347 0 -0.112272911659429 -0.28340806039222649 0 -0.12354370332633501 -0.29237215235494779 0 -0.13137693926794269 -0.30307910049847142 0 -0.11289062726590229 -0.30027849754824781 0 -0.13137693926794269 -0.30307910049847142 0 -0.11289062726590229 -0.30027849754824781 0 -0.12202825811921469 -0.30947938976295097 0 -0.13137693926794269 -0.30307910049847142 0 -0.12354370332633501 -0.29237215235494779 0 -0.11289062726590229 -0.30027849754824781 0 -0.11289062726590229 -0.30027849754824781 0 -0.11397155121489801 -0.30848478901155318 0 -0.10823649018657309 -0.3106210867482716 0 -0.11289062726590229 -0.30027849754824781 0 -0.12202825811921469 -0.30947938976295097 0 -0.11397155121489801 -0.30848478901155318 0 -0.098893476597157901 -0.32632392269665411 0 -0.10013860532164209 -0.29834661679915908 0 -0.098893476597157901 -0.32632392269665411 0 -0.10013860532164209 -0.29834661679915908 0 -0.088490963390462057 -0.3073149594937738 0 -0.098893476597157901 -0.32632392269665411 0 -0.10823649018657309 -0.3106210867482716 0 -0.10013860532164209 -0.29834661679915908 0 -0.11289062726590229 -0.30027849754824781 0 -0.10013860532164209 -0.29834661679915908 0 -0.1004001483689636 -0.29246989923861699 0 -0.11289062726590229 -0.30027849754824781 0 -0.10013860532164209 -0.29834661679915908 0 -0.11289062726590229 -0.30027849754824781 0 -0.10823649018657309 -0.3106210867482716 0 -0.10013860532164209 -0.29834661679915908 0 -0.081273045807338212 -0.32012122354728773 0 -0.075730545320634307 -0.30237183499028841 0 -0.080022347365398816 -0.29529908350135742 0 -0.081273045807338212 -0.32012122354728773 0 -0.088490963390462057 -0.3073149594937738 0 -0.080022347365398816 -0.29529908350135742 0 -0.10013860532164209 -0.29834661679915908 0 -0.088490963390462057 -0.3073149594937738 0 -0.080022347365398816 -0.29529908350135742 0 -0.081273045807338212 -0.32012122354728773 0 -0.080022347365398816 -0.29529908350135742 0 -0.06349485352407537 -0.31994243130957151 0 -0.067929239438661637 -0.29744245220773302 0 -0.06349485352407537 -0.31994243130957151 0 -0.067929239438661637 -0.29744245220773302 0 -0.05709164511789562 -0.30596989755068921 0 -0.081273045807338212 -0.32012122354728773 0 -0.071882199735688629 -0.30989172464331072 0 -0.075730545320634307 -0.30237183499028841 0 -0.06349485352407537 -0.31994243130957151 0 -0.071882199735688629 -0.30989172464331072 0 -0.067929239438661637 -0.29744245220773302 0 -0.067929239438661637 -0.29744245220773302 0 -0.075730545320634307 -0.30237183499028841 0 -0.074800211398343183 -0.29676828128919502 0 -0.071882199735688629 -0.30989172464331072 0 -0.067929239438661637 -0.29744245220773302 0 -0.075730545320634307 -0.30237183499028841 0 -0.075730545320634307 -0.30237183499028841 0 -0.074800211398343183 -0.29676828128919502 0 -0.080022347365398816 -0.29529908350135742 0 -0.067929239438661637 -0.29744245220773302 0 -0.072363625353247057 -0.27494247310589431 0 -0.074800211398343183 -0.29676828128919502 0 -0.075988861669628593 -0.29203098004520328 0 -0.080022347365398816 -0.29529908350135742 0 -0.067929239438661637 -0.29744245220773302 0 -0.063481929201992804 -0.28659419931659808 0 -0.072363625353247057 -0.27494247310589431 0 -0.067929239438661637 -0.29744245220773302 0 -0.075162920182542767 -0.28731555611229459 0 -0.072363625353247057 -0.27494247310589431 0 -0.075988861669628593 -0.29203098004520328 0 -0.075162920182542767 -0.28731555611229459 0 -0.080022347365398816 -0.29529908350135742 0 -0.067929239438661637 -0.29744245220773302 0 -0.075988861669628593 -0.29203098004520328 0 -0.075162920182542767 -0.28731555611229459 0 -0.067929239438661637 -0.29744245220773302 0 -0.074800211398343183 -0.29676828128919502 0 -0.075988861669628593 -0.29203098004520328 0 -0.067929239438661637 -0.29744245220773302 0 -0.063481929201992804 -0.28659419931659808 0 -0.057157199652218327 -0.29433345841048941 0 -0.1004001483689636 -0.29246989923861699 0 -0.079212385277153408 -0.27922407156230239 0 -0.10013860532164209 -0.29834661679915908 0 -0.080022347365398816 -0.29529908350135742 0 -0.075162920182542767 -0.28731555611229459 0 -0.080022347365398816 -0.29529908350135742 0 -0.079212385277153408 -0.27922407156230239 0 -0.1004001483689636 -0.29246989923861699 0 -0.080022347365398816 -0.29529908350135742 0 -0.079212385277153408 -0.27922407156230239 0 -0.1004001483689636 -0.29246989923861699 0 -0.10013860532164209 -0.29834661679915908 0 -0.080022347365398816 -0.29529908350135742 0 -0.080022347365398816 -0.29529908350135742 0 -0.079212385277153408 -0.27922407156230239 0 -0.1004001483689636 -0.29246989923861699 0 -0.089806853404465051 -0.2713401455271785 0 -0.079212385277153408 -0.27922407156230239 0 -0.089806853404465051 -0.2713401455271785 0 -0.084998741484643592 -0.26205999054747281 0 -0.092490388530258719 -0.26367462890309928 0 -0.089806853404465051 -0.2713401455271785 0 -0.078429256909339093 -0.26368161834739218 0 -0.084998741484643592 -0.26205999054747281 0 -0.079212385277153408 -0.27922407156230239 0 -0.078429256909339093 -0.26368161834739218 0 -0.089806853404465051 -0.2713401455271785 0 -0.079212385277153408 -0.27922407156230239 0 -0.078429256909339093 -0.26368161834739218 0 -0.075162920182542767 -0.28731555611229459 0 -0.079212385277153408 -0.27922407156230239 0 -0.072363625353247057 -0.27494247310589431 0 -0.072363625353247057 -0.27494247310589431 0 -0.052651973256824323 -0.26261945695013877 0 -0.072363625353247057 -0.27494247310589431 0 -0.065594040539757301 -0.27326720108960889 0 -0.052651973256824323 -0.26261945695013877 0 -0.079212385277153408 -0.27922407156230239 0 -0.072363625353247057 -0.27494247310589431 0 -0.072363625353247057 -0.27494247310589431 0 -0.065594040539757301 -0.27326720108960889 0 -0.061663959528748452 -0.27997783588547598 0 -0.063481929201992804 -0.28659419931659808 0 -0.072363625353247057 -0.27494247310589431 0 -0.061663959528748452 -0.27997783588547598 0 -0.079212385277153408 -0.27922407156230239 0 -0.072363625353247057 -0.27494247310589431 0 -0.078429256909339093 -0.26368161834739218 0 -0.072363625353247057 -0.27494247310589431 0 -0.077646128541525 -0.24813916513248199 0 -0.072363625353247057 -0.27494247310589431 0 -0.078429256909339093 -0.26368161834739218 0 -0.077646128541525 -0.24813916513248199 0 -0.072363625353247057 -0.27494247310589431 0 -0.052651973256824323 -0.26261945695013877 0 -0.077646128541525 -0.24813916513248199 0 -0.078429256909339093 -0.26368161834739218 0 -0.077646128541525 -0.24813916513248199 0 -0.084998741484643592 -0.26205999054747281 0 -0.088104632666654803 -0.24175912157342011 0 -0.084998741484643592 -0.26205999054747281 0 -0.093680051977193257 -0.25300014610948141 0 -0.088104632666654803 -0.24175912157342011 0 -0.084998741484643592 -0.26205999054747281 0 -0.088104632666654803 -0.24175912157342011 0 -0.077646128541525 -0.24813916513248199 0 -0.078429256909339093 -0.26368161834739218 0 -0.084998741484643592 -0.26205999054747281 0 -0.077646128541525 -0.24813916513248199 0 -0.084998741484643592 -0.26205999054747281 0 -0.092490388530258719 -0.26367462890309928 0 -0.093680051977193257 -0.25300014610948141 0 -0.032940321160402269 -0.25029644079438251 0 -0.052651973256824323 -0.26261945695013877 0 -0.050902643065861071 -0.24349095896983161 0 -0.032940321160402269 -0.25029644079438251 0 -0.052651973256824323 -0.26261945695013877 0 -0.030801127425925001 -0.25680016795848581 0 -0.032940321160402269 -0.25029644079438251 0 -0.052651973256824323 -0.26261945695013877 0 -0.052651973256824323 -0.26261945695013877 0 -0.048838748996681343 -0.27669498093657302 0 -0.030801127425925001 -0.25680016795848581 0 -0.032940321160402269 -0.25029644079438251 0 -0.030801127425925001 -0.25680016795848581 0 -0.052651973256824323 -0.26261945695013877 0 -0.050902643065861071 -0.24349095896983161 0 -0.077646128541525 -0.24813916513248199 0 -0.065594040539757301 -0.27326720108960889 0 -0.048838748996681343 -0.27669498093657302 0 -0.065594040539757301 -0.27326720108960889 0 -0.052651973256824323 -0.26261945695013877 0 -0.048838748996681343 -0.27669498093657302 0 -0.065594040539757301 -0.27326720108960889 0 -0.061663959528748452 -0.27997783588547598 0 -0.048838748996681343 -0.27669498093657302 0 -0.061663959528748452 -0.27997783588547598 0 -0.048838748996681343 -0.27669498093657302 0 -0.054451087829631463 -0.28288517796522222 0 -0.048838748996681343 -0.27669498093657302 0 -0.054451087829631463 -0.28288517796522222 0 -0.048838748996681343 -0.27669498093657302 0 -0.030801127425925001 -0.25680016795848581 0 -0.048838748996681343 -0.27669498093657302 0 -0.02248395618448398 -0.28208661661419232 0 -0.030801127425925001 -0.25680016795848581 0 -0.048838748996681343 -0.27669498093657302 0 -0.02248395618448398 -0.28208661661419232 0 -0.048838748996681343 -0.27669498093657302 0 -0.041077846387481028 -0.28937070966441081 0 -0.02248395618448398 -0.28208661661419232 0 -0.041077846387481028 -0.28937070966441081 0 -0.037109865356421391 -0.29952186761000271 0 -0.029468436869721851 -0.29252598106650862 0 -0.041077846387481028 -0.28937070966441081 0 -0.04975385330497957 -0.2890306135367654 0 -0.047244383658885593 -0.30186874070713182 0 -0.048838748996681343 -0.27669498093657302 0 -0.041077846387481028 -0.28937070966441081 0 -0.04975385330497957 -0.2890306135367654 0 -0.048838748996681343 -0.27669498093657302 0 -0.04975385330497957 -0.2890306135367654 0 -0.054451087829631463 -0.28288517796522222 0 -0.04975385330497957 -0.2890306135367654 0 -0.054451087829631463 -0.28288517796522222 0 -0.057157199652218327 -0.29433345841048941 0 -0.063481929201992804 -0.28659419931659808 0 -0.054451087829631463 -0.28288517796522222 0 -0.057157199652218327 -0.29433345841048941 0 -0.063481929201992804 -0.28659419931659808 0 -0.061663959528748452 -0.27997783588547598 0 -0.054451087829631463 -0.28288517796522222 0 -0.04975385330497957 -0.2890306135367654 0 -0.057157199652218327 -0.29433345841048941 0 -0.047244383658885593 -0.30186874070713182 0 -0.057157199652218327 -0.29433345841048941 0 -0.047244383658885593 -0.30186874070713182 0 -0.05709164511789562 -0.30596989755068921 0 -0.067929239438661637 -0.29744245220773302 0 -0.057157199652218327 -0.29433345841048941 0 -0.05709164511789562 -0.30596989755068921 0 -0.047244383658885593 -0.30186874070713182 0 -0.05709164511789562 -0.30596989755068921 0 -0.049632549315637188 -0.31626240511852 0 -0.047244383658885593 -0.30186874070713182 0 -0.049632549315637188 -0.31626240511852 0 -0.036505516356473318 -0.31400569198040618 0 -0.047244383658885593 -0.30186874070713182 0 -0.037109865356421391 -0.29952186761000271 0 -0.036505516356473318 -0.31400569198040618 0 -0.041077846387481028 -0.28937070966441081 0 -0.047244383658885593 -0.30186874070713182 0 -0.037109865356421391 -0.29952186761000271 0 -0.037109865356421391 -0.29952186761000271 0 -0.02678144107749017 -0.30078470409936309 0 -0.036505516356473318 -0.31400569198040618 0 -0.02678144107749017 -0.30078470409936309 0 -0.021312585502779081 -0.32213078764647213 0 -0.02678144107749017 -0.30078470409936309 0 -0.036505516356473318 -0.31400569198040618 0 -0.021312585502779081 -0.32213078764647213 0 -0.02678144107749017 -0.30078470409936309 0 -0.01630762940426286 -0.3038502133106713 0 -0.021312585502779081 -0.32213078764647213 0 -0.037109865356421391 -0.29952186761000271 0 -0.02678144107749017 -0.30078470409936309 0 -0.029468436869721851 -0.29252598106650862 0 -0.02678144107749017 -0.30078470409936309 0 -0.01630762940426286 -0.3038502133106713 0 -0.01957434403417008 -0.29093262400193609 0 -0.0063780240591087903 -0.31078717533589839 0 -0.0074917523477661804 -0.29461577546968681 0 0.013051880611257029 -0.30817184754300292 0 -0.01630762940426286 -0.3038502133106713 0 -0.0063780240591087903 -0.31078717533589839 0 -0.021312585502779081 -0.32213078764647213 0 -0.01630762940426286 -0.3038502133106713 0 -0.0063780240591087903 -0.31078717533589839 0 -0.0074917523477661804 -0.29461577546968681 0 -0.02248395618448398 -0.28208661661419232 0 0.0027723556212477219 -0.28725352620772771 0 -0.01075429771457371 -0.28163518560512563 0 -0.02248395618448398 -0.28208661661419232 0 0.0027723556212477219 -0.28725352620772771 0 -0.0074917523477661804 -0.29461577546968681 0 -0.02248395618448398 -0.28208661661419232 0 0.0027723556212477219 -0.28725352620772771 0 -0.01630762940426286 -0.3038502133106713 0 -0.0074917523477661804 -0.29461577546968681 0 -0.01957434403417008 -0.29093262400193609 0 -0.01075429771457371 -0.28163518560512563 0 -0.0017476628817073611 -0.27805551369469472 0 0.0027723556212477219 -0.28725352620772771 0 -0.041077846387481028 -0.28937070966441081 0 -0.02248395618448398 -0.28208661661419232 0 -0.029468436869721851 -0.29252598106650862 0 -0.02248395618448398 -0.28208661661419232 0 -0.01957434403417008 -0.29093262400193609 0 -0.0074917523477661804 -0.29461577546968681 0 -0.02248395618448398 -0.28208661661419232 0 -0.01957434403417008 -0.29093262400193609 0 -0.02678144107749017 -0.30078470409936309 0 -0.01957434403417008 -0.29093262400193609 0 -0.029468436869721851 -0.29252598106650862 0 -0.02248395618448398 -0.28208661661419232 0 -0.01957434403417008 -0.29093262400193609 0 -0.029468436869721851 -0.29252598106650862 0 -0.02248395618448398 -0.28208661661419232 0 -0.030801127425925001 -0.25680016795848581 0 -0.02248395618448398 -0.28208661661419232 0 -0.01520552987642871 -0.27187005660595642 0 -0.030801127425925001 -0.25680016795848581 0 -0.01075429771457371 -0.28163518560512563 0 -0.02248395618448398 -0.28208661661419232 0 -0.01520552987642871 -0.27187005660595642 0 -0.0017476628817073611 -0.27805551369469472 0 -0.01024060517545407 -0.26077279915728391 0 0.0057386521092319797 -0.26220041049146298 0 -0.0017476628817073611 -0.27805551369469472 0 -0.01520552987642871 -0.27187005660595642 0 -0.01024060517545407 -0.26077279915728391 0 -0.0017476628817073611 -0.27805551369469472 0 -0.01024060517545407 -0.26077279915728391 0 -0.01075429771457371 -0.28163518560512563 0 -0.0017476628817073611 -0.27805551369469472 0 -0.01520552987642871 -0.27187005660595642 0 -0.01075429771457371 -0.28163518560512563 0 -0.0017476628817073611 -0.27805551369469472 0 -0.01024060517545407 -0.26077279915728391 0 0.0057386521092319797 -0.26220041049146298 0 0.0025328853753160741 -0.24958102673793139 0 -0.01024060517545407 -0.26077279915728391 0 -0.018733547469201091 -0.24349008461987329 0 -0.01024060517545407 -0.26077279915728391 0 -0.018733547469201091 -0.24349008461987329 0 0.0025328853753160741 -0.24958102673793139 0 -0.01024060517545407 -0.26077279915728391 0 -0.030801127425925001 -0.25680016795848581 0 -0.018733547469201091 -0.24349008461987329 0 -0.01520552987642871 -0.27187005660595642 0 -0.01024060517545407 -0.26077279915728391 0 -0.030801127425925001 -0.25680016795848581 0 -0.032940321160402269 -0.25029644079438251 0 -0.030801127425925001 -0.25680016795848581 0 -0.026871719323301121 -0.24650256912316601 0 -0.030801127425925001 -0.25680016795848581 0 -0.018733547469201091 -0.24349008461987329 0 -0.034078071302702163 -0.36149906291939787 0 -0.05778126825204781 -0.35817517109810632 0 -0.044598414929564491 -0.33459332569111688 0 -0.034078071302702163 -0.36149906291939787 0 -0.044598414929564491 -0.33459332569111688 0 -0.02963630761074966 -0.34409655343526241 0 -0.034078071302702163 -0.36149906291939787 0 -0.05778126825204781 -0.35817517109810632 0 -0.034078071302702163 -0.36149906291939787 0 -0.031733352269984409 -0.37630872523495079 0 -0.04671422923235316 -0.37926911911211442 0 -0.034078071302702163 -0.36149906291939787 0 -0.05778126825204781 -0.35817517109810632 0 -0.04671422923235316 -0.37926911911211442 0 -0.066117606829746781 -0.37437488941039382 0 -0.05778126825204781 -0.35817517109810632 0 -0.04671422923235316 -0.37926911911211442 0 -0.062587044379988993 -0.33886333000968721 0 -0.05778126825204781 -0.35817517109810632 0 -0.044598414929564491 -0.33459332569111688 0 -0.06349485352407537 -0.31994243130957151 0 -0.062587044379988993 -0.33886333000968721 0 -0.044598414929564491 -0.33459332569111688 0 -0.06349485352407537 -0.31994243130957151 0 -0.049632549315637188 -0.31626240511852 0 -0.044598414929564491 -0.33459332569111688 0 -0.06349485352407537 -0.31994243130957151 0 -0.05709164511789562 -0.30596989755068921 0 -0.049632549315637188 -0.31626240511852 0 -0.049632549315637188 -0.31626240511852 0 -0.036505516356473318 -0.31400569198040618 0 -0.044598414929564491 -0.33459332569111688 0 -0.036505516356473318 -0.31400569198040618 0 -0.044598414929564491 -0.33459332569111688 0 -0.021312585502779081 -0.32213078764647213 0 -0.044598414929564491 -0.33459332569111688 0 -0.021312585502779081 -0.32213078764647213 0 -0.02963630761074966 -0.34409655343526241 0 -0.015843729928067991 -0.34347687119358122 0 -0.021312585502779081 -0.32213078764647213 0 -0.02963630761074966 -0.34409655343526241 0 -0.015843729928067991 -0.34347687119358122 0 -0.021312585502779081 -0.32213078764647213 0 -0.0063780240591087903 -0.31078717533589839 0 -0.021312585502779081 -0.32213078764647213 0 3.5896068887442723e-05 -0.32803491845883598 0 -0.015843729928067991 -0.34347687119358122 0 -0.00014080085946228561 -0.35082738964002957 0 3.5896068887442723e-05 -0.32803491845883598 0 -0.015843729928067991 -0.34347687119358122 0 -0.021312585502779081 -0.32213078764647213 0 3.5896068887442723e-05 -0.32803491845883598 0 -0.015843729928067991 -0.34347687119358122 0 -0.00014080085946228561 -0.35082738964002957 0 -0.01037487435335663 -0.3648229547406901 0 -0.015843729928067991 -0.34347687119358122 0 -0.01037487435335663 -0.3648229547406901 0 -0.015843729928067991 -0.34347687119358122 0 -0.02275820373048933 -0.35362182208710219 0 -0.02963630761074966 -0.34409655343526241 0 -0.015843729928067991 -0.34347687119358122 0 -0.02275820373048933 -0.35362182208710219 0 -0.01037487435335663 -0.3648229547406901 0 -0.034078071302702163 -0.36149906291939787 0 -0.02275820373048933 -0.35362182208710219 0 -0.02963630761074966 -0.34409655343526241 0 -0.034078071302702163 -0.36149906291939787 0 -0.02215424893162643 -0.37111505202744122 0 -0.01037487435335663 -0.3648229547406901 0 -0.034078071302702163 -0.36149906291939787 0 -0.01037487435335663 -0.3648229547406901 0 -0.034078071302702163 -0.36149906291939787 0 -0.02275820373048933 -0.35362182208710219 0 -0.01037487435335663 -0.3648229547406901 0 -0.034078071302702163 -0.36149906291939787 0 -0.02215424893162643 -0.37111505202744122 0 -0.031733352269984409 -0.37630872523495079 0 -0.02215424893162643 -0.37111505202744122 0 -0.016772253886492949 -0.37410089839641808 0 -0.01404568160319189 -0.3712617873641948 0 -0.01404568160319189 -0.3712617873641948 0 -0.0094265442937821464 -0.37378457166277412 0 -0.01319259440905524 -0.37623554315916408 0 -0.0078283346885702904 -0.37476262999778609 0 -0.0094265442937821464 -0.37378457166277412 0 -0.01037487435335663 -0.3648229547406901 0 -0.02215424893162643 -0.37111505202744122 0 -0.01404568160319189 -0.3712617873641948 0 -0.01037487435335663 -0.3648229547406901 0 -0.01037487435335663 -0.3648229547406901 0 0.0058490520874761691 -0.36709803082098191 0 -0.016772253886492949 -0.37410089839641808 0 -0.01404568160319189 -0.3712617873641948 0 -0.01319259440905524 -0.37623554315916408 0 -0.00014080085946228561 -0.35082738964002957 0 -0.01037487435335663 -0.3648229547406901 0 0.0058490520874761691 -0.36709803082098191 0 -0.0078283346885702904 -0.37476262999778609 0 -0.01037487435335663 -0.3648229547406901 0 0.0058490520874761691 -0.36709803082098191 0 -0.0078283346885702904 -0.37476262999778609 0 -0.01037487435335663 -0.3648229547406901 0 -0.01404568160319189 -0.3712617873641948 0 -0.0094265442937821464 -0.37378457166277412 0 -0.01037487435335663 -0.3648229547406901 0 -0.0078283346885702904 -0.37476262999778609 0 -0.0094265442937821464 -0.37378457166277412 0 -0.0078283346885702904 -0.37476262999778609 0 -0.0023576536845698339 -0.39611583857600319 0 -0.0078283346885702904 -0.37476262999778609 0 -0.011142097151610131 -0.38172381805447092 0 -0.0023576536845698339 -0.39611583857600319 0 -0.011142097151610131 -0.38172381805447092 0 -0.0023576536845698339 -0.39611583857600319 0 -0.01587325479487519 -0.38723674351337972 0 -0.011142097151610131 -0.38172381805447092 0 -0.01610234460482865 -0.37998891207167063 0 -0.01587325479487519 -0.38723674351337972 0 -0.01319259440905524 -0.37623554315916408 0 -0.011142097151610131 -0.38172381805447092 0 -0.01610234460482865 -0.37998891207167063 0 -0.016772253886492949 -0.37410089839641808 0 -0.01319259440905524 -0.37623554315916408 0 -0.01610234460482865 -0.37998891207167063 0 -0.01319259440905524 -0.37623554315916408 0 -0.010397392635754449 -0.37662664071854879 0 -0.011142097151610131 -0.38172381805447092 0 -0.0078283346885702904 -0.37476262999778609 0 -0.010397392635754449 -0.37662664071854879 0 -0.011142097151610131 -0.38172381805447092 0 -0.0094265442937821464 -0.37378457166277412 0 -0.01319259440905524 -0.37623554315916408 0 -0.010397392635754449 -0.37662664071854879 0 -0.0078283346885702904 -0.37476262999778609 0 -0.0094265442937821464 -0.37378457166277412 0 -0.010397392635754449 -0.37662664071854879 0 -0.0023576536845698339 -0.39611583857600319 0 -0.016854849126784088 -0.39742738565483049 0 -0.01587325479487519 -0.38723674351337972 0 -0.0023576536845698339 -0.39611583857600319 0 -0.016854849126784088 -0.39742738565483049 0 -0.0081630895937607941 -0.41129335178386173 0 -0.016854849126784088 -0.39742738565483049 0 -0.023392714889338931 -0.39064901327928331 0 -0.029305467632274609 -0.40049385546170407 0 -0.016854849126784088 -0.39742738565483049 0 -0.023392714889338931 -0.39064901327928331 0 -0.01587325479487519 -0.38723674351337972 0 -0.023392714889338931 -0.39064901327928331 0 -0.029305467632274609 -0.40049385546170407 0 -0.032188689101130562 -0.38901283488088068 0 -0.02215424893162643 -0.37111505202744122 0 -0.016772253886492949 -0.37410089839641808 0 -0.02353152278210973 -0.38064755723492022 0 -0.016772253886492949 -0.37410089839641808 0 -0.01610234460482865 -0.37998891207167063 0 -0.02353152278210973 -0.38064755723492022 0 -0.01610234460482865 -0.37998891207167063 0 -0.01587325479487519 -0.38723674351337972 0 -0.02353152278210973 -0.38064755723492022 0 -0.023392714889338931 -0.39064901327928331 0 -0.01587325479487519 -0.38723674351337972 0 -0.02353152278210973 -0.38064755723492022 0 -0.023392714889338931 -0.39064901327928331 0 -0.02353152278210973 -0.38064755723492022 0 -0.032188689101130562 -0.38901283488088068 0 -0.02353152278210973 -0.38064755723492022 0 -0.031733352269984409 -0.37630872523495079 0 -0.032188689101130562 -0.38901283488088068 0 -0.02215424893162643 -0.37111505202744122 0 -0.02353152278210973 -0.38064755723492022 0 -0.031733352269984409 -0.37630872523495079 0 -0.031733352269984409 -0.37630872523495079 0 -0.04671422923235316 -0.37926911911211442 0 -0.032188689101130562 -0.38901283488088068 0 -0.04671422923235316 -0.37926911911211442 0 -0.032188689101130562 -0.38901283488088068 0 -0.044289202763444772 -0.39135289085216762 0 -0.032188689101130562 -0.38901283488088068 0 -0.041257957344308177 -0.40487627914437913 0 -0.044289202763444772 -0.39135289085216762 0 -0.029305467632274609 -0.40049385546170407 0 -0.032188689101130562 -0.38901283488088068 0 -0.041257957344308177 -0.40487627914437913 0 -0.056230819367541693 -0.39440183914975269 0 -0.051493530029743613 -0.41277891791385168 0 -0.065747409502729032 -0.40953455918739179 0 -0.041257957344308177 -0.40487627914437913 0 -0.056230819367541693 -0.39440183914975269 0 -0.051493530029743613 -0.41277891791385168 0 -0.041257957344308177 -0.40487627914437913 0 -0.044289202763444772 -0.39135289085216762 0 -0.056230819367541693 -0.39440183914975269 0 -0.056230819367541693 -0.39440183914975269 0 -0.065747409502729032 -0.40953455918739179 0 -0.066117606829746781 -0.37437488941039382 0 -0.04671422923235316 -0.37926911911211442 0 -0.056230819367541693 -0.39440183914975269 0 -0.04671422923235316 -0.37926911911211442 0 -0.044289202763444772 -0.39135289085216762 0 -0.056230819367541693 -0.39440183914975269 0 -0.04671422923235316 -0.37926911911211442 0 -0.056230819367541693 -0.39440183914975269 0 -0.057674512383022389 -0.42734400629007657 0 -0.049601615263317987 -0.44515345339276252 0 -0.057674512383022389 -0.42734400629007657 0 -0.051493530029743613 -0.41277891791385168 0 -0.065747409502729032 -0.40953455918739179 0 -0.057674512383022389 -0.42734400629007657 0 -0.065747409502729032 -0.40953455918739179 0 -0.057674512383022389 -0.42734400629007657 0 -0.051493530029743613 -0.41277891791385168 0 -0.03322823219505102 -0.42129041952379648 0 -0.029305467632274609 -0.40049385546170407 0 -0.041257957344308177 -0.40487627914437913 0 -0.03322823219505102 -0.42129041952379648 0 -0.041257957344308177 -0.40487627914437913 0 -0.051493530029743613 -0.41277891791385168 0 -0.03322823219505102 -0.42129041952379648 0 -0.03322823219505102 -0.42129041952379648 0 -0.02439234541253921 -0.43490569650885758 0 -0.049601615263317987 -0.44515345339276252 0 -0.03322823219505102 -0.42129041952379648 0 -0.049601615263317987 -0.44515345339276252 0 -0.057674512383022389 -0.42734400629007657 0 -0.03322823219505102 -0.42129041952379648 0 -0.049601615263317987 -0.44515345339276252 0 -0.03322823219505102 -0.42129041952379648 0 -0.02439234541253921 -0.43490569650885758 0 -0.010818991714530671 -0.42579448288144173 0 -0.016854849126784088 -0.39742738565483049 0 -0.03322823219505102 -0.42129041952379648 0 -0.03322823219505102 -0.42129041952379648 0 -0.0081630895937607941 -0.41129335178386173 0 -0.010818991714530671 -0.42579448288144173 0 -0.016854849126784088 -0.39742738565483049 0 -0.029305467632274609 -0.40049385546170407 0 -0.03322823219505102 -0.42129041952379648 0 -0.016854849126784088 -0.39742738565483049 0 -0.03322823219505102 -0.42129041952379648 0 -0.0081630895937607941 -0.41129335178386173 0 -0.0081630895937607941 -0.41129335178386173 0 -0.010818991714530671 -0.42579448288144173 0 0.0026957591361241309 -0.41958824334712869 0 -0.02439234541253921 -0.43490569650885758 0 -0.010818991714530671 -0.42579448288144173 0 -0.01027783979290609 -0.4450418277695869 0 -0.010818991714530671 -0.42579448288144173 0 -0.01027783979290609 -0.4450418277695869 0 0.003851027954898749 -0.43172418954792041 0 -0.010818991714530671 -0.42579448288144173 0 0.0026957591361241309 -0.41958824334712869 0 0.003851027954898749 -0.43172418954792041 0 -0.01027783979290609 -0.4450418277695869 0 -0.011038280792740629 -0.46258843223684681 0 0.0031349746952128348 -0.45732154608844711 0 -0.01027783979290609 -0.4450418277695869 0 -0.011038280792740629 -0.46258843223684681 0 -0.02289260566061898 -0.45897742689034388 0 -0.011038280792740629 -0.46258843223684681 0 -0.00094907817261298132 -0.47112804672216879 0 0.0031349746952128348 -0.45732154608844711 0 -0.02289260566061898 -0.45897742689034388 0 -0.029356635895327849 -0.44930438287917762 0 -0.040413005672661102 -0.46542425011239508 0 -0.02289260566061898 -0.45897742689034388 0 -0.023377266149459251 -0.47252824145371342 0 -0.040413005672661102 -0.46542425011239508 0 -0.011038280792740629 -0.46258843223684681 0 -0.02289260566061898 -0.45897742689034388 0 -0.023377266149459251 -0.47252824145371342 0 -0.02439234541253921 -0.43490569650885758 0 -0.01027783979290609 -0.4450418277695869 0 -0.029356635895327849 -0.44930438287917762 0 -0.01027783979290609 -0.4450418277695869 0 -0.02289260566061898 -0.45897742689034388 0 -0.029356635895327849 -0.44930438287917762 0 -0.0023310323066341181 -0.5 0 -0.0043793089323552817 -0.49170101865338262 0 -0.02815109917196898 -0.49861636840837392 0 -0.0043793089323552817 -0.49170101865338262 0 -0.0043176495648967151 -0.48070428616945038 0 0.0053352152350804568 -0.4807791696356124 0 -0.0043793089323552817 -0.49170101865338262 0 -0.0106231170010091 -0.48419136288379427 0 -0.0043176495648967151 -0.48070428616945038 0 -0.0043793089323552817 -0.49170101865338262 0 -0.0106231170010091 -0.48419136288379427 0 -0.017950876149337221 -0.4893641285520216 0 -0.0106231170010091 -0.48419136288379427 0 -0.01097195895358667 -0.47572183295229409 0 -0.019957514846631629 -0.48311391022826639 0 -0.0106231170010091 -0.48419136288379427 0 -0.0043176495648967151 -0.48070428616945038 0 -0.01097195895358667 -0.47572183295229409 0 -0.011038280792740629 -0.46258843223684681 0 -0.00094907817261298132 -0.47112804672216879 0 -0.01097195895358667 -0.47572183295229409 0 -0.0043176495648967151 -0.48070428616945038 0 -0.00094907817261298132 -0.47112804672216879 0 -0.01097195895358667 -0.47572183295229409 0 -0.011038280792740629 -0.46258843223684681 0 -0.01097195895358667 -0.47572183295229409 0 -0.023377266149459251 -0.47252824145371342 0 -0.023377266149459251 -0.47252824145371342 0 -0.019957514846631629 -0.48311391022826639 0 -0.031224396082004221 -0.48569504683202769 0 -0.01097195895358667 -0.47572183295229409 0 -0.023377266149459251 -0.47252824145371342 0 -0.019957514846631629 -0.48311391022826639 0 -0.0023310323066341181 -0.5 0 -0.02815109917196898 -0.49861636840837392 0 -0.031360818006208928 -0.5 0 -0.0043793089323552817 -0.49170101865338262 0 -0.017950876149337221 -0.4893641285520216 0 -0.02815109917196898 -0.49861636840837392 0 -0.0043793089323552817 -0.49170101865338262 0 -0.02815109917196898 -0.49861636840837392 0 -0.0106231170010091 -0.48419136288379427 0 -0.019957514846631629 -0.48311391022826639 0 -0.017950876149337221 -0.4893641285520216 0 -0.019957514846631629 -0.48311391022826639 0 -0.017950876149337221 -0.4893641285520216 0 -0.025597474744393309 -0.49118284869574791 0 -0.019957514846631629 -0.48311391022826639 0 -0.031224396082004221 -0.48569504683202769 0 -0.025597474744393309 -0.49118284869574791 0 -0.025597474744393309 -0.49118284869574791 0 -0.02815109917196898 -0.49861636840837392 0 -0.031360818006208928 -0.5 0 -0.031224396082004221 -0.48569504683202769 0 -0.025597474744393309 -0.49118284869574791 0 -0.031360818006208928 -0.5 0 -0.017950876149337221 -0.4893641285520216 0 -0.025597474744393309 -0.49118284869574791 0 -0.02815109917196898 -0.49861636840837392 0 -0.031360818006208928 -0.5 0 -0.048343055904351132 -0.4819359294639956 0 -0.060390603705783863 -0.5 0 -0.031224396082004221 -0.48569504683202769 0 -0.031360818006208928 -0.5 0 -0.048343055904351132 -0.4819359294639956 0 -0.031224396082004221 -0.48569504683202769 0 -0.040413005672661102 -0.46542425011239508 0 -0.031224396082004221 -0.48569504683202769 0 -0.048343055904351132 -0.4819359294639956 0 -0.040413005672661102 -0.46542425011239508 0 -0.023377266149459251 -0.47252824145371342 0 -0.031224396082004221 -0.48569504683202769 0 -0.040413005672661102 -0.46542425011239508 0 -0.048343055904351132 -0.4819359294639956 0 -0.040413005672661102 -0.46542425011239508 0 -0.061868527913120197 -0.46303160055449383 0 -0.048343055904351132 -0.4819359294639956 0 -0.061868527913120197 -0.46303160055449383 0 -0.067715258758524743 -0.48343239441089819 0 -0.048343055904351132 -0.4819359294639956 0 -0.060390603705783863 -0.5 0 -0.067715258758524743 -0.48343239441089819 0 -0.02439234541253921 -0.43490569650885758 0 -0.029356635895327849 -0.44930438287917762 0 -0.049601615263317987 -0.44515345339276252 0 -0.029356635895327849 -0.44930438287917762 0 -0.040413005672661102 -0.46542425011239508 0 -0.049601615263317987 -0.44515345339276252 0 -0.040413005672661102 -0.46542425011239508 0 -0.049601615263317987 -0.44515345339276252 0 -0.040413005672661102 -0.46542425011239508 0 -0.061868527913120197 -0.46303160055449383 0 -0.049601615263317987 -0.44515345339276252 0 -0.061868527913120197 -0.46303160055449383 0 -0.049601615263317987 -0.44515345339276252 0 -0.057674512383022389 -0.42734400629007657 0 -0.049601615263317987 -0.44515345339276252 0 -0.067687044322660692 -0.44438888407200389 0 -0.061868527913120197 -0.46303160055449383 0 -0.049601615263317987 -0.44515345339276252 0 -0.067687044322660692 -0.44438888407200389 0 -0.067687044322660692 -0.44438888407200389 0 -0.087522951364224152 -0.44416074083195012 0 -0.076635180433477057 -0.42684765000967062 0 -0.067687044322660692 -0.44438888407200389 0 -0.078553716864009776 -0.47219444203600192 0 -0.067687044322660692 -0.44438888407200389 0 -0.080483752515153384 -0.45444307226959779 0 -0.078553716864009776 -0.47219444203600192 0 -0.061868527913120197 -0.46303160055449383 0 -0.067687044322660692 -0.44438888407200389 0 -0.078553716864009776 -0.47219444203600192 0 -0.088171297509719124 -0.45702822213843508 0 -0.078553716864009776 -0.47219444203600192 0 -0.094850460920166413 -0.46755552228499719 0 -0.080483752515153384 -0.45444307226959779 0 -0.088171297509719124 -0.45702822213843508 0 -0.078553716864009776 -0.47219444203600192 0 -0.088171297509719124 -0.45702822213843508 0 -0.092026296169145899 -0.451321693988255 0 -0.09646742034415963 -0.45806785732742278 0 -0.088171297509719124 -0.45702822213843508 0 -0.09646742034415963 -0.45806785732742278 0 -0.094850460920166413 -0.46755552228499719 0 -0.067687044322660692 -0.44438888407200389 0 -0.080483752515153384 -0.45444307226959779 0 -0.087522951364224152 -0.44416074083195012 0 -0.088171297509719124 -0.45702822213843508 0 -0.087522951364224152 -0.44416074083195012 0 -0.088171297509719124 -0.45702822213843508 0 -0.092026296169145899 -0.451321693988255 0 -0.087522951364224152 -0.44416074083195012 0 -0.092026296169145899 -0.451321693988255 0 -0.087522951364224152 -0.44416074083195012 0 -0.080483752515153384 -0.45444307226959779 0 -0.088171297509719124 -0.45702822213843508 0 -0.087522951364224152 -0.44416074083195012 0 -0.060390603705783863 -0.5 0 -0.067715258758524743 -0.48343239441089819 0 -0.089420389405358791 -0.49999999999999978 0 -0.061868527913120197 -0.46303160055449383 0 -0.067715258758524743 -0.48343239441089819 0 -0.078553716864009776 -0.47219444203600192 0 -0.078553716864009776 -0.47219444203600192 0 -0.098208235557426499 -0.48290520710575457 0 -0.094850460920166413 -0.46755552228499719 0 -0.067715258758524743 -0.48343239441089819 0 -0.078553716864009776 -0.47219444203600192 0 -0.089420389405358791 -0.49999999999999978 0 -0.078553716864009776 -0.47219444203600192 0 -0.089420389405358791 -0.49999999999999978 0 -0.078553716864009776 -0.47219444203600192 0 -0.089420389405358791 -0.49999999999999978 0 -0.098208235557426499 -0.48290520710575457 0 -0.098208235557426499 -0.48290520710575457 0 -0.1125398430852395 -0.48112820013538338 0 -0.1148616459058424 -0.5 0 -0.089420389405358791 -0.49999999999999978 0 -0.098208235557426499 -0.48290520710575457 0 -0.1148616459058424 -0.5 0 -0.098208235557426499 -0.48290520710575457 0 -0.1051850434628086 -0.47275710198064308 0 -0.1125398430852395 -0.48112820013538338 0 -0.098208235557426499 -0.48290520710575457 0 -0.1051850434628086 -0.47275710198064308 0 -0.094850460920166413 -0.46755552228499719 0 -0.12704973474613379 -0.46277216333596533 0 -0.13010403334985379 -0.48000251283874379 0 -0.1157083509407465 -0.46985326695645979 0 -0.13010403334985379 -0.48000251283874379 0 -0.1157083509407465 -0.46985326695645979 0 -0.1125398430852395 -0.48112820013538338 0 -0.1051850434628086 -0.47275710198064308 0 -0.1157083509407465 -0.46985326695645979 0 -0.1125398430852395 -0.48112820013538338 0 -0.13010403334985379 -0.48000251283874379 0 -0.1125398430852395 -0.48112820013538338 0 -0.1148616459058424 -0.5 0 -0.10267072031130239 -0.4520905348048061 0 -0.102335674083258 -0.43919792399196639 0 -0.11570487117906469 -0.45324354028800051 0 -0.092026296169145899 -0.451321693988255 0 -0.087522951364224152 -0.44416074083195012 0 -0.102335674083258 -0.43919792399196639 0 -0.092026296169145899 -0.451321693988255 0 -0.10267072031130239 -0.4520905348048061 0 -0.102335674083258 -0.43919792399196639 0 -0.10267072031130239 -0.4520905348048061 0 -0.09646742034415963 -0.45806785732742278 0 -0.1046183268104643 -0.46234331342062063 0 -0.092026296169145899 -0.451321693988255 0 -0.10267072031130239 -0.4520905348048061 0 -0.09646742034415963 -0.45806785732742278 0 -0.1051850434628086 -0.47275710198064308 0 -0.094850460920166413 -0.46755552228499719 0 -0.1046183268104643 -0.46234331342062063 0 -0.09646742034415963 -0.45806785732742278 0 -0.094850460920166413 -0.46755552228499719 0 -0.1046183268104643 -0.46234331342062063 0 -0.1051850434628086 -0.47275710198064308 0 -0.1157083509407465 -0.46985326695645979 0 -0.1046183268104643 -0.46234331342062063 0 -0.10267072031130239 -0.4520905348048061 0 -0.1046183268104643 -0.46234331342062063 0 -0.11570487117906469 -0.45324354028800051 0 -0.12704973474613379 -0.46277216333596533 0 -0.1157083509407465 -0.46985326695645979 0 -0.11570487117906469 -0.45324354028800051 0 -0.1157083509407465 -0.46985326695645979 0 -0.1046183268104643 -0.46234331342062063 0 -0.11570487117906469 -0.45324354028800051 0 -0.13093011984253891 -0.44972195681556543 0 -0.12704973474613379 -0.46277216333596533 0 -0.11570487117906469 -0.45324354028800051 0 -0.13093011984253891 -0.44972195681556543 0 -0.11570487117906469 -0.45324354028800051 0 -0.123519809913229 -0.43733662075251151 0 -0.102335674083258 -0.43919792399196639 0 -0.11570487117906469 -0.45324354028800051 0 -0.123519809913229 -0.43733662075251151 0 -0.102335674083258 -0.43919792399196639 0 -0.123519809913229 -0.43733662075251151 0 -0.1073839645685936 -0.41867419567875119 0 -0.12597911368703019 -0.41952469120143437 0 -0.123519809913229 -0.43733662075251151 0 -0.1073839645685936 -0.41867419567875119 0 -0.102335674083258 -0.43919792399196639 0 -0.1073839645685936 -0.41867419567875119 0 -0.086273448473222103 -0.4193623284343494 0 -0.1073839645685936 -0.41867419567875119 0 -0.1004955064841186 -0.39983262220326049 0 -0.086273448473222103 -0.4193623284343494 0 -0.1073839645685936 -0.41867419567875119 0 -0.11827115974421661 -0.40327967795429231 0 -0.1004955064841186 -0.39983262220326049 0 -0.12597911368703019 -0.41952469120143437 0 -0.1073839645685936 -0.41867419567875119 0 -0.11827115974421661 -0.40327967795429231 0 -0.11827115974421661 -0.40327967795429231 0 -0.11220573075163159 -0.38220411347121069 0 -0.1004955064841186 -0.39983262220326049 0 -0.13724659116883831 -0.38156720383825199 0 -0.1192781490478088 -0.36668410834504778 0 -0.11220573075163159 -0.38220411347121069 0 -0.13724659116883831 -0.38156720383825199 0 -0.11827115974421661 -0.40327967795429231 0 -0.11220573075163159 -0.38220411347121069 0 -0.11220573075163159 -0.38220411347121069 0 -0.093814789784828018 -0.38091150164421111 0 -0.1004955064841186 -0.39983262220326049 0 -0.1016352808315869 -0.36700177770792092 0 -0.11220573075163159 -0.38220411347121069 0 -0.093814789784828018 -0.38091150164421111 0 -0.093814789784828018 -0.38091150164421111 0 -0.1004955064841186 -0.39983262220326049 0 -0.085023945582219762 -0.39456391603674879 0 -0.085023945582219762 -0.39456391603674879 0 -0.074760926096971728 -0.38965003141326948 0 -0.077688182017724178 -0.40799169701628579 0 -0.1004955064841186 -0.39983262220326049 0 -0.085023945582219762 -0.39456391603674879 0 -0.086273448473222103 -0.4193623284343494 0 -0.083774442691217046 -0.36976550363914829 0 -0.093814789784828018 -0.38091150164421111 0 -0.085023945582219762 -0.39456391603674879 0 -0.083774442691217046 -0.36976550363914829 0 -0.085023945582219762 -0.39456391603674879 0 -0.074760926096971728 -0.38965003141326948 0 -0.083774442691217046 -0.36976550363914829 0 -0.085023945582219762 -0.39456391603674879 0 -0.083774442691217046 -0.36976550363914829 0 -0.074760926096971728 -0.38965003141326948 0 -0.066117606829746781 -0.37437488941039382 0 -0.083774442691217046 -0.36976550363914829 0 -0.074760926096971728 -0.38965003141326948 0 -0.066117606829746781 -0.37437488941039382 0 -0.056230819367541693 -0.39440183914975269 0 -0.074760926096971728 -0.38965003141326948 0 -0.074760926096971728 -0.38965003141326948 0 -0.065747409502729032 -0.40953455918739179 0 -0.056230819367541693 -0.39440183914975269 0 -0.074760926096971728 -0.38965003141326948 0 -0.065747409502729032 -0.40953455918739179 0 -0.074760926096971728 -0.38965003141326948 0 -0.077688182017724178 -0.40799169701628579 0 -0.065747409502729032 -0.40953455918739179 0 -0.057674512383022389 -0.42734400629007657 0 -0.065747409502729032 -0.40953455918739179 0 -0.076635180433477057 -0.42684765000967062 0 -0.065747409502729032 -0.40953455918739179 0 -0.076635180433477057 -0.42684765000967062 0 -0.077688182017724178 -0.40799169701628579 0 -0.065747409502729032 -0.40953455918739179 0 -0.076635180433477057 -0.42684765000967062 0 -0.057674512383022389 -0.42734400629007657 0 -0.067687044322660692 -0.44438888407200389 0 -0.076635180433477057 -0.42684765000967062 0 -0.087522951364224152 -0.44416074083195012 0 -0.102335674083258 -0.43919792399196639 0 -0.086273448473222103 -0.4193623284343494 0 -0.087522951364224152 -0.44416074083195012 0 -0.076635180433477057 -0.42684765000967062 0 -0.087522951364224152 -0.44416074083195012 0 -0.086273448473222103 -0.4193623284343494 0 -0.087522951364224152 -0.44416074083195012 0 -0.076635180433477057 -0.42684765000967062 0 -0.086273448473222103 -0.4193623284343494 0 -0.077688182017724178 -0.40799169701628579 0 -0.076635180433477057 -0.42684765000967062 0 -0.086273448473222103 -0.4193623284343494 0 -0.085023945582219762 -0.39456391603674879 0 -0.086273448473222103 -0.4193623284343494 0 -0.085023945582219762 -0.39456391603674879 0 -0.077688182017724178 -0.40799169701628579 0 -0.086273448473222103 -0.4193623284343494 0 -0.088492877882569029 -0.082108210476901852 0 -0.076927128592812144 -0.088910799915979499 0 -0.09750588448509391 -0.094492999713411269 0 -0.088492877882569029 -0.082108210476901852 0 -0.079577064860946206 -0.073577453582062496 0 -0.076927128592812144 -0.088910799915979499 0 -0.079577064860946206 -0.073577453582062496 0 -0.0985919344824224 -0.072778756797164931 0 -0.087769009107716192 -0.046193724725750278 0 -0.088492877882569029 -0.082108210476901852 0 -0.079577064860946206 -0.073577453582062496 0 -0.0985919344824224 -0.072778756797164931 0 -0.079577064860946206 -0.073577453582062496 0 -0.068797467898171552 -0.064113028811232264 0 -0.064240921843242857 -0.078969573753286809 0 -0.068797467898171552 -0.064113028811232264 0 -0.064240921843242857 -0.078969573753286809 0 -0.05461803829180413 -0.069755112608578862 0 -0.064240921843242857 -0.078969573753286809 0 -0.065719917437320752 -0.085301382988547655 0 -0.071622236241637716 -0.082994103557465768 0 -0.079577064860946206 -0.073577453582062496 0 -0.064240921843242857 -0.078969573753286809 0 -0.071622236241637716 -0.082994103557465768 0 -0.079577064860946206 -0.073577453582062496 0 -0.071622236241637716 -0.082994103557465768 0 -0.076927128592812144 -0.088910799915979499 0 -0.076927128592812144 -0.088910799915979499 0 -0.070013937980536456 -0.090181036700446429 0 -0.073360588416105155 -0.101926594449817 0 -0.071622236241637716 -0.082994103557465768 0 -0.076927128592812144 -0.088910799915979499 0 -0.070013937980536456 -0.090181036700446429 0 -0.065719917437320752 -0.085301382988547655 0 -0.070013937980536456 -0.090181036700446429 0 -0.057002573683865979 -0.089060817942991616 0 -0.065719917437320752 -0.085301382988547655 0 -0.071622236241637716 -0.082994103557465768 0 -0.070013937980536456 -0.090181036700446429 0 -0.073360588416105155 -0.101926594449817 0 -0.064648045787775776 -0.1114736180136202 0 -0.083029262804162729 -0.11173362360677321 0 -0.076927128592812144 -0.088910799915979499 0 -0.073360588416105155 -0.101926594449817 0 -0.083029262804162729 -0.11173362360677321 0 -0.070013937980536456 -0.090181036700446429 0 -0.064167586873575405 -0.098824988458513688 0 -0.073360588416105155 -0.101926594449817 0 -0.064167586873575405 -0.098824988458513688 0 -0.073360588416105155 -0.101926594449817 0 -0.064648045787775776 -0.1114736180136202 0 -0.064648045787775776 -0.1114736180136202 0 -0.083029262804162729 -0.11173362360677321 0 -0.072915517223638954 -0.12670463451369329 0 -0.064648045787775776 -0.1114736180136202 0 -0.060928146748241367 -0.123537549367131 0 -0.072915517223638954 -0.12670463451369329 0 -0.083029262804162729 -0.11173362360677321 0 -0.089131397015513494 -0.13455644729756691 0 -0.072915517223638954 -0.12670463451369329 0 -0.083029262804162729 -0.11173362360677321 0 -0.089131397015513494 -0.13455644729756691 0 -0.083029262804162729 -0.11173362360677321 0 -0.099989791654964619 -0.11261170107408 0 -0.089131397015513494 -0.13455644729756691 0 -0.076927128592812144 -0.088910799915979499 0 -0.083029262804162729 -0.11173362360677321 0 -0.076927128592812144 -0.088910799915979499 0 -0.083029262804162729 -0.11173362360677321 0 -0.09750588448509391 -0.094492999713411269 0 -0.083029262804162729 -0.11173362360677321 0 -0.09750588448509391 -0.094492999713411269 0 -0.099989791654964619 -0.11261170107408 0 -0.09750588448509391 -0.094492999713411269 0 -0.099989791654964619 -0.11261170107408 0 -0.11605893441195141 -0.10185107539240761 0 -0.099989791654964619 -0.11261170107408 0 -0.11422347955810171 -0.1204243593602408 0 -0.089131397015513494 -0.13455644729756691 0 -0.11422347955810171 -0.1204243593602408 0 -0.11605893441195141 -0.10185107539240761 0 -0.13931556210068971 -0.10629227142291391 0 -0.099989791654964619 -0.11261170107408 0 -0.11422347955810171 -0.1204243593602408 0 -0.11605893441195141 -0.10185107539240761 0 -0.09750588448509391 -0.094492999713411269 0 -0.11605893441195141 -0.10185107539240761 0 -0.121811479392537 -0.084095963505499416 0 -0.09750588448509391 -0.094492999713411269 0 -0.121811479392537 -0.084095963505499416 0 -0.0985919344824224 -0.072778756797164931 0 -0.088492877882569029 -0.082108210476901852 0 -0.09750588448509391 -0.094492999713411269 0 -0.0985919344824224 -0.072778756797164931 0 -0.121811479392537 -0.084095963505499416 0 -0.0985919344824224 -0.072778756797164931 0 -0.12197003300458489 -0.067133964797042034 0 -0.0985919344824224 -0.072778756797164931 0 -0.12197003300458489 -0.067133964797042034 0 -0.11173313641422659 -0.051099137712197359 0 -0.12197003300458489 -0.067133964797042034 0 -0.11173313641422659 -0.051099137712197359 0 -0.13241258759658719 -0.044529255409706578 0 -0.11719553878173181 -0.037741673539740471 0 -0.12411398995058071 -0.026208981462584841 0 -0.13241258759658719 -0.044529255409706578 0 -0.11173313641422659 -0.051099137712197359 0 -0.11719553878173181 -0.037741673539740471 0 -0.13241258759658719 -0.044529255409706578 0 -0.11719553878173181 -0.037741673539740471 0 -0.1033935341420949 -0.036608907929656417 0 -0.1118019010511415 -0.027957019938586129 0 -0.11173313641422659 -0.051099137712197359 0 -0.11719553878173181 -0.037741673539740471 0 -0.1033935341420949 -0.036608907929656417 0 -0.11173313641422659 -0.051099137712197359 0 -0.1033935341420949 -0.036608907929656417 0 -0.087769009107716192 -0.046193724725750278 0 -0.1033935341420949 -0.036608907929656417 0 -0.091700817231413184 -0.028161456197506499 0 -0.087769009107716192 -0.046193724725750278 0 -0.0985919344824224 -0.072778756797164931 0 -0.11173313641422659 -0.051099137712197359 0 -0.087769009107716192 -0.046193724725750278 0 -0.1152652699767374 -0.0044733142422073097 0 -0.1278640484455188 -0.012334690821253821 0 -0.1273771369441013 0.0023450629401116992 0 -0.1152652699767374 -0.0044733142422073097 0 -0.11303603589243651 -0.016818202060669259 0 -0.1278640484455188 -0.012334690821253821 0 -0.1152652699767374 -0.0044733142422073097 0 -0.11303603589243651 -0.016818202060669259 0 -0.1012139958851531 -0.0082010901258140791 0 -0.11303603589243651 -0.016818202060669259 0 -0.12411398995058071 -0.026208981462584841 0 -0.1278640484455188 -0.012334690821253821 0 -0.11719553878173181 -0.037741673539740471 0 -0.12411398995058071 -0.026208981462584841 0 -0.1118019010511415 -0.027957019938586129 0 -0.11303603589243651 -0.016818202060669259 0 -0.12411398995058071 -0.026208981462584841 0 -0.1118019010511415 -0.027957019938586129 0 -0.1033935341420949 -0.036608907929656417 0 -0.1118019010511415 -0.027957019938586129 0 -0.10074487633177411 -0.021927112774035699 0 -0.1033935341420949 -0.036608907929656417 0 -0.10074487633177411 -0.021927112774035699 0 -0.091700817231413184 -0.028161456197506499 0 -0.10074487633177411 -0.021927112774035699 0 -0.089359217900845153 -0.01537750648633354 0 -0.091700817231413184 -0.028161456197506499 0 -0.11303603589243651 -0.016818202060669259 0 -0.10074487633177411 -0.021927112774035699 0 -0.1012139958851531 -0.0082010901258140791 0 -0.11303603589243651 -0.016818202060669259 0 -0.1118019010511415 -0.027957019938586129 0 -0.10074487633177411 -0.021927112774035699 0 -0.10074487633177411 -0.021927112774035699 0 -0.1012139958851531 -0.0082010901258140791 0 -0.089359217900845153 -0.01537750648633354 0 -0.1012139958851531 -0.0082010901258140791 0 -0.089124004628701792 -0.0040277377021705899 0 -0.097507665945787692 0.0040820149966005574 0 -0.1012139958851531 -0.0082010901258140791 0 -0.097507665945787692 0.0040820149966005574 0 -0.1058521268010089 0.00073384547527136773 0 -0.1152652699767374 -0.0044733142422073097 0 -0.1012139958851531 -0.0082010901258140791 0 -0.1058521268010089 0.00073384547527136773 0 -0.079764572027605563 -0.001208843295517239 0 -0.089124004628701792 -0.0040277377021705899 0 -0.080379206648835008 -0.009775819102595687 0 -0.089124004628701792 -0.0040277377021705899 0 -0.089359217900845153 -0.01537750648633354 0 -0.080379206648835008 -0.009775819102595687 0 -0.1012139958851531 -0.0082010901258140791 0 -0.089124004628701792 -0.0040277377021705899 0 -0.089359217900845153 -0.01537750648633354 0 -0.089359217900845153 -0.01537750648633354 0 -0.080379206648835008 -0.009775819102595687 0 -0.076946083733010012 -0.019608692654335649 0 -0.089359217900845153 -0.01537750648633354 0 -0.091700817231413184 -0.028161456197506499 0 -0.076946083733010012 -0.019608692654335649 0 -0.066439508831189667 -0.02875513821822643 0 -0.076946083733010012 -0.019608692654335649 0 -0.073396792324475907 -0.036549185213838799 0 -0.066439508831189667 -0.02875513821822643 0 -0.068530762808199294 -0.019938962024248611 0 -0.056338296441182101 -0.027044179732367449 0 -0.066439508831189667 -0.02875513821822643 0 -0.068530762808199294 -0.019938962024248611 0 -0.076946083733010012 -0.019608692654335649 0 -0.080379206648835008 -0.009775819102595687 0 -0.076946083733010012 -0.019608692654335649 0 -0.066123158358303874 0.0069763394170788487 0 -0.079764572027605563 -0.001208843295517239 0 -0.080379206648835008 -0.009775819102595687 0 -0.066123158358303874 0.0069763394170788487 0 -0.076946083733010012 -0.019608692654335649 0 -0.059664616745900671 -0.0040500510012267867 0 -0.066123158358303874 0.0069763394170788487 0 -0.068530762808199294 -0.019938962024248611 0 -0.059664616745900671 -0.0040500510012267867 0 -0.068530762808199294 -0.019938962024248611 0 -0.076946083733010012 -0.019608692654335649 0 -0.059664616745900671 -0.0040500510012267867 0 -0.076946083733010012 -0.019608692654335649 0 -0.066123158358303874 0.0069763394170788487 0 -0.079577064860946206 -0.073577453582062496 0 -0.068797467898171552 -0.064113028811232264 0 -0.087769009107716192 -0.046193724725750278 0 -0.0985919344824224 -0.072778756797164931 0 -0.087769009107716192 -0.046193724725750278 0 -0.076946083733010012 -0.019608692654335649 0 -0.087769009107716192 -0.046193724725750278 0 -0.073396792324475907 -0.036549185213838799 0 -0.091700817231413184 -0.028161456197506499 0 -0.076946083733010012 -0.019608692654335649 0 -0.087769009107716192 -0.046193724725750278 0 -0.076946083733010012 -0.019608692654335649 0 -0.087769009107716192 -0.046193724725750278 0 -0.073396792324475907 -0.036549185213838799 0 -0.062271996897588083 -0.052791321925605532 0 -0.056985608849081007 -0.04063467146634165 0 -0.087769009107716192 -0.046193724725750278 0 -0.073396792324475907 -0.036549185213838799 0 -0.062271996897588083 -0.052791321925605532 0 -0.066439508831189667 -0.02875513821822643 0 -0.073396792324475907 -0.036549185213838799 0 -0.056985608849081007 -0.04063467146634165 0 -0.068797467898171552 -0.064113028811232264 0 -0.087769009107716192 -0.046193724725750278 0 -0.062271996897588083 -0.052791321925605532 0 -0.050876123791686781 -0.0557005837010279 0 -0.062271996897588083 -0.052791321925605532 0 -0.05461803829180413 -0.069755112608578862 0 -0.068797467898171552 -0.064113028811232264 0 -0.062271996897588083 -0.052791321925605532 0 -0.05461803829180413 -0.069755112608578862 0 -0.050876123791686781 -0.0557005837010279 0 -0.04125611079489349 -0.061033813963863537 0 -0.05461803829180413 -0.069755112608578862 0 -0.050876123791686781 -0.0557005837010279 0 -0.056985608849081007 -0.04063467146634165 0 -0.043217803893324663 -0.046983348469378128 0 -0.050876123791686781 -0.0557005837010279 0 -0.062271996897588083 -0.052791321925605532 0 -0.056985608849081007 -0.04063467146634165 0 -0.066439508831189667 -0.02875513821822643 0 -0.056985608849081007 -0.04063467146634165 0 -0.056338296441182101 -0.027044179732367449 0 -0.056985608849081007 -0.04063467146634165 0 -0.048013312662868769 -0.034084565957593307 0 -0.056338296441182101 -0.027044179732367449 0 -0.056985608849081007 -0.04063467146634165 0 -0.048013312662868769 -0.034084565957593307 0 -0.043217803893324663 -0.046983348469378128 0 -0.034747022969916552 -0.036023397885302497 0 -0.03178279228815796 -0.053256275703554248 0 -0.043217803893324663 -0.046983348469378128 0 -0.048013312662868769 -0.034084565957593307 0 -0.034747022969916552 -0.036023397885302497 0 -0.043217803893324663 -0.046983348469378128 0 -0.03178279228815796 -0.053256275703554248 0 -0.04125611079489349 -0.061033813963863537 0 -0.027189616291661511 -0.068956488044421491 0 -0.03178279228815796 -0.053256275703554248 0 -0.04125611079489349 -0.061033813963863537 0 -0.043217803893324663 -0.046983348469378128 0 -0.050876123791686781 -0.0557005837010279 0 -0.04125611079489349 -0.061033813963863537 0 -0.043217803893324663 -0.046983348469378128 0 -0.068530762808199294 -0.019938962024248611 0 -0.059664616745900671 -0.0040500510012267867 0 -0.057625718948113309 -0.01560592069947127 0 -0.047617207273071643 -0.0035118018543059538 0 -0.059664616745900671 -0.0040500510012267867 0 -0.057625718948113309 -0.01560592069947127 0 -0.047617207273071643 -0.0035118018543059538 0 -0.057625718948113309 -0.01560592069947127 0 -0.044435943862541481 -0.018862463730406901 0 -0.057625718948113309 -0.01560592069947127 0 -0.056338296441182101 -0.027044179732367449 0 -0.044435943862541481 -0.018862463730406901 0 -0.068530762808199294 -0.019938962024248611 0 -0.057625718948113309 -0.01560592069947127 0 -0.056338296441182101 -0.027044179732367449 0 -0.048013312662868769 -0.034084565957593307 0 -0.056338296441182101 -0.027044179732367449 0 -0.044435943862541481 -0.018862463730406901 0 -0.048013312662868769 -0.034084565957593307 0 -0.034747022969916552 -0.036023397885302497 0 -0.044435943862541481 -0.018862463730406901 0 -0.034747022969916552 -0.036023397885302497 0 -0.044435943862541481 -0.018862463730406901 0 -0.029096019340949839 -0.020089153358083849 0 -0.044435943862541481 -0.018862463730406901 0 -0.037331614038931003 -0.0090830911405071785 0 -0.029096019340949839 -0.020089153358083849 0 -0.047617207273071643 -0.0035118018543059538 0 -0.044435943862541481 -0.018862463730406901 0 -0.037331614038931003 -0.0090830911405071785 0 -0.047617207273071643 -0.0035118018543059538 0 -0.044435943862541481 -0.018862463730406901 0 -0.037331614038931003 -0.0090830911405071785 0 -0.025670282478897081 -0.0054027298625421993 0 -0.03671052455766443 0.0037031618858211421 0 -0.047617207273071643 -0.0035118018543059538 0 -0.037331614038931003 -0.0090830911405071785 0 -0.03671052455766443 0.0037031618858211421 0 -0.025670282478897081 -0.0054027298625421993 0 -0.029096019340949839 -0.020089153358083849 0 -0.01201491237982177 -0.012697106039732861 0 -0.025670282478897081 -0.0054027298625421993 0 -0.01201491237982177 -0.012697106039732861 0 -0.010105069976996849 0.0023765649732562961 0 -0.037331614038931003 -0.0090830911405071785 0 -0.025670282478897081 -0.0054027298625421993 0 -0.029096019340949839 -0.020089153358083849 0 -0.034747022969916552 -0.036023397885302497 0 -0.029096019340949839 -0.020089153358083849 0 -0.01621539074153976 -0.030149579770640821 0 -0.029096019340949839 -0.020089153358083849 0 -0.01621539074153976 -0.030149579770640821 0 -0.01201491237982177 -0.012697106039732861 0 -0.01621539074153976 -0.030149579770640821 0 0.0026421611525163911 -0.019923693291100199 0 0.001114662024295677 -0.034644724797188199 0 -0.01621539074153976 -0.030149579770640821 0 -0.01201491237982177 -0.012697106039732861 0 0.0026421611525163911 -0.019923693291100199 0 -0.01201491237982177 -0.012697106039732861 0 0.0047038114401232534 -0.001040937293712483 0 0.0026421611525163911 -0.019923693291100199 0 -0.01201491237982177 -0.012697106039732861 0 -0.010105069976996849 0.0023765649732562961 0 0.0047038114401232534 -0.001040937293712483 0 -0.03178279228815796 -0.053256275703554248 0 -0.015718878272565229 -0.058792224196781109 0 -0.02130541942185268 -0.044498810144407437 0 -0.03178279228815796 -0.053256275703554248 0 -0.015718878272565229 -0.058792224196781109 0 -0.027189616291661511 -0.068956488044421491 0 -0.034747022969916552 -0.036023397885302497 0 -0.01621539074153976 -0.030149579770640821 0 -0.02130541942185268 -0.044498810144407437 0 -0.034747022969916552 -0.036023397885302497 0 -0.03178279228815796 -0.053256275703554248 0 -0.02130541942185268 -0.044498810144407437 0 -0.01621539074153976 -0.030149579770640821 0 -0.0092606153764647689 -0.044492254616565037 0 0.001114662024295677 -0.034644724797188199 0 -0.0092606153764647689 -0.044492254616565037 0 0.001114662024295677 -0.034644724797188199 0 0.003426744450576454 -0.054815297075420773 0 -0.01621539074153976 -0.030149579770640821 0 -0.02130541942185268 -0.044498810144407437 0 -0.0092606153764647689 -0.044492254616565037 0 -0.015718878272565229 -0.058792224196781109 0 -0.0092606153764647689 -0.044492254616565037 0 0.003426744450576454 -0.054815297075420773 0 -0.015718878272565229 -0.058792224196781109 0 -0.0072319765520409062 -0.068818796064575097 0 0.003426744450576454 -0.054815297075420773 0 -0.015718878272565229 -0.058792224196781109 0 -0.02130541942185268 -0.044498810144407437 0 -0.0092606153764647689 -0.044492254616565037 0 -0.0072319765520409062 -0.068818796064575097 0 -0.0056293594721457006 -0.082036805430144924 0 0.0054575408194632406 -0.073720759659108445 0 -0.0072319765520409062 -0.068818796064575097 0 -0.016531268938654212 -0.068489504758274394 0 -0.015984604638349179 -0.077390510727319894 0 -0.0072319765520409062 -0.068818796064575097 0 -0.0056293594721457006 -0.082036805430144924 0 -0.015984604638349179 -0.077390510727319894 0 -0.015718878272565229 -0.058792224196781109 0 -0.0072319765520409062 -0.068818796064575097 0 -0.016531268938654212 -0.068489504758274394 0 -0.0075898384642912086 -0.092772169897659226 0 -0.0056293594721457006 -0.082036805430144924 0 0.0072012692200917657 -0.09144049599341271 0 -0.0056293594721457006 -0.082036805430144924 0 -0.01562854721774792 -0.088078100238794171 0 -0.015984604638349179 -0.077390510727319894 0 -0.0075898384642912086 -0.092772169897659226 0 -0.0056293594721457006 -0.082036805430144924 0 -0.01562854721774792 -0.088078100238794171 0 -0.0075898384642912086 -0.092772169897659226 0 -0.01562854721774792 -0.088078100238794171 0 -0.015839401072447711 -0.097831294581907868 0 -0.01562854721774792 -0.088078100238794171 0 -0.02305577581672685 -0.083163458542690943 0 -0.024670005891415589 -0.092262667611894875 0 -0.01562854721774792 -0.088078100238794171 0 -0.024670005891415589 -0.092262667611894875 0 -0.015839401072447711 -0.097831294581907868 0 -0.01562854721774792 -0.088078100238794171 0 -0.02305577581672685 -0.083163458542690943 0 -0.015984604638349179 -0.077390510727319894 0 -0.02305577581672685 -0.083163458542690943 0 -0.024670005891415589 -0.092262667611894875 0 -0.031754510724464793 -0.081253108138323094 0 -0.024670005891415589 -0.092262667611894875 0 -0.031754510724464793 -0.081253108138323094 0 -0.03344051123233422 -0.092098432850847969 0 -0.015718878272565229 -0.058792224196781109 0 -0.016531268938654212 -0.068489504758274394 0 -0.027189616291661511 -0.068956488044421491 0 -0.016531268938654212 -0.068489504758274394 0 -0.015984604638349179 -0.077390510727319894 0 -0.027189616291661511 -0.068956488044421491 0 -0.02305577581672685 -0.083163458542690943 0 -0.015984604638349179 -0.077390510727319894 0 -0.027189616291661511 -0.068956488044421491 0 -0.02305577581672685 -0.083163458542690943 0 -0.027189616291661511 -0.068956488044421491 0 -0.031754510724464793 -0.081253108138323094 0 -0.04125611079489349 -0.061033813963863537 0 -0.027189616291661511 -0.068956488044421491 0 -0.04053175759116228 -0.071452392996033218 0 -0.04125611079489349 -0.061033813963863537 0 -0.04053175759116228 -0.071452392996033218 0 -0.05461803829180413 -0.069755112608578862 0 -0.04053175759116228 -0.071452392996033218 0 -0.04331800788480706 -0.080321541169751709 0 -0.05461803829180413 -0.069755112608578862 0 -0.027189616291661511 -0.068956488044421491 0 -0.04053175759116228 -0.071452392996033218 0 -0.031754510724464793 -0.081253108138323094 0 -0.04053175759116228 -0.071452392996033218 0 -0.031754510724464793 -0.081253108138323094 0 -0.04331800788480706 -0.080321541169751709 0 -0.031754510724464793 -0.081253108138323094 0 -0.037920360895102763 -0.086728863392239786 0 -0.04331800788480706 -0.080321541169751709 0 -0.031754510724464793 -0.081253108138323094 0 -0.03344051123233422 -0.092098432850847969 0 -0.037920360895102763 -0.086728863392239786 0 -0.03344051123233422 -0.092098432850847969 0 -0.037920360895102763 -0.086728863392239786 0 -0.039477100495342581 -0.093081883261144749 0 -0.043535591074226332 -0.088659540190963698 0 -0.052607434978589038 -0.084605160310905272 0 -0.044151246104392423 -0.095288874830203096 0 -0.039477100495342581 -0.093081883261144749 0 -0.043535591074226332 -0.088659540190963698 0 -0.044151246104392423 -0.095288874830203096 0 -0.037920360895102763 -0.086728863392239786 0 -0.039477100495342581 -0.093081883261144749 0 -0.043535591074226332 -0.088659540190963698 0 -0.043535591074226332 -0.088659540190963698 0 -0.044151246104392423 -0.095288874830203096 0 -0.037920360895102763 -0.086728863392239786 0 -0.043535591074226332 -0.088659540190963698 0 -0.04331800788480706 -0.080321541169751709 0 -0.043535591074226332 -0.088659540190963698 0 -0.04331800788480706 -0.080321541169751709 0 -0.052607434978589038 -0.084605160310905272 0 -0.04331800788480706 -0.080321541169751709 0 -0.052607434978589038 -0.084605160310905272 0 -0.05461803829180413 -0.069755112608578862 0 -0.070013937980536456 -0.090181036700446429 0 -0.057002573683865979 -0.089060817942991616 0 -0.04460455598339258 -0.10017008709341529 0 -0.052607434978589038 -0.084605160310905272 0 -0.044151246104392423 -0.095288874830203096 0 -0.052607434978589038 -0.084605160310905272 0 -0.057002573683865979 -0.089060817942991616 0 -0.044151246104392423 -0.095288874830203096 0 -0.064240921843242857 -0.078969573753286809 0 -0.065719917437320752 -0.085301382988547655 0 -0.057002573683865979 -0.089060817942991616 0 -0.064240921843242857 -0.078969573753286809 0 -0.052607434978589038 -0.084605160310905272 0 -0.057002573683865979 -0.089060817942991616 0 -0.064240921843242857 -0.078969573753286809 0 -0.052607434978589038 -0.084605160310905272 0 -0.05461803829180413 -0.069755112608578862 0 -0.064648045787775776 -0.1114736180136202 0 -0.054889055151619223 -0.1064960745062641 0 -0.046573596299020338 -0.1213725893565638 0 -0.064648045787775776 -0.1114736180136202 0 -0.060928146748241367 -0.123537549367131 0 -0.046573596299020338 -0.1213725893565638 0 -0.064167586873575405 -0.098824988458513688 0 -0.054889055151619223 -0.1064960745062641 0 -0.04460455598339258 -0.10017008709341529 0 -0.054889055151619223 -0.1064960745062641 0 -0.04460455598339258 -0.10017008709341529 0 -0.046573596299020338 -0.1213725893565638 0 -0.070013937980536456 -0.090181036700446429 0 -0.04460455598339258 -0.10017008709341529 0 -0.070013937980536456 -0.090181036700446429 0 -0.064167586873575405 -0.098824988458513688 0 -0.04460455598339258 -0.10017008709341529 0 -0.064167586873575405 -0.098824988458513688 0 -0.064648045787775776 -0.1114736180136202 0 -0.054889055151619223 -0.1064960745062641 0 -0.057002573683865979 -0.089060817942991616 0 -0.044151246104392423 -0.095288874830203096 0 -0.04460455598339258 -0.10017008709341529 0 -0.04460455598339258 -0.10017008709341529 0 -0.038337793170655582 -0.1026337050414691 0 -0.046573596299020338 -0.1213725893565638 0 -0.039477100495342581 -0.093081883261144749 0 -0.044151246104392423 -0.095288874830203096 0 -0.038337793170655582 -0.1026337050414691 0 -0.044151246104392423 -0.095288874830203096 0 -0.04460455598339258 -0.10017008709341529 0 -0.044151246104392423 -0.095288874830203096 0 -0.038337793170655582 -0.1026337050414691 0 -0.04460455598339258 -0.10017008709341529 0 -0.038337793170655582 -0.1026337050414691 0 -0.044151246104392423 -0.095288874830203096 0 -0.04460455598339258 -0.10017008709341529 0 -0.038337793170655582 -0.1026337050414691 0 -0.03344051123233422 -0.092098432850847969 0 -0.039477100495342581 -0.093081883261144749 0 -0.038337793170655582 -0.1026337050414691 0 -0.03344051123233422 -0.092098432850847969 0 -0.038337793170655582 -0.1026337050414691 0 -0.030143021990877521 -0.097413384547063803 0 -0.038337793170655582 -0.1026337050414691 0 -0.046573596299020338 -0.1213725893565638 0 -0.032898799107638058 -0.1301455039054305 0 -0.04460455598339258 -0.10017008709341529 0 -0.046573596299020338 -0.1213725893565638 0 -0.038337793170655582 -0.1026337050414691 0 -0.02075820173733281 -0.1248441049076035 0 -0.038337793170655582 -0.1026337050414691 0 -0.02075820173733281 -0.1248441049076035 0 -0.032898799107638058 -0.1301455039054305 0 -0.038337793170655582 -0.1026337050414691 0 -0.02075820173733281 -0.1248441049076035 0 -0.013304609286582791 -0.1124748627422944 0 -0.038337793170655582 -0.1026337050414691 0 -0.013304609286582791 -0.1124748627422944 0 -0.038337793170655582 -0.1026337050414691 0 -0.024123777669104458 -0.10265873268404301 0 -0.013304609286582791 -0.1124748627422944 0 -0.038337793170655582 -0.1026337050414691 0 -0.030143021990877521 -0.097413384547063803 0 -0.024123777669104458 -0.10265873268404301 0 -0.024670005891415589 -0.092262667611894875 0 -0.030143021990877521 -0.097413384547063803 0 -0.024123777669104458 -0.10265873268404301 0 -0.024670005891415589 -0.092262667611894875 0 -0.03344051123233422 -0.092098432850847969 0 -0.030143021990877521 -0.097413384547063803 0 -0.024123777669104458 -0.10265873268404301 0 -0.015994782990863529 -0.1079378035875192 0 -0.013304609286582791 -0.1124748627422944 0 -0.024123777669104458 -0.10265873268404301 0 -0.015994782990863529 -0.1079378035875192 0 -0.015839401072447711 -0.097831294581907868 0 -0.024670005891415589 -0.092262667611894875 0 -0.024123777669104458 -0.10265873268404301 0 -0.015839401072447711 -0.097831294581907868 0 -0.0070294542012635762 -0.10327829347153671 0 -0.013304609286582791 -0.1124748627422944 0 0.0046245275045138064 -0.1076828264142336 0 -0.0075898384642912086 -0.092772169897659226 0 -0.015839401072447711 -0.097831294581907868 0 -0.0070294542012635762 -0.10327829347153671 0 -0.015994782990863529 -0.1079378035875192 0 -0.015839401072447711 -0.097831294581907868 0 -0.0070294542012635762 -0.10327829347153671 0 -0.015994782990863529 -0.1079378035875192 0 -0.0070294542012635762 -0.10327829347153671 0 -0.013304609286582791 -0.1124748627422944 0 -0.0075898384642912086 -0.092772169897659226 0 -0.0070294542012635762 -0.10327829347153671 0 0.0072012692200917657 -0.09144049599341271 0 -0.02075820173733281 -0.1248441049076035 0 -0.013304609286582791 -0.1124748627422944 0 -0.00221818493688669 -0.13117245205018849 0 -0.013304609286582791 -0.1124748627422944 0 -0.00221818493688669 -0.13117245205018849 0 0.014197789575412951 -0.12328672932727321 0 -0.013304609286582791 -0.1124748627422944 0 -0.00221818493688669 -0.13117245205018849 0 -0.015994782990863529 -0.1079378035875192 0 -0.013304609286582791 -0.1124748627422944 0 -0.02075820173733281 -0.1248441049076035 0 -0.0137133242766358 -0.14598078836242959 0 -0.0031786103040098569 -0.14705450477373769 0 -0.02075820173733281 -0.1248441049076035 0 -0.0031786103040098569 -0.14705450477373769 0 -0.02075820173733281 -0.1248441049076035 0 -0.00221818493688669 -0.13117245205018849 0 -0.0031786103040098569 -0.14705450477373769 0 -0.02075820173733281 -0.1248441049076035 0 -0.02657462786173766 -0.13400490724319661 0 -0.021326083532184278 -0.14069250208886769 0 -0.02075820173733281 -0.1248441049076035 0 -0.021326083532184278 -0.14069250208886769 0 -0.0137133242766358 -0.14598078836242959 0 -0.02657462786173766 -0.13400490724319661 0 -0.032898799107638058 -0.1301455039054305 0 -0.031315427069795509 -0.14033751807088471 0 -0.02657462786173766 -0.13400490724319661 0 -0.021326083532184278 -0.14069250208886769 0 -0.031315427069795509 -0.14033751807088471 0 -0.02075820173733281 -0.1248441049076035 0 -0.02657462786173766 -0.13400490724319661 0 -0.032898799107638058 -0.1301455039054305 0 -0.026655807174363451 -0.14845120392719069 0 -0.02210874630731275 -0.1561964137015745 0 -0.031495029160766817 -0.15509855920566379 0 -0.026655807174363451 -0.14845120392719069 0 -0.03449156258747036 -0.148917707105098 0 -0.031495029160766817 -0.15509855920566379 0 -0.026655807174363451 -0.14845120392719069 0 -0.021326083532184278 -0.14069250208886769 0 -0.031315427069795509 -0.14033751807088471 0 -0.026655807174363451 -0.14845120392719069 0 -0.031315427069795509 -0.14033751807088471 0 -0.03449156258747036 -0.148917707105098 0 -0.021326083532184278 -0.14069250208886769 0 -0.019449426413567759 -0.15004718796545319 0 -0.0137133242766358 -0.14598078836242959 0 -0.026655807174363451 -0.14845120392719069 0 -0.021326083532184278 -0.14069250208886769 0 -0.019449426413567759 -0.15004718796545319 0 -0.019449426413567759 -0.15004718796545319 0 -0.01542317820397726 -0.15505006264073101 0 -0.0137133242766358 -0.14598078836242959 0 -0.026655807174363451 -0.14845120392719069 0 -0.019449426413567759 -0.15004718796545319 0 -0.02210874630731275 -0.1561964137015745 0 -0.019449426413567759 -0.15004718796545319 0 -0.02210874630731275 -0.1561964137015745 0 -0.01542317820397726 -0.15505006264073101 0 -0.0137133242766358 -0.14598078836242959 0 -0.0031786103040098569 -0.14705450477373769 0 -0.0072073677341612146 -0.1544888065361133 0 -0.01542317820397726 -0.15505006264073101 0 -0.0137133242766358 -0.14598078836242959 0 -0.0072073677341612146 -0.1544888065361133 0 -0.0031786103040098569 -0.14705450477373769 0 -0.0072073677341612146 -0.1544888065361133 0 -0.0025999653858941639 -0.16131422913783491 0 -0.01542317820397726 -0.15505006264073101 0 -0.0084927016390539001 -0.17431231470194719 0 -0.01542317820397726 -0.15505006264073101 0 -0.0025999653858941639 -0.16131422913783491 0 -0.0084927016390539001 -0.17431231470194719 0 -0.01542317820397726 -0.15505006264073101 0 -0.0084927016390539001 -0.17431231470194719 0 -0.018600123305710169 -0.16452936741983731 0 -0.0025999653858941639 -0.16131422913783491 0 -0.0084927016390539001 -0.17431231470194719 0 0.0067086063528142403 -0.16809244781376179 0 -0.0084927016390539001 -0.17431231470194719 0 -0.019446339186483811 -0.17229591455881449 0 -0.018600123305710169 -0.16452936741983731 0 -0.01542317820397726 -0.15505006264073101 0 -0.0072073677341612146 -0.1544888065361133 0 -0.0025999653858941639 -0.16131422913783491 0 -0.0084927016390539001 -0.17431231470194719 0 -0.0015622250741301779 -0.1935745667631632 0 -0.01452589755716127 -0.18854972137590889 0 -0.0084927016390539001 -0.17431231470194719 0 -0.0015622250741301779 -0.1935745667631632 0 -0.0084927016390539001 -0.17431231470194719 0 -0.0015622250741301779 -0.1935745667631632 0 0.0091962193441852118 -0.18107109871456811 0 -0.0084927016390539001 -0.17431231470194719 0 -0.019789997202817391 -0.17944929683230451 0 -0.01452589755716127 -0.18854972137590889 0 -0.019789997202817391 -0.17944929683230451 0 -0.01452589755716127 -0.18854972137590889 0 -0.02459459850908961 -0.18853055632871979 0 -0.0084927016390539001 -0.17431231470194719 0 -0.019789997202817391 -0.17944929683230451 0 -0.019446339186483811 -0.17229591455881449 0 -0.019789997202817391 -0.17944929683230451 0 -0.019446339186483811 -0.17229591455881449 0 -0.025875972540285681 -0.17494695229964419 0 -0.019789997202817391 -0.17944929683230451 0 -0.025875972540285681 -0.17494695229964419 0 -0.028761852805915141 -0.18157091371807699 0 -0.025875972540285681 -0.17494695229964419 0 -0.032240004386850082 -0.17024588421870079 0 -0.032480769472988377 -0.1765838753595764 0 -0.025875972540285681 -0.17494695229964419 0 -0.028761852805915141 -0.18157091371807699 0 -0.032480769472988377 -0.1765838753595764 0 -0.028761852805915141 -0.18157091371807699 0 -0.032920373861235572 -0.18696580359983689 0 -0.02459459850908961 -0.18853055632871979 0 -0.019789997202817391 -0.17944929683230451 0 -0.028761852805915141 -0.18157091371807699 0 -0.02459459850908961 -0.18853055632871979 0 -0.02210874630731275 -0.1561964137015745 0 -0.02334206205745518 -0.16321350683772101 0 -0.018600123305710169 -0.16452936741983731 0 -0.02210874630731275 -0.1561964137015745 0 -0.01542317820397726 -0.15505006264073101 0 -0.018600123305710169 -0.16452936741983731 0 -0.019446339186483811 -0.17229591455881449 0 -0.018600123305710169 -0.16452936741983731 0 -0.024472901244551901 -0.1682416415403396 0 -0.019446339186483811 -0.17229591455881449 0 -0.025875972540285681 -0.17494695229964419 0 -0.024472901244551901 -0.1682416415403396 0 -0.02334206205745518 -0.16321350683772101 0 -0.018600123305710169 -0.16452936741983731 0 -0.024472901244551901 -0.1682416415403396 0 -0.02334206205745518 -0.16321350683772101 0 -0.024472901244551901 -0.1682416415403396 0 -0.028186477372245909 -0.16388660468913291 0 -0.025875972540285681 -0.17494695229964419 0 -0.024472901244551901 -0.1682416415403396 0 -0.032240004386850082 -0.17024588421870079 0 -0.024472901244551901 -0.1682416415403396 0 -0.028186477372245909 -0.16388660468913291 0 -0.032240004386850082 -0.17024588421870079 0 -0.02210874630731275 -0.1561964137015745 0 -0.036601677587355427 -0.1631254910080501 0 -0.02210874630731275 -0.1561964137015745 0 -0.028186477372245909 -0.16388660468913291 0 -0.036601677587355427 -0.1631254910080501 0 -0.02210874630731275 -0.1561964137015745 0 -0.036601677587355427 -0.1631254910080501 0 -0.031495029160766817 -0.15509855920566379 0 -0.02210874630731275 -0.1561964137015745 0 -0.02334206205745518 -0.16321350683772101 0 -0.028186477372245909 -0.16388660468913291 0 -0.036601677587355427 -0.1631254910080501 0 -0.031495029160766817 -0.15509855920566379 0 -0.03757233301838208 -0.1561293615731485 0 -0.036601677587355427 -0.1631254910080501 0 -0.042683024331232992 -0.16071659108817879 0 -0.03757233301838208 -0.1561293615731485 0 -0.036601677587355427 -0.1631254910080501 0 -0.032240004386850082 -0.17024588421870079 0 -0.040990311010288182 -0.1707810542940659 0 -0.028186477372245909 -0.16388660468913291 0 -0.036601677587355427 -0.1631254910080501 0 -0.032240004386850082 -0.17024588421870079 0 -0.036601677587355427 -0.1631254910080501 0 -0.040990311010288182 -0.1707810542940659 0 -0.051094608867397598 -0.17005456831452659 0 -0.036601677587355427 -0.1631254910080501 0 -0.042683024331232992 -0.16071659108817879 0 -0.051094608867397598 -0.17005456831452659 0 -0.036601677587355427 -0.1631254910080501 0 -0.051094608867397598 -0.17005456831452659 0 -0.042683024331232992 -0.16071659108817879 0 -0.03757233301838208 -0.1561293615731485 0 -0.042590371425084809 -0.152788459458752 0 -0.042683024331232992 -0.16071659108817879 0 -0.049852416986034973 -0.1566787242717059 0 -0.042590371425084809 -0.152788459458752 0 -0.042683024331232992 -0.16071659108817879 0 -0.049852416986034973 -0.1566787242717059 0 -0.032920373861235572 -0.18696580359983689 0 -0.035662893679222471 -0.1808176818492459 0 -0.039648887306358682 -0.18457447877016059 0 -0.028761852805915141 -0.18157091371807699 0 -0.032920373861235572 -0.18696580359983689 0 -0.035662893679222471 -0.1808176818492459 0 -0.032240004386850082 -0.17024588421870079 0 -0.040990311010288182 -0.1707810542940659 0 -0.038331319031698619 -0.1753090981098179 0 -0.035662893679222471 -0.1808176818492459 0 -0.038331319031698619 -0.1753090981098179 0 -0.042134054383572032 -0.1794085226548284 0 -0.035662893679222471 -0.1808176818492459 0 -0.032480769472988377 -0.1765838753595764 0 -0.038331319031698619 -0.1753090981098179 0 -0.028761852805915141 -0.18157091371807699 0 -0.035662893679222471 -0.1808176818492459 0 -0.032480769472988377 -0.1765838753595764 0 -0.032240004386850082 -0.17024588421870079 0 -0.032480769472988377 -0.1765838753595764 0 -0.038331319031698619 -0.1753090981098179 0 -0.040990311010288182 -0.1707810542940659 0 -0.045496547127059937 -0.17528527585558801 0 -0.051094608867397598 -0.17005456831452659 0 -0.040990311010288182 -0.1707810542940659 0 -0.038331319031698619 -0.1753090981098179 0 -0.045496547127059937 -0.17528527585558801 0 -0.045496547127059937 -0.17528527585558801 0 -0.042134054383572032 -0.1794085226548284 0 -0.049232931697160941 -0.18142535687920061 0 -0.038331319031698619 -0.1753090981098179 0 -0.045496547127059937 -0.17528527585558801 0 -0.042134054383572032 -0.1794085226548284 0 -0.042134054383572032 -0.1794085226548284 0 -0.039648887306358682 -0.18457447877016059 0 -0.049232931697160941 -0.18142535687920061 0 -0.039648887306358682 -0.18457447877016059 0 -0.049232931697160941 -0.18142535687920061 0 -0.037513132105194948 -0.19164621715467339 0 -0.035662893679222471 -0.1808176818492459 0 -0.042134054383572032 -0.1794085226548284 0 -0.039648887306358682 -0.18457447877016059 0 -0.052530262953744307 -0.18551360121156771 0 -0.064566778430722005 -0.1899668467895553 0 -0.070259181001566293 -0.17921715932508539 0 -0.052530262953744307 -0.18551360121156771 0 -0.051094608867397598 -0.17005456831452659 0 -0.070259181001566293 -0.17921715932508539 0 -0.051094608867397598 -0.17005456831452659 0 -0.070259181001566293 -0.17921715932508539 0 -0.052530262953744307 -0.18551360121156771 0 -0.049232931697160941 -0.18142535687920061 0 -0.051094608867397598 -0.17005456831452659 0 -0.052530262953744307 -0.18551360121156771 0 -0.051094608867397598 -0.17005456831452659 0 -0.045496547127059937 -0.17528527585558801 0 -0.049232931697160941 -0.18142535687920061 0 -0.051094608867397598 -0.17005456831452659 0 -0.051094608867397598 -0.17005456831452659 0 -0.061817946007188637 -0.1647032604190713 0 -0.070259181001566293 -0.17921715932508539 0 -0.049852416986034973 -0.1566787242717059 0 -0.051094608867397598 -0.17005456831452659 0 -0.061817946007188637 -0.1647032604190713 0 -0.042683024331232992 -0.16071659108817879 0 -0.049852416986034973 -0.1566787242717059 0 -0.051094608867397598 -0.17005456831452659 0 -0.049852416986034973 -0.1566787242717059 0 -0.051094608867397598 -0.17005456831452659 0 -0.049852416986034973 -0.1566787242717059 0 -0.061817946007188637 -0.1647032604190713 0 -0.059473492795946999 -0.1512600473178678 0 -0.049852416986034973 -0.1566787242717059 0 -0.059473492795946999 -0.1512600473178678 0 -0.049852416986034973 -0.1566787242717059 0 -0.048542636614648908 -0.14257509161971199 0 -0.042590371425084809 -0.152788459458752 0 -0.049852416986034973 -0.1566787242717059 0 -0.059473492795946999 -0.1512600473178678 0 -0.048542636614648908 -0.14257509161971199 0 -0.049852416986034973 -0.1566787242717059 0 -0.048542636614648908 -0.14257509161971199 0 -0.059473492795946999 -0.1512600473178678 0 -0.048542636614648908 -0.14257509161971199 0 -0.059473492795946999 -0.1512600473178678 0 -0.048542636614648908 -0.14257509161971199 0 -0.061100100412547438 -0.13647315015658409 0 -0.046573596299020338 -0.1213725893565638 0 -0.048542636614648908 -0.14257509161971199 0 -0.061100100412547438 -0.13647315015658409 0 -0.046573596299020338 -0.1213725893565638 0 -0.048542636614648908 -0.14257509161971199 0 -0.060928146748241367 -0.123537549367131 0 -0.046573596299020338 -0.1213725893565638 0 -0.061100100412547438 -0.13647315015658409 0 -0.046573596299020338 -0.1213725893565638 0 -0.048542636614648908 -0.14257509161971199 0 -0.032898799107638058 -0.1301455039054305 0 -0.048542636614648908 -0.14257509161971199 0 -0.032898799107638058 -0.1301455039054305 0 -0.031315427069795509 -0.14033751807088471 0 -0.048542636614648908 -0.14257509161971199 0 -0.032898799107638058 -0.1301455039054305 0 -0.048542636614648908 -0.14257509161971199 0 -0.031315427069795509 -0.14033751807088471 0 -0.03449156258747036 -0.148917707105098 0 -0.03449156258747036 -0.148917707105098 0 -0.03757233301838208 -0.1561293615731485 0 -0.042590371425084809 -0.152788459458752 0 -0.03449156258747036 -0.148917707105098 0 -0.031495029160766817 -0.15509855920566379 0 -0.03757233301838208 -0.1561293615731485 0 -0.048542636614648908 -0.14257509161971199 0 -0.03449156258747036 -0.148917707105098 0 -0.042590371425084809 -0.152788459458752 0 -0.030801127425925001 -0.25680016795848581 0 -0.026871719323301121 -0.24650256912316601 0 -0.018733547469201091 -0.24349008461987329 0 -0.032940321160402269 -0.25029644079438251 0 -0.026871719323301121 -0.24650256912316601 0 -0.030857658388656541 -0.2362056796655021 0 -0.032940321160402269 -0.25029644079438251 0 -0.026871719323301121 -0.24650256912316601 0 -0.026871719323301121 -0.24650256912316601 0 -0.030857658388656541 -0.2362056796655021 0 -0.018733547469201091 -0.24349008461987329 0 -0.018733547469201091 -0.24349008461987329 0 0.0010854142569982001 -0.23807309260292489 0 0.0025328853753160741 -0.24958102673793139 0 -0.018733547469201091 -0.24349008461987329 0 -0.0061584899570064598 -0.22962027277065361 0 0.0010854142569982001 -0.23807309260292489 0 -0.018733547469201091 -0.24349008461987329 0 -0.0061584899570064598 -0.22962027277065361 0 -0.018733547469201091 -0.24349008461987329 0 -0.0061584899570064598 -0.22962027277065361 0 -0.014959502272226489 -0.22084886391346231 0 -0.0061584899570064598 -0.22962027277065361 0 -0.0054289760133702037 -0.21457987404047249 0 0.0064165675551885711 -0.21575046092143421 0 -0.0061584899570064598 -0.22962027277065361 0 -0.014959502272226489 -0.22084886391346231 0 -0.0054289760133702037 -0.21457987404047249 0 -0.018733547469201091 -0.24349008461987329 0 -0.02919644603132129 -0.2221986071991269 0 -0.02714058579554627 -0.22330174697438809 0 -0.018733547469201091 -0.24349008461987329 0 -0.02919644603132129 -0.2221986071991269 0 -0.018733547469201091 -0.24349008461987329 0 -0.014959502272226489 -0.22084886391346231 0 -0.02714058579554627 -0.22330174697438809 0 -0.030857658388656541 -0.2362056796655021 0 -0.018733547469201091 -0.24349008461987329 0 -0.02919644603132129 -0.2221986071991269 0 -0.02919644603132129 -0.2221986071991269 0 -0.02714058579554627 -0.22330174697438809 0 -0.023298310508535151 -0.21367384618425 0 -0.02883797433537726 -0.20835292232393379 0 -0.020914866328615171 -0.2008213059726579 0 -0.039659344593441261 -0.20090712977838049 0 -0.02919644603132129 -0.2221986071991269 0 -0.02883797433537726 -0.20835292232393379 0 -0.023298310508535151 -0.21367384618425 0 -0.02883797433537726 -0.20835292232393379 0 -0.023298310508535151 -0.21367384618425 0 -0.020914866328615171 -0.2008213059726579 0 -0.023298310508535151 -0.21367384618425 0 -0.014351405434837939 -0.2084381568687759 0 -0.020914866328615171 -0.2008213059726579 0 -0.02714058579554627 -0.22330174697438809 0 -0.014351405434837939 -0.2084381568687759 0 -0.014959502272226489 -0.22084886391346231 0 -0.02714058579554627 -0.22330174697438809 0 -0.014351405434837939 -0.2084381568687759 0 -0.02714058579554627 -0.22330174697438809 0 -0.023298310508535151 -0.21367384618425 0 -0.014351405434837939 -0.2084381568687759 0 -0.014959502272226489 -0.22084886391346231 0 -0.0054289760133702037 -0.21457987404047249 0 -0.014351405434837939 -0.2084381568687759 0 -0.0054289760133702037 -0.21457987404047249 0 -0.014351405434837939 -0.2084381568687759 0 -0.0015622250741301779 -0.1935745667631632 0 -0.0054289760133702037 -0.21457987404047249 0 -0.0015622250741301779 -0.1935745667631632 0 0.0064165675551885711 -0.21575046092143421 0 -0.014351405434837939 -0.2084381568687759 0 -0.0015622250741301779 -0.1935745667631632 0 -0.014351405434837939 -0.2084381568687759 0 -0.01223217889679739 -0.19705511845509929 0 -0.0015622250741301779 -0.1935745667631632 0 -0.01223217889679739 -0.19705511845509929 0 -0.0015622250741301779 -0.1935745667631632 0 -0.01452589755716127 -0.18854972137590889 0 -0.020914866328615171 -0.2008213059726579 0 -0.039659344593441261 -0.20090712977838049 0 -0.01452589755716127 -0.18854972137590889 0 -0.020914866328615171 -0.2008213059726579 0 -0.02459459850908961 -0.18853055632871979 0 -0.020914866328615171 -0.2008213059726579 0 -0.030654603298793132 -0.19382629647353339 0 -0.039659344593441261 -0.20090712977838049 0 -0.014351405434837939 -0.2084381568687759 0 -0.01223217889679739 -0.19705511845509929 0 -0.020914866328615171 -0.2008213059726579 0 -0.01223217889679739 -0.19705511845509929 0 -0.01452589755716127 -0.18854972137590889 0 -0.020914866328615171 -0.2008213059726579 0 -0.020914866328615171 -0.2008213059726579 0 -0.030654603298793132 -0.19382629647353339 0 -0.02459459850908961 -0.18853055632871979 0 -0.032920373861235572 -0.18696580359983689 0 -0.030654603298793132 -0.19382629647353339 0 -0.02459459850908961 -0.18853055632871979 0 -0.049232931697160941 -0.18142535687920061 0 -0.037513132105194948 -0.19164621715467339 0 -0.039659344593441261 -0.20090712977838049 0 -0.049232931697160941 -0.18142535687920061 0 -0.039659344593441261 -0.20090712977838049 0 -0.032920373861235572 -0.18696580359983689 0 -0.039648887306358682 -0.18457447877016059 0 -0.037513132105194948 -0.19164621715467339 0 -0.032920373861235572 -0.18696580359983689 0 -0.030654603298793132 -0.19382629647353339 0 -0.037513132105194948 -0.19164621715467339 0 -0.030654603298793132 -0.19382629647353339 0 -0.037513132105194948 -0.19164621715467339 0 -0.039659344593441261 -0.20090712977838049 0 -0.039659344593441261 -0.20090712977838049 0 -0.049171036143441697 -0.20095068018059209 0 -0.052530262953744307 -0.18551360121156771 0 -0.053965917040092279 -0.20097263410860849 0 -0.052530262953744307 -0.18551360121156771 0 -0.049232931697160941 -0.18142535687920061 0 -0.039659344593441261 -0.20090712977838049 0 -0.052530262953744307 -0.18551360121156771 0 -0.053965917040092279 -0.20097263410860849 0 -0.064566778430722005 -0.1899668467895553 0 -0.052530262953744307 -0.18551360121156771 0 -0.039659344593441261 -0.20090712977838049 0 -0.049171036143441697 -0.20095068018059209 0 -0.053965917040092279 -0.20097263410860849 0 -0.049171036143441697 -0.20095068018059209 0 -0.052530262953744307 -0.18551360121156771 0 -0.053965917040092279 -0.20097263410860849 0 -0.049171036143441697 -0.20095068018059209 0 -0.049171036143441697 -0.20095068018059209 0 -0.054685660498906767 -0.208722786400212 0 -0.041055678651922348 -0.2256235604874875 0 -0.053965917040092279 -0.20097263410860849 0 -0.054685660498906767 -0.208722786400212 0 -0.075274492420391248 -0.20107019793555661 0 -0.054685660498906767 -0.208722786400212 0 -0.058782723788501128 -0.22597342721149569 0 -0.066300796797188796 -0.21509277327032089 0 -0.053965917040092279 -0.20097263410860849 0 -0.049171036143441697 -0.20095068018059209 0 -0.054685660498906767 -0.208722786400212 0 -0.053965917040092279 -0.20097263410860849 0 -0.054685660498906767 -0.208722786400212 0 -0.049171036143441697 -0.20095068018059209 0 -0.041055678651922348 -0.2256235604874875 0 -0.02919644603132129 -0.2221986071991269 0 -0.039659344593441261 -0.20090712977838049 0 -0.02919644603132129 -0.2221986071991269 0 -0.02883797433537726 -0.20835292232393379 0 -0.039659344593441261 -0.20090712977838049 0 -0.039659344593441261 -0.20090712977838049 0 -0.049171036143441697 -0.20095068018059209 0 -0.041055678651922348 -0.2256235604874875 0 -0.02919644603132129 -0.2221986071991269 0 -0.039659344593441261 -0.20090712977838049 0 -0.041055678651922348 -0.2256235604874875 0 -0.030857658388656541 -0.2362056796655021 0 -0.02919644603132129 -0.2221986071991269 0 -0.041055678651922348 -0.2256235604874875 0 -0.041055678651922348 -0.2256235604874875 0 -0.058782723788501128 -0.22597342721149569 0 -0.050902643065861071 -0.24349095896983161 0 -0.054685660498906767 -0.208722786400212 0 -0.041055678651922348 -0.2256235604874875 0 -0.058782723788501128 -0.22597342721149569 0 -0.058782723788501128 -0.22597342721149569 0 -0.050902643065861071 -0.24349095896983161 0 -0.077646128541525 -0.24813916513248199 0 -0.032940321160402269 -0.25029644079438251 0 -0.041055678651922348 -0.2256235604874875 0 -0.050902643065861071 -0.24349095896983161 0 -0.032940321160402269 -0.25029644079438251 0 -0.030857658388656541 -0.2362056796655021 0 -0.041055678651922348 -0.2256235604874875 0 -0.032940321160402269 -0.25029644079438251 0 -0.041055678651922348 -0.2256235604874875 0 -0.077646128541525 -0.24813916513248199 0 -0.082279147983734507 -0.22463132376819159 0 -0.088104632666654803 -0.24175912157342011 0 -0.077646128541525 -0.24813916513248199 0 -0.082279147983734507 -0.22463132376819159 0 -0.077646128541525 -0.24813916513248199 0 -0.076460310480956056 -0.22460468153401941 0 -0.058782723788501128 -0.22597342721149569 0 -0.077646128541525 -0.24813916513248199 0 -0.076460310480956056 -0.22460468153401941 0 -0.058782723788501128 -0.22597342721149569 0 -0.076460310480956056 -0.22460468153401941 0 -0.066300796797188796 -0.21509277327032089 0 -0.077646128541525 -0.24813916513248199 0 -0.076460310480956056 -0.22460468153401941 0 -0.082279147983734507 -0.22463132376819159 0 -0.088104632666654803 -0.24175912157342011 0 -0.091210523848666042 -0.22145825259936749 0 -0.096373561920523113 -0.2318247108995648 0 -0.088104632666654803 -0.24175912157342011 0 -0.082279147983734507 -0.22463132376819159 0 -0.091210523848666042 -0.22145825259936749 0 -0.088104632666654803 -0.24175912157342011 0 -0.091210523848666042 -0.22145825259936749 0 -0.082279147983734507 -0.22463132376819159 0 -0.075274492420391248 -0.20107019793555661 0 -0.086912167425944153 -0.20112348240390099 0 -0.082279147983734507 -0.22463132376819159 0 -0.091210523848666042 -0.22145825259936749 0 -0.086912167425944153 -0.20112348240390099 0 -0.091210523848666042 -0.22145825259936749 0 -0.094316415030678002 -0.20115738362531499 0 -0.091210523848666042 -0.22145825259936749 0 -0.086912167425944153 -0.20112348240390099 0 -0.094316415030678002 -0.20115738362531499 0 -0.082279147983734507 -0.22463132376819159 0 -0.086912167425944153 -0.20112348240390099 0 -0.076460310480956056 -0.22460468153401941 0 -0.066300796797188796 -0.21509277327032089 0 -0.075274492420391248 -0.20107019793555661 0 -0.054685660498906767 -0.208722786400212 0 -0.066300796797188796 -0.21509277327032089 0 -0.075274492420391248 -0.20107019793555661 0 -0.076460310480956056 -0.22460468153401941 0 -0.082279147983734507 -0.22463132376819159 0 -0.075274492420391248 -0.20107019793555661 0 -0.076460310480956056 -0.22460468153401941 0 -0.075274492420391248 -0.20107019793555661 0 -0.053965917040092279 -0.20097263410860849 0 -0.075274492420391248 -0.20107019793555661 0 -0.070100108945259781 -0.19629415080948229 0 -0.053965917040092279 -0.20097263410860849 0 -0.070100108945259781 -0.19629415080948229 0 -0.064566778430722005 -0.1899668467895553 0 -0.053965917040092279 -0.20097263410860849 0 -0.075274492420391248 -0.20107019793555661 0 -0.075274492420391248 -0.20107019793555661 0 -0.075113373652805612 -0.19571605274700751 0 -0.079733979793737045 -0.19605477611637959 0 -0.075274492420391248 -0.20107019793555661 0 -0.075113373652805612 -0.19571605274700751 0 -0.070100108945259781 -0.19629415080948229 0 -0.070100108945259781 -0.19629415080948229 0 -0.064566778430722005 -0.1899668467895553 0 -0.075377056328755521 -0.19008301367616509 0 -0.075113373652805612 -0.19571605274700751 0 -0.070100108945259781 -0.19629415080948229 0 -0.075377056328755521 -0.19008301367616509 0 -0.075113373652805612 -0.19571605274700751 0 -0.075377056328755521 -0.19008301367616509 0 -0.079733979793737045 -0.19605477611637959 0 -0.075377056328755521 -0.19008301367616509 0 -0.079733979793737045 -0.19605477611637959 0 -0.089423753135733974 -0.18837975033564619 0 -0.079733979793737045 -0.19605477611637959 0 -0.086912167425944153 -0.20112348240390099 0 -0.089423753135733974 -0.18837975033564619 0 -0.075274492420391248 -0.20107019793555661 0 -0.086912167425944153 -0.20112348240390099 0 -0.075274492420391248 -0.20107019793555661 0 -0.079733979793737045 -0.19605477611637959 0 -0.086912167425944153 -0.20112348240390099 0 -0.086912167425944153 -0.20112348240390099 0 -0.095804572093432044 -0.1914304229002349 0 -0.094316415030678002 -0.20115738362531499 0 -0.086912167425944153 -0.20112348240390099 0 -0.094316415030678002 -0.20115738362531499 0 -0.086912167425944153 -0.20112348240390099 0 -0.089423753135733974 -0.18837975033564619 0 -0.086912167425944153 -0.20112348240390099 0 -0.089423753135733974 -0.18837975033564619 0 -0.095804572093432044 -0.1914304229002349 0 -0.089423753135733974 -0.18837975033564619 0 -0.095804572093432044 -0.1914304229002349 0 -0.090500110278716836 -0.18291833725845449 0 -0.089423753135733974 -0.18837975033564619 0 -0.095804572093432044 -0.1914304229002349 0 -0.095804572093432044 -0.1914304229002349 0 -0.1055884512206339 -0.19610810014299959 0 -0.099028938128851704 -0.1826882615985625 0 -0.095804572093432044 -0.1914304229002349 0 -0.1055884512206339 -0.19610810014299959 0 -0.095804572093432044 -0.1914304229002349 0 -0.099726318276372988 -0.19712665769699661 0 -0.1055884512206339 -0.19610810014299959 0 -0.094316415030678002 -0.20115738362531499 0 -0.099726318276372988 -0.19712665769699661 0 -0.1069539478940484 -0.20121524606085259 0 -0.095804572093432044 -0.1914304229002349 0 -0.094316415030678002 -0.20115738362531499 0 -0.095804572093432044 -0.1914304229002349 0 -0.094316415030678002 -0.20115738362531499 0 -0.099726318276372988 -0.19712665769699661 0 -0.094316415030678002 -0.20115738362531499 0 -0.1069539478940484 -0.20121524606085259 0 -0.1006154135170836 -0.20550376286944089 0 -0.094316415030678002 -0.20115738362531499 0 -0.1069539478940484 -0.20121524606085259 0 -0.099726318276372988 -0.19712665769699661 0 -0.1069539478940484 -0.20121524606085259 0 -0.1055884512206339 -0.19610810014299959 0 -0.1069539478940484 -0.20121524606085259 0 -0.1055884512206339 -0.19610810014299959 0 -0.1143022105317214 -0.19176920984990589 0 -0.1234142843990034 -0.20129061165398179 0 -0.118443644943155 -0.18313735869921541 0 -0.1234142843990034 -0.20129061165398179 0 -0.118443644943155 -0.18313735869921541 0 -0.12836978379805469 -0.19505845874684749 0 -0.1055884512206339 -0.19610810014299959 0 -0.1143022105317214 -0.19176920984990589 0 -0.1095912747331507 -0.1796343382558257 0 -0.1234142843990034 -0.20129061165398179 0 -0.118443644943155 -0.18313735869921541 0 -0.1234142843990034 -0.20129061165398179 0 -0.11636069704563699 -0.20125831597190941 0 -0.12446659453658469 -0.2051337493999616 0 -0.1143022105317214 -0.19176920984990589 0 -0.1234142843990034 -0.20129061165398179 0 -0.11636069704563699 -0.20125831597190941 0 -0.1234142843990034 -0.20129061165398179 0 -0.11636069704563699 -0.20125831597190941 0 -0.1055884512206339 -0.19610810014299959 0 -0.1143022105317214 -0.19176920984990589 0 -0.11636069704563699 -0.20125831597190941 0 -0.1055884512206339 -0.19610810014299959 0 -0.11636069704563699 -0.20125831597190941 0 -0.1069539478940484 -0.20121524606085259 0 -0.11636069704563699 -0.20125831597190941 0 -0.116503442890511 -0.20615462214379501 0 -0.1069539478940484 -0.20121524606085259 0 -0.1055884512206339 -0.19610810014299959 0 -0.11636069704563699 -0.20125831597190941 0 -0.1069539478940484 -0.20121524606085259 0 -0.11636069704563699 -0.20125831597190941 0 -0.1069539478940484 -0.20121524606085259 0 -0.1182325320857732 -0.21701117714245771 0 -0.1146322195844853 -0.229933041338924 0 -0.1069539478940484 -0.20121524606085259 0 -0.1146322195844853 -0.229933041338924 0 -0.12446659453658469 -0.2051337493999616 0 -0.1182325320857732 -0.21701117714245771 0 -0.12964778408632779 -0.2240559515308029 0 -0.1069539478940484 -0.20121524606085259 0 -0.116503442890511 -0.20615462214379501 0 -0.1182325320857732 -0.21701117714245771 0 -0.116503442890511 -0.20615462214379501 0 -0.12446659453658469 -0.2051337493999616 0 -0.1182325320857732 -0.21701117714245771 0 -0.11636069704563699 -0.20125831597190941 0 -0.116503442890511 -0.20615462214379501 0 -0.12446659453658469 -0.2051337493999616 0 -0.11636069704563699 -0.20125831597190941 0 -0.12446659453658469 -0.2051337493999616 0 -0.1234142843990034 -0.20129061165398179 0 -0.12446659453658469 -0.2051337493999616 0 -0.1069539478940484 -0.20121524606085259 0 -0.1039432587622498 -0.21234961129803451 0 -0.1146322195844853 -0.229933041338924 0 -0.091210523848666042 -0.22145825259936749 0 -0.094316415030678002 -0.20115738362531499 0 -0.098742607236989521 -0.21208478243994361 0 -0.1039432587622498 -0.21234961129803451 0 -0.098742607236989521 -0.21208478243994361 0 -0.10362742502627011 -0.2199549018075595 0 -0.1069539478940484 -0.20121524606085259 0 -0.1039432587622498 -0.21234961129803451 0 -0.1006154135170836 -0.20550376286944089 0 -0.1039432587622498 -0.21234961129803451 0 -0.1006154135170836 -0.20550376286944089 0 -0.098742607236989521 -0.21208478243994361 0 -0.094316415030678002 -0.20115738362531499 0 -0.1006154135170836 -0.20550376286944089 0 -0.098742607236989521 -0.21208478243994361 0 -0.091210523848666042 -0.22145825259936749 0 -0.098742607236989521 -0.21208478243994361 0 -0.10362742502627011 -0.2199549018075595 0 -0.096373561920523113 -0.2318247108995648 0 -0.10362742502627011 -0.2199549018075595 0 -0.1025516661405015 -0.24412656761791199 0 -0.1039432587622498 -0.21234961129803451 0 -0.10362742502627011 -0.2199549018075595 0 -0.1146322195844853 -0.229933041338924 0 -0.10362742502627011 -0.2199549018075595 0 -0.1025516661405015 -0.24412656761791199 0 -0.10362742502627011 -0.2199549018075595 0 -0.11057817055071439 -0.23713955200355691 0 -0.1025516661405015 -0.24412656761791199 0 -0.091210523848666042 -0.22145825259936749 0 -0.096373561920523113 -0.2318247108995648 0 -0.10362742502627011 -0.2199549018075595 0 -0.10362742502627011 -0.2199549018075595 0 -0.1146322195844853 -0.229933041338924 0 -0.11057817055071439 -0.23713955200355691 0 -0.1182325320857732 -0.21701117714245771 0 -0.1146322195844853 -0.229933041338924 0 -0.12964778408632779 -0.2240559515308029 0 -0.1146322195844853 -0.229933041338924 0 -0.12594535918601221 -0.23537450645762351 0 -0.12964778408632779 -0.2240559515308029 0 -0.1146322195844853 -0.229933041338924 0 -0.11057817055071439 -0.23713955200355691 0 -0.11992695639240671 -0.24305274461581289 0 -0.1146322195844853 -0.229933041338924 0 -0.11992695639240671 -0.24305274461581289 0 -0.12594535918601221 -0.23537450645762351 0 -0.11992695639240671 -0.24305274461581289 0 -0.12594535918601221 -0.23537450645762351 0 -0.1270777831465402 -0.24161244513161839 0 -0.11057817055071439 -0.23713955200355691 0 -0.11992695639240671 -0.24305274461581289 0 -0.1121525856099083 -0.24863050463757599 0 -0.1183855941197941 -0.25651062511641259 0 -0.11992695639240671 -0.24305274461581289 0 -0.1121525856099083 -0.24863050463757599 0 -0.1097432552782682 -0.2572086698476283 0 -0.1121525856099083 -0.24863050463757599 0 -0.1025516661405015 -0.24412656761791199 0 -0.11057817055071439 -0.23713955200355691 0 -0.1121525856099083 -0.24863050463757599 0 -0.1025516661405015 -0.24412656761791199 0 -0.088104632666654803 -0.24175912157342011 0 -0.096373561920523113 -0.2318247108995648 0 -0.1025516661405015 -0.24412656761791199 0 -0.093680051977193257 -0.25300014610948141 0 -0.088104632666654803 -0.24175912157342011 0 -0.1025516661405015 -0.24412656761791199 0 -0.091208904987890735 -0.14232661368977559 0 -0.087323419063827665 -0.1566704494577609 0 -0.098398678104261977 -0.16921735691638781 0 -0.081276062778159672 -0.14883202435870879 0 -0.08710950077230438 -0.14178266396580899 0 -0.074302444905730333 -0.14290824730771751 0 -0.081276062778159672 -0.14883202435870879 0 -0.091208904987890735 -0.14232661368977559 0 -0.087323419063827665 -0.1566704494577609 0 -0.081276062778159672 -0.14883202435870879 0 -0.08710950077230438 -0.14178266396580899 0 -0.091208904987890735 -0.14232661368977559 0 -0.08710950077230438 -0.14178266396580899 0 -0.091208904987890735 -0.14232661368977559 0 -0.091208904987890735 -0.14232661368977559 0 -0.089131397015513494 -0.13455644729756691 0 -0.089131397015513494 -0.13455644729756691 0 -0.072915517223638954 -0.12670463451369329 0 -0.074302444905730333 -0.14290824730771751 0 -0.08710950077230438 -0.14178266396580899 0 -0.091208904987890735 -0.14232661368977559 0 -0.089131397015513494 -0.13455644729756691 0 -0.08710950077230438 -0.14178266396580899 0 -0.089131397015513494 -0.13455644729756691 0 -0.074302444905730333 -0.14290824730771751 0 -0.089131397015513494 -0.13455644729756691 0 -0.074302444905730333 -0.14290824730771751 0 -0.061100100412547438 -0.13647315015658409 0 -0.072915517223638954 -0.12670463451369329 0 -0.074302444905730333 -0.14290824730771751 0 -0.060928146748241367 -0.123537549367131 0 -0.061100100412547438 -0.13647315015658409 0 -0.072915517223638954 -0.12670463451369329 0 -0.059473492795946999 -0.1512600473178678 0 -0.081276062778159672 -0.14883202435870879 0 -0.074302444905730333 -0.14290824730771751 0 -0.059473492795946999 -0.1512600473178678 0 -0.081276062778159672 -0.14883202435870879 0 -0.078410030384998497 -0.16630580286617139 0 -0.059473492795946999 -0.1512600473178678 0 -0.074302444905730333 -0.14290824730771751 0 -0.059473492795946999 -0.1512600473178678 0 -0.061100100412547438 -0.13647315015658409 0 -0.074302444905730333 -0.14290824730771751 0 -0.061817946007188637 -0.1647032604190713 0 -0.070259181001566293 -0.17921715932508539 0 -0.078410030384998497 -0.16630580286617139 0 -0.059473492795946999 -0.1512600473178678 0 -0.078410030384998497 -0.16630580286617139 0 -0.061817946007188637 -0.1647032604190713 0 -0.059473492795946999 -0.1512600473178678 0 -0.078410030384998497 -0.16630580286617139 0 -0.064566778430722005 -0.1899668467895553 0 -0.075377056328755521 -0.19008301367616509 0 -0.070259181001566293 -0.17921715932508539 0 -0.070259181001566293 -0.17921715932508539 0 -0.08402443889557612 -0.1788939005998389 0 -0.078410030384998497 -0.16630580286617139 0 -0.089423753135733974 -0.18837975033564619 0 -0.070259181001566293 -0.17921715932508539 0 -0.075377056328755521 -0.19008301367616509 0 -0.089423753135733974 -0.18837975033564619 0 -0.070259181001566293 -0.17921715932508539 0 -0.078410030384998497 -0.16630580286617139 0 -0.098398678104261977 -0.16921735691638781 0 -0.097346567974052028 -0.18135155841447259 0 -0.078410030384998497 -0.16630580286617139 0 -0.097346567974052028 -0.18135155841447259 0 -0.08402443889557612 -0.1788939005998389 0 -0.078410030384998497 -0.16630580286617139 0 -0.097346567974052028 -0.18135155841447259 0 -0.089423753135733974 -0.18837975033564619 0 -0.070259181001566293 -0.17921715932508539 0 -0.08402443889557612 -0.1788939005998389 0 -0.089423753135733974 -0.18837975033564619 0 -0.08402443889557612 -0.1788939005998389 0 -0.090500110278716836 -0.18291833725845449 0 -0.08402443889557612 -0.1788939005998389 0 -0.090500110278716836 -0.18291833725845449 0 -0.097346567974052028 -0.18135155841447259 0 -0.089423753135733974 -0.18837975033564619 0 -0.090500110278716836 -0.18291833725845449 0 -0.081276062778159672 -0.14883202435870879 0 -0.078410030384998497 -0.16630580286617139 0 -0.087323419063827665 -0.1566704494577609 0 -0.078410030384998497 -0.16630580286617139 0 -0.087323419063827665 -0.1566704494577609 0 -0.098398678104261977 -0.16921735691638781 0 -0.098398678104261977 -0.16921735691638781 0 -0.1095912747331507 -0.1796343382558257 0 -0.1134730054873082 -0.16498410574444861 0 -0.098398678104261977 -0.16921735691638781 0 -0.1134730054873082 -0.16498410574444861 0 -0.1057127461594554 -0.15566112818699529 0 -0.1055884512206339 -0.19610810014299959 0 -0.098398678104261977 -0.16921735691638781 0 -0.099028938128851704 -0.1826882615985625 0 -0.1055884512206339 -0.19610810014299959 0 -0.098398678104261977 -0.16921735691638781 0 -0.1055884512206339 -0.19610810014299959 0 -0.098398678104261977 -0.16921735691638781 0 -0.1095912747331507 -0.1796343382558257 0 -0.095804572093432044 -0.1914304229002349 0 -0.097346567974052028 -0.18135155841447259 0 -0.099028938128851704 -0.1826882615985625 0 -0.095804572093432044 -0.1914304229002349 0 -0.090500110278716836 -0.18291833725845449 0 -0.097346567974052028 -0.18135155841447259 0 -0.095804572093432044 -0.1914304229002349 0 -0.097346567974052028 -0.18135155841447259 0 -0.097346567974052028 -0.18135155841447259 0 -0.099028938128851704 -0.1826882615985625 0 -0.098398678104261977 -0.16921735691638781 0 -0.097346567974052028 -0.18135155841447259 0 -0.099028938128851704 -0.1826882615985625 0 -0.118443644943155 -0.18313735869921541 0 -0.1134730054873082 -0.16498410574444861 0 -0.1288769000074067 -0.1787922372229141 0 -0.118443644943155 -0.18313735869921541 0 -0.1134730054873082 -0.16498410574444861 0 -0.1095912747331507 -0.1796343382558257 0 -0.118443644943155 -0.18313735869921541 0 -0.1134730054873082 -0.16498410574444861 0 -0.1143022105317214 -0.19176920984990589 0 -0.1095912747331507 -0.1796343382558257 0 -0.118443644943155 -0.18313735869921541 0 -0.1134730054873082 -0.16498410574444861 0 -0.1197703960583608 -0.14611643639736929 0 -0.1290470673658046 -0.1573335562640088 0 -0.1134730054873082 -0.16498410574444861 0 -0.1197703960583608 -0.14611643639736929 0 -0.1057127461594554 -0.15566112818699529 0 -0.091208904987890735 -0.14232661368977559 0 -0.1197703960583608 -0.14611643639736929 0 -0.1055319536065798 -0.13433424813048789 0 -0.091208904987890735 -0.14232661368977559 0 -0.1197703960583608 -0.14611643639736929 0 -0.091208904987890735 -0.14232661368977559 0 -0.098398678104261977 -0.16921735691638781 0 -0.091208904987890735 -0.14232661368977559 0 -0.1197703960583608 -0.14611643639736929 0 -0.1057127461594554 -0.15566112818699529 0 -0.091208904987890735 -0.14232661368977559 0 -0.098398678104261977 -0.16921735691638781 0 -0.1057127461594554 -0.15566112818699529 0 -0.11422347955810171 -0.1204243593602408 0 -0.089131397015513494 -0.13455644729756691 0 -0.1055319536065798 -0.13433424813048789 0 -0.091208904987890735 -0.14232661368977559 0 -0.089131397015513494 -0.13455644729756691 0 -0.1055319536065798 -0.13433424813048789 0 -0.11422347955810171 -0.1204243593602408 0 -0.089131397015513494 -0.13455644729756691 0 -0.11422347955810171 -0.1204243593602408 0 -0.1197703960583608 -0.14611643639736929 0 -0.13445671698849809 -0.1291024538471422 0 -0.11422347955810171 -0.1204243593602408 0 -0.1197703960583608 -0.14611643639736929 0 -0.1055319536065798 -0.13433424813048789 0 -0.1483318871288308 -0.14990625910496369 0 -0.16449988742022109 -0.13664022397910389 0 -0.1531014227808439 -0.1221458571451004 0 -0.13445671698849809 -0.1291024538471422 0 -0.1483318871288308 -0.14990625910496369 0 -0.1531014227808439 -0.1221458571451004 0 -0.1197703960583608 -0.14611643639736929 0 -0.1483318871288308 -0.14990625910496369 0 -0.1197703960583608 -0.14611643639736929 0 -0.13445671698849809 -0.1291024538471422 0 -0.1483318871288308 -0.14990625910496369 0 -0.1197703960583608 -0.14611643639736929 0 -0.1483318871288308 -0.14990625910496369 0 -0.1290470673658046 -0.1573335562640088 0 -0.1134730054873082 -0.16498410574444861 0 -0.13461298078871861 -0.16832742380925381 0 -0.1288769000074067 -0.1787922372229141 0 -0.1134730054873082 -0.16498410574444861 0 -0.1290470673658046 -0.1573335562640088 0 -0.13461298078871861 -0.16832742380925381 0 -0.1483318871288308 -0.14990625910496369 0 -0.1290470673658046 -0.1573335562640088 0 -0.13461298078871861 -0.16832742380925381 0 -0.1288769000074067 -0.1787922372229141 0 -0.13667151748925299 -0.18732448341615179 0 -0.12964513627792831 -0.18854704193980709 0 -0.118443644943155 -0.18313735869921541 0 -0.1288769000074067 -0.1787922372229141 0 -0.12964513627792831 -0.18854704193980709 0 -0.13461298078871861 -0.16832742380925381 0 -0.1288769000074067 -0.1787922372229141 0 -0.13971937495991149 -0.1792470101286355 0 -0.13971937495991149 -0.1792470101286355 0 -0.13667151748925299 -0.18732448341615179 0 -0.14496415935730611 -0.1865433765957375 0 -0.1288769000074067 -0.1787922372229141 0 -0.13971937495991149 -0.1792470101286355 0 -0.13667151748925299 -0.18732448341615179 0 -0.13461298078871861 -0.16832742380925381 0 -0.13971937495991149 -0.1792470101286355 0 -0.15185728900885839 -0.17281716391360821 0 -0.13971937495991149 -0.1792470101286355 0 -0.14496415935730611 -0.1865433765957375 0 -0.15185728900885839 -0.17281716391360821 0 -0.14496415935730611 -0.1865433765957375 0 -0.15185728900885839 -0.17281716391360821 0 -0.15433817598466459 -0.18776234762491931 0 -0.1483318871288308 -0.14990625910496369 0 -0.13461298078871861 -0.16832742380925381 0 -0.15185728900885839 -0.17281716391360821 0 -0.1483318871288308 -0.14990625910496369 0 -0.15185728900885839 -0.17281716391360821 0 -0.1768933781993007 -0.15369608181255809 0 -0.15185728900885839 -0.17281716391360821 0 -0.16517877359736971 -0.18077311964873491 0 -0.1768933781993007 -0.15369608181255809 0 -0.16517877359736971 -0.18077311964873491 0 -0.15433817598466459 -0.18776234762491931 0 -0.16707343948115469 -0.19329854854562631 0 -0.15185728900885839 -0.17281716391360821 0 -0.16517877359736971 -0.18077311964873491 0 -0.15433817598466459 -0.18776234762491931 0 -0.16517877359736971 -0.18077311964873491 0 -0.17993745220376059 -0.17895489523397801 0 -0.16707343948115469 -0.19329854854562631 0 -0.16517877359736971 -0.18077311964873491 0 -0.17993745220376059 -0.17895489523397801 0 -0.1768933781993007 -0.15369608181255809 0 -0.17993745220376059 -0.17895489523397801 0 -0.1768933781993007 -0.15369608181255809 0 -0.19905977422349169 -0.1755558360643551 0 -0.1768933781993007 -0.15369608181255809 0 -0.17856324423929071 -0.13411692648003359 0 -0.16449988742022109 -0.13664022397910389 0 -0.1768933781993007 -0.15369608181255809 0 -0.17856324423929071 -0.13411692648003359 0 -0.1900158864605431 -0.1418606691544825 0 -0.17856324423929071 -0.13411692648003359 0 -0.1912596026832544 -0.12883579632457359 0 -0.1900158864605431 -0.1418606691544825 0 -0.17856324423929071 -0.13411692648003359 0 -0.1912596026832544 -0.12883579632457359 0 -0.18212358698306741 -0.12142770117184561 0 -0.17856324423929071 -0.13411692648003359 0 -0.18212358698306741 -0.12142770117184561 0 -0.16904936396502779 -0.1225698900008125 0 -0.16449988742022109 -0.13664022397910389 0 -0.16904936396502779 -0.1225698900008125 0 -0.1531014227808439 -0.1221458571451004 0 -0.17856324423929071 -0.13411692648003359 0 -0.16449988742022109 -0.13664022397910389 0 -0.16904936396502779 -0.1225698900008125 0 -0.1483318871288308 -0.14990625910496369 0 -0.1768933781993007 -0.15369608181255809 0 -0.1483318871288308 -0.14990625910496369 0 -0.1768933781993007 -0.15369608181255809 0 -0.16449988742022109 -0.13664022397910389 0 -0.15566934165753701 -0.24482136105764621 0 -0.13482897363606841 -0.24297815366164491 0 -0.14564999181442231 -0.22989611270817639 0 -0.15566934165753701 -0.24482136105764621 0 -0.14564999181442231 -0.22989611270817639 0 -0.16429012863802009 -0.23491512272004891 0 -0.15821309250511281 -0.26118480488572993 0 -0.15566934165753701 -0.24482136105764621 0 -0.13482897363606841 -0.24297815366164491 0 -0.1283361407779757 -0.25159171728621699 0 -0.13482897363606841 -0.24297815366164491 0 -0.1310987251445577 -0.2446583467236331 0 -0.1283361407779757 -0.25159171728621699 0 -0.1310987251445577 -0.2446583467236331 0 -0.1270777831465402 -0.24161244513161839 0 -0.1283361407779757 -0.25159171728621699 0 -0.11992695639240671 -0.24305274461581289 0 -0.1270777831465402 -0.24161244513161839 0 -0.13482897363606841 -0.24297815366164491 0 -0.1310987251445577 -0.2446583467236331 0 -0.1270777831465402 -0.24161244513161839 0 -0.13482897363606841 -0.24297815366164491 0 -0.12594535918601221 -0.23537450645762351 0 -0.1270777831465402 -0.24161244513161839 0 -0.13482897363606841 -0.24297815366164491 0 -0.12964778408632779 -0.2240559515308029 0 -0.14564999181442231 -0.22989611270817639 0 -0.13482897363606841 -0.24297815366164491 0 -0.12594535918601221 -0.23537450645762351 0 -0.12964778408632779 -0.2240559515308029 0 -0.13482897363606841 -0.24297815366164491 0 -0.12964778408632779 -0.2240559515308029 0 -0.12964778408632779 -0.2240559515308029 0 -0.14564999181442231 -0.22989611270817639 0 -0.13906082520362789 -0.21424948005767519 0 -0.14564999181442231 -0.22989611270817639 0 -0.1532157355819776 -0.21469763412746851 0 -0.16429012863802009 -0.23491512272004891 0 -0.14564999181442231 -0.22989611270817639 0 -0.1532157355819776 -0.21469763412746851 0 -0.13906082520362789 -0.21424948005767519 0 -0.1532157355819776 -0.21469763412746851 0 -0.1421413425259351 -0.1944801455348881 0 -0.14344356041104711 -0.20138231805780499 0 -0.1532157355819776 -0.21469763412746851 0 -0.1421413425259351 -0.1944801455348881 0 -0.1532157355819776 -0.21469763412746851 0 -0.13906082520362789 -0.21424948005767519 0 -0.14344356041104711 -0.20138231805780499 0 -0.12964778408632779 -0.2240559515308029 0 -0.13906082520362789 -0.21424948005767519 0 -0.12775347419704111 -0.20670520812175669 0 -0.12446659453658469 -0.2051337493999616 0 -0.12964778408632779 -0.2240559515308029 0 -0.12775347419704111 -0.20670520812175669 0 -0.12446659453658469 -0.2051337493999616 0 -0.12964778408632779 -0.2240559515308029 0 -0.1234142843990034 -0.20129061165398179 0 -0.12775347419704111 -0.20670520812175669 0 -0.1342433848347403 -0.2059710501757869 0 -0.1234142843990034 -0.20129061165398179 0 -0.12446659453658469 -0.2051337493999616 0 -0.12775347419704111 -0.20670520812175669 0 -0.12446659453658469 -0.2051337493999616 0 -0.12775347419704111 -0.20670520812175669 0 -0.13906082520362789 -0.21424948005767519 0 -0.12775347419704111 -0.20670520812175669 0 -0.1342433848347403 -0.2059710501757869 0 -0.13906082520362789 -0.21424948005767519 0 -0.1342433848347403 -0.2059710501757869 0 -0.14344356041104711 -0.20138231805780499 0 -0.13448747671815081 -0.19705371152474219 0 -0.1421413425259351 -0.1944801455348881 0 -0.14344356041104711 -0.20138231805780499 0 -0.1234142843990034 -0.20129061165398179 0 -0.1342433848347403 -0.2059710501757869 0 -0.14344356041104711 -0.20138231805780499 0 -0.1234142843990034 -0.20129061165398179 0 -0.13448747671815081 -0.19705371152474219 0 -0.14344356041104711 -0.20138231805780499 0 -0.1234142843990034 -0.20129061165398179 0 -0.14344356041104711 -0.20138231805780499 0 -0.1234142843990034 -0.20129061165398179 0 -0.13448747671815081 -0.19705371152474219 0 -0.12836978379805469 -0.19505845874684749 0 -0.118443644943155 -0.18313735869921541 0 -0.12836978379805469 -0.19505845874684749 0 -0.12964513627792831 -0.18854704193980709 0 -0.12836978379805469 -0.19505845874684749 0 -0.12964513627792831 -0.18854704193980709 0 -0.1350684124567138 -0.19305702363018909 0 -0.13448747671815081 -0.19705371152474219 0 -0.12836978379805469 -0.19505845874684749 0 -0.1350684124567138 -0.19305702363018909 0 -0.13667151748925299 -0.18732448341615179 0 -0.12964513627792831 -0.18854704193980709 0 -0.1350684124567138 -0.19305702363018909 0 -0.13448747671815081 -0.19705371152474219 0 -0.1350684124567138 -0.19305702363018909 0 -0.1421413425259351 -0.1944801455348881 0 -0.13667151748925299 -0.18732448341615179 0 -0.1350684124567138 -0.19305702363018909 0 -0.1421413425259351 -0.1944801455348881 0 -0.1532157355819776 -0.21469763412746851 0 -0.1421413425259351 -0.1944801455348881 0 -0.15666351948114629 -0.1995899832452937 0 -0.13667151748925299 -0.18732448341615179 0 -0.14496415935730611 -0.1865433765957375 0 -0.1421413425259351 -0.1944801455348881 0 -0.14496415935730611 -0.1865433765957375 0 -0.1421413425259351 -0.1944801455348881 0 -0.15433817598466459 -0.18776234762491931 0 -0.1421413425259351 -0.1944801455348881 0 -0.15433817598466459 -0.18776234762491931 0 -0.15666351948114629 -0.1995899832452937 0 -0.15433817598466459 -0.18776234762491931 0 -0.15666351948114629 -0.1995899832452937 0 -0.16707343948115469 -0.19329854854562631 0 -0.15666351948114629 -0.1995899832452937 0 -0.16707343948115469 -0.19329854854562631 0 -0.16732224548458891 -0.20842311436722119 0 -0.16707343948115469 -0.19329854854562631 0 -0.17975878066101059 -0.20042989322362739 0 -0.16732224548458891 -0.20842311436722119 0 -0.17993745220376059 -0.17895489523397801 0 -0.17975878066101059 -0.20042989322362739 0 -0.19266467917721081 -0.1936257676085566 0 -0.17993745220376059 -0.17895489523397801 0 -0.16707343948115469 -0.19329854854562631 0 -0.17975878066101059 -0.20042989322362739 0 -0.17975878066101059 -0.20042989322362739 0 -0.18070391625864071 -0.21863984915545301 0 -0.19253239785726259 -0.2093467412910768 0 -0.17975878066101059 -0.20042989322362739 0 -0.18070391625864071 -0.21863984915545301 0 -0.16732224548458891 -0.20842311436722119 0 -0.1532157355819776 -0.21469763412746851 0 -0.15666351948114629 -0.1995899832452937 0 -0.16732224548458891 -0.20842311436722119 0 -0.1532157355819776 -0.21469763412746851 0 -0.16732224548458891 -0.20842311436722119 0 -0.16429012863802009 -0.23491512272004891 0 -0.1532157355819776 -0.21469763412746851 0 -0.16429012863802009 -0.23491512272004891 0 -0.18070391625864071 -0.21863984915545301 0 -0.16732224548458891 -0.20842311436722119 0 -0.16429012863802009 -0.23491512272004891 0 -0.18070391625864071 -0.21863984915545301 0 -0.18601458812680871 -0.23629827425452701 0 -0.16429012863802009 -0.23491512272004891 0 -0.18070391625864071 -0.21863984915545301 0 -0.18601458812680871 -0.23629827425452701 0 -0.19270158591305361 -0.22296204550849591 0 -0.17536452169406261 -0.25513261131262932 0 -0.18601458812680871 -0.23629827425452701 0 -0.1971211098569064 -0.2485562144643311 0 -0.17536452169406261 -0.25513261131262932 0 -0.18601458812680871 -0.23629827425452701 0 -0.16429012863802009 -0.23491512272004891 0 -0.17536452169406261 -0.25513261131262932 0 -0.16429012863802009 -0.23491512272004891 0 -0.17536452169406261 -0.25513261131262932 0 -0.15566934165753701 -0.24482136105764621 0 -0.16429012863802009 -0.23491512272004891 0 -0.2040044810152343 -0.23377727090047351 0 -0.22181314593257209 -0.22697511150882529 0 -0.22025275826160279 -0.2471257797298928 0 -0.1971211098569064 -0.2485562144643311 0 -0.2040044810152343 -0.23377727090047351 0 -0.22025275826160279 -0.2471257797298928 0 -0.18601458812680871 -0.23629827425452701 0 -0.1971211098569064 -0.2485562144643311 0 -0.2040044810152343 -0.23377727090047351 0 -0.18601458812680871 -0.23629827425452701 0 -0.19270158591305361 -0.22296204550849591 0 -0.2040044810152343 -0.23377727090047351 0 -0.19270158591305361 -0.22296204550849591 0 -0.20646661184779291 -0.2209366033754204 0 -0.2040044810152343 -0.23377727090047351 0 -0.20646661184779291 -0.2209366033754204 0 -0.2040044810152343 -0.23377727090047351 0 -0.22181314593257209 -0.22697511150882529 0 -0.20646661184779291 -0.2209366033754204 0 -0.22181314593257209 -0.22697511150882529 0 -0.20646661184779291 -0.2209366033754204 0 -0.21966781828876961 -0.21222017746694699 0 -0.22181314593257209 -0.22697511150882529 0 -0.20646661184779291 -0.2209366033754204 0 -0.20611948272011121 -0.20304611138236681 0 -0.21966781828876961 -0.21222017746694699 0 -0.20611948272011121 -0.20304611138236681 0 -0.21897926871800019 -0.19669337567287831 0 -0.21966781828876961 -0.21222017746694699 0 -0.20646661184779291 -0.2209366033754204 0 -0.19253239785726259 -0.2093467412910768 0 -0.20611948272011121 -0.20304611138236681 0 -0.19270158591305361 -0.22296204550849591 0 -0.20646661184779291 -0.2209366033754204 0 -0.19253239785726259 -0.2093467412910768 0 -0.18070391625864071 -0.21863984915545301 0 -0.19270158591305361 -0.22296204550849591 0 -0.19253239785726259 -0.2093467412910768 0 -0.19266467917721081 -0.1936257676085566 0 -0.20611948272011121 -0.20304611138236681 0 -0.2083219237785757 -0.1873320277690235 0 -0.17975878066101059 -0.20042989322362739 0 -0.19253239785726259 -0.2093467412910768 0 -0.19266467917721081 -0.1936257676085566 0 -0.19253239785726259 -0.2093467412910768 0 -0.19266467917721081 -0.1936257676085566 0 -0.20611948272011121 -0.20304611138236681 0 -0.20611948272011121 -0.20304611138236681 0 -0.21897926871800019 -0.19669337567287831 0 -0.2083219237785757 -0.1873320277690235 0 -0.21897926871800019 -0.19669337567287831 0 -0.23230424975577199 -0.20503470769258789 0 -0.23313215691775949 -0.18450877018534409 0 -0.2448317244682672 -0.19494017856122331 0 -0.23230424975577199 -0.20503470769258789 0 -0.23313215691775949 -0.18450877018534409 0 -0.2448317244682672 -0.19494017856122331 0 -0.24405101732391901 -0.2151790953022156 0 -0.23230424975577199 -0.20503470769258789 0 -0.2448317244682672 -0.19494017856122331 0 -0.24405101732391901 -0.2151790953022156 0 -0.24405101732391901 -0.2151790953022156 0 -0.23230424975577199 -0.20503470769258789 0 -0.23232415075836929 -0.22063515516960361 0 -0.23230424975577199 -0.20503470769258789 0 -0.21966781828876961 -0.21222017746694699 0 -0.23232415075836929 -0.22063515516960361 0 -0.21897926871800019 -0.19669337567287831 0 -0.23230424975577199 -0.20503470769258789 0 -0.21966781828876961 -0.21222017746694699 0 -0.21966781828876961 -0.21222017746694699 0 -0.22181314593257209 -0.22697511150882529 0 -0.23232415075836929 -0.22063515516960361 0 -0.22181314593257209 -0.22697511150882529 0 -0.23232415075836929 -0.22063515516960361 0 -0.2371596800173508 -0.23301361964223161 0 -0.22181314593257209 -0.22697511150882529 0 -0.2371596800173508 -0.23301361964223161 0 -0.24405101732391901 -0.2151790953022156 0 -0.24327031017957049 -0.23541801204320789 0 -0.24405101732391901 -0.2151790953022156 0 -0.24327031017957049 -0.23541801204320789 0 -0.25588924886857078 -0.22577026586403889 0 -0.24405101732391901 -0.2151790953022156 0 -0.23232415075836929 -0.22063515516960361 0 -0.23916826383476761 -0.23133706037317611 0 -0.24405101732391901 -0.2151790953022156 0 -0.23916826383476761 -0.23133706037317611 0 -0.24327031017957049 -0.23541801204320789 0 -0.23916826383476761 -0.23133706037317611 0 -0.2371596800173508 -0.23301361964223161 0 -0.24327031017957049 -0.23541801204320789 0 -0.2371596800173508 -0.23301361964223161 0 -0.24327031017957049 -0.23541801204320789 0 -0.23232415075836929 -0.22063515516960361 0 -0.23916826383476761 -0.23133706037317611 0 -0.2371596800173508 -0.23301361964223161 0 -0.23916826383476761 -0.23133706037317611 0 -0.2371596800173508 -0.23301361964223161 0 -0.24233717299785959 -0.25960849866204011 0 -0.24327031017957049 -0.23541801204320789 0 -0.23442911476228809 -0.24683612341654529 0 -0.24233717299785959 -0.25960849866204011 0 -0.24327031017957049 -0.23541801204320789 0 -0.25018128361314113 -0.24746468840205441 0 -0.2371596800173508 -0.23301361964223161 0 -0.24327031017957049 -0.23541801204320789 0 -0.23442911476228809 -0.24683612341654529 0 -0.24233717299785959 -0.25960849866204011 0 -0.24327031017957049 -0.23541801204320789 0 -0.2371596800173508 -0.23301361964223161 0 -0.22025275826160279 -0.2471257797298928 0 -0.2371596800173508 -0.23301361964223161 0 -0.23442911476228809 -0.24683612341654529 0 -0.22025275826160279 -0.2471257797298928 0 -0.22181314593257209 -0.22697511150882529 0 -0.2371596800173508 -0.23301361964223161 0 -0.22025275826160279 -0.2471257797298928 0 -0.21260261997950849 -0.1372892749024191 0 -0.20545486926977061 -0.1574859045201529 0 -0.21260261997950849 -0.1372892749024191 0 -0.20545486926977061 -0.1574859045201529 0 -0.22601880180638709 -0.14497793796819641 0 -0.21260261997950849 -0.1372892749024191 0 -0.20085213665154589 -0.13643960324073179 0 -0.20545486926977061 -0.1574859045201529 0 -0.21260261997950849 -0.1372892749024191 0 -0.2197503706892443 -0.1170926452846846 0 -0.20366324778073339 -0.1226314006036201 0 -0.21260261997950849 -0.1372892749024191 0 -0.2197503706892443 -0.1170926452846846 0 -0.21260261997950849 -0.1372892749024191 0 -0.20085213665154589 -0.13643960324073179 0 -0.20366324778073339 -0.1226314006036201 0 -0.20085213665154589 -0.13643960324073179 0 -0.1912596026832544 -0.12883579632457359 0 -0.20366324778073339 -0.1226314006036201 0 -0.20085213665154589 -0.13643960324073179 0 -0.1912596026832544 -0.12883579632457359 0 -0.1900158864605431 -0.1418606691544825 0 -0.1768933781993007 -0.15369608181255809 0 -0.1900158864605431 -0.1418606691544825 0 -0.20545486926977061 -0.1574859045201529 0 -0.1768933781993007 -0.15369608181255809 0 -0.20545486926977061 -0.1574859045201529 0 -0.20085213665154589 -0.13643960324073179 0 -0.1900158864605431 -0.1418606691544825 0 -0.20545486926977061 -0.1574859045201529 0 -0.1768933781993007 -0.15369608181255809 0 -0.19905977422349169 -0.1755558360643551 0 -0.20545486926977061 -0.1574859045201529 0 -0.19905977422349169 -0.1755558360643551 0 -0.20545486926977061 -0.1574859045201529 0 -0.19266467917721081 -0.1936257676085566 0 -0.19905977422349169 -0.1755558360643551 0 -0.19266467917721081 -0.1936257676085566 0 -0.19905977422349169 -0.1755558360643551 0 -0.2083219237785757 -0.1873320277690235 0 -0.17993745220376059 -0.17895489523397801 0 -0.19266467917721081 -0.1936257676085566 0 -0.19905977422349169 -0.1755558360643551 0 -0.21897926871800019 -0.19669337567287831 0 -0.2083219237785757 -0.1873320277690235 0 -0.21860002285518379 -0.17692462022396371 0 -0.19905977422349169 -0.1755558360643551 0 -0.2083219237785757 -0.1873320277690235 0 -0.21860002285518379 -0.17692462022396371 0 -0.19905977422349169 -0.1755558360643551 0 -0.21860002285518379 -0.17692462022396371 0 -0.20545486926977061 -0.1574859045201529 0 -0.21860002285518379 -0.17692462022396371 0 -0.20545486926977061 -0.1574859045201529 0 -0.2334194436613071 -0.16119652238585741 0 -0.20545486926977061 -0.1574859045201529 0 -0.2334194436613071 -0.16119652238585741 0 -0.21860002285518379 -0.17692462022396371 0 -0.2334194436613071 -0.16119652238585741 0 -0.23313215691775949 -0.18450877018534409 0 -0.21897926871800019 -0.19669337567287831 0 -0.21860002285518379 -0.17692462022396371 0 -0.23313215691775949 -0.18450877018534409 0 -0.2448317244682672 -0.19494017856122331 0 -0.24561243161261531 -0.1747012618202311 0 -0.2448317244682672 -0.19494017856122331 0 -0.23313215691775949 -0.18450877018534409 0 -0.24561243161261531 -0.1747012618202311 0 -0.2334194436613071 -0.16119652238585741 0 -0.23313215691775949 -0.18450877018534409 0 -0.24561243161261531 -0.1747012618202311 0 -0.2334194436613071 -0.16119652238585741 0 -0.24768759332024501 -0.15288591991307249 0 -0.26138401805284373 -0.16490714025156239 0 -0.2334194436613071 -0.16119652238585741 0 -0.24561243161261531 -0.1747012618202311 0 -0.26138401805284373 -0.16490714025156239 0 -0.2334194436613071 -0.16119652238585741 0 -0.26138401805284373 -0.16490714025156239 0 -0.24768759332024501 -0.15288591991307249 0 -0.24035206963199701 -0.13773520297616959 0 -0.25066558347885931 -0.13251764995053431 0 -0.23716828236838119 -0.14842713651880179 0 -0.22601880180638709 -0.14497793796819641 0 -0.24035206963199701 -0.13773520297616959 0 -0.24768759332024501 -0.15288591991307249 0 -0.23716828236838119 -0.14842713651880179 0 -0.24035206963199701 -0.13773520297616959 0 -0.2334194436613071 -0.16119652238585741 0 -0.24768759332024501 -0.15288591991307249 0 -0.23716828236838119 -0.14842713651880179 0 -0.20545486926977061 -0.1574859045201529 0 -0.2334194436613071 -0.16119652238585741 0 -0.22601880180638709 -0.14497793796819641 0 -0.2334194436613071 -0.16119652238585741 0 -0.23716828236838119 -0.14842713651880179 0 -0.22601880180638709 -0.14497793796819641 0 -0.21260261997950849 -0.1372892749024191 0 -0.22701037204806629 -0.12800517972509859 0 -0.2197503706892443 -0.1170926452846846 0 -0.22601880180638709 -0.14497793796819641 0 -0.22701037204806629 -0.12800517972509859 0 -0.24035206963199701 -0.13773520297616959 0 -0.21260261997950849 -0.1372892749024191 0 -0.22601880180638709 -0.14497793796819641 0 -0.22701037204806629 -0.12800517972509859 0 -0.22701037204806629 -0.12800517972509859 0 -0.23833475363582929 -0.12699719077821001 0 -0.24035206963199701 -0.13773520297616959 0 -0.23833475363582929 -0.12699719077821001 0 -0.24035206963199701 -0.13773520297616959 0 -0.25066558347885931 -0.13251764995053431 0 -0.23833475363582929 -0.12699719077821001 0 -0.2466021228926524 -0.1215603100838341 0 -0.25066558347885931 -0.13251764995053431 0 -0.2466021228926524 -0.1215603100838341 0 -0.23420880670407421 -0.115344861449812 0 -0.25028307647261949 -0.1119170655065333 0 -0.23833475363582929 -0.12699719077821001 0 -0.2466021228926524 -0.1215603100838341 0 -0.23420880670407421 -0.115344861449812 0 -0.23975108867161321 -0.096745383671773488 0 -0.23420880670407421 -0.115344861449812 0 -0.25028307647261949 -0.1119170655065333 0 -0.23975108867161321 -0.096745383671773488 0 -0.25028307647261949 -0.1119170655065333 0 -0.25454071313255938 -0.097810231909066098 0 -0.23975108867161321 -0.096745383671773488 0 -0.22550089202944229 -0.1008440162637169 0 -0.23125141336964011 -0.084595387242749231 0 -0.23975108867161321 -0.096745383671773488 0 -0.22550089202944229 -0.1008440162637169 0 -0.23420880670407421 -0.115344861449812 0 -0.22550089202944229 -0.1008440162637169 0 -0.23125141336964011 -0.084595387242749231 0 -0.20770402821161371 -0.098985744105056478 0 -0.22550089202944229 -0.1008440162637169 0 -0.2197503706892443 -0.1170926452846846 0 -0.22550089202944229 -0.1008440162637169 0 -0.2197503706892443 -0.1170926452846846 0 -0.23420880670407421 -0.115344861449812 0 -0.22701037204806629 -0.12800517972509859 0 -0.2197503706892443 -0.1170926452846846 0 -0.22701037204806629 -0.12800517972509859 0 -0.2197503706892443 -0.1170926452846846 0 -0.23420880670407421 -0.115344861449812 0 -0.22701037204806629 -0.12800517972509859 0 -0.23833475363582929 -0.12699719077821001 0 -0.23420880670407421 -0.115344861449812 0 -0.24621250417125429 -0.067242688607955695 0 -0.2359213828018043 -0.071399957410672343 0 -0.2460442741291925 -0.056732515276429897 0 -0.24101683233652779 -0.07862751170581421 0 -0.252754029676304 -0.071454636367457428 0 -0.24621250417125429 -0.067242688607955695 0 -0.24101683233652779 -0.07862751170581421 0 -0.252754029676304 -0.071454636367457428 0 -0.2359213828018043 -0.071399957410672343 0 -0.24101683233652779 -0.07862751170581421 0 -0.24621250417125429 -0.067242688607955695 0 -0.2359213828018043 -0.071399957410672343 0 -0.24101683233652779 -0.07862751170581421 0 -0.24101683233652779 -0.07862751170581421 0 -0.25454071313255938 -0.097810231909066098 0 -0.23975108867161321 -0.096745383671773488 0 -0.24101683233652779 -0.07862751170581421 0 -0.25454071313255938 -0.097810231909066098 0 -0.23975108867161321 -0.096745383671773488 0 -0.24101683233652779 -0.07862751170581421 0 -0.23125141336964011 -0.084595387242749231 0 -0.24101683233652779 -0.07862751170581421 0 -0.23125141336964011 -0.084595387242749231 0 -0.2359213828018043 -0.071399957410672343 0 -0.24101683233652779 -0.07862751170581421 0 -0.23125141336964011 -0.084595387242749231 0 -0.23125141336964011 -0.084595387242749231 0 -0.2244703125416819 -0.072794076224461268 0 -0.21310247649950159 -0.079773441579648038 0 -0.23125141336964011 -0.084595387242749231 0 -0.20770402821161371 -0.098985744105056478 0 -0.22550089202944229 -0.1008440162637169 0 -0.23125141336964011 -0.084595387242749231 0 -0.2359213828018043 -0.071399957410672343 0 -0.2235514570548072 -0.053854045248439182 0 -0.2244703125416819 -0.072794076224461268 0 -0.21482267827762841 -0.069082647852091478 0 -0.2235514570548072 -0.053854045248439182 0 -0.2359213828018043 -0.071399957410672343 0 -0.2244703125416819 -0.072794076224461268 0 -0.2235514570548072 -0.053854045248439182 0 -0.2359213828018043 -0.071399957410672343 0 -0.23125141336964011 -0.084595387242749231 0 -0.2244703125416819 -0.072794076224461268 0 -0.2359213828018043 -0.071399957410672343 0 -0.23125141336964011 -0.084595387242749231 0 -0.20472732395068391 -0.070425609547595483 0 -0.21310247649950159 -0.079773441579648038 0 -0.1942101978544846 -0.078703118630565005 0 -0.21482267827762841 -0.069082647852091478 0 -0.20472732395068391 -0.070425609547595483 0 -0.20783277774853701 -0.056374475910446593 0 -0.2244703125416819 -0.072794076224461268 0 -0.21482267827762841 -0.069082647852091478 0 -0.21310247649950159 -0.079773441579648038 0 -0.21482267827762841 -0.069082647852091478 0 -0.20472732395068391 -0.070425609547595483 0 -0.21310247649950159 -0.079773441579648038 0 -0.23125141336964011 -0.084595387242749231 0 -0.21310247649950159 -0.079773441579648038 0 -0.20770402821161371 -0.098985744105056478 0 -0.21310247649950159 -0.079773441579648038 0 -0.1942101978544846 -0.078703118630565005 0 -0.20770402821161371 -0.098985744105056478 0 -0.1942101978544846 -0.078703118630565005 0 -0.20770402821161371 -0.098985744105056478 0 -0.1942101978544846 -0.078703118630565005 0 -0.20770402821161371 -0.098985744105056478 0 -0.19331927689223261 -0.094690670375105077 0 -0.1942101978544846 -0.078703118630565005 0 -0.19331927689223261 -0.094690670375105077 0 -0.1804061946459036 -0.0975656506999769 0 -0.1942101978544846 -0.078703118630565005 0 -0.1807163674973549 -0.058420493156073998 0 -0.19569491766720151 -0.061370611856350392 0 -0.20472732395068391 -0.070425609547595483 0 -0.1942101978544846 -0.078703118630565005 0 -0.19569491766720151 -0.061370611856350392 0 -0.20472732395068391 -0.070425609547595483 0 -0.19569491766720151 -0.061370611856350392 0 -0.20783277774853701 -0.056374475910446593 0 -0.2197503706892443 -0.1170926452846846 0 -0.20366324778073339 -0.1226314006036201 0 -0.20770402821161371 -0.098985744105056478 0 -0.22550089202944229 -0.1008440162637169 0 -0.2197503706892443 -0.1170926452846846 0 -0.20770402821161371 -0.098985744105056478 0 -0.2197503706892443 -0.1170926452846846 0 -0.20770402821161371 -0.098985744105056478 0 -0.20770402821161371 -0.098985744105056478 0 -0.19331927689223261 -0.094690670375105077 0 -0.18400427859456039 -0.1134692144457318 0 -0.20770402821161371 -0.098985744105056478 0 -0.18400427859456039 -0.1134692144457318 0 -0.20770402821161371 -0.098985744105056478 0 -0.19170728544238649 -0.1194909919475228 0 -0.18400427859456039 -0.1134692144457318 0 -0.20366324778073339 -0.1226314006036201 0 -0.20770402821161371 -0.098985744105056478 0 -0.19170728544238649 -0.1194909919475228 0 -0.1912596026832544 -0.12883579632457359 0 -0.20366324778073339 -0.1226314006036201 0 -0.19170728544238649 -0.1194909919475228 0 -0.1912596026832544 -0.12883579632457359 0 -0.19170728544238649 -0.1194909919475228 0 -0.18212358698306741 -0.12142770117184561 0 -0.18212358698306741 -0.12142770117184561 0 -0.18400427859456039 -0.1134692144457318 0 -0.1804061946459036 -0.0975656506999769 0 -0.18212358698306741 -0.12142770117184561 0 -0.17231042801981861 -0.11010941660198729 0 -0.1804061946459036 -0.0975656506999769 0 -0.19170728544238649 -0.1194909919475228 0 -0.18212358698306741 -0.12142770117184561 0 -0.18400427859456039 -0.1134692144457318 0 -0.18212358698306741 -0.12142770117184561 0 -0.1804061946459036 -0.0975656506999769 0 -0.18212358698306741 -0.12142770117184561 0 -0.17231042801981861 -0.11010941660198729 0 -0.16904936396502779 -0.1225698900008125 0 -0.16904936396502779 -0.1225698900008125 0 -0.16303186383997401 -0.11054530689275879 0 -0.1531014227808439 -0.1221458571451004 0 -0.16303186383997401 -0.11054530689275879 0 -0.1531014227808439 -0.1221458571451004 0 -0.15302467802266631 -0.099964594768007481 0 -0.17231042801981861 -0.11010941660198729 0 -0.16904936396502779 -0.1225698900008125 0 -0.16303186383997401 -0.11054530689275879 0 -0.16694113066512001 -0.098438534244542714 0 -0.1583311292500037 -0.086155785580523059 0 -0.15302467802266631 -0.099964594768007481 0 -0.16303186383997401 -0.11054530689275879 0 -0.16694113066512001 -0.098438534244542714 0 -0.15302467802266631 -0.099964594768007481 0 -0.17231042801981861 -0.11010941660198729 0 -0.16303186383997401 -0.11054530689275879 0 -0.16694113066512001 -0.098438534244542714 0 -0.16694113066512001 -0.098438534244542714 0 -0.1804061946459036 -0.0975656506999769 0 -0.1699979234477183 -0.086164615643162509 0 -0.19331927689223261 -0.094690670375105077 0 -0.18400427859456039 -0.1134692144457318 0 -0.1804061946459036 -0.0975656506999769 0 -0.17231042801981861 -0.11010941660198729 0 -0.16694113066512001 -0.098438534244542714 0 -0.1804061946459036 -0.0975656506999769 0 -0.1942101978544846 -0.078703118630565005 0 -0.1804061946459036 -0.0975656506999769 0 -0.17868880230873979 -0.073703600228108263 0 -0.1804061946459036 -0.0975656506999769 0 -0.17868880230873979 -0.073703600228108263 0 -0.1804061946459036 -0.0975656506999769 0 -0.17868880230873979 -0.073703600228108263 0 -0.1699979234477183 -0.086164615643162509 0 -0.1942101978544846 -0.078703118630565005 0 -0.17868880230873979 -0.073703600228108263 0 -0.1807163674973549 -0.058420493156073998 0 -0.1942101978544846 -0.078703118630565005 0 -0.1807163674973549 -0.058420493156073998 0 -0.17868880230873979 -0.073703600228108263 0 -0.16456215259537851 -0.07423447470758808 0 -0.1687761726195266 -0.062055246708151823 0 -0.16456215259537851 -0.07423447470758808 0 -0.1601060057786266 -0.063048208625582775 0 -0.1687761726195266 -0.062055246708151823 0 -0.17868880230873979 -0.073703600228108263 0 -0.16456215259537851 -0.07423447470758808 0 -0.1699979234477183 -0.086164615643162509 0 -0.16456215259537851 -0.07423447470758808 0 -0.1601060057786266 -0.063048208625582775 0 -0.15147288216765581 -0.074279391460000108 0 -0.16694113066512001 -0.098438534244542714 0 -0.1699979234477183 -0.086164615643162509 0 -0.1583311292500037 -0.086155785580523059 0 -0.16456215259537851 -0.07423447470758808 0 -0.1699979234477183 -0.086164615643162509 0 -0.1583311292500037 -0.086155785580523059 0 -0.16456215259537851 -0.07423447470758808 0 -0.1583311292500037 -0.086155785580523059 0 -0.15147288216765581 -0.074279391460000108 0 -0.1583311292500037 -0.086155785580523059 0 -0.1406917504718985 -0.083199174386461974 0 -0.15147288216765581 -0.074279391460000108 0 -0.1583311292500037 -0.086155785580523059 0 -0.1406917504718985 -0.083199174386461974 0 -0.15302467802266631 -0.099964594768007481 0 -0.1601060057786266 -0.063048208625582775 0 -0.15147288216765581 -0.074279391460000108 0 -0.14916280428309589 -0.053864076679432472 0 -0.15147288216765581 -0.074279391460000108 0 -0.13891648936515211 -0.064472249171247775 0 -0.14916280428309589 -0.053864076679432472 0 -0.1406917504718985 -0.083199174386461974 0 -0.15147288216765581 -0.074279391460000108 0 -0.13891648936515211 -0.064472249171247775 0 -0.12197003300458489 -0.067133964797042034 0 -0.1406917504718985 -0.083199174386461974 0 -0.13891648936515211 -0.064472249171247775 0 -0.121811479392537 -0.084095963505499416 0 -0.12197003300458489 -0.067133964797042034 0 -0.1406917504718985 -0.083199174386461974 0 -0.121811479392537 -0.084095963505499416 0 -0.1406917504718985 -0.083199174386461974 0 -0.13931556210068971 -0.10629227142291391 0 -0.11605893441195141 -0.10185107539240761 0 -0.121811479392537 -0.084095963505499416 0 -0.13931556210068971 -0.10629227142291391 0 -0.11422347955810171 -0.1204243593602408 0 -0.13931556210068971 -0.10629227142291391 0 -0.11422347955810171 -0.1204243593602408 0 -0.13445671698849809 -0.1291024538471422 0 -0.13931556210068971 -0.10629227142291391 0 -0.13445671698849809 -0.1291024538471422 0 -0.13931556210068971 -0.10629227142291391 0 -0.1531014227808439 -0.1221458571451004 0 -0.13931556210068971 -0.10629227142291391 0 -0.1531014227808439 -0.1221458571451004 0 -0.15302467802266631 -0.099964594768007481 0 -0.1406917504718985 -0.083199174386461974 0 -0.13931556210068971 -0.10629227142291391 0 -0.15302467802266631 -0.099964594768007481 0 -0.14079925107272581 -0.02334449083682992 0 -0.15349169287978739 -0.035208883327978051 0 -0.15939520176274349 -0.015620398581745401 0 -0.14079925107272581 -0.02334449083682992 0 -0.14275634286812811 -0.006203461430080404 0 -0.15939520176274349 -0.015620398581745401 0 -0.14275634286812811 -0.006203461430080404 0 -0.15939520176274349 -0.015620398581745401 0 -0.15796117991031841 -0.00029962151665172479 0 -0.14079925107272581 -0.02334449083682992 0 -0.14275634286812811 -0.006203461430080404 0 -0.1278640484455188 -0.012334690821253821 0 -0.14275634286812811 -0.006203461430080404 0 -0.1278640484455188 -0.012334690821253821 0 -0.1273771369441013 0.0023450629401116992 0 -0.12411398995058071 -0.026208981462584841 0 -0.14079925107272581 -0.02334449083682992 0 -0.1278640484455188 -0.012334690821253821 0 -0.12411398995058071 -0.026208981462584841 0 -0.14079925107272581 -0.02334449083682992 0 -0.13241258759658719 -0.044529255409706578 0 -0.13891648936515211 -0.064472249171247775 0 -0.13241258759658719 -0.044529255409706578 0 -0.14916280428309589 -0.053864076679432472 0 -0.12197003300458489 -0.067133964797042034 0 -0.13891648936515211 -0.064472249171247775 0 -0.13241258759658719 -0.044529255409706578 0 -0.14079925107272581 -0.02334449083682992 0 -0.13241258759658719 -0.044529255409706578 0 -0.15349169287978739 -0.035208883327978051 0 -0.14916280428309589 -0.053864076679432472 0 -0.15349169287978739 -0.035208883327978051 0 -0.16249228466986629 -0.048723367468166891 0 -0.13241258759658719 -0.044529255409706578 0 -0.14916280428309589 -0.053864076679432472 0 -0.15349169287978739 -0.035208883327978051 0 -0.15349169287978739 -0.035208883327978051 0 -0.16249228466986629 -0.048723367468166891 0 -0.17525401763441231 -0.025979499284370731 0 -0.16249228466986629 -0.048723367468166891 0 -0.17697140997157609 -0.049841549756239563 0 -0.17525401763441231 -0.025979499284370731 0 -0.1601060057786266 -0.063048208625582775 0 -0.14916280428309589 -0.053864076679432472 0 -0.16249228466986629 -0.048723367468166891 0 -0.1601060057786266 -0.063048208625582775 0 -0.16249228466986629 -0.048723367468166891 0 -0.1687761726195266 -0.062055246708151823 0 -0.16249228466986629 -0.048723367468166891 0 -0.1687761726195266 -0.062055246708151823 0 -0.17697140997157609 -0.049841549756239563 0 -0.17868880230873979 -0.073703600228108263 0 -0.17697140997157609 -0.049841549756239563 0 -0.17868880230873979 -0.073703600228108263 0 -0.17697140997157609 -0.049841549756239563 0 -0.1807163674973549 -0.058420493156073998 0 -0.17868880230873979 -0.073703600228108263 0 -0.1687761726195266 -0.062055246708151823 0 -0.17697140997157609 -0.049841549756239563 0 -0.17697140997157609 -0.049841549756239563 0 -0.187061179232277 -0.050545000195171969 0 -0.1807163674973549 -0.058420493156073998 0 -0.17697140997157609 -0.049841549756239563 0 -0.17525401763441231 -0.025979499284370731 0 -0.17697140997157609 -0.049841549756239563 0 -0.1844822702309237 -0.037308153316215523 0 -0.17525401763441231 -0.025979499284370731 0 -0.17697140997157609 -0.049841549756239563 0 -0.187061179232277 -0.050545000195171969 0 -0.1844822702309237 -0.037308153316215523 0 -0.1844822702309237 -0.037308153316215523 0 -0.17525401763441231 -0.025979499284370731 0 -0.19881160556081021 -0.01876222092397466 0 -0.17525401763441231 -0.025979499284370731 0 -0.17967452986780849 -0.0030086181600807401 0 -0.19881160556081021 -0.01876222092397466 0 -0.15349169287978739 -0.035208883327978051 0 -0.17525401763441231 -0.025979499284370731 0 -0.15939520176274349 -0.015620398581745401 0 -0.17525401763441231 -0.025979499284370731 0 -0.15939520176274349 -0.015620398581745401 0 -0.17967452986780849 -0.0030086181600807401 0 -0.15939520176274349 -0.015620398581745401 0 -0.15796117991031841 -0.00029962151665172479 0 -0.17967452986780849 -0.0030086181600807401 0 -0.17967452986780849 -0.0030086181600807401 0 -0.19881160556081021 -0.01876222092397466 0 -0.20680301002479959 -0.0020434230711429339 0 -0.1844822702309237 -0.037308153316215523 0 -0.19881160556081021 -0.01876222092397466 0 -0.19797908447346779 -0.034540675054344362 0 -0.19881160556081021 -0.01876222092397466 0 -0.19797908447346779 -0.034540675054344362 0 -0.2111815313078087 -0.036308133086206937 0 -0.19881160556081021 -0.01876222092397466 0 -0.2111815313078087 -0.036308133086206937 0 -0.19881160556081021 -0.01876222092397466 0 -0.2111815313078087 -0.036308133086206937 0 -0.21993326537292579 -0.016570742696256829 0 -0.19881160556081021 -0.01876222092397466 0 -0.20680301002479959 -0.0020434230711429339 0 -0.21993326537292579 -0.016570742696256829 0 -0.20680301002479959 -0.0020434230711429339 0 -0.21993326537292579 -0.016570742696256829 0 -0.22850437187820721 0.00061554774341724197 0 -0.187061179232277 -0.050545000195171969 0 -0.1807163674973549 -0.058420493156073998 0 -0.19569491766720151 -0.061370611856350392 0 -0.187061179232277 -0.050545000195171969 0 -0.19569491766720151 -0.061370611856350392 0 -0.1974409307943287 -0.045784192890980333 0 -0.19569491766720151 -0.061370611856350392 0 -0.1974409307943287 -0.045784192890980333 0 -0.20783277774853701 -0.056374475910446593 0 -0.187061179232277 -0.050545000195171969 0 -0.1844822702309237 -0.037308153316215523 0 -0.1974409307943287 -0.045784192890980333 0 -0.1844822702309237 -0.037308153316215523 0 -0.1974409307943287 -0.045784192890980333 0 -0.19797908447346779 -0.034540675054344362 0 -0.1974409307943287 -0.045784192890980333 0 -0.19797908447346779 -0.034540675054344362 0 -0.2111815313078087 -0.036308133086206937 0 -0.1974409307943287 -0.045784192890980333 0 -0.2111815313078087 -0.036308133086206937 0 -0.20783277774853701 -0.056374475910446593 0 -0.2111815313078087 -0.036308133086206937 0 -0.2235514570548072 -0.053854045248439182 0 -0.21482267827762841 -0.069082647852091478 0 -0.20783277774853701 -0.056374475910446593 0 -0.2235514570548072 -0.053854045248439182 0 -0.2111815313078087 -0.036308133086206937 0 -0.20783277774853701 -0.056374475910446593 0 -0.2235514570548072 -0.053854045248439182 0 -0.2359213828018043 -0.071399957410672343 0 -0.2235514570548072 -0.053854045248439182 0 -0.23385975453729951 -0.05448316257834377 0 -0.2235514570548072 -0.053854045248439182 0 -0.23385975453729951 -0.05448316257834377 0 -0.23195090370150159 -0.044148728843497582 0 -0.2111815313078087 -0.036308133086206937 0 -0.23195090370150159 -0.044148728843497582 0 -0.2330954250503823 -0.030605580137893669 0 -0.2111815313078087 -0.036308133086206937 0 -0.2235514570548072 -0.053854045248439182 0 -0.23195090370150159 -0.044148728843497582 0 -0.2440152745910836 -0.048529918810766987 0 -0.25210916638036568 -0.025659880210862549 0 -0.23195090370150159 -0.044148728843497582 0 -0.2440152745910836 -0.048529918810766987 0 -0.2330954250503823 -0.030605580137893669 0 -0.2440152745910836 -0.048529918810766987 0 -0.2330954250503823 -0.030605580137893669 0 -0.25210916638036568 -0.025659880210862549 0 -0.2359213828018043 -0.071399957410672343 0 -0.2440152745910836 -0.048529918810766987 0 -0.2460442741291925 -0.056732515276429897 0 -0.2359213828018043 -0.071399957410672343 0 -0.2440152745910836 -0.048529918810766987 0 -0.2359213828018043 -0.071399957410672343 0 -0.23385975453729951 -0.05448316257834377 0 -0.2440152745910836 -0.048529918810766987 0 -0.23385975453729951 -0.05448316257834377 0 -0.23195090370150159 -0.044148728843497582 0 -0.2440152745910836 -0.048529918810766987 0 -0.2440152745910836 -0.048529918810766987 0 -0.2460442741291925 -0.056732515276429897 0 -0.25586239660102372 -0.042106716883949957 0 -0.21993326537292579 -0.016570742696256829 0 -0.2409228609234593 -0.01213331886889705 0 -0.22850437187820721 0.00061554774341724197 0 -0.21993326537292579 -0.016570742696256829 0 -0.2330954250503823 -0.030605580137893669 0 -0.2409228609234593 -0.01213331886889705 0 -0.2111815313078087 -0.036308133086206937 0 -0.21993326537292579 -0.016570742696256829 0 -0.2330954250503823 -0.030605580137893669 0 -0.2330954250503823 -0.030605580137893669 0 -0.2409228609234593 -0.01213331886889705 0 -0.25210916638036568 -0.025659880210862549 0 -0.2409228609234593 -0.01213331886889705 0 -0.25132042997239518 0.0027134119798401068 0 -0.22850437187820721 0.00061554774341724197 0 -0.2409228609234593 -0.01213331886889705 0 -0.26431478179583978 -0.01186883573312463 0 -0.25132042997239518 0.0027134119798401068 0 -0.2409228609234593 -0.01213331886889705 0 -0.26431478179583978 -0.01186883573312463 0 -0.25210916638036568 -0.025659880210862549 0 -0.26431478179583978 -0.01186883573312463 0 -0.25210916638036568 -0.025659880210862549 0 -0.26885463380623098 -0.032431385670777198 0 -0.26431478179583978 -0.01186883573312463 0 -0.28272693982295583 -0.022072801118422261 0 -0.26885463380623098 -0.032431385670777198 0 -0.26431478179583978 -0.01186883573312463 0 -0.2820771903446922 -0.0013122005201030101 0 -0.28272693982295583 -0.022072801118422261 0 -0.26431478179583978 -0.01186883573312463 0 -0.2820771903446922 -0.0013122005201030101 0 -0.26646431581863778 0.01029557754540468 0 -0.2820771903446922 -0.0013122005201030101 0 -0.29531588189047731 -0.01459302740547606 0 -0.28272693982295583 -0.022072801118422261 0 -0.2820771903446922 -0.0013122005201030101 0 -0.29531588189047731 -0.01459302740547606 0 -0.30047775033007851 -0.00039401612408775783 0 -0.28272693982295583 -0.022072801118422261 0 -0.29548818451705972 -0.026431314805352931 0 -0.29006158744840338 -0.043009214960059237 0 -0.29531588189047731 -0.01459302740547606 0 -0.28272693982295583 -0.022072801118422261 0 -0.29548818451705972 -0.026431314805352931 0 -0.30546101391149699 -0.021623392358951481 0 -0.31536924438116293 -0.015921951660718081 0 -0.31269309410946189 -0.035953378537937578 0 -0.29531588189047731 -0.01459302740547606 0 -0.29548818451705972 -0.026431314805352931 0 -0.30546101391149699 -0.021623392358951481 0 -0.29548818451705972 -0.026431314805352931 0 -0.30546101391149699 -0.021623392358951481 0 -0.30306546886548719 -0.032455918975325043 0 -0.30546101391149699 -0.021623392358951481 0 -0.31269309410946189 -0.035953378537937578 0 -0.30546101391149699 -0.021623392358951481 0 -0.30306546886548719 -0.032455918975325043 0 -0.31269309410946189 -0.035953378537937578 0 -0.30546101391149699 -0.021623392358951481 0 -0.30702321298661528 -0.0098616365840560535 0 -0.31536924438116293 -0.015921951660718081 0 -0.30702321298661528 -0.0098616365840560535 0 -0.30047775033007851 -0.00039401612408775783 0 -0.31849217441985911 0.0032242046289520012 0 -0.29531588189047731 -0.01459302740547606 0 -0.30702321298661528 -0.0098616365840560535 0 -0.30047775033007851 -0.00039401612408775783 0 -0.29531588189047731 -0.01459302740547606 0 -0.30546101391149699 -0.021623392358951481 0 -0.30702321298661528 -0.0098616365840560535 0 -0.30785263576887473 -0.062005008750064983 0 -0.31269309410946189 -0.035953378537937578 0 -0.30785263576887473 -0.062005008750064983 0 -0.29006158744840338 -0.043009214960059237 0 -0.31269309410946189 -0.035953378537937578 0 -0.30306546886548719 -0.032455918975325043 0 -0.29006158744840338 -0.043009214960059237 0 -0.31269309410946189 -0.035953378537937578 0 -0.29006158744840338 -0.043009214960059237 0 -0.31269309410946189 -0.035953378537937578 0 -0.29548818451705972 -0.026431314805352931 0 -0.30306546886548719 -0.032455918975325043 0 -0.29006158744840338 -0.043009214960059237 0 -0.30785263576887473 -0.062005008750064983 0 -0.29006158744840338 -0.043009214960059237 0 -0.29043964680931811 -0.063340758069959313 0 -0.29006158744840338 -0.043009214960059237 0 -0.27571433008302992 -0.061323808156972907 0 -0.29043964680931811 -0.063340758069959313 0 -0.27571433008302992 -0.061323808156972907 0 -0.26805293078879788 -0.049870865118244581 0 -0.25908974683711639 -0.062912752445689821 0 -0.29006158744840338 -0.043009214960059237 0 -0.27571433008302992 -0.061323808156972907 0 -0.26805293078879788 -0.049870865118244581 0 -0.28272693982295583 -0.022072801118422261 0 -0.29006158744840338 -0.043009214960059237 0 -0.26885463380623098 -0.032431385670777198 0 -0.29006158744840338 -0.043009214960059237 0 -0.26805293078879788 -0.049870865118244581 0 -0.29006158744840338 -0.043009214960059237 0 -0.26805293078879788 -0.049870865118244581 0 -0.26885463380623098 -0.032431385670777198 0 -0.2440152745910836 -0.048529918810766987 0 -0.25210916638036568 -0.025659880210862549 0 -0.25586239660102372 -0.042106716883949957 0 -0.26805293078879788 -0.049870865118244581 0 -0.26885463380623098 -0.032431385670777198 0 -0.25586239660102372 -0.042106716883949957 0 -0.25210916638036568 -0.025659880210862549 0 -0.26885463380623098 -0.032431385670777198 0 -0.25586239660102372 -0.042106716883949957 0 -0.2460442741291925 -0.056732515276429897 0 -0.26805293078879788 -0.049870865118244581 0 -0.2460442741291925 -0.056732515276429897 0 -0.26805293078879788 -0.049870865118244581 0 -0.25908974683711639 -0.062912752445689821 0 -0.2460442741291925 -0.056732515276429897 0 -0.26805293078879788 -0.049870865118244581 0 -0.25586239660102372 -0.042106716883949957 0 -0.24621250417125429 -0.067242688607955695 0 -0.2460442741291925 -0.056732515276429897 0 -0.25908974683711639 -0.062912752445689821 0 -0.24621250417125429 -0.067242688607955695 0 -0.25908974683711639 -0.062912752445689821 0 -0.252754029676304 -0.071454636367457428 0 -0.24101683233652779 -0.07862751170581421 0 -0.252754029676304 -0.071454636367457428 0 -0.26402766811367417 -0.083484384069295273 0 -0.25908974683711639 -0.062912752445689821 0 -0.252754029676304 -0.071454636367457428 0 -0.26621243399467659 -0.070844567870559746 0 -0.252754029676304 -0.071454636367457428 0 -0.26402766811367417 -0.083484384069295273 0 -0.26621243399467659 -0.070844567870559746 0 -0.24101683233652779 -0.07862751170581421 0 -0.26402766811367417 -0.083484384069295273 0 -0.25454071313255938 -0.097810231909066098 0 -0.26402766811367417 -0.083484384069295273 0 -0.27094601368544552 -0.10060299140421709 0 -0.28369928052750421 -0.089996057638050242 0 -0.26402766811367417 -0.083484384069295273 0 -0.27947639526325851 -0.075047258313383283 0 -0.28369928052750421 -0.089996057638050242 0 -0.27571433008302992 -0.061323808156972907 0 -0.25908974683711639 -0.062912752445689821 0 -0.26621243399467659 -0.070844567870559746 0 -0.27571433008302992 -0.061323808156972907 0 -0.27947639526325851 -0.075047258313383283 0 -0.26621243399467659 -0.070844567870559746 0 -0.26402766811367417 -0.083484384069295273 0 -0.27947639526325851 -0.075047258313383283 0 -0.26621243399467659 -0.070844567870559746 0 -0.25700205454408459 -0.1228995308742117 0 -0.25028307647261949 -0.1119170655065333 0 -0.26806459392859111 -0.11699295211231781 0 -0.25700205454408459 -0.1228995308742117 0 -0.26806459392859111 -0.11699295211231781 0 -0.26633673802341562 -0.13121143084146969 0 -0.2466021228926524 -0.1215603100838341 0 -0.25700205454408459 -0.1228995308742117 0 -0.25028307647261949 -0.1119170655065333 0 -0.25454071313255938 -0.097810231909066098 0 -0.27094601368544552 -0.10060299140421709 0 -0.26806459392859111 -0.11699295211231781 0 -0.25028307647261949 -0.1119170655065333 0 -0.25454071313255938 -0.097810231909066098 0 -0.26806459392859111 -0.11699295211231781 0 -0.25454071313255938 -0.097810231909066098 0 -0.26806459392859111 -0.11699295211231781 0 -0.26402766811367417 -0.083484384069295273 0 -0.25454071313255938 -0.097810231909066098 0 -0.27094601368544552 -0.10060299140421709 0 -0.27094601368544552 -0.10060299140421709 0 -0.28498588272658609 -0.10953694176986691 0 -0.28369928052750421 -0.089996057638050242 0 -0.27094601368544552 -0.10060299140421709 0 -0.26806459392859111 -0.11699295211231781 0 -0.28498588272658609 -0.10953694176986691 0 -0.26806459392859111 -0.11699295211231781 0 -0.28498588272658609 -0.10953694176986691 0 -0.26633673802341562 -0.13121143084146969 0 -0.28498588272658609 -0.10953694176986691 0 -0.26633673802341562 -0.13121143084146969 0 -0.28390483366507108 -0.12795146285425149 0 -0.28498588272658609 -0.10953694176986691 0 -0.26633673802341562 -0.13121143084146969 0 -0.28498588272658609 -0.10953694176986691 0 -0.29939047470698632 -0.1138850881088251 0 -0.28390483366507108 -0.12795146285425149 0 -0.28498588272658609 -0.10953694176986691 0 -0.29939047470698632 -0.1138850881088251 0 -0.30363502742975002 -0.087862452698258112 0 -0.28498588272658609 -0.10953694176986691 0 -0.28369928052750421 -0.089996057638050242 0 -0.30363502742975002 -0.087862452698258112 0 -0.28498588272658609 -0.10953694176986691 0 -0.30363502742975002 -0.087862452698258112 0 -0.31112038415555038 -0.105912916312301 0 -0.30363502742975002 -0.087862452698258112 0 -0.31872509099925939 -0.09489525911115787 0 -0.29939047470698632 -0.1138850881088251 0 -0.30363502742975002 -0.087862452698258112 0 -0.31112038415555038 -0.105912916312301 0 -0.29939047470698632 -0.1138850881088251 0 -0.30363502742975002 -0.087862452698258112 0 -0.31112038415555038 -0.105912916312301 0 -0.29939047470698632 -0.1138850881088251 0 -0.3108150907057583 -0.123289039988229 0 -0.27571433008302992 -0.061323808156972907 0 -0.27947639526325851 -0.075047258313383283 0 -0.29043964680931811 -0.063340758069959313 0 -0.27947639526325851 -0.075047258313383283 0 -0.29326350469267087 -0.075637034816957854 0 -0.29043964680931811 -0.063340758069959313 0 -0.27947639526325851 -0.075047258313383283 0 -0.29326350469267087 -0.075637034816957854 0 -0.28369928052750421 -0.089996057638050242 0 -0.29326350469267087 -0.075637034816957854 0 -0.28369928052750421 -0.089996057638050242 0 -0.30363502742975002 -0.087862452698258112 0 -0.30363502742975002 -0.087862452698258112 0 -0.3147457864693044 -0.074949258596716542 0 -0.31872509099925939 -0.09489525911115787 0 -0.30363502742975002 -0.087862452698258112 0 -0.3147457864693044 -0.074949258596716542 0 -0.30785263576887473 -0.062005008750064983 0 -0.29326350469267087 -0.075637034816957854 0 -0.30363502742975002 -0.087862452698258112 0 -0.30785263576887473 -0.062005008750064983 0 -0.30363502742975002 -0.087862452698258112 0 -0.3147457864693044 -0.074949258596716542 0 -0.30785263576887473 -0.062005008750064983 0 -0.29326350469267087 -0.075637034816957854 0 -0.29043964680931811 -0.063340758069959313 0 -0.30785263576887473 -0.062005008750064983 0 -0.30363502742975002 -0.087862452698258112 0 -0.3147457864693044 -0.074949258596716542 0 -0.3258565455088529 -0.062036064495169851 0 -0.3147457864693044 -0.074949258596716542 0 -0.33306166037992252 -0.0763126202985034 0 -0.3258565455088529 -0.062036064495169851 0 -0.30785263576887473 -0.062005008750064983 0 -0.3147457864693044 -0.074949258596716542 0 -0.3258565455088529 -0.062036064495169851 0 -0.3147457864693044 -0.074949258596716542 0 -0.32890001459834822 -0.087516828956376788 0 -0.31872509099925939 -0.09489525911115787 0 -0.3147457864693044 -0.074949258596716542 0 -0.32890001459834822 -0.087516828956376788 0 -0.33306166037992252 -0.0763126202985034 0 -0.32890001459834822 -0.087516828956376788 0 -0.34026677525099192 -0.090589176101837157 0 -0.33306166037992252 -0.0763126202985034 0 -0.34026677525099192 -0.090589176101837157 0 -0.33306166037992252 -0.0763126202985034 0 -0.34026677525099192 -0.090589176101837157 0 -0.33306166037992252 -0.0763126202985034 0 -0.34512097989852569 -0.077376017677512551 0 -0.3363426704622316 -0.065040097883454634 0 -0.33306166037992252 -0.0763126202985034 0 -0.34512097989852569 -0.077376017677512551 0 -0.3363426704622316 -0.065040097883454634 0 -0.34775082305034588 -0.06364522302323769 0 -0.34512097989852569 -0.077376017677512551 0 -0.33306166037992252 -0.0763126202985034 0 -0.3258565455088529 -0.062036064495169851 0 -0.3363426704622316 -0.065040097883454634 0 -0.33306166037992252 -0.0763126202985034 0 -0.3258565455088529 -0.062036064495169851 0 -0.31112038415555038 -0.105912916312301 0 -0.3108150907057583 -0.123289039988229 0 -0.32269556115348802 -0.1134475374517785 0 -0.32269556115348802 -0.1134475374517785 0 -0.33213803149032362 -0.1206207689722909 0 -0.32288905220234743 -0.1288405143651869 0 -0.3108150907057583 -0.123289039988229 0 -0.32269556115348802 -0.1134475374517785 0 -0.32288905220234743 -0.1288405143651869 0 -0.32269556115348802 -0.1134475374517785 0 -0.31872509099925939 -0.09489525911115787 0 -0.33360553934550968 -0.1041906416325506 0 -0.31112038415555038 -0.105912916312301 0 -0.32269556115348802 -0.1134475374517785 0 -0.31872509099925939 -0.09489525911115787 0 -0.32890001459834822 -0.087516828956376788 0 -0.31872509099925939 -0.09489525911115787 0 -0.33360553934550968 -0.1041906416325506 0 -0.3434725512788051 -0.1026137903417853 0 -0.33360553934550968 -0.1041906416325506 0 -0.3466874303271234 -0.11958926053505441 0 -0.32890001459834822 -0.087516828956376788 0 -0.34026677525099192 -0.090589176101837157 0 -0.33360553934550968 -0.1041906416325506 0 -0.34026677525099192 -0.090589176101837157 0 -0.3434725512788051 -0.1026137903417853 0 -0.33360553934550968 -0.1041906416325506 0 -0.33360553934550968 -0.1041906416325506 0 -0.33213803149032362 -0.1206207689722909 0 -0.3466874303271234 -0.11958926053505441 0 -0.32269556115348802 -0.1134475374517785 0 -0.33360553934550968 -0.1041906416325506 0 -0.33213803149032362 -0.1206207689722909 0 -0.3466874303271234 -0.11958926053505441 0 -0.36980343247362518 -0.1100922289949047 0 -0.35999293180258313 -0.1258522389537349 0 -0.3466874303271234 -0.11958926053505441 0 -0.35333046019159542 -0.096086083097699004 0 -0.36980343247362518 -0.1100922289949047 0 -0.3434725512788051 -0.1026137903417853 0 -0.3466874303271234 -0.11958926053505441 0 -0.35333046019159542 -0.096086083097699004 0 -0.3466874303271234 -0.11958926053505441 0 -0.35333046019159542 -0.096086083097699004 0 -0.34026677525099192 -0.090589176101837157 0 -0.3434725512788051 -0.1026137903417853 0 -0.35333046019159542 -0.096086083097699004 0 -0.35333046019159542 -0.096086083097699004 0 -0.36980343247362518 -0.1100922289949047 0 -0.37347114863240299 -0.089088331268139143 0 -0.36980343247362518 -0.1100922289949047 0 -0.35999293180258313 -0.1258522389537349 0 -0.37152802352755399 -0.13164580699010159 0 -0.36980343247362518 -0.1100922289949047 0 -0.37152802352755399 -0.13164580699010159 0 -0.38235470820745771 -0.123978498660336 0 -0.34775082305034588 -0.06364522302323769 0 -0.35997349005606738 -0.07258290566034345 0 -0.36099236519079719 -0.058965157594587259 0 -0.34775082305034588 -0.06364522302323769 0 -0.34512097989852569 -0.077376017677512551 0 -0.35997349005606738 -0.07258290566034345 0 -0.35333046019159542 -0.096086083097699004 0 -0.35997349005606738 -0.07258290566034345 0 -0.35333046019159542 -0.096086083097699004 0 -0.34512097989852569 -0.077376017677512551 0 -0.35997349005606738 -0.07258290566034345 0 -0.34026677525099192 -0.090589176101837157 0 -0.35333046019159542 -0.096086083097699004 0 -0.34512097989852569 -0.077376017677512551 0 -0.35333046019159542 -0.096086083097699004 0 -0.37347114863240299 -0.089088331268139143 0 -0.35997349005606738 -0.07258290566034345 0 -0.37347114863240299 -0.089088331268139143 0 -0.35997349005606738 -0.07258290566034345 0 -0.37513495807632252 -0.068027960422620465 0 -0.35997349005606738 -0.07258290566034345 0 -0.36099236519079719 -0.058965157594587259 0 -0.37513495807632252 -0.068027960422620465 0 -0.37357085562444819 -0.050327950541553881 0 -0.36099236519079719 -0.058965157594587259 0 -0.37513495807632252 -0.068027960422620465 0 -0.37357085562444819 -0.050327950541553881 0 -0.36080282922430701 -0.047544586661118063 0 -0.36099236519079719 -0.058965157594587259 0 -0.34775082305034588 -0.06364522302323769 0 -0.36099236519079719 -0.058965157594587259 0 -0.34872123511329239 -0.051662319258650009 0 -0.36080282922430701 -0.047544586661118063 0 -0.36099236519079719 -0.058965157594587259 0 -0.34872123511329239 -0.051662319258650009 0 -0.34775082305034588 -0.06364522302323769 0 -0.34872123511329239 -0.051662319258650009 0 -0.33906118872719399 -0.055758100993783748 0 -0.35023980363822049 -0.040197400203048239 0 -0.3638826905141766 -0.035463803005797899 0 -0.34258176142245139 -0.029723406047678591 0 -0.35023980363822049 -0.040197400203048239 0 -0.34258176142245139 -0.029723406047678591 0 -0.35023980363822049 -0.040197400203048239 0 -0.34258176142245139 -0.029723406047678591 0 -0.33960488145915169 -0.038902248398748569 0 -0.34872123511329239 -0.051662319258650009 0 -0.35023980363822049 -0.040197400203048239 0 -0.33950963895876157 -0.046563850177851397 0 -0.36080282922430701 -0.047544586661118063 0 -0.35023980363822049 -0.040197400203048239 0 -0.3638826905141766 -0.035463803005797899 0 -0.36080282922430701 -0.047544586661118063 0 -0.34872123511329239 -0.051662319258650009 0 -0.35023980363822049 -0.040197400203048239 0 -0.37357085562444819 -0.050327950541553881 0 -0.3638826905141766 -0.035463803005797899 0 -0.38712728366555788 -0.02974425569958293 0 -0.37357085562444819 -0.050327950541553881 0 -0.36080282922430701 -0.047544586661118063 0 -0.3638826905141766 -0.035463803005797899 0 -0.3638826905141766 -0.035463803005797899 0 -0.36897360951007507 -0.015245218881805699 0 -0.38712728366555788 -0.02974425569958293 0 -0.36897360951007507 -0.015245218881805699 0 -0.38465333842141641 -0.0066435457767305304 0 -0.36979036210562988 0.0025511841975563729 0 -0.36897360951007507 -0.015245218881805699 0 -0.35319748844548088 -0.0026450940697062141 0 -0.36979036210562988 0.0025511841975563729 0 -0.36897360951007507 -0.015245218881805699 0 -0.35319748844548088 -0.0026450940697062141 0 -0.36897360951007507 -0.015245218881805699 0 -0.35319748844548088 -0.0026450940697062141 0 -0.34557514790129729 -0.01385186480739395 0 -0.35319748844548088 -0.0026450940697062141 0 -0.34557514790129729 -0.01385186480739395 0 -0.33742136738088668 0.0099550307423931228 0 -0.36897360951007507 -0.015245218881805699 0 -0.34557514790129729 -0.01385186480739395 0 -0.34258176142245139 -0.029723406047678591 0 -0.3638826905141766 -0.035463803005797899 0 -0.36897360951007507 -0.015245218881805699 0 -0.34258176142245139 -0.029723406047678591 0 -0.36897360951007507 -0.015245218881805699 0 -0.34258176142245139 -0.029723406047678591 0 -0.34258176142245139 -0.029723406047678591 0 -0.33053696792115572 -0.013249600709362951 0 -0.34557514790129729 -0.01385186480739395 0 -0.34258176142245139 -0.029723406047678591 0 -0.33053696792115572 -0.013249600709362951 0 -0.34258176142245139 -0.029723406047678591 0 -0.33123792958382192 -0.02655418191443467 0 -0.33053696792115572 -0.013249600709362951 0 -0.33123792958382192 -0.02655418191443467 0 -0.33053696792115572 -0.013249600709362951 0 -0.32518110448499649 -0.02265309324021984 0 -0.33123792958382192 -0.02655418191443467 0 -0.32494971957893121 -0.032132124138264453 0 -0.33294009451157502 -0.035012685436647553 0 -0.34258176142245139 -0.029723406047678591 0 -0.33123792958382192 -0.02655418191443467 0 -0.33294009451157502 -0.035012685436647553 0 -0.33053696792115572 -0.013249600709362951 0 -0.31849217441985911 0.0032242046289520012 0 -0.33742136738088668 0.0099550307423931228 0 -0.34557514790129729 -0.01385186480739395 0 -0.33053696792115572 -0.013249600709362951 0 -0.33742136738088668 0.0099550307423931228 0 -0.30702321298661528 -0.0098616365840560535 0 -0.31536924438116293 -0.015921951660718081 0 -0.31849217441985911 0.0032242046289520012 0 -0.31536924438116293 -0.015921951660718081 0 -0.31849217441985911 0.0032242046289520012 0 -0.33053696792115572 -0.013249600709362951 0 -0.31849217441985911 0.0032242046289520012 0 -0.33053696792115572 -0.013249600709362951 0 -0.31536924438116293 -0.015921951660718081 0 -0.31849217441985911 0.0032242046289520012 0 -0.31536924438116293 -0.015921951660718081 0 -0.31269309410946189 -0.035953378537937578 0 -0.31536924438116293 -0.015921951660718081 0 -0.3196636581113782 -0.026330909640423061 0 -0.31269309410946189 -0.035953378537937578 0 -0.33123792958382192 -0.02655418191443467 0 -0.32518110448499649 -0.02265309324021984 0 -0.32494971957893121 -0.032132124138264453 0 -0.32518110448499649 -0.02265309324021984 0 -0.3196636581113782 -0.026330909640423061 0 -0.32494971957893121 -0.032132124138264453 0 -0.33053696792115572 -0.013249600709362951 0 -0.32518110448499649 -0.02265309324021984 0 -0.31536924438116293 -0.015921951660718081 0 -0.32518110448499649 -0.02265309324021984 0 -0.31536924438116293 -0.015921951660718081 0 -0.3196636581113782 -0.026330909640423061 0 -0.31269309410946189 -0.035953378537937578 0 -0.32494971957893121 -0.032132124138264453 0 -0.3196636581113782 -0.026330909640423061 0 -0.31269309410946189 -0.035953378537937578 0 -0.32494971957893121 -0.032132124138264453 0 -0.32589239144387999 -0.038804272667940308 0 -0.32494971957893121 -0.032132124138264453 0 -0.33294009451157502 -0.035012685436647553 0 -0.31269309410946189 -0.035953378537937578 0 -0.32589239144387999 -0.038804272667940308 0 -0.32494971957893121 -0.032132124138264453 0 -0.31269309410946189 -0.035953378537937578 0 -0.32589239144387999 -0.038804272667940308 0 -0.32612594025468172 -0.0479092750983348 0 -0.31269309410946189 -0.035953378537937578 0 -0.3258565455088529 -0.062036064495169851 0 -0.32612594025468172 -0.0479092750983348 0 -0.30785263576887473 -0.062005008750064983 0 -0.31269309410946189 -0.035953378537937578 0 -0.3258565455088529 -0.062036064495169851 0 -0.31269309410946189 -0.035953378537937578 0 -0.3258565455088529 -0.062036064495169851 0 -0.3258565455088529 -0.062036064495169851 0 -0.32612594025468172 -0.0479092750983348 0 -0.32948021068586231 -0.057824552786275359 0 -0.3258565455088529 -0.062036064495169851 0 -0.32948021068586231 -0.057824552786275359 0 -0.33273312926745618 -0.050000536382928867 0 -0.32948021068586231 -0.057824552786275359 0 -0.33906118872719399 -0.055758100993783748 0 -0.32612594025468172 -0.0479092750983348 0 -0.33273312926745618 -0.050000536382928867 0 -0.32948021068586231 -0.057824552786275359 0 -0.32612594025468172 -0.0479092750983348 0 -0.33273312926745618 -0.050000536382928867 0 -0.33275310876475001 -0.043013900128517107 0 -0.3363426704622316 -0.065040097883454634 0 -0.32948021068586231 -0.057824552786275359 0 -0.33906118872719399 -0.055758100993783748 0 -0.3363426704622316 -0.065040097883454634 0 -0.3258565455088529 -0.062036064495169851 0 -0.32948021068586231 -0.057824552786275359 0 -0.3363426704622316 -0.065040097883454634 0 -0.34775082305034588 -0.06364522302323769 0 -0.33906118872719399 -0.055758100993783748 0 -0.34872123511329239 -0.051662319258650009 0 -0.33906118872719399 -0.055758100993783748 0 -0.33950963895876157 -0.046563850177851397 0 -0.33273312926745618 -0.050000536382928867 0 -0.33906118872719399 -0.055758100993783748 0 -0.33950963895876157 -0.046563850177851397 0 -0.35023980363822049 -0.040197400203048239 0 -0.33950963895876157 -0.046563850177851397 0 -0.33960488145915169 -0.038902248398748569 0 -0.33950963895876157 -0.046563850177851397 0 -0.33960488145915169 -0.038902248398748569 0 -0.33275310876475001 -0.043013900128517107 0 -0.34258176142245139 -0.029723406047678591 0 -0.33294009451157502 -0.035012685436647553 0 -0.34258176142245139 -0.029723406047678591 0 -0.33960488145915169 -0.038902248398748569 0 -0.33294009451157502 -0.035012685436647553 0 -0.32589239144387999 -0.038804272667940308 0 -0.33294009451157502 -0.035012685436647553 0 -0.33275310876475001 -0.043013900128517107 0 -0.33960488145915169 -0.038902248398748569 0 -0.33294009451157502 -0.035012685436647553 0 -0.33275310876475001 -0.043013900128517107 0 -0.32589239144387999 -0.038804272667940308 0 -0.32612594025468172 -0.0479092750983348 0 -0.33275310876475001 -0.043013900128517107 0 -0.33273312926745618 -0.050000536382928867 0 -0.33950963895876157 -0.046563850177851397 0 -0.33275310876475001 -0.043013900128517107 0 -0.3072444938386063 -0.24298546540808871 0 -0.29465074886808879 -0.2402547820199166 0 -0.31547147842988582 -0.2330670094454039 0 -0.29465074886808879 -0.2402547820199166 0 -0.31547147842988582 -0.2330670094454039 0 -0.31283906540333922 -0.25031215033235238 0 -0.3072444938386063 -0.24298546540808871 0 -0.31547147842988582 -0.2330670094454039 0 -0.29948497002523827 -0.2483657822867901 0 -0.3072444938386063 -0.24298546540808871 0 -0.29465074886808879 -0.2402547820199166 0 -0.29948497002523827 -0.2483657822867901 0 -0.3072444938386063 -0.24298546540808871 0 -0.30623861516307299 -0.24935013043731349 0 -0.31283906540333922 -0.25031215033235238 0 -0.3072444938386063 -0.24298546540808871 0 -0.30623861516307299 -0.24935013043731349 0 -0.30340245666429422 -0.2199120115188499 0 -0.29465074886808879 -0.2402547820199166 0 -0.31547147842988582 -0.2330670094454039 0 -0.30340245666429422 -0.2199120115188499 0 -0.31790591229007997 -0.21133065133653661 0 -0.31547147842988582 -0.2330670094454039 0 -0.30340245666429422 -0.2199120115188499 0 -0.29465074886808879 -0.2402547820199166 0 -0.28241226381596191 -0.21797562975109799 0 -0.29465074886808879 -0.2402547820199166 0 -0.27816771109320582 -0.2439982651616662 0 -0.28241226381596191 -0.21797562975109799 0 -0.29465074886808879 -0.2402547820199166 0 -0.27383001930629169 -0.24744255459442921 0 -0.28942662192718172 -0.25357945894426132 0 -0.29465074886808879 -0.2402547820199166 0 -0.27383001930629169 -0.24744255459442921 0 -0.29465074886808879 -0.2402547820199166 0 -0.27816771109320582 -0.2439982651616662 0 -0.27383001930629169 -0.24744255459442921 0 -0.28942662192718172 -0.25357945894426132 0 -0.29948497002523827 -0.2483657822867901 0 -0.29465074886808879 -0.2402547820199166 0 -0.27816771109320582 -0.2439982651616662 0 -0.27383001930629169 -0.24744255459442921 0 -0.26926560585898118 -0.2360615599669478 0 -0.27383001930629169 -0.24744255459442921 0 -0.26926560585898118 -0.2360615599669478 0 -0.25855016474293108 -0.24143028331881861 0 -0.27383001930629169 -0.24744255459442921 0 -0.25855016474293108 -0.24143028331881861 0 -0.2565674865322034 -0.25340195958415102 0 -0.27383001930629169 -0.24744255459442921 0 -0.25855016474293108 -0.24143028331881861 0 -0.26926560585898118 -0.2360615599669478 0 -0.25855016474293108 -0.24143028331881861 0 -0.25588924886857078 -0.22577026586403889 0 -0.24327031017957049 -0.23541801204320789 0 -0.25855016474293108 -0.24143028331881861 0 -0.24327031017957049 -0.23541801204320789 0 -0.25855016474293108 -0.24143028331881861 0 -0.25018128361314113 -0.24746468840205441 0 -0.2565674865322034 -0.25340195958415102 0 -0.25855016474293108 -0.24143028331881861 0 -0.25018128361314113 -0.24746468840205441 0 -0.24327031017957049 -0.23541801204320789 0 -0.25855016474293108 -0.24143028331881861 0 -0.25588924886857078 -0.22577026586403889 0 -0.26926560585898118 -0.2360615599669478 0 -0.25588924886857078 -0.22577026586403889 0 -0.26783798195298542 -0.22189041659364681 0 -0.27816771109320582 -0.2439982651616662 0 -0.26926560585898118 -0.2360615599669478 0 -0.28241226381596191 -0.21797562975109799 0 -0.26926560585898118 -0.2360615599669478 0 -0.26783798195298542 -0.22189041659364681 0 -0.28241226381596191 -0.21797562975109799 0 -0.27816771109320582 -0.2439982651616662 0 -0.28241226381596191 -0.21797562975109799 0 -0.26378480926842768 -0.2077542107925027 0 -0.286656816538718 -0.19195299434052959 0 -0.28241226381596191 -0.21797562975109799 0 -0.26783798195298542 -0.22189041659364681 0 -0.26378480926842768 -0.2077542107925027 0 -0.28241226381596191 -0.21797562975109799 0 -0.25588924886857078 -0.22577026586403889 0 -0.26783798195298542 -0.22189041659364681 0 -0.26378480926842768 -0.2077542107925027 0 -0.2448317244682672 -0.19494017856122331 0 -0.24405101732391901 -0.2151790953022156 0 -0.26378480926842768 -0.2077542107925027 0 -0.24405101732391901 -0.2151790953022156 0 -0.25588924886857078 -0.22577026586403889 0 -0.26378480926842768 -0.2077542107925027 0 -0.2448317244682672 -0.19494017856122331 0 -0.26378480926842768 -0.2077542107925027 0 -0.26312512204060101 -0.18530650416748581 0 -0.26378480926842768 -0.2077542107925027 0 -0.286656816538718 -0.19195299434052959 0 -0.26312512204060101 -0.18530650416748581 0 -0.286656816538718 -0.19195299434052959 0 -0.28241226381596191 -0.21797562975109799 0 -0.30591086076688379 -0.19847336016990141 0 -0.286656816538718 -0.19195299434052959 0 -0.28241226381596191 -0.21797562975109799 0 -0.30340245666429422 -0.2199120115188499 0 -0.28241226381596191 -0.21797562975109799 0 -0.30591086076688379 -0.19847336016990141 0 -0.30340245666429422 -0.2199120115188499 0 -0.30591086076688379 -0.19847336016990141 0 -0.31790591229007997 -0.21133065133653661 0 -0.286656816538718 -0.19195299434052959 0 -0.30591086076688379 -0.19847336016990141 0 -0.31180552805921091 -0.17430838359622669 0 -0.31180552805921091 -0.17430838359622669 0 -0.29090136926147409 -0.16593035892996141 0 -0.30878195228896921 -0.15303576335633209 0 -0.286656816538718 -0.19195299434052959 0 -0.29090136926147409 -0.16593035892996141 0 -0.286656816538718 -0.19195299434052959 0 -0.31180552805921091 -0.17430838359622669 0 -0.29090136926147409 -0.16593035892996141 0 -0.286656816538718 -0.19195299434052959 0 -0.29090136926147409 -0.16593035892996141 0 -0.27584707269233227 -0.1739466899300364 0 -0.27584707269233227 -0.1739466899300364 0 -0.26312512204060101 -0.18530650416748581 0 -0.26138401805284373 -0.16490714025156239 0 -0.286656816538718 -0.19195299434052959 0 -0.27584707269233227 -0.1739466899300364 0 -0.26312512204060101 -0.18530650416748581 0 -0.2448317244682672 -0.19494017856122331 0 -0.24561243161261531 -0.1747012618202311 0 -0.26312512204060101 -0.18530650416748581 0 -0.24561243161261531 -0.1747012618202311 0 -0.26312512204060101 -0.18530650416748581 0 -0.26138401805284373 -0.16490714025156239 0 -0.27584707269233227 -0.1739466899300364 0 -0.26138401805284373 -0.16490714025156239 0 -0.27641132505293098 -0.14990407015019561 0 -0.29090136926147409 -0.16593035892996141 0 -0.27584707269233227 -0.1739466899300364 0 -0.27641132505293098 -0.14990407015019561 0 -0.27641132505293098 -0.14990407015019561 0 -0.26295491861235881 -0.14972714028907499 0 -0.26633673802341562 -0.13121143084146969 0 -0.26138401805284373 -0.16490714025156239 0 -0.27641132505293098 -0.14990407015019561 0 -0.26295491861235881 -0.14972714028907499 0 -0.24768759332024501 -0.15288591991307249 0 -0.26633673802341562 -0.13121143084146969 0 -0.24768759332024501 -0.15288591991307249 0 -0.26295491861235881 -0.14972714028907499 0 -0.26633673802341562 -0.13121143084146969 0 -0.24768759332024501 -0.15288591991307249 0 -0.26138401805284373 -0.16490714025156239 0 -0.26295491861235881 -0.14972714028907499 0 -0.25700205454408459 -0.1228995308742117 0 -0.25066558347885931 -0.13251764995053431 0 -0.26633673802341562 -0.13121143084146969 0 -0.24768759332024501 -0.15288591991307249 0 -0.25066558347885931 -0.13251764995053431 0 -0.26633673802341562 -0.13121143084146969 0 -0.2466021228926524 -0.1215603100838341 0 -0.25700205454408459 -0.1228995308742117 0 -0.25066558347885931 -0.13251764995053431 0 -0.27641132505293098 -0.14990407015019561 0 -0.26633673802341562 -0.13121143084146969 0 -0.28390483366507108 -0.12795146285425149 0 -0.27641132505293098 -0.14990407015019561 0 -0.29514592198423018 -0.13990772351939329 0 -0.28390483366507108 -0.12795146285425149 0 -0.29939047470698632 -0.1138850881088251 0 -0.29514592198423018 -0.13990772351939329 0 -0.28390483366507108 -0.12795146285425149 0 -0.29090136926147409 -0.16593035892996141 0 -0.27641132505293098 -0.14990407015019561 0 -0.29514592198423018 -0.13990772351939329 0 -0.29090136926147409 -0.16593035892996141 0 -0.29514592198423018 -0.13990772351939329 0 -0.29514592198423018 -0.13990772351939329 0 -0.30878195228896921 -0.15303576335633209 0 -0.31204687939749698 -0.1371714365216575 0 -0.29090136926147409 -0.16593035892996141 0 -0.29514592198423018 -0.13990772351939329 0 -0.30878195228896921 -0.15303576335633209 0 -0.3108150907057583 -0.123289039988229 0 -0.29514592198423018 -0.13990772351939329 0 -0.31204687939749698 -0.1371714365216575 0 -0.29939047470698632 -0.1138850881088251 0 -0.3108150907057583 -0.123289039988229 0 -0.29514592198423018 -0.13990772351939329 0 -0.29939047470698632 -0.1138850881088251 0 -0.29514592198423018 -0.13990772351939329 0 -0.32288905220234743 -0.1288405143651869 0 -0.32258299715563782 -0.14068177926995709 0 -0.33321030378869931 -0.13646686722665249 0 -0.3108150907057583 -0.123289039988229 0 -0.31204687939749698 -0.1371714365216575 0 -0.32288905220234743 -0.1288405143651869 0 -0.31204687939749698 -0.1371714365216575 0 -0.32288905220234743 -0.1288405143651869 0 -0.32258299715563782 -0.14068177926995709 0 -0.30878195228896921 -0.15303576335633209 0 -0.32482557091518699 -0.15217937608711771 0 -0.32258299715563782 -0.14068177926995709 0 -0.30878195228896921 -0.15303576335633209 0 -0.31204687939749698 -0.1371714365216575 0 -0.32258299715563782 -0.14068177926995709 0 -0.32482557091518699 -0.15217937608711771 0 -0.32258299715563782 -0.14068177926995709 0 -0.33321030378869931 -0.13646686722665249 0 -0.32482557091518699 -0.15217937608711771 0 -0.34004440046265172 -0.14309243797241011 0 -0.33321030378869931 -0.13646686722665249 0 -0.34004440046265172 -0.14309243797241011 0 -0.35498504575946821 -0.15757720561970059 0 -0.3332048416520596 -0.1672909388971599 0 -0.34004440046265172 -0.14309243797241011 0 -0.3332048416520596 -0.1672909388971599 0 -0.32482557091518699 -0.15217937608711771 0 -0.34004440046265172 -0.14309243797241011 0 -0.3332048416520596 -0.1672909388971599 0 -0.3466874303271234 -0.11958926053505441 0 -0.34004440046265172 -0.14309243797241011 0 -0.33213803149032362 -0.1206207689722909 0 -0.32288905220234743 -0.1288405143651869 0 -0.33321030378869931 -0.13646686722665249 0 -0.33213803149032362 -0.1206207689722909 0 -0.3466874303271234 -0.11958926053505441 0 -0.33321030378869931 -0.13646686722665249 0 -0.3466874303271234 -0.11958926053505441 0 -0.34004440046265172 -0.14309243797241011 0 -0.33321030378869931 -0.13646686722665249 0 -0.34004440046265172 -0.14309243797241011 0 -0.33321030378869931 -0.13646686722665249 0 -0.3466874303271234 -0.11958926053505441 0 -0.35676717686891291 -0.14006723761877321 0 -0.35999293180258313 -0.1258522389537349 0 -0.3466874303271234 -0.11958926053505441 0 -0.34004440046265172 -0.14309243797241011 0 -0.35676717686891291 -0.14006723761877321 0 -0.35676717686891291 -0.14006723761877321 0 -0.37152802352755399 -0.13164580699010159 0 -0.37069541475874412 -0.1487336244607225 0 -0.35676717686891291 -0.14006723761877321 0 -0.35999293180258313 -0.1258522389537349 0 -0.37152802352755399 -0.13164580699010159 0 -0.35676717686891291 -0.14006723761877321 0 -0.37069541475874412 -0.1487336244607225 0 -0.35498504575946821 -0.15757720561970059 0 -0.37069541475874412 -0.1487336244607225 0 -0.35498504575946821 -0.15757720561970059 0 -0.37692746124962329 -0.16011968929401549 0 -0.37152802352755399 -0.13164580699010159 0 -0.37069541475874412 -0.1487336244607225 0 -0.38190833683646341 -0.1417380771930716 0 -0.34004440046265172 -0.14309243797241011 0 -0.35676717686891291 -0.14006723761877321 0 -0.35498504575946821 -0.15757720561970059 0 -0.34004440046265172 -0.14309243797241011 0 -0.35498504575946821 -0.15757720561970059 0 -0.35102499454429859 -0.17065527247529391 0 -0.35498504575946821 -0.15757720561970059 0 -0.36992569105628492 -0.1720619732669908 0 -0.35102499454429859 -0.17065527247529391 0 -0.35498504575946821 -0.15757720561970059 0 -0.3332048416520596 -0.1672909388971599 0 -0.35498504575946821 -0.15757720561970059 0 -0.36992569105628492 -0.1720619732669908 0 -0.37692746124962329 -0.16011968929401549 0 -0.35498504575946821 -0.15757720561970059 0 -0.36992569105628492 -0.1720619732669908 0 -0.36802329911298681 -0.18587483615006681 0 -0.36992569105628492 -0.1720619732669908 0 -0.38452179946839471 -0.1862127167391712 0 -0.36802329911298681 -0.18587483615006681 0 -0.36992569105628492 -0.1720619732669908 0 -0.34598439970938172 -0.18569097211732419 0 -0.35102499454429859 -0.17065527247529391 0 -0.36992569105628492 -0.1720619732669908 0 -0.34598439970938172 -0.18569097211732419 0 -0.36992569105628492 -0.1720619732669908 0 -0.34598439970938172 -0.18569097211732419 0 -0.35102499454429859 -0.17065527247529391 0 -0.34598439970938172 -0.18569097211732419 0 -0.3332048416520596 -0.1672909388971599 0 -0.34598439970938172 -0.18569097211732419 0 -0.3332048416520596 -0.1672909388971599 0 -0.32636528284146782 -0.19148943982190991 0 -0.3332048416520596 -0.1672909388971599 0 -0.32636528284146782 -0.19148943982190991 0 -0.31180552805921091 -0.17430838359622669 0 -0.32482557091518699 -0.15217937608711771 0 -0.3332048416520596 -0.1672909388971599 0 -0.31180552805921091 -0.17430838359622669 0 -0.30878195228896921 -0.15303576335633209 0 -0.32482557091518699 -0.15217937608711771 0 -0.31180552805921091 -0.17430838359622669 0 -0.3332048416520596 -0.1672909388971599 0 -0.32636528284146782 -0.19148943982190991 0 -0.30591086076688379 -0.19847336016990141 0 -0.32636528284146782 -0.19148943982190991 0 -0.31790591229007997 -0.21133065133653661 0 -0.30591086076688379 -0.19847336016990141 0 -0.31180552805921091 -0.17430838359622669 0 -0.32636528284146782 -0.19148943982190991 0 -0.32636528284146782 -0.19148943982190991 0 -0.31790591229007997 -0.21133065133653661 0 -0.33039187961118982 -0.20742389982875531 0 -0.31790591229007997 -0.21133065133653661 0 -0.33039187961118982 -0.20742389982875531 0 -0.32870803705144969 -0.21844997174213321 0 -0.33039187961118982 -0.20742389982875531 0 -0.32870803705144969 -0.21844997174213321 0 -0.33850246058748812 -0.21389845468103499 0 -0.32870803705144969 -0.21844997174213321 0 -0.33850246058748812 -0.21389845468103499 0 -0.33596699493009807 -0.21993263715474329 0 -0.33850246058748812 -0.21389845468103499 0 -0.34687159193856038 -0.2183762197826761 0 -0.3403652740897718 -0.22150288532491411 0 -0.33850246058748812 -0.21389845468103499 0 -0.3403652740897718 -0.22150288532491411 0 -0.33596699493009807 -0.21993263715474329 0 -0.33039187961118982 -0.20742389982875531 0 -0.33850246058748812 -0.21389845468103499 0 -0.34047770528546362 -0.2019509815621614 0 -0.33850246058748812 -0.21389845468103499 0 -0.34047770528546362 -0.2019509815621614 0 -0.34737571748628571 -0.2101963969508848 0 -0.34598439970938172 -0.18569097211732419 0 -0.32636528284146782 -0.19148943982190991 0 -0.34047770528546362 -0.2019509815621614 0 -0.32636528284146782 -0.19148943982190991 0 -0.33039187961118982 -0.20742389982875531 0 -0.34047770528546362 -0.2019509815621614 0 -0.34598439970938172 -0.18569097211732419 0 -0.35303310702934909 -0.20231631441727971 0 -0.36343771537771569 -0.19566750525459251 0 -0.34598439970938172 -0.18569097211732419 0 -0.34047770528546362 -0.2019509815621614 0 -0.35303310702934909 -0.20231631441727971 0 -0.36802329911298681 -0.18587483615006681 0 -0.34598439970938172 -0.18569097211732419 0 -0.36343771537771569 -0.19566750525459251 0 -0.35303310702934909 -0.20231631441727971 0 -0.36343771537771569 -0.19566750525459251 0 -0.36388592792924168 -0.20758305467352059 0 -0.36343771537771569 -0.19566750525459251 0 -0.37301156641091737 -0.20337184000283479 0 -0.36388592792924168 -0.20758305467352059 0 -0.36343771537771569 -0.19566750525459251 0 -0.37438048369549509 -0.19384422148204511 0 -0.37301156641091737 -0.20337184000283479 0 -0.36802329911298681 -0.18587483615006681 0 -0.36343771537771569 -0.19566750525459251 0 -0.37438048369549509 -0.19384422148204511 0 -0.37273312771996808 -0.21396345107145709 0 -0.37301156641091737 -0.20337184000283479 0 -0.36388592792924168 -0.20758305467352059 0 -0.37273312771996808 -0.21396345107145709 0 -0.36388592792924168 -0.20758305467352059 0 -0.36460053442081081 -0.21946742083422599 0 -0.36388592792924168 -0.20758305467352059 0 -0.35626724818121019 -0.21440977701126371 0 -0.36460053442081081 -0.21946742083422599 0 -0.35626724818121019 -0.21440977701126371 0 -0.34687159193856038 -0.2183762197826761 0 -0.35361393690670712 -0.22275298964725909 0 -0.35303310702934909 -0.20231631441727971 0 -0.36388592792924168 -0.20758305467352059 0 -0.35626724818121019 -0.21440977701126371 0 -0.35303310702934909 -0.20231631441727971 0 -0.35626724818121019 -0.21440977701126371 0 -0.34737571748628571 -0.2101963969508848 0 -0.34047770528546362 -0.2019509815621614 0 -0.35303310702934909 -0.20231631441727971 0 -0.34737571748628571 -0.2101963969508848 0 -0.33850246058748812 -0.21389845468103499 0 -0.34737571748628571 -0.2101963969508848 0 -0.34687159193856038 -0.2183762197826761 0 -0.35626724818121019 -0.21440977701126371 0 -0.34737571748628571 -0.2101963969508848 0 -0.34687159193856038 -0.2183762197826761 0 -0.34687159193856038 -0.2183762197826761 0 -0.3448729074691318 -0.22568858673477191 0 -0.3403652740897718 -0.22150288532491411 0 -0.34687159193856038 -0.2183762197826761 0 -0.3448729074691318 -0.22568858673477191 0 -0.35361393690670712 -0.22275298964725909 0 -0.3448729074691318 -0.22568858673477191 0 -0.35311939258201253 -0.23120947699362049 0 -0.35361393690670712 -0.22275298964725909 0 -0.3448729074691318 -0.22568858673477191 0 -0.35311939258201253 -0.23120947699362049 0 -0.3466300329275056 -0.23782645962689411 0 -0.35311939258201253 -0.23120947699362049 0 -0.35361393690670712 -0.22275298964725909 0 -0.36278739720748587 -0.22937453583313699 0 -0.35311939258201253 -0.23120947699362049 0 -0.36278739720748587 -0.22937453583313699 0 -0.35743223323550471 -0.2390192939344549 0 -0.35626724818121019 -0.21440977701126371 0 -0.35361393690670712 -0.22275298964725909 0 -0.36460053442081081 -0.21946742083422599 0 -0.36460053442081081 -0.21946742083422599 0 -0.36278739720748587 -0.22937453583313699 0 -0.37306962678156358 -0.22430756502184571 0 -0.35361393690670712 -0.22275298964725909 0 -0.36460053442081081 -0.21946742083422599 0 -0.36278739720748587 -0.22937453583313699 0 -0.36278739720748587 -0.22937453583313699 0 -0.37393716339703942 -0.23401667981853819 0 -0.37306962678156358 -0.22430756502184571 0 -0.36278739720748587 -0.22937453583313699 0 -0.37393716339703942 -0.23401667981853819 0 -0.36594725961251939 -0.23889039006825119 0 -0.37273312771996808 -0.21396345107145709 0 -0.36460053442081081 -0.21946742083422599 0 -0.37306962678156358 -0.22430756502184571 0 -0.37393540655460039 -0.25504906339868932 0 -0.37362469669529808 -0.24416340610428999 0 -0.363557814049559 -0.2486896754833777 0 -0.37362469669529808 -0.24416340610428999 0 -0.36594725961251939 -0.23889039006825119 0 -0.363557814049559 -0.2486896754833777 0 -0.37393716339703942 -0.23401667981853819 0 -0.37362469669529808 -0.24416340610428999 0 -0.36594725961251939 -0.23889039006825119 0 -0.36278739720748587 -0.22937453583313699 0 -0.36594725961251939 -0.23889039006825119 0 -0.35743223323550471 -0.2390192939344549 0 -0.36594725961251939 -0.23889039006825119 0 -0.363557814049559 -0.2486896754833777 0 -0.35743223323550471 -0.2390192939344549 0 -0.363557814049559 -0.2486896754833777 0 -0.35255150303394622 -0.24812522560144931 0 -0.35743223323550471 -0.2390192939344549 0 -0.35311939258201253 -0.23120947699362049 0 -0.35743223323550471 -0.2390192939344549 0 -0.3466300329275056 -0.23782645962689411 0 -0.35255150303394622 -0.24812522560144931 0 -0.35743223323550471 -0.2390192939344549 0 -0.3466300329275056 -0.23782645962689411 0 -0.35255150303394622 -0.24812522560144931 0 -0.3466300329275056 -0.23782645962689411 0 -0.3420777495351906 -0.24844208584564559 0 -0.33131030172746923 -0.25321851497678438 0 -0.33373364759712132 -0.2373308373461466 0 -0.32202724095639168 -0.2495658441092535 0 -0.33131030172746923 -0.25321851497678438 0 -0.33373364759712132 -0.2373308373461466 0 -0.33131030172746923 -0.25321851497678438 0 -0.3420777495351906 -0.24844208584564559 0 -0.33373364759712132 -0.2373308373461466 0 -0.3466300329275056 -0.23782645962689411 0 -0.3420777495351906 -0.24844208584564559 0 -0.33373364759712132 -0.2373308373461466 0 -0.3448729074691318 -0.22568858673477191 0 -0.33373364759712132 -0.2373308373461466 0 -0.33513500532203722 -0.22814340766163391 0 -0.3448729074691318 -0.22568858673477191 0 -0.33373364759712132 -0.2373308373461466 0 -0.3448729074691318 -0.22568858673477191 0 -0.3466300329275056 -0.23782645962689411 0 -0.33373364759712132 -0.2373308373461466 0 -0.3362922079916828 -0.22587923687089109 0 -0.33513500532203722 -0.22814340766163391 0 -0.31547147842988582 -0.2330670094454039 0 -0.3448729074691318 -0.22568858673477191 0 -0.3362922079916828 -0.22587923687089109 0 -0.33513500532203722 -0.22814340766163391 0 -0.3448729074691318 -0.22568858673477191 0 -0.3403652740897718 -0.22150288532491411 0 -0.3362922079916828 -0.22587923687089109 0 -0.3403652740897718 -0.22150288532491411 0 -0.3362922079916828 -0.22587923687089109 0 -0.33596699493009807 -0.21993263715474329 0 -0.32870803705144969 -0.21844997174213321 0 -0.3362922079916828 -0.22587923687089109 0 -0.33596699493009807 -0.21993263715474329 0 -0.33373364759712132 -0.2373308373461466 0 -0.33513500532203722 -0.22814340766163391 0 -0.31790591229007997 -0.21133065133653661 0 -0.32870803705144969 -0.21844997174213321 0 -0.31547147842988582 -0.2330670094454039 0 -0.3362922079916828 -0.22587923687089109 0 -0.31547147842988582 -0.2330670094454039 0 -0.32870803705144969 -0.21844997174213321 0 -0.3362922079916828 -0.22587923687089109 0 -0.31547147842988582 -0.2330670094454039 0 -0.33373364759712132 -0.2373308373461466 0 -0.33513500532203722 -0.22814340766163391 0 -0.31547147842988582 -0.2330670094454039 0 -0.33373364759712132 -0.2373308373461466 0 -0.31547147842988582 -0.2330670094454039 0 -0.32202724095639168 -0.2495658441092535 0 -0.31283906540333922 -0.25031215033235238 0 -0.31547147842988582 -0.2330670094454039 0 -0.32202724095639168 -0.2495658441092535 0 -0.33373364759712132 -0.2373308373461466 0 -0.32202724095639168 -0.2495658441092535 0 -0.42931567121415071 -0.25028064732030619 0 -0.41974440223132548 -0.2277223948390894 0 -0.42931567121415071 -0.25028064732030619 0 -0.43665732485841618 -0.24137016429136929 0 -0.41974440223132548 -0.2277223948390894 0 -0.43487007995442373 -0.25384069753834382 0 -0.42931567121415071 -0.25028064732030619 0 -0.43665732485841618 -0.24137016429136929 0 -0.43665732485841618 -0.24137016429136929 0 -0.41974440223132548 -0.2277223948390894 0 -0.44277641758923081 -0.23102430468348881 0 -0.43377720402095787 -0.21991138490827611 0 -0.41974440223132548 -0.2277223948390894 0 -0.44277641758923081 -0.23102430468348881 0 -0.43377720402095787 -0.21991138490827611 0 -0.41974440223132548 -0.2277223948390894 0 -0.42075205755079043 -0.21398522646416529 0 -0.41974440223132548 -0.2277223948390894 0 -0.40847937369743209 -0.24258689873782929 0 -0.40379864078896821 -0.22147517947459039 0 -0.42931567121415071 -0.25028064732030619 0 -0.41974440223132548 -0.2277223948390894 0 -0.40847937369743209 -0.24258689873782929 0 -0.3945867816951415 -0.25828321704239809 0 -0.40847937369743209 -0.24258689873782929 0 -0.3933004523496676 -0.24484402304582939 0 -0.40847937369743209 -0.24258689873782929 0 -0.3933004523496676 -0.24484402304582939 0 -0.39478669289115392 -0.23309544567896751 0 -0.3933004523496676 -0.24484402304582939 0 -0.38349803953804651 -0.2389949919606586 0 -0.38258347849844832 -0.24967798674395081 0 -0.3933004523496676 -0.24484402304582939 0 -0.38349803953804651 -0.2389949919606586 0 -0.39478669289115392 -0.23309544567896751 0 -0.37393716339703942 -0.23401667981853819 0 -0.37362469669529808 -0.24416340610428999 0 -0.38349803953804651 -0.2389949919606586 0 -0.37393540655460039 -0.25504906339868932 0 -0.37362469669529808 -0.24416340610428999 0 -0.38258347849844832 -0.24967798674395081 0 -0.37362469669529808 -0.24416340610428999 0 -0.38349803953804651 -0.2389949919606586 0 -0.38258347849844832 -0.24967798674395081 0 -0.37306962678156358 -0.22430756502184571 0 -0.38469596054732291 -0.22836918992304631 0 -0.38295547739377761 -0.21861943378263729 0 -0.37273312771996808 -0.21396345107145709 0 -0.37306962678156358 -0.22430756502184571 0 -0.38295547739377761 -0.21861943378263729 0 -0.37393716339703942 -0.23401667981853819 0 -0.38349803953804651 -0.2389949919606586 0 -0.38469596054732291 -0.22836918992304631 0 -0.37393716339703942 -0.23401667981853819 0 -0.37306962678156358 -0.22430756502184571 0 -0.38469596054732291 -0.22836918992304631 0 -0.38349803953804651 -0.2389949919606586 0 -0.38469596054732291 -0.22836918992304631 0 -0.39478669289115392 -0.23309544567896751 0 -0.38469596054732291 -0.22836918992304631 0 -0.39264909581396568 -0.2229573829789786 0 -0.38295547739377761 -0.21861943378263729 0 -0.39264909581396568 -0.2229573829789786 0 -0.39478669289115392 -0.23309544567896751 0 -0.40379864078896821 -0.22147517947459039 0 -0.40847937369743209 -0.24258689873782929 0 -0.39478669289115392 -0.23309544567896751 0 -0.40379864078896821 -0.22147517947459039 0 -0.40847937369743209 -0.24258689873782929 0 -0.40379864078896821 -0.22147517947459039 0 -0.39264909581396568 -0.2229573829789786 0 -0.40379864078896821 -0.22147517947459039 0 -0.39247153470499518 -0.2129117927155128 0 -0.38469596054732291 -0.22836918992304631 0 -0.39264909581396568 -0.2229573829789786 0 -0.39478669289115392 -0.23309544567896751 0 -0.40379864078896821 -0.22147517947459039 0 -0.39911790788050461 -0.2003634602113514 0 -0.40379864078896821 -0.22147517947459039 0 -0.39247153470499518 -0.2129117927155128 0 -0.39911790788050461 -0.2003634602113514 0 -0.40379864078896821 -0.22147517947459039 0 -0.40520524043689871 -0.20626505254016059 0 -0.39911790788050461 -0.2003634602113514 0 -0.40520524043689871 -0.20626505254016059 0 -0.39911790788050461 -0.2003634602113514 0 -0.41017313324850019 -0.2051641423578727 0 -0.40520524043689871 -0.20626505254016059 0 -0.39911790788050461 -0.2003634602113514 0 -0.39247153470499518 -0.2129117927155128 0 -0.38971867217429529 -0.20303686442097379 0 -0.39911790788050461 -0.2003634602113514 0 -0.39247153470499518 -0.2129117927155128 0 -0.38295547739377761 -0.21861943378263729 0 -0.38211351879485039 -0.2092072209849834 0 -0.39264909581396568 -0.2229573829789786 0 -0.39247153470499518 -0.2129117927155128 0 -0.38295547739377761 -0.21861943378263729 0 -0.38211351879485039 -0.2092072209849834 0 -0.38151862494823319 -0.19996558655041019 0 -0.38971867217429529 -0.20303686442097379 0 -0.39247153470499518 -0.2129117927155128 0 -0.38211351879485039 -0.2092072209849834 0 -0.38971867217429529 -0.20303686442097379 0 -0.37273312771996808 -0.21396345107145709 0 -0.37301156641091737 -0.20337184000283479 0 -0.38211351879485039 -0.2092072209849834 0 -0.37301156641091737 -0.20337184000283479 0 -0.38211351879485039 -0.2092072209849834 0 -0.38151862494823319 -0.19996558655041019 0 -0.37273312771996808 -0.21396345107145709 0 -0.38295547739377761 -0.21861943378263729 0 -0.38211351879485039 -0.2092072209849834 0 -0.36802329911298681 -0.18587483615006681 0 -0.37438048369549509 -0.19384422148204511 0 -0.38452179946839471 -0.1862127167391712 0 -0.38151862494823319 -0.19996558655041019 0 -0.38971867217429529 -0.20303686442097379 0 -0.38452179946839471 -0.1862127167391712 0 -0.37438048369549509 -0.19384422148204511 0 -0.38151862494823319 -0.19996558655041019 0 -0.38452179946839471 -0.1862127167391712 0 -0.37438048369549509 -0.19384422148204511 0 -0.37301156641091737 -0.20337184000283479 0 -0.38151862494823319 -0.19996558655041019 0 -0.39911790788050461 -0.2003634602113514 0 -0.39550730918059213 -0.18407841519480589 0 -0.38452179946839471 -0.1862127167391712 0 -0.39911790788050461 -0.2003634602113514 0 -0.40135005364381798 -0.19305297691017151 0 -0.39550730918059213 -0.18407841519480589 0 -0.39911790788050461 -0.2003634602113514 0 -0.39550730918059213 -0.18407841519480589 0 -0.38971867217429529 -0.20303686442097379 0 -0.39911790788050461 -0.2003634602113514 0 -0.38452179946839471 -0.1862127167391712 0 -0.41017313324850019 -0.2051641423578727 0 -0.40060186426567512 -0.18260588987665591 0 -0.40135005364381798 -0.19305297691017151 0 -0.41017313324850019 -0.2051641423578727 0 -0.40060186426567512 -0.18260588987665591 0 -0.39911790788050461 -0.2003634602113514 0 -0.38452179946839471 -0.1862127167391712 0 -0.39911790788050461 -0.2003634602113514 0 -0.40135005364381798 -0.19305297691017151 0 -0.41017313324850019 -0.2051641423578727 0 -0.40882722491020068 -0.19324634934951379 0 -0.40670914653930851 -0.1871811045826946 0 -0.40060186426567512 -0.18260588987665591 0 -0.40882722491020068 -0.19324634934951379 0 -0.41182634361573828 -0.18846823012601879 0 -0.40670914653930851 -0.1871811045826946 0 -0.40882722491020068 -0.19324634934951379 0 -0.41017313324850019 -0.2051641423578727 0 -0.40060186426567512 -0.18260588987665591 0 -0.40882722491020068 -0.19324634934951379 0 -0.41332632127240471 -0.19520135196246871 0 -0.41182634361573828 -0.18846823012601879 0 -0.41182634361573828 -0.18846823012601879 0 -0.42015528071935893 -0.19373976728588371 0 -0.42086010939994178 -0.18624419393877539 0 -0.41332632127240471 -0.19520135196246871 0 -0.41182634361573828 -0.18846823012601879 0 -0.42015528071935893 -0.19373976728588371 0 -0.42015528071935893 -0.19373976728588371 0 -0.41596892406105851 -0.2005599774501266 0 -0.4250272884910265 -0.2012921483654643 0 -0.41596892406105851 -0.2005599774501266 0 -0.41798035083784391 -0.20525037365940721 0 -0.4250272884910265 -0.2012921483654643 0 -0.41332632127240471 -0.19520135196246871 0 -0.42015528071935893 -0.19373976728588371 0 -0.41596892406105851 -0.2005599774501266 0 -0.41596892406105851 -0.2005599774501266 0 -0.41190905555667651 -0.19876129696974801 0 -0.41017313324850019 -0.2051641423578727 0 -0.40882722491020068 -0.19324634934951379 0 -0.41190905555667651 -0.19876129696974801 0 -0.41017313324850019 -0.2051641423578727 0 -0.40882722491020068 -0.19324634934951379 0 -0.41332632127240471 -0.19520135196246871 0 -0.41190905555667651 -0.19876129696974801 0 -0.41332632127240471 -0.19520135196246871 0 -0.41596892406105851 -0.2005599774501266 0 -0.41190905555667651 -0.19876129696974801 0 -0.41974440223132548 -0.2277223948390894 0 -0.40379864078896821 -0.22147517947459039 0 -0.41017313324850019 -0.2051641423578727 0 -0.41974440223132548 -0.2277223948390894 0 -0.41017313324850019 -0.2051641423578727 0 -0.42075205755079043 -0.21398522646416529 0 -0.40379864078896821 -0.22147517947459039 0 -0.40520524043689871 -0.20626505254016059 0 -0.41017313324850019 -0.2051641423578727 0 -0.41974440223132548 -0.2277223948390894 0 -0.41017313324850019 -0.2051641423578727 0 -0.41017313324850019 -0.2051641423578727 0 -0.42075205755079043 -0.21398522646416529 0 -0.41798035083784391 -0.20525037365940721 0 -0.42075205755079043 -0.21398522646416529 0 -0.41798035083784391 -0.20525037365940721 0 -0.4250272884910265 -0.2012921483654643 0 -0.41596892406105851 -0.2005599774501266 0 -0.41017313324850019 -0.2051641423578727 0 -0.41798035083784391 -0.20525037365940721 0 -0.42075205755079043 -0.21398522646416529 0 -0.43601245252430942 -0.20793643678791121 0 -0.4250272884910265 -0.2012921483654643 0 -0.43377720402095787 -0.21991138490827611 0 -0.42075205755079043 -0.21398522646416529 0 -0.43601245252430942 -0.20793643678791121 0 -0.42704416580793209 -0.1915833167308334 0 -0.4250272884910265 -0.2012921483654643 0 -0.43829012180726529 -0.19322062900912909 0 -0.43601245252430942 -0.20793643678791121 0 -0.4250272884910265 -0.2012921483654643 0 -0.43829012180726529 -0.19322062900912909 0 -0.42704416580793209 -0.1915833167308334 0 -0.43088802862206788 -0.18341984505491449 0 -0.43829012180726529 -0.19322062900912909 0 -0.42015528071935893 -0.19373976728588371 0 -0.42704416580793209 -0.1915833167308334 0 -0.42086010939994178 -0.18624419393877539 0 -0.42015528071935893 -0.19373976728588371 0 -0.42704416580793209 -0.1915833167308334 0 -0.4250272884910265 -0.2012921483654643 0 -0.4285734277027195 -0.1734756855885477 0 -0.43088802862206788 -0.18341984505491449 0 -0.41995474680429618 -0.17713819565942951 0 -0.42704416580793209 -0.1915833167308334 0 -0.43088802862206788 -0.18341984505491449 0 -0.42086010939994178 -0.18624419393877539 0 -0.43088802862206788 -0.18341984505491449 0 -0.41995474680429618 -0.17713819565942951 0 -0.42086010939994178 -0.18624419393877539 0 -0.43088802862206788 -0.18341984505491449 0 -0.44104422433457419 -0.1777922577957152 0 -0.43829012180726529 -0.19322062900912909 0 -0.4285734277027195 -0.1734756855885477 0 -0.43088802862206788 -0.18341984505491449 0 -0.44104422433457419 -0.1777922577957152 0 -0.4285734277027195 -0.1734756855885477 0 -0.4344270590450659 -0.1609053943072484 0 -0.44104422433457419 -0.1777922577957152 0 -0.4285734277027195 -0.1734756855885477 0 -0.4344270590450659 -0.1609053943072484 0 -0.4151480566294905 -0.1680004084026471 0 -0.4151480566294905 -0.1680004084026471 0 -0.40323096316088519 -0.16793215078578741 0 -0.41306883257355248 -0.1475019853524365 0 -0.4344270590450659 -0.1609053943072484 0 -0.4151480566294905 -0.1680004084026471 0 -0.41306883257355248 -0.1475019853524365 0 -0.4151480566294905 -0.1680004084026471 0 -0.40690801218449152 -0.1762036959065488 0 -0.40323096316088519 -0.16793215078578741 0 -0.4151480566294905 -0.1680004084026471 0 -0.40690801218449152 -0.1762036959065488 0 -0.4136865446123984 -0.1757543503219206 0 -0.40690801218449152 -0.1762036959065488 0 -0.4136865446123984 -0.1757543503219206 0 -0.41273536283131562 -0.1816751013190569 0 -0.4151480566294905 -0.1680004084026471 0 -0.4136865446123984 -0.1757543503219206 0 -0.41995474680429618 -0.17713819565942951 0 -0.4285734277027195 -0.1734756855885477 0 -0.4151480566294905 -0.1680004084026471 0 -0.41995474680429618 -0.17713819565942951 0 -0.4136865446123984 -0.1757543503219206 0 -0.41995474680429618 -0.17713819565942951 0 -0.41273536283131562 -0.1816751013190569 0 -0.41995474680429618 -0.17713819565942951 0 -0.42086010939994178 -0.18624419393877539 0 -0.41273536283131562 -0.1816751013190569 0 -0.41182634361573828 -0.18846823012601879 0 -0.42086010939994178 -0.18624419393877539 0 -0.41273536283131562 -0.1816751013190569 0 -0.41182634361573828 -0.18846823012601879 0 -0.41273536283131562 -0.1816751013190569 0 -0.4077561458873058 -0.18322680436219499 0 -0.40690801218449152 -0.1762036959065488 0 -0.41273536283131562 -0.1816751013190569 0 -0.4077561458873058 -0.18322680436219499 0 -0.41182634361573828 -0.18846823012601879 0 -0.4077561458873058 -0.18322680436219499 0 -0.40670914653930851 -0.1871811045826946 0 -0.39550730918059213 -0.18407841519480589 0 -0.38736231178750308 -0.177259124355894 0 -0.39189671048067998 -0.1677933701782604 0 -0.40135005364381798 -0.19305297691017151 0 -0.40060186426567512 -0.18260588987665591 0 -0.39550730918059213 -0.18407841519480589 0 -0.4077561458873058 -0.18322680436219499 0 -0.40670914653930851 -0.1871811045826946 0 -0.40060186426567512 -0.18260588987665591 0 -0.39550730918059213 -0.18407841519480589 0 -0.39189671048067998 -0.1677933701782604 0 -0.40060186426567512 -0.18260588987665591 0 -0.39550730918059213 -0.18407841519480589 0 -0.39189671048067998 -0.1677933701782604 0 -0.40690801218449152 -0.1762036959065488 0 -0.4077561458873058 -0.18322680436219499 0 -0.40060186426567512 -0.18260588987665591 0 -0.40690801218449152 -0.1762036959065488 0 -0.40060186426567512 -0.18260588987665591 0 -0.40323096316088519 -0.16793215078578741 0 -0.36992569105628492 -0.1720619732669908 0 -0.38736231178750308 -0.177259124355894 0 -0.39189671048067998 -0.1677933701782604 0 -0.36992569105628492 -0.1720619732669908 0 -0.38452179946839471 -0.1862127167391712 0 -0.38736231178750308 -0.177259124355894 0 -0.39550730918059213 -0.18407841519480589 0 -0.38452179946839471 -0.1862127167391712 0 -0.38736231178750308 -0.177259124355894 0 -0.36992569105628492 -0.1720619732669908 0 -0.38452179946839471 -0.1862127167391712 0 -0.36992569105628492 -0.1720619732669908 0 -0.37692746124962329 -0.16011968929401549 0 -0.39103059528285172 -0.16004763739543851 0 -0.36992569105628492 -0.1720619732669908 0 -0.39189671048067998 -0.1677933701782604 0 -0.39103059528285172 -0.16004763739543851 0 -0.36992569105628492 -0.1720619732669908 0 -0.39103059528285172 -0.16004763739543851 0 -0.37692746124962329 -0.16011968929401549 0 -0.39103059528285172 -0.16004763739543851 0 -0.38828980922767731 -0.15358795645443499 0 -0.39103059528285172 -0.16004763739543851 0 -0.38828980922767731 -0.15358795645443499 0 -0.40060186426567512 -0.18260588987665591 0 -0.39103059528285172 -0.16004763739543851 0 -0.40323096316088519 -0.16793215078578741 0 -0.40060186426567512 -0.18260588987665591 0 -0.39189671048067998 -0.1677933701782604 0 -0.39103059528285172 -0.16004763739543851 0 -0.40060186426567512 -0.18260588987665591 0 -0.39103059528285172 -0.16004763739543851 0 -0.39103059528285172 -0.16004763739543851 0 -0.40323096316088519 -0.16793215078578741 0 -0.41306883257355248 -0.1475019853524365 0 -0.39103059528285172 -0.16004763739543851 0 -0.39795981207507403 -0.14502431583870179 0 -0.41306883257355248 -0.1475019853524365 0 -0.39795981207507403 -0.14502431583870179 0 -0.40633267592073652 -0.13102661860532899 0 -0.41306883257355248 -0.1475019853524365 0 -0.39103059528285172 -0.16004763739543851 0 -0.41306883257355248 -0.1475019853524365 0 -0.39103059528285172 -0.16004763739543851 0 -0.39795981207507403 -0.14502431583870179 0 -0.38828980922767731 -0.15358795645443499 0 -0.39795981207507403 -0.14502431583870179 0 -0.38828980922767731 -0.15358795645443499 0 -0.38190833683646341 -0.1417380771930716 0 -0.38828980922767731 -0.15358795645443499 0 -0.38190833683646341 -0.1417380771930716 0 -0.37945525551812698 -0.15104483685056111 0 -0.37069541475874412 -0.1487336244607225 0 -0.38190833683646341 -0.1417380771930716 0 -0.37945525551812698 -0.15104483685056111 0 -0.37692746124962329 -0.16011968929401549 0 -0.38828980922767731 -0.15358795645443499 0 -0.37945525551812698 -0.15104483685056111 0 -0.37069541475874412 -0.1487336244607225 0 -0.37692746124962329 -0.16011968929401549 0 -0.37945525551812698 -0.15104483685056111 0 -0.37152802352755399 -0.13164580699010159 0 -0.38190833683646341 -0.1417380771930716 0 -0.38235470820745771 -0.123978498660336 0 -0.38190833683646341 -0.1417380771930716 0 -0.39228294530364349 -0.13316426080004001 0 -0.38235470820745771 -0.123978498660336 0 -0.39228294530364349 -0.13316426080004001 0 -0.40633267592073652 -0.13102661860532899 0 -0.39306930808202878 -0.1142539450673672 0 -0.39795981207507403 -0.14502431583870179 0 -0.38190833683646341 -0.1417380771930716 0 -0.39228294530364349 -0.13316426080004001 0 -0.39795981207507403 -0.14502431583870179 0 -0.39228294530364349 -0.13316426080004001 0 -0.40633267592073652 -0.13102661860532899 0 -0.40633267592073652 -0.13102661860532899 0 -0.42371591628165239 -0.12841039464220819 0 -0.41294233195137359 -0.116724400289887 0 -0.40633267592073652 -0.13102661860532899 0 -0.41306883257355248 -0.1475019853524365 0 -0.42371591628165239 -0.12841039464220819 0 -0.4344270590450659 -0.1609053943072484 0 -0.41306883257355248 -0.1475019853524365 0 -0.43782831476482847 -0.1415704877041897 0 -0.41306883257355248 -0.1475019853524365 0 -0.42371591628165239 -0.12841039464220819 0 -0.43782831476482847 -0.1415704877041897 0 -0.42371591628165239 -0.12841039464220819 0 -0.43782831476482847 -0.1415704877041897 0 -0.44295770465017009 -0.12292285668534771 0 -0.43782831476482847 -0.1415704877041897 0 -0.45407528277834919 -0.1346042898317954 0 -0.44295770465017009 -0.12292285668534771 0 -0.43782831476482847 -0.1415704877041897 0 -0.45305184803309972 -0.15210272433296521 0 -0.45407528277834919 -0.1346042898317954 0 -0.4344270590450659 -0.1609053943072484 0 -0.43782831476482847 -0.1415704877041897 0 -0.45305184803309972 -0.15210272433296521 0 -0.45305184803309972 -0.15210272433296521 0 -0.45407528277834919 -0.1346042898317954 0 -0.47213782278640881 -0.13623393318828281 0 -0.45305184803309972 -0.15210272433296521 0 -0.47213782278640881 -0.13623393318828281 0 -0.46702369577757719 -0.16066454859793791 0 -0.45407528277834919 -0.1346042898317954 0 -0.47213782278640881 -0.13623393318828281 0 -0.46296805171726468 -0.11640170438458371 0 -0.47213782278640881 -0.13623393318828281 0 -0.5 -0.14556247672259531 0 -0.48245330698995931 -0.121898764666846 0 -0.5 -0.14556247672259531 0 -0.48245330698995931 -0.121898764666846 0 -0.50000000000000089 -0.1198938119733675 0 -0.47213782278640881 -0.13623393318828281 0 -0.5 -0.14556247672259531 0 -0.48142521519093828 -0.15645589086587239 0 -0.47213782278640881 -0.13623393318828281 0 -0.48142521519093828 -0.15645589086587239 0 -0.47213782278640881 -0.13623393318828281 0 -0.48142521519093828 -0.15645589086587239 0 -0.46702369577757719 -0.16066454859793791 0 -0.48142521519093828 -0.15645589086587239 0 -0.47632052375980027 -0.17461649056753861 0 -0.46702369577757719 -0.16066454859793791 0 -0.48142521519093828 -0.15645589086587239 0 -0.49071260759546798 -0.17667784854346191 0 -0.47632052375980027 -0.17461649056753861 0 -0.47632052375980027 -0.17461649056753861 0 -0.46570520523623959 -0.1757931846103527 0 -0.46702369577757719 -0.16066454859793791 0 -0.48142521519093828 -0.15645589086587239 0 -0.49071260759546798 -0.17667784854346191 0 -0.5 -0.14556247672259531 0 -0.48142521519093828 -0.15645589086587239 0 -0.5 -0.17123114147182319 0 -0.48142521519093828 -0.15645589086587239 0 -0.5 -0.17123114147182319 0 -0.49071260759546798 -0.17667784854346191 0 -0.49071260759546798 -0.17667784854346191 0 -0.49999999999999861 -0.19689980622105099 0 -0.5 -0.17123114147182319 0 -0.49071260759546798 -0.17667784854346191 0 -0.49999999999999861 -0.19689980622105099 0 -0.49071260759546798 -0.17667784854346191 0 -0.47632052375980027 -0.17461649056753861 0 -0.47993034859498662 -0.18922987045237161 0 -0.47632052375980027 -0.17461649056753861 0 -0.46763136520864318 -0.18653340036078911 0 -0.46570520523623959 -0.1757931846103527 0 -0.47632052375980027 -0.17461649056753861 0 -0.46763136520864318 -0.18653340036078911 0 -0.47993034859498662 -0.18922987045237161 0 -0.46570520523623959 -0.1757931846103527 0 -0.45350155965897682 -0.1687850680226157 0 -0.45596312027128949 -0.18794868189772959 0 -0.46763136520864318 -0.18653340036078911 0 -0.46570520523623959 -0.1757931846103527 0 -0.45596312027128949 -0.18794868189772959 0 -0.45305184803309972 -0.15210272433296521 0 -0.46702369577757719 -0.16066454859793791 0 -0.45350155965897682 -0.1687850680226157 0 -0.46570520523623959 -0.1757931846103527 0 -0.46702369577757719 -0.16066454859793791 0 -0.45350155965897682 -0.1687850680226157 0 -0.4344270590450659 -0.1609053943072484 0 -0.45305184803309972 -0.15210272433296521 0 -0.45350155965897682 -0.1687850680226157 0 -0.4344270590450659 -0.1609053943072484 0 -0.45350155965897682 -0.1687850680226157 0 -0.44104422433457419 -0.1777922577957152 0 -0.45350155965897682 -0.1687850680226157 0 -0.44104422433457419 -0.1777922577957152 0 -0.45596312027128949 -0.18794868189772959 0 -0.44104422433457419 -0.1777922577957152 0 -0.43829012180726529 -0.19322062900912909 0 -0.45596312027128949 -0.18794868189772959 0 -0.45013906333809789 -0.2009404811944836 0 -0.43829012180726529 -0.19322062900912909 0 -0.45596312027128949 -0.18794868189772959 0 -0.43601245252430942 -0.20793643678791121 0 -0.45013906333809789 -0.2009404811944836 0 -0.43829012180726529 -0.19322062900912909 0 -0.43377720402095787 -0.21991138490827611 0 -0.43601245252430942 -0.20793643678791121 0 -0.45297794936819918 -0.2159919965998246 0 -0.43601245252430942 -0.20793643678791121 0 -0.45013906333809789 -0.2009404811944836 0 -0.45297794936819918 -0.2159919965998246 0 -0.45013906333809789 -0.2009404811944836 0 -0.45297794936819918 -0.2159919965998246 0 -0.46745167271942573 -0.1996046616778234 0 -0.45297794936819918 -0.2159919965998246 0 -0.46745167271942573 -0.1996046616778234 0 -0.46956062781061803 -0.21704188818370149 0 -0.45013906333809789 -0.2009404811944836 0 -0.46745167271942573 -0.1996046616778234 0 -0.45596312027128949 -0.18794868189772959 0 -0.46763136520864318 -0.18653340036078911 0 -0.46745167271942573 -0.1996046616778234 0 -0.45596312027128949 -0.18794868189772959 0 -0.46745167271942573 -0.1996046616778234 0 -0.47993034859498662 -0.18922987045237161 0 -0.48475058775642699 -0.21058337118561141 0 -0.46763136520864318 -0.18653340036078911 0 -0.46745167271942573 -0.1996046616778234 0 -0.47993034859498662 -0.18922987045237161 0 -0.47993034859498662 -0.18922987045237161 0 -0.49999999999999861 -0.19689980622105099 0 -0.48475058775642699 -0.21058337118561141 0 -0.49071260759546798 -0.17667784854346191 0 -0.47993034859498662 -0.18922987045237161 0 -0.49999999999999861 -0.19689980622105099 0 -0.49999999999999861 -0.19689980622105099 0 -0.48475058775642699 -0.21058337118561141 0 -0.50000000000000355 -0.22426693615016591 0 -0.46745167271942573 -0.1996046616778234 0 -0.48475058775642699 -0.21058337118561141 0 -0.46956062781061803 -0.21704188818370149 0 -0.46956062781061803 -0.21704188818370149 0 -0.47829002665147741 -0.2341248566128927 0 -0.46279731583591321 -0.22891002208815581 0 -0.48475058775642699 -0.21058337118561141 0 -0.46956062781061803 -0.21704188818370149 0 -0.47829002665147741 -0.2341248566128927 0 -0.47829002665147741 -0.2341248566128927 0 -0.49757451855253881 -0.23053548086278239 0 -0.50000000000000355 -0.22426693615016591 0 -0.48475058775642699 -0.21058337118561141 0 -0.47829002665147741 -0.2341248566128927 0 -0.50000000000000355 -0.22426693615016591 0 -0.47829002665147741 -0.2341248566128927 0 -0.50000000000000355 -0.22426693615016591 0 -0.47829002665147741 -0.2341248566128927 0 -0.49757451855253881 -0.23053548086278239 0 -0.47793059070477772 -0.24540990329775009 0 -0.5 -0.25006354863638108 0 -0.49757451855253881 -0.23053548086278239 0 -0.49068252501969761 -0.24549971615663649 0 -0.49757451855253881 -0.23053548086278239 0 -0.49068252501969761 -0.24549971615663649 0 -0.47793059070477772 -0.24540990329775009 0 -0.49757451855253881 -0.23053548086278239 0 -0.47793059070477772 -0.24540990329775009 0 -0.5 -0.25006354863638108 0 -0.49757451855253881 -0.23053548086278239 0 -0.50000000000000355 -0.22426693615016591 0 -0.4872249908214738 -0.25598993182963242 0 -0.49068252501969761 -0.24549971615663649 0 -0.47793059070477772 -0.24540990329775009 0 -0.47829002665147741 -0.2341248566128927 0 -0.47793059070477772 -0.24540990329775009 0 -0.45658005330295048 -0.2439827770756183 0 -0.45658005330295048 -0.2439827770756183 0 -0.46279731583591321 -0.22891002208815581 0 -0.44277641758923081 -0.23102430468348881 0 -0.47829002665147741 -0.2341248566128927 0 -0.45658005330295048 -0.2439827770756183 0 -0.45828666285701658 -0.26028432573271792 0 -0.47793059070477772 -0.24540990329775009 0 -0.45658005330295048 -0.2439827770756183 0 -0.47829002665147741 -0.2341248566128927 0 -0.45658005330295048 -0.2439827770756183 0 -0.46279731583591321 -0.22891002208815581 0 -0.45297794936819918 -0.2159919965998246 0 -0.46956062781061803 -0.21704188818370149 0 -0.46279731583591321 -0.22891002208815581 0 -0.45297794936819918 -0.2159919965998246 0 -0.46279731583591321 -0.22891002208815581 0 -0.44277641758923081 -0.23102430468348881 0 -0.43377720402095787 -0.21991138490827611 0 -0.45297794936819918 -0.2159919965998246 0 -0.44277641758923081 -0.23102430468348881 0 -0.43487007995442373 -0.25384069753834382 0 -0.45658005330295048 -0.2439827770756183 0 -0.43487007995442373 -0.25384069753834382 0 -0.43665732485841618 -0.24137016429136929 0 -0.45658005330295048 -0.2439827770756183 0 -0.43665732485841618 -0.24137016429136929 0 -0.45658005330295048 -0.2439827770756183 0 -0.44277641758923081 -0.23102430468348881 0 -0.42837915354319411 -0.040827216461995969 0 -0.4199205163048339 -0.024265820886729 0 -0.40528095782104068 -0.044243292517360297 0 -0.42343463197652342 -0.05874232933513765 0 -0.42837915354319411 -0.040827216461995969 0 -0.40528095782104068 -0.044243292517360297 0 -0.42343463197652342 -0.05874232933513765 0 -0.40528095782104068 -0.044243292517360297 0 -0.42343463197652342 -0.05874232933513765 0 -0.40528095782104068 -0.044243292517360297 0 -0.40670414160736479 -0.063195666982337848 0 -0.42343463197652342 -0.05874232933513765 0 -0.42837915354319411 -0.040827216461995969 0 -0.44094154444346079 -0.04995238034171972 0 -0.42343463197652342 -0.05874232933513765 0 -0.44158830613200611 -0.073241366152915127 0 -0.44094154444346079 -0.04995238034171972 0 -0.42837915354319411 -0.040827216461995969 0 -0.4342900889778567 -0.026770694848987801 0 -0.4453801544960031 -0.037531923181514312 0 -0.4342900889778567 -0.026770694848987801 0 -0.43033724725149269 -0.0037964727450953309 0 -0.4199205163048339 -0.024265820886729 0 -0.4342900889778567 -0.026770694848987801 0 -0.43033724725149269 -0.0037964727450953309 0 -0.44743337329375982 -0.027432040969604381 0 -0.42837915354319411 -0.040827216461995969 0 -0.4342900889778567 -0.026770694848987801 0 -0.4199205163048339 -0.024265820886729 0 -0.43033724725149269 -0.0037964727450953309 0 -0.4131572459017161 -0.004875649818797438 0 -0.4199205163048339 -0.024265820886729 0 -0.4131572459017161 -0.004875649818797438 0 -0.4199205163048339 -0.024265820886729 0 -0.40195427741026962 -0.018113178269922089 0 -0.4199205163048339 -0.024265820886729 0 -0.40195427741026962 -0.018113178269922089 0 -0.40528095782104068 -0.044243292517360297 0 -0.40195427741026962 -0.018113178269922089 0 -0.38465333842141641 -0.0066435457767305304 0 -0.38712728366555788 -0.02974425569958293 0 -0.40195427741026962 -0.018113178269922089 0 -0.38712728366555788 -0.02974425569958293 0 -0.40528095782104068 -0.044243292517360297 0 -0.40195427741026962 -0.018113178269922089 0 -0.38465333842141641 -0.0066435457767305304 0 -0.40033306733275759 0.0019581273283447299 0 -0.4131572459017161 -0.004875649818797438 0 -0.40195427741026962 -0.018113178269922089 0 -0.40033306733275759 0.0019581273283447299 0 -0.38465333842141641 -0.0066435457767305304 0 -0.40033306733275759 0.0019581273283447299 0 -0.36897360951007507 -0.015245218881805699 0 -0.38465333842141641 -0.0066435457767305304 0 -0.36897360951007507 -0.015245218881805699 0 -0.38465333842141641 -0.0066435457767305304 0 -0.38712728366555788 -0.02974425569958293 0 -0.36897360951007507 -0.015245218881805699 0 -0.38712728366555788 -0.02974425569958293 0 -0.37357085562444819 -0.050327950541553881 0 -0.38712728366555788 -0.02974425569958293 0 -0.39147992867528753 -0.058279446621744307 0 -0.38712728366555788 -0.02974425569958293 0 -0.40528095782104068 -0.044243292517360297 0 -0.38712728366555788 -0.02974425569958293 0 -0.40528095782104068 -0.044243292517360297 0 -0.39147992867528753 -0.058279446621744307 0 -0.40528095782104068 -0.044243292517360297 0 -0.39147992867528753 -0.058279446621744307 0 -0.40670414160736479 -0.063195666982337848 0 -0.37357085562444819 -0.050327950541553881 0 -0.39147992867528753 -0.058279446621744307 0 -0.37513495807632252 -0.068027960422620465 0 -0.39147992867528753 -0.058279446621744307 0 -0.37513495807632252 -0.068027960422620465 0 -0.3944429598887787 -0.078419500118194568 0 -0.37347114863240299 -0.089088331268139143 0 -0.37513495807632252 -0.068027960422620465 0 -0.3944429598887787 -0.078419500118194568 0 -0.37347114863240299 -0.089088331268139143 0 -0.3944429598887787 -0.078419500118194568 0 -0.38844874713165228 -0.097169733216879689 0 -0.3944429598887787 -0.078419500118194568 0 -0.38844874713165228 -0.097169733216879689 0 -0.40907098738890341 -0.097978282768044114 0 -0.39147992867528753 -0.058279446621744307 0 -0.3944429598887787 -0.078419500118194568 0 -0.40670414160736479 -0.063195666982337848 0 -0.3944429598887787 -0.078419500118194568 0 -0.41749625226094061 -0.077358517460495352 0 -0.40670414160736479 -0.063195666982337848 0 -0.39228294530364349 -0.13316426080004001 0 -0.38235470820745771 -0.123978498660336 0 -0.39306930808202878 -0.1142539450673672 0 -0.36980343247362518 -0.1100922289949047 0 -0.38235470820745771 -0.123978498660336 0 -0.39306930808202878 -0.1142539450673672 0 -0.36980343247362518 -0.1100922289949047 0 -0.37347114863240299 -0.089088331268139143 0 -0.38844874713165228 -0.097169733216879689 0 -0.36980343247362518 -0.1100922289949047 0 -0.38844874713165228 -0.097169733216879689 0 -0.39306930808202878 -0.1142539450673672 0 -0.38844874713165228 -0.097169733216879689 0 -0.39306930808202878 -0.1142539450673672 0 -0.40907098738890341 -0.097978282768044114 0 -0.39306930808202878 -0.1142539450673672 0 -0.41294233195137359 -0.116724400289887 0 -0.40907098738890341 -0.097978282768044114 0 -0.40633267592073652 -0.13102661860532899 0 -0.39306930808202878 -0.1142539450673672 0 -0.41294233195137359 -0.116724400289887 0 -0.41294233195137359 -0.116724400289887 0 -0.40907098738890341 -0.097978282768044114 0 -0.42916563782925382 -0.1107160192160596 0 -0.42916563782925382 -0.1107160192160596 0 -0.42904349786494111 -0.093106334976964328 0 -0.44668080241849201 -0.10304266906569499 0 -0.40907098738890341 -0.097978282768044114 0 -0.42916563782925382 -0.1107160192160596 0 -0.42904349786494111 -0.093106334976964328 0 -0.42371591628165239 -0.12841039464220819 0 -0.42916563782925382 -0.1107160192160596 0 -0.44295770465017009 -0.12292285668534771 0 -0.42371591628165239 -0.12841039464220819 0 -0.41294233195137359 -0.116724400289887 0 -0.42916563782925382 -0.1107160192160596 0 -0.42343463197652342 -0.05874232933513765 0 -0.41749625226094061 -0.077358517460495352 0 -0.40670414160736479 -0.063195666982337848 0 -0.40907098738890341 -0.097978282768044114 0 -0.41749625226094061 -0.077358517460495352 0 -0.42904349786494111 -0.093106334976964328 0 -0.3944429598887787 -0.078419500118194568 0 -0.40907098738890341 -0.097978282768044114 0 -0.41749625226094061 -0.077358517460495352 0 -0.41749625226094061 -0.077358517460495352 0 -0.42904349786494111 -0.093106334976964328 0 -0.44158830613200611 -0.073241366152915127 0 -0.42904349786494111 -0.093106334976964328 0 -0.44158830613200611 -0.073241366152915127 0 -0.42343463197652342 -0.05874232933513765 0 -0.44158830613200611 -0.073241366152915127 0 -0.42343463197652342 -0.05874232933513765 0 -0.41749625226094061 -0.077358517460495352 0 -0.44158830613200611 -0.073241366152915127 0 -0.44158830613200611 -0.073241366152915127 0 -0.46118581313569179 -0.071431252447136412 0 -0.45067286806919349 -0.058855770468984832 0 -0.44158830613200611 -0.073241366152915127 0 -0.45067286806919349 -0.058855770468984832 0 -0.44158830613200611 -0.073241366152915127 0 -0.44459286929252761 -0.089545637905493386 0 -0.46105887075467122 -0.088792181426399025 0 -0.42904349786494111 -0.093106334976964328 0 -0.44158830613200611 -0.073241366152915127 0 -0.44459286929252761 -0.089545637905493386 0 -0.44158830613200611 -0.073241366152915127 0 -0.46105887075467122 -0.088792181426399025 0 -0.46105887075467122 -0.088792181426399025 0 -0.46118581313569179 -0.071431252447136412 0 -0.48115195350555812 -0.076249636056848105 0 -0.44158830613200611 -0.073241366152915127 0 -0.46105887075467122 -0.088792181426399025 0 -0.46118581313569179 -0.071431252447136412 0 -0.44295770465017009 -0.12292285668534771 0 -0.44668080241849201 -0.10304266906569499 0 -0.46296805171726468 -0.11640170438458371 0 -0.42916563782925382 -0.1107160192160596 0 -0.44295770465017009 -0.12292285668534771 0 -0.44668080241849201 -0.10304266906569499 0 -0.44459286929252761 -0.089545637905493386 0 -0.46105887075467122 -0.088792181426399025 0 -0.44668080241849201 -0.10304266906569499 0 -0.42904349786494111 -0.093106334976964328 0 -0.44459286929252761 -0.089545637905493386 0 -0.44668080241849201 -0.10304266906569499 0 -0.46105887075467122 -0.088792181426399025 0 -0.46296805171726468 -0.11640170438458371 0 -0.48052943537733628 -0.1043429966998831 0 -0.46105887075467122 -0.088792181426399025 0 -0.44668080241849201 -0.10304266906569499 0 -0.46296805171726468 -0.11640170438458371 0 -0.45407528277834919 -0.1346042898317954 0 -0.44295770465017009 -0.12292285668534771 0 -0.46296805171726468 -0.11640170438458371 0 -0.46296805171726468 -0.11640170438458371 0 -0.48245330698995931 -0.121898764666846 0 -0.48052943537733628 -0.1043429966998831 0 -0.47213782278640881 -0.13623393318828281 0 -0.46296805171726468 -0.11640170438458371 0 -0.48245330698995931 -0.121898764666846 0 -0.46105887075467122 -0.088792181426399025 0 -0.48052943537733628 -0.1043429966998831 0 -0.48052943537733628 -0.1043429966998831 0 -0.50000000000000089 -0.1198938119733675 0 -0.5 -0.090898883536528308 0 -0.48245330698995931 -0.121898764666846 0 -0.48052943537733628 -0.1043429966998831 0 -0.50000000000000089 -0.1198938119733675 0 -0.48052943537733628 -0.1043429966998831 0 -0.50000000000000089 -0.1198938119733675 0 -0.46118581313569179 -0.071431252447136412 0 -0.48115195350555812 -0.076249636056848105 0 -0.46833584839527592 -0.05632992550213807 0 -0.48115195350555812 -0.076249636056848105 0 -0.48490864188954641 -0.055044389119401932 0 -0.46833584839527592 -0.05632992550213807 0 -0.46105887075467122 -0.088792181426399025 0 -0.48052943537733628 -0.1043429966998831 0 -0.48115195350555812 -0.076249636056848105 0 -0.48052943537733628 -0.1043429966998831 0 -0.48115195350555812 -0.076249636056848105 0 -0.5 -0.090898883536528308 0 -0.48115195350555812 -0.076249636056848105 0 -0.5 -0.090898883536528308 0 -0.5 -0.061903955099689163 0 -0.48115195350555812 -0.076249636056848105 0 -0.5 -0.061903955099689163 0 -0.48490864188954641 -0.055044389119401932 0 -0.5 -0.061903955099689163 0 -0.48490864188954641 -0.055044389119401932 0 -0.5 -0.032909026662849998 0 -0.48490864188954641 -0.055044389119401932 0 -0.5 -0.032909026662849998 0 -0.47623700986288742 -0.042296174380792313 0 -0.47623700986288742 -0.042296174380792313 0 -0.45975743000638192 -0.044470174785055258 0 -0.47133789178420182 -0.026132268992706809 0 -0.5 -0.032909026662849998 0 -0.47623700986288742 -0.042296174380792313 0 -0.47133789178420182 -0.026132268992706809 0 -0.48490864188954641 -0.055044389119401932 0 -0.47623700986288742 -0.042296174380792313 0 -0.46833584839527592 -0.05632992550213807 0 -0.46118581313569179 -0.071431252447136412 0 -0.46833584839527592 -0.05632992550213807 0 -0.45067286806919349 -0.058855770468984832 0 -0.47623700986288742 -0.042296174380792313 0 -0.46833584839527592 -0.05632992550213807 0 -0.45975743000638192 -0.044470174785055258 0 -0.46833584839527592 -0.05632992550213807 0 -0.45975743000638192 -0.044470174785055258 0 -0.45067286806919349 -0.058855770468984832 0 -0.45975743000638192 -0.044470174785055258 0 -0.45067286806919349 -0.058855770468984832 0 -0.46833584839527592 -0.05632992550213807 0 -0.45975743000638192 -0.044470174785055258 0 -0.45964620516156041 -0.031574428691672249 0 -0.45975743000638192 -0.044470174785055258 0 -0.44743337329375982 -0.027432040969604381 0 -0.45975743000638192 -0.044470174785055258 0 -0.44743337329375982 -0.027432040969604381 0 -0.45975743000638192 -0.044470174785055258 0 -0.47133789178420182 -0.026132268992706809 0 -0.45964620516156041 -0.031574428691672249 0 -0.45975743000638192 -0.044470174785055258 0 -0.47133789178420182 -0.026132268992706809 0 -0.45975743000638192 -0.044470174785055258 0 -0.4453801544960031 -0.037531923181514312 0 -0.44743337329375982 -0.027432040969604381 0 -0.45975743000638192 -0.044470174785055258 0 -0.4453801544960031 -0.037531923181514312 0 -0.44094154444346079 -0.04995238034171972 0 -0.42837915354319411 -0.040827216461995969 0 -0.4453801544960031 -0.037531923181514312 0 -0.44094154444346079 -0.04995238034171972 0 -0.4453801544960031 -0.037531923181514312 0 -0.44743337329375982 -0.027432040969604381 0 -0.44158830613200611 -0.073241366152915127 0 -0.44094154444346079 -0.04995238034171972 0 -0.45067286806919349 -0.058855770468984832 0 -0.45975743000638192 -0.044470174785055258 0 -0.44094154444346079 -0.04995238034171972 0 -0.45067286806919349 -0.058855770468984832 0 -0.43033724725149269 -0.0037964727450953309 0 -0.45268467479845531 -0.00160063580491273 0 -0.44743337329375982 -0.027432040969604381 0 -0.45268467479845531 -0.00160063580491273 0 -0.44743337329375982 -0.027432040969604381 0 -0.43033724725149269 -0.0037964727450953309 0 -0.44743337329375982 -0.027432040969604381 0 -0.4342900889778567 -0.026770694848987801 0 -0.4453801544960031 -0.037531923181514312 0 -0.44743337329375982 -0.027432040969604381 0 -0.45964620516156041 -0.031574428691672249 0 -0.44743337329375982 -0.027432040969604381 0 -0.46065164258955998 -0.015998841515816709 0 -0.45964620516156041 -0.031574428691672249 0 -0.46065164258955998 -0.015998841515816709 0 -0.47133789178420182 -0.026132268992706809 0 -0.45268467479845531 -0.00160063580491273 0 -0.46065164258955998 -0.015998841515816709 0 -0.47044579822050858 0.003730308873902122 0 -0.45268467479845531 -0.00160063580491273 0 -0.44743337329375982 -0.027432040969604381 0 -0.46065164258955998 -0.015998841515816709 0 -0.46065164258955998 -0.015998841515816709 0 -0.48291835356202167 -0.0077943632003582772 0 -0.47044579822050858 0.003730308873902122 0 -0.46065164258955998 -0.015998841515816709 0 -0.48291835356202167 -0.0077943632003582772 0 -0.47133789178420182 -0.026132268992706809 0 -0.48291835356202167 -0.0077943632003582772 0 -0.47133789178420182 -0.026132268992706809 0 -0.5 -0.032909026662849998 0 -0.48291835356202167 -0.0077943632003582772 0 -0.47133789178420182 -0.026132268992706809 0 -0.5 -0.032909026662849998 0 -0.48291835356202167 -0.0077943632003582772 0 -0.5 -0.0039140982260107426 0 -0.48291835356202167 -0.0077943632003582772 0 -0.5 -0.0039140982260107426 0 -0.48656778433615411 0.0071434676601368312 0 -0.5 -0.0039140982260107426 0 -0.48656778433615411 0.0071434676601368312 0 -0.5 0.02508083021082835 0 -0.5 0.02508083021082835 0 -0.47947476989823978 0.0186146606423227 0 -0.48053744464613157 0.038241937480116027 0 -0.48656778433615411 0.0071434676601368312 0 -0.5 0.02508083021082835 0 -0.47947476989823978 0.0186146606423227 0 -0.47947476989823978 0.0186146606423227 0 -0.48053744464613157 0.038241937480116027 0 -0.45793597630314969 0.024230769359779091 0 -0.48656778433615411 0.0071434676601368312 0 -0.47947476989823978 0.0186146606423227 0 -0.47044579822050858 0.003730308873902122 0 -0.48291835356202167 -0.0077943632003582772 0 -0.48656778433615411 0.0071434676601368312 0 -0.47044579822050858 0.003730308873902122 0 -0.47947476989823978 0.0186146606423227 0 -0.47044579822050858 0.003730308873902122 0 -0.45793597630314969 0.024230769359779091 0 -0.5 0.05407575864766756 0 -0.48053744464613157 0.038241937480116027 0 -0.48160115767747708 0.06010989829645641 0 -0.5 0.02508083021082835 0 -0.5 0.05407575864766756 0 -0.48053744464613157 0.038241937480116027 0 -0.48053744464613157 0.038241937480116027 0 -0.48160115767747708 0.06010989829645641 0 -0.4631872778078443 0.050062174524471058 0 -0.48160115767747708 0.06010989829645641 0 -0.4631872778078443 0.050062174524471058 0 -0.46843857931253879 0.07589357968916309 0 -0.4631872778078443 0.050062174524471058 0 -0.4467001814262947 0.061097152827744368 0 -0.46843857931253879 0.07589357968916309 0 -0.48053744464613157 0.038241937480116027 0 -0.4631872778078443 0.050062174524471058 0 -0.45793597630314969 0.024230769359779091 0 -0.4631872778078443 0.050062174524471058 0 -0.45793597630314969 0.024230769359779091 0 -0.4631872778078443 0.050062174524471058 0 -0.44755765064800451 0.039790068000500847 0 -0.45793597630314969 0.024230769359779091 0 -0.44755765064800451 0.039790068000500847 0 -0.43523671041618939 0.023434885238954581 0 -0.43070758581248142 0.047053180835022322 0 -0.4631872778078443 0.050062174524471058 0 -0.44755765064800451 0.039790068000500847 0 -0.4467001814262947 0.061097152827744368 0 -0.44755765064800451 0.039790068000500847 0 -0.4467001814262947 0.061097152827744368 0 -0.43070758581248142 0.047053180835022322 0 -0.45268467479845531 -0.00160063580491273 0 -0.45793597630314969 0.024230769359779091 0 -0.45268467479845531 -0.00160063580491273 0 -0.47044579822050858 0.003730308873902122 0 -0.45793597630314969 0.024230769359779091 0 -0.44755765064800451 0.039790068000500847 0 -0.45793597630314969 0.024230769359779091 0 -0.43523671041618939 0.023434885238954581 0 -0.45268467479845531 -0.00160063580491273 0 -0.45793597630314969 0.024230769359779091 0 -0.43523671041618939 0.023434885238954581 0 -0.43033724725149269 -0.0037964727450953309 0 -0.45268467479845531 -0.00160063580491273 0 -0.43523671041618939 0.023434885238954581 0 -0.43033724725149269 -0.0037964727450953309 0 -0.41324112120922679 0.019839095479414509 0 -0.43523671041618939 0.023434885238954581 0 -0.4131572459017161 -0.004875649818797438 0 -0.41324112120922679 0.019839095479414509 0 -0.40033306733275759 0.0019581273283447299 0 -0.43033724725149269 -0.0037964727450953309 0 -0.4131572459017161 -0.004875649818797438 0 -0.41324112120922679 0.019839095479414509 0 -0.43033724725149269 -0.0037964727450953309 0 -0.41324112120922679 0.019839095479414509 0 -0.41324112120922679 0.019839095479414509 0 -0.43523671041618939 0.023434885238954581 0 -0.4159879611894004 0.038538653043845933 0 -0.43523671041618939 0.023434885238954581 0 -0.43070758581248142 0.047053180835022322 0 -0.4159879611894004 0.038538653043845933 0 -0.4467001814262947 0.061097152827744368 0 -0.43070758581248142 0.047053180835022322 0 -0.43187545736445182 0.065921103617004775 0 -0.43070758581248142 0.047053180835022322 0 -0.41322656597679058 0.058941655142102069 0 -0.43187545736445182 0.065921103617004775 0 -0.43070758581248142 0.047053180835022322 0 -0.41322656597679058 0.058941655142102069 0 -0.4159879611894004 0.038538653043845933 0 -0.41322656597679058 0.058941655142102069 0 -0.4159879611894004 0.038538653043845933 0 -0.39614499516696089 0.04347466370392436 0 -0.41324112120922679 0.019839095479414509 0 -0.4159879611894004 0.038538653043845933 0 -0.39614499516696089 0.04347466370392436 0 -0.41324112120922679 0.019839095479414509 0 -0.39614499516696089 0.04347466370392436 0 -0.39614499516696089 0.04347466370392436 0 -0.37904886912469499 0.067110231928434197 0 -0.39695674231957478 0.074929810419583368 0 -0.41322656597679058 0.058941655142102069 0 -0.39614499516696089 0.04347466370392436 0 -0.39695674231957478 0.074929810419583368 0 -0.39614499516696089 0.04347466370392436 0 -0.37904886912469499 0.067110231928434197 0 -0.39614499516696089 0.04347466370392436 0 -0.37830855690199738 0.048851891747440382 0 -0.37904886912469499 0.067110231928434197 0 -0.37830855690199738 0.048851891747440382 0 -0.37904886912469499 0.067110231928434197 0 -0.37119345183321822 0.058853827639881867 0 -0.39614499516696089 0.04347466370392436 0 -0.37753126207020948 0.034899308803226177 0 -0.39262774316901877 0.02112007510405265 0 -0.39614499516696089 0.04347466370392436 0 -0.37830855690199738 0.048851891747440382 0 -0.37753126207020948 0.034899308803226177 0 -0.38389636562500351 0.0078670615218947963 0 -0.39262774316901877 0.02112007510405265 0 -0.37274578052696178 0.01868977009819147 0 -0.37753126207020948 0.034899308803226177 0 -0.39262774316901877 0.02112007510405265 0 -0.37274578052696178 0.01868977009819147 0 -0.38465333842141641 -0.0066435457767305304 0 -0.38389636562500351 0.0078670615218947963 0 -0.40033306733275759 0.0019581273283447299 0 -0.38389636562500351 0.0078670615218947963 0 -0.37274578052696178 0.01868977009819147 0 -0.36979036210562988 0.0025511841975563729 0 -0.38465333842141641 -0.0066435457767305304 0 -0.38389636562500351 0.0078670615218947963 0 -0.36979036210562988 0.0025511841975563729 0 -0.38389636562500351 0.0078670615218947963 0 -0.40033306733275759 0.0019581273283447299 0 -0.39262774316901877 0.02112007510405265 0 -0.41324112120922679 0.019839095479414509 0 -0.40033306733275759 0.0019581273283447299 0 -0.39262774316901877 0.02112007510405265 0 -0.41324112120922679 0.019839095479414509 0 -0.39614499516696089 0.04347466370392436 0 -0.39262774316901877 0.02112007510405265 0 -0.38940712396436111 0.098535478259042519 0 -0.39976920250104669 0.086913075381088473 0 -0.40655062222011962 0.096340958868671334 0 -0.39063101314785642 0.1199442217017349 0 -0.40655062222011962 0.096340958868671334 0 -0.40795026737523371 0.1101441825861223 0 -0.39063101314785642 0.1199442217017349 0 -0.38940712396436111 0.098535478259042519 0 -0.40655062222011962 0.096340958868671334 0 -0.39063101314785642 0.1199442217017349 0 -0.40655062222011962 0.096340958868671334 0 -0.39063101314785642 0.1199442217017349 0 -0.40795026737523371 0.1101441825861223 0 -0.40406865080306442 0.1250183431131778 0 -0.39063101314785642 0.1199442217017349 0 -0.37896648635229202 0.10715504183998489 0 -0.36716541190589658 0.118616890008602 0 -0.39063101314785642 0.1199442217017349 0 -0.37896648635229202 0.10715504183998489 0 -0.38940712396436111 0.098535478259042519 0 -0.37896648635229202 0.10715504183998489 0 -0.38940712396436111 0.098535478259042519 0 -0.37643332436138899 0.09558572737664002 0 -0.38119130922167832 0.078766060501995444 0 -0.3856317933390121 0.08567132342606161 0 -0.39695674231957478 0.074929810419583368 0 -0.37643332436138899 0.09558572737664002 0 -0.3856317933390121 0.08567132342606161 0 -0.37016311523106599 0.083751267223082917 0 -0.38119130922167832 0.078766060501995444 0 -0.3856317933390121 0.08567132342606161 0 -0.37016311523106599 0.083751267223082917 0 -0.38940712396436111 0.098535478259042519 0 -0.37643332436138899 0.09558572737664002 0 -0.3856317933390121 0.08567132342606161 0 -0.39695674231957478 0.074929810419583368 0 -0.37201358599706058 0.070711840939253895 0 -0.38119130922167832 0.078766060501995444 0 -0.39695674231957478 0.074929810419583368 0 -0.37201358599706058 0.070711840939253895 0 -0.37904886912469499 0.067110231928434197 0 -0.39695674231957478 0.074929810419583368 0 -0.37201358599706058 0.070711840939253895 0 -0.39695674231957478 0.074929810419583368 0 -0.39976920250104669 0.086913075381088473 0 -0.42189989864208899 0.079147779899912826 0 -0.38940712396436111 0.098535478259042519 0 -0.3856317933390121 0.08567132342606161 0 -0.39976920250104669 0.086913075381088473 0 -0.3856317933390121 0.08567132342606161 0 -0.39695674231957478 0.074929810419583368 0 -0.39976920250104669 0.086913075381088473 0 -0.42189989864208899 0.079147779899912826 0 -0.41823283762125668 0.10021421029095 0 -0.40655062222011962 0.096340958868671334 0 -0.39976920250104669 0.086913075381088473 0 -0.42189989864208899 0.079147779899912826 0 -0.40655062222011962 0.096340958868671334 0 -0.39695674231957478 0.074929810419583368 0 -0.42189989864208899 0.079147779899912826 0 -0.41322656597679058 0.058941655142102069 0 -0.39695674231957478 0.074929810419583368 0 -0.42189989864208899 0.079147779899912826 0 -0.43187545736445182 0.065921103617004775 0 -0.42189989864208899 0.079147779899912826 0 -0.44684305496460319 0.083365749380242285 0 -0.41322656597679058 0.058941655142102069 0 -0.43187545736445182 0.065921103617004775 0 -0.42189989864208899 0.079147779899912826 0 -0.42189989864208899 0.079147779899912826 0 -0.43230900050581528 0.10074033507248679 0 -0.44684305496460319 0.083365749380242285 0 -0.42189989864208899 0.079147779899912826 0 -0.43230900050581528 0.10074033507248679 0 -0.41823283762125668 0.10021421029095 0 -0.42189989864208899 0.079147779899912826 0 -0.44684305496460319 0.083365749380242285 0 -0.43230900050581528 0.10074033507248679 0 -0.41823283762125668 0.10021421029095 0 -0.42245439936302609 0.1146977950275566 0 -0.41823283762125668 0.10021421029095 0 -0.40795026737523371 0.1101441825861223 0 -0.42245439936302609 0.1146977950275566 0 -0.41823283762125668 0.10021421029095 0 -0.40655062222011962 0.096340958868671334 0 -0.40795026737523371 0.1101441825861223 0 -0.40795026737523371 0.1101441825861223 0 -0.42245439936302609 0.1146977950275566 0 -0.41854804079657681 0.1335618185962307 0 -0.40795026737523371 0.1101441825861223 0 -0.41854804079657681 0.1335618185962307 0 -0.40795026737523371 0.1101441825861223 0 -0.41854804079657681 0.1335618185962307 0 -0.40406865080306442 0.1250183431131778 0 -0.4361514068569779 0.1212930370016405 0 -0.42245439936302609 0.1146977950275566 0 -0.41854804079657681 0.1335618185962307 0 -0.43230900050581528 0.10074033507248679 0 -0.4361514068569779 0.1212930370016405 0 -0.42245439936302609 0.1146977950275566 0 -0.4361514068569779 0.1212930370016405 0 -0.45131059104818438 0.10389771754541841 0 -0.45603072582896947 0.12415654782577901 0 -0.43230900050581528 0.10074033507248679 0 -0.4361514068569779 0.1212930370016405 0 -0.45131059104818438 0.10389771754541841 0 -0.43230900050581528 0.10074033507248679 0 -0.45131059104818438 0.10389771754541841 0 -0.44684305496460319 0.083365749380242285 0 -0.45131059104818438 0.10389771754541841 0 -0.46040635620489312 0.091287960740373597 0 -0.47503319949424611 0.10199479634667059 0 -0.45131059104818438 0.10389771754541841 0 -0.45603072582896947 0.12415654782577901 0 -0.47503319949424611 0.10199479634667059 0 -0.4467001814262947 0.061097152827744368 0 -0.43187545736445182 0.065921103617004775 0 -0.44684305496460319 0.083365749380242285 0 -0.45131059104818438 0.10389771754541841 0 -0.44684305496460319 0.083365749380242285 0 -0.46040635620489312 0.091287960740373597 0 -0.46040635620489312 0.091287960740373597 0 -0.46843857931253879 0.07589357968916309 0 -0.47503319949424611 0.10199479634667059 0 -0.44684305496460319 0.083365749380242285 0 -0.46040635620489312 0.091287960740373597 0 -0.46843857931253879 0.07589357968916309 0 -0.4631872778078443 0.050062174524471058 0 -0.46843857931253879 0.07589357968916309 0 -0.4467001814262947 0.061097152827744368 0 -0.44684305496460319 0.083365749380242285 0 -0.46843857931253879 0.07589357968916309 0 -0.48160115767747708 0.06010989829645641 0 -0.46843857931253879 0.07589357968916309 0 -0.5 0.083070687084506711 0 -0.46843857931253879 0.07589357968916309 0 -0.5 0.083070687084506711 0 -0.47503319949424611 0.10199479634667059 0 -0.5 0.05407575864766756 0 -0.48160115767747708 0.06010989829645641 0 -0.5 0.083070687084506711 0 -0.45603072582896947 0.12415654782577901 0 -0.47503319949424611 0.10199479634667059 0 -0.47840746745339868 0.1318715347448986 0 -0.5 0.083070687084506711 0 -0.47503319949424611 0.10199479634667059 0 -0.5 0.11206561552134579 0 -0.47503319949424611 0.10199479634667059 0 -0.5 0.11206561552134579 0 -0.47840746745339868 0.1318715347448986 0 -0.5 0.11206561552134579 0 -0.47840746745339868 0.1318715347448986 0 -0.5 0.14106054395818479 0 -0.47840746745339868 0.1318715347448986 0 -0.4813713775429343 0.15534342778339541 0 -0.45584990199199521 0.14839652371063539 0 -0.47840746745339868 0.1318715347448986 0 -0.4813713775429343 0.15534342778339541 0 -0.5 0.14106054395818479 0 -0.4813713775429343 0.15534342778339541 0 -0.5 0.14106054395818479 0 -0.5 0.17005547239502389 0 -0.4813713775429343 0.15534342778339541 0 -0.5 0.17005547239502389 0 -0.47888983910924399 0.1833910978263659 0 -0.5 0.17005547239502389 0 -0.47888983910924399 0.1833910978263659 0 -0.49999999999999639 0.19905040083186301 0 -0.4813713775429343 0.15534342778339541 0 -0.47888983910924399 0.1833910978263659 0 -0.46013732273498392 0.17116473448995881 0 -0.4813713775429343 0.15534342778339541 0 -0.47888983910924399 0.1833910978263659 0 -0.4813713775429343 0.15534342778339541 0 -0.46013732273498392 0.17116473448995881 0 -0.45584990199199521 0.14839652371063539 0 -0.47888983910924399 0.1833910978263659 0 -0.46013732273498392 0.17116473448995881 0 -0.4553652866229031 0.19812390853730849 0 -0.46013732273498392 0.17116473448995881 0 -0.43974358763926291 0.18039709061644729 0 -0.4553652866229031 0.19812390853730849 0 -0.46013732273498392 0.17116473448995881 0 -0.45584990199199521 0.14839652371063539 0 -0.42914581421791992 0.156979454606339 0 -0.46013732273498392 0.17116473448995881 0 -0.43974358763926291 0.18039709061644729 0 -0.42914581421791992 0.156979454606339 0 -0.43890233478009338 0.1378395493323826 0 -0.45584990199199521 0.14839652371063539 0 -0.42914581421791992 0.156979454606339 0 -0.4361514068569779 0.1212930370016405 0 -0.45603072582896947 0.12415654782577901 0 -0.43890233478009338 0.1378395493323826 0 -0.45603072582896947 0.12415654782577901 0 -0.43890233478009338 0.1378395493323826 0 -0.45584990199199521 0.14839652371063539 0 -0.45603072582896947 0.12415654782577901 0 -0.47840746745339868 0.1318715347448986 0 -0.45584990199199521 0.14839652371063539 0 -0.48510068849613291 0.2464952989699998 0 -0.5 0.22952651967534751 0 -0.5 0.27058277969487637 0 -0.48510068849613291 0.2464952989699998 0 -0.47450648191078398 0.23293413722231679 0 -0.4662317729600568 0.24711617116125539 0 -0.48510068849613291 0.2464952989699998 0 -0.5 0.22952651967534751 0 -0.47450648191078398 0.23293413722231679 0 -0.5 0.22952651967534751 0 -0.47450648191078398 0.23293413722231679 0 -0.47640830067555312 0.21143876786933641 0 -0.47450648191078398 0.23293413722231679 0 -0.47640830067555312 0.21143876786933641 0 -0.47640830067555312 0.21143876786933641 0 -0.49999999999999639 0.19905040083186301 0 -0.5 0.22952651967534751 0 -0.47640830067555312 0.21143876786933641 0 -0.49999999999999639 0.19905040083186301 0 -0.47888983910924399 0.1833910978263659 0 -0.47640830067555312 0.21143876786933641 0 -0.49999999999999639 0.19905040083186301 0 -0.47888983910924399 0.1833910978263659 0 -0.47640830067555312 0.21143876786933641 0 -0.47888983910924399 0.1833910978263659 0 -0.47640830067555312 0.21143876786933641 0 -0.4553652866229031 0.19812390853730849 0 -0.43974358763926291 0.18039709061644729 0 -0.4553652866229031 0.19812390853730849 0 -0.43067986422853077 0.20940139548392031 0 -0.4553652866229031 0.19812390853730849 0 -0.45283971357182312 0.22381499832142371 0 -0.43067986422853077 0.20940139548392031 0 -0.47640830067555312 0.21143876786933641 0 -0.4553652866229031 0.19812390853730849 0 -0.45283971357182312 0.22381499832142371 0 -0.47640830067555312 0.21143876786933641 0 -0.45283971357182312 0.22381499832142371 0 -0.47450648191078398 0.23293413722231679 0 -0.45283971357182312 0.22381499832142371 0 -0.45078000859246359 0.24156244513336969 0 -0.47450648191078398 0.23293413722231679 0 -0.47640830067555312 0.21143876786933641 0 -0.45283971357182312 0.22381499832142371 0 -0.45283971357182312 0.22381499832142371 0 -0.43294786837480398 0.2404538296894207 0 -0.42927112646809362 0.23619122877351181 0 -0.45283971357182312 0.22381499832142371 0 -0.42927112646809362 0.23619122877351181 0 -0.45283971357182312 0.22381499832142371 0 -0.42927112646809362 0.23619122877351181 0 -0.43067986422853077 0.20940139548392031 0 -0.45283971357182312 0.22381499832142371 0 -0.45078000859246359 0.24156244513336969 0 -0.43294786837480398 0.2404538296894207 0 -0.43294786837480398 0.2404538296894207 0 -0.44957601688056159 0.25938839971938082 0 -0.45078000859246359 0.24156244513336969 0 -0.43294786837480398 0.2404538296894207 0 -0.44957601688056159 0.25938839971938082 0 -0.45078000859246359 0.24156244513336969 0 -0.4662317729600568 0.24711617116125539 0 -0.44957601688056159 0.25938839971938082 0 -0.47450648191078398 0.23293413722231679 0 -0.45078000859246359 0.24156244513336969 0 -0.4662317729600568 0.24711617116125539 0 -0.42927112646809362 0.23619122877351181 0 -0.40439403923729561 0.237116777479636 0 -0.40570253936436479 0.24856745922560119 0 -0.42927112646809362 0.23619122877351181 0 -0.40570253936436479 0.24856745922560119 0 -0.43294786837480398 0.2404538296894207 0 -0.42927112646809362 0.23619122877351181 0 -0.40570253936436479 0.24856745922560119 0 -0.42927112646809362 0.23619122877351181 0 -0.41099867150134572 0.22378265931279079 0 -0.43067986422853077 0.20940139548392031 0 -0.42927112646809362 0.23619122877351181 0 -0.41099867150134572 0.22378265931279079 0 -0.40439403923729561 0.237116777479636 0 -0.40693149157881192 0.20854646138297669 0 -0.43067986422853077 0.20940139548392031 0 -0.41468845130467291 0.19268004053423909 0 -0.41099867150134572 0.22378265931279079 0 -0.40693149157881192 0.20854646138297669 0 -0.43067986422853077 0.20940139548392031 0 -0.43974358763926291 0.18039709061644729 0 -0.43067986422853077 0.20940139548392031 0 -0.41468845130467291 0.19268004053423909 0 -0.40693149157881192 0.20854646138297669 0 -0.41468845130467291 0.19268004053423909 0 -0.3971577940731173 0.19827573187671929 0 -0.41468845130467291 0.19268004053423909 0 -0.3971577940731173 0.19827573187671929 0 -0.39721082993519219 0.18448993107768991 0 -0.3971577940731173 0.19827573187671929 0 -0.38589476142810619 0.19424352100093389 0 -0.39721082993519219 0.18448993107768991 0 -0.38589476142810619 0.19424352100093389 0 -0.37633455857784293 0.18261391494179069 0 -0.37360736010814782 0.20134128663860251 0 -0.38589476142810619 0.19424352100093389 0 -0.388204088430469 0.2080493245121296 0 -0.37360736010814782 0.20134128663860251 0 -0.3971577940731173 0.19827573187671929 0 -0.38589476142810619 0.19424352100093389 0 -0.388204088430469 0.2080493245121296 0 -0.388204088430469 0.2080493245121296 0 -0.37752279527241261 0.21261086987475841 0 -0.37360736010814782 0.20134128663860251 0 -0.388204088430469 0.2080493245121296 0 -0.39698893960476778 0.22105750592270679 0 -0.38334950790794681 0.2216260941536595 0 -0.388204088430469 0.2080493245121296 0 -0.37752279527241261 0.21261086987475841 0 -0.38334950790794681 0.2216260941536595 0 -0.40693149157881192 0.20854646138297669 0 -0.3971577940731173 0.19827573187671929 0 -0.388204088430469 0.2080493245121296 0 -0.40693149157881192 0.20854646138297669 0 -0.388204088430469 0.2080493245121296 0 -0.39698893960476778 0.22105750592270679 0 -0.41099867150134572 0.22378265931279079 0 -0.40693149157881192 0.20854646138297669 0 -0.39698893960476778 0.22105750592270679 0 -0.41099867150134572 0.22378265931279079 0 -0.39817935363044121 0.2307605800777236 0 -0.39698893960476778 0.22105750592270679 0 -0.41099867150134572 0.22378265931279079 0 -0.39817935363044121 0.2307605800777236 0 -0.40439403923729561 0.237116777479636 0 -0.39817935363044121 0.2307605800777236 0 -0.39698893960476778 0.22105750592270679 0 -0.38938082192181989 0.23429513208400299 0 -0.39698893960476778 0.22105750592270679 0 -0.38334950790794681 0.2216260941536595 0 -0.38938082192181989 0.23429513208400299 0 -0.37752279527241261 0.21261086987475841 0 -0.38334950790794681 0.2216260941536595 0 -0.37349668708843092 0.2226496950895116 0 -0.38334950790794681 0.2216260941536595 0 -0.37780308712422273 0.23309721308500589 0 -0.37349668708843092 0.2226496950895116 0 -0.38334950790794681 0.2216260941536595 0 -0.37780308712422273 0.23309721308500589 0 -0.38938082192181989 0.23429513208400299 0 -0.37780308712422273 0.23309721308500589 0 -0.38938082192181989 0.23429513208400299 0 -0.38455494932564349 0.24416718140159829 0 -0.38938082192181989 0.23429513208400299 0 -0.38455494932564349 0.24416718140159829 0 -0.39556747567899392 0.24292135359640349 0 -0.37780308712422273 0.23309721308500589 0 -0.37552267705158737 0.2431978490864326 0 -0.38455494932564349 0.24416718140159829 0 -0.37552267705158737 0.2431978490864326 0 -0.38455494932564349 0.24416718140159829 0 -0.37675611103540763 0.25409865512553548 0 -0.38455494932564349 0.24416718140159829 0 -0.39556747567899392 0.24292135359640349 0 -0.38900306751682168 0.25733661077056619 0 -0.39556747567899392 0.24292135359640349 0 -0.40570253936436479 0.24856745922560119 0 -0.38900306751682168 0.25733661077056619 0 -0.39817935363044121 0.2307605800777236 0 -0.38938082192181989 0.23429513208400299 0 -0.39556747567899392 0.24292135359640349 0 -0.39817935363044121 0.2307605800777236 0 -0.39556747567899392 0.24292135359640349 0 -0.40439403923729561 0.237116777479636 0 -0.39556747567899392 0.24292135359640349 0 -0.40439403923729561 0.237116777479636 0 -0.40570253936436479 0.24856745922560119 0 -0.40439403923729561 0.237116777479636 0 -0.40570253936436479 0.24856745922560119 0 -0.41854804079657681 0.1335618185962307 0 -0.42914581421791992 0.156979454606339 0 -0.40043471814444209 0.15516303321545699 0 -0.41854804079657681 0.1335618185962307 0 -0.39914528189259102 0.13642314956862331 0 -0.40406865080306442 0.1250183431131778 0 -0.4361514068569779 0.1212930370016405 0 -0.43890233478009338 0.1378395493323826 0 -0.41854804079657681 0.1335618185962307 0 -0.41854804079657681 0.1335618185962307 0 -0.42914581421791992 0.156979454606339 0 -0.43890233478009338 0.1378395493323826 0 -0.41854804079657681 0.1335618185962307 0 -0.42914581421791992 0.156979454606339 0 -0.43974358763926291 0.18039709061644729 0 -0.42914581421791992 0.156979454606339 0 -0.43974358763926291 0.18039709061644729 0 -0.42914581421791992 0.156979454606339 0 -0.41320507520050959 0.17295104721716609 0 -0.43974358763926291 0.18039709061644729 0 -0.41468845130467291 0.19268004053423909 0 -0.41320507520050959 0.17295104721716609 0 -0.41468845130467291 0.19268004053423909 0 -0.41320507520050959 0.17295104721716609 0 -0.39721082993519219 0.18448993107768991 0 -0.42914581421791992 0.156979454606339 0 -0.41320507520050959 0.17295104721716609 0 -0.40043471814444209 0.15516303321545699 0 -0.41320507520050959 0.17295104721716609 0 -0.39020731289493082 0.17075062011690681 0 -0.40043471814444209 0.15516303321545699 0 -0.41320507520050959 0.17295104721716609 0 -0.39721082993519219 0.18448993107768991 0 -0.39020731289493082 0.17075062011690681 0 -0.38589476142810619 0.19424352100093389 0 -0.39721082993519219 0.18448993107768991 0 -0.37633455857784293 0.18261391494179069 0 -0.39721082993519219 0.18448993107768991 0 -0.37633455857784293 0.18261391494179069 0 -0.39020731289493082 0.17075062011690681 0 -0.37604315808934557 0.1616159605326225 0 -0.39020731289493082 0.17075062011690681 0 -0.40043471814444209 0.15516303321545699 0 -0.37633455857784293 0.18261391494179069 0 -0.37604315808934557 0.1616159605326225 0 -0.39020731289493082 0.17075062011690681 0 -0.37604315808934557 0.1616159605326225 0 -0.40043471814444209 0.15516303321545699 0 -0.37471140407559322 0.1435474845347986 0 -0.40043471814444209 0.15516303321545699 0 -0.39914528189259102 0.13642314956862331 0 -0.37471140407559322 0.1435474845347986 0 -0.41854804079657681 0.1335618185962307 0 -0.40043471814444209 0.15516303321545699 0 -0.39914528189259102 0.13642314956862331 0 -0.39063101314785642 0.1199442217017349 0 -0.39914528189259102 0.13642314956862331 0 -0.40406865080306442 0.1250183431131778 0 -0.39063101314785642 0.1199442217017349 0 -0.37471140407559322 0.1435474845347986 0 -0.39063101314785642 0.1199442217017349 0 -0.39914528189259102 0.13642314956862331 0 -0.37471140407559322 0.1435474845347986 0 -0.39063101314785642 0.1199442217017349 0 -0.37471140407559322 0.1435474845347986 0 -0.36716541190589658 0.118616890008602 0 -0.35994195951422209 0.1344452768815545 0 -0.37471140407559322 0.1435474845347986 0 -0.36716541190589658 0.118616890008602 0 -0.35994195951422209 0.1344452768815545 0 -0.36716541190589658 0.118616890008602 0 -0.35352278934268327 0.12307152153672141 0 -0.34641309729257957 0.13731862859844601 0 -0.34013489564456101 0.1359120708212119 0 -0.34492978578452338 0.1096826786703838 0 -0.35994195951422209 0.1344452768815545 0 -0.34641309729257957 0.13731862859844601 0 -0.35352278934268327 0.12307152153672141 0 -0.35994195951422209 0.1344452768815545 0 -0.34641309729257957 0.13731862859844601 0 -0.35789709495435779 0.14967185972920441 0 -0.34641309729257957 0.13731862859844601 0 -0.34789640880063583 0.16495457852650819 0 -0.34475730797662613 0.16425129963789131 0 -0.34641309729257957 0.13731862859844601 0 -0.34789640880063583 0.16495457852650819 0 -0.34641309729257957 0.13731862859844601 0 -0.35789709495435779 0.14967185972920441 0 -0.34789640880063583 0.16495457852650819 0 -0.34641309729257957 0.13731862859844601 0 -0.34475730797662613 0.16425129963789131 0 -0.34013489564456101 0.1359120708212119 0 -0.35994195951422209 0.1344452768815545 0 -0.35789709495435779 0.14967185972920441 0 -0.37471140407559322 0.1435474845347986 0 -0.37471140407559322 0.1435474845347986 0 -0.35879179500333003 0.16715074736786231 0 -0.35789709495435779 0.14967185972920441 0 -0.37471140407559322 0.1435474845347986 0 -0.35879179500333003 0.16715074736786231 0 -0.37604315808934557 0.1616159605326225 0 -0.37471140407559322 0.1435474845347986 0 -0.35879179500333003 0.16715074736786231 0 -0.37604315808934557 0.1616159605326225 0 -0.36770080355277779 0.17295393471821821 0 -0.35879179500333003 0.16715074736786231 0 -0.37633455857784293 0.18261391494179069 0 -0.37604315808934557 0.1616159605326225 0 -0.36770080355277779 0.17295393471821821 0 -0.37633455857784293 0.18261391494179069 0 -0.36024484160731629 0.17922248672973989 0 -0.36412185028301147 0.19234279238731111 0 -0.37633455857784293 0.18261391494179069 0 -0.36770080355277779 0.17295393471821821 0 -0.36024484160731629 0.17922248672973989 0 -0.36770080355277779 0.17295393471821821 0 -0.36024484160731629 0.17922248672973989 0 -0.35879179500333003 0.16715074736786231 0 -0.34475730797662613 0.16425129963789131 0 -0.34937972030869158 0.1925905284545705 0 -0.34475730797662613 0.16425129963789131 0 -0.33955964773429331 0.17429409395644799 0 -0.34937972030869158 0.1925905284545705 0 -0.34789640880063583 0.16495457852650819 0 -0.34937972030869158 0.1925905284545705 0 -0.36024484160731629 0.17922248672973989 0 -0.34789640880063583 0.16495457852650819 0 -0.34937972030869158 0.1925905284545705 0 -0.34789640880063583 0.16495457852650819 0 -0.34475730797662613 0.16425129963789131 0 -0.34937972030869158 0.1925905284545705 0 -0.35789709495435779 0.14967185972920441 0 -0.35879179500333003 0.16715074736786231 0 -0.34789640880063583 0.16495457852650819 0 -0.36024484160731629 0.17922248672973989 0 -0.35879179500333003 0.16715074736786231 0 -0.34789640880063583 0.16495457852650819 0 -0.34475730797662613 0.16425129963789131 0 -0.33718479128260948 0.15937809544746401 0 -0.33738994680948231 0.15124435901621999 0 -0.34475730797662613 0.16425129963789131 0 -0.33718479128260948 0.15937809544746401 0 -0.33813633189250208 0.16634522180797001 0 -0.34475730797662613 0.16425129963789131 0 -0.33813633189250208 0.16634522180797001 0 -0.33955964773429331 0.17429409395644799 0 -0.33813633189250208 0.16634522180797001 0 -0.33104358057647992 0.16745739819007679 0 -0.33955964773429331 0.17429409395644799 0 -0.33718479128260948 0.15937809544746401 0 -0.33813633189250208 0.16634522180797001 0 -0.33104358057647992 0.16745739819007679 0 -0.33718479128260948 0.15937809544746401 0 -0.33104358057647992 0.16745739819007679 0 -0.33026858376101731 0.15190637449176561 0 -0.33104358057647992 0.16745739819007679 0 -0.33403331992976748 0.18227938602527921 0 -0.31962491903722229 0.18594758427241961 0 -0.33955964773429331 0.17429409395644799 0 -0.33403331992976748 0.18227938602527921 0 -0.34937972030869158 0.1925905284545705 0 -0.33104358057647992 0.16745739819007679 0 -0.33955964773429331 0.17429409395644799 0 -0.33403331992976748 0.18227938602527921 0 -0.31962491903722229 0.18594758427241961 0 -0.31796283648197832 0.1633337389314328 0 -0.30596240671843039 0.18080678990447141 0 -0.31962491903722229 0.18594758427241961 0 -0.31796283648197832 0.1633337389314328 0 -0.33104358057647992 0.16745739819007679 0 -0.31962491903722229 0.18594758427241961 0 -0.31796283648197832 0.1633337389314328 0 -0.33104358057647992 0.16745739819007679 0 -0.31796283648197832 0.1633337389314328 0 -0.33026858376101731 0.15190637449176561 0 -0.31796283648197832 0.1633337389314328 0 -0.31630075392673418 0.14071989359044609 0 -0.31796283648197832 0.1633337389314328 0 -0.31630075392673418 0.14071989359044609 0 -0.33026858376101731 0.15190637449176561 0 -0.31630075392673418 0.14071989359044609 0 -0.32855297285770901 0.13997743418302819 0 -0.33026858376101731 0.15190637449176561 0 -0.31630075392673418 0.14071989359044609 0 -0.30835875028686138 0.12836861128214669 0 -0.32196666651361477 0.12487749701900901 0 -0.31630075392673418 0.14071989359044609 0 -0.32855297285770901 0.13997743418302819 0 -0.32196666651361477 0.12487749701900901 0 -0.32855297285770901 0.13997743418302819 0 -0.33106980320980312 0.1246503866679774 0 -0.32196666651361477 0.12487749701900901 0 -0.32855297285770901 0.13997743418302819 0 -0.34013489564456101 0.1359120708212119 0 -0.3346041553825978 0.14477395468276741 0 -0.32855297285770901 0.13997743418302819 0 -0.34013489564456101 0.1359120708212119 0 -0.33106980320980312 0.1246503866679774 0 -0.34475730797662613 0.16425129963789131 0 -0.34013489564456101 0.1359120708212119 0 -0.34013489564456101 0.1359120708212119 0 -0.33738994680948231 0.15124435901621999 0 -0.3346041553825978 0.14477395468276741 0 -0.34475730797662613 0.16425129963789131 0 -0.34013489564456101 0.1359120708212119 0 -0.33738994680948231 0.15124435901621999 0 -0.33718479128260948 0.15937809544746401 0 -0.33738994680948231 0.15124435901621999 0 -0.33026858376101731 0.15190637449176561 0 -0.33738994680948231 0.15124435901621999 0 -0.33026858376101731 0.15190637449176561 0 -0.3346041553825978 0.14477395468276741 0 -0.32855297285770901 0.13997743418302819 0 -0.33026858376101731 0.15190637449176561 0 -0.3346041553825978 0.14477395468276741 0 -0.35208907389890948 0.24306917690434299 0 -0.33787454055877381 0.24529314191448051 0 -0.34142207509263922 0.25572960106260723 0 -0.35208907389890948 0.24306917690434299 0 -0.34508884738596168 0.2342440782649087 0 -0.33787454055877381 0.24529314191448051 0 -0.35689366634974828 0.23865726176967661 0 -0.35926376548055328 0.2486735779402334 0 -0.35208907389890948 0.24306917690434299 0 -0.35926376548055328 0.2486735779402334 0 -0.36665925593476811 0.2402392529692276 0 -0.36723308052532222 0.25309369692869038 0 -0.35689366634974828 0.23865726176967661 0 -0.35926376548055328 0.2486735779402334 0 -0.36665925593476811 0.2402392529692276 0 -0.37552267705158737 0.2431978490864326 0 -0.36665925593476811 0.2402392529692276 0 -0.36723308052532222 0.25309369692869038 0 -0.37780308712422273 0.23309721308500589 0 -0.37552267705158737 0.2431978490864326 0 -0.36665925593476811 0.2402392529692276 0 -0.37780308712422273 0.23309721308500589 0 -0.36665925593476811 0.2402392529692276 0 -0.36843053074319038 0.2307028505946831 0 -0.3637449320256837 0.23462317477255459 0 -0.36665925593476811 0.2402392529692276 0 -0.36843053074319038 0.2307028505946831 0 -0.35689366634974828 0.23865726176967661 0 -0.3637449320256837 0.23462317477255459 0 -0.36304404037139409 0.23042929735762199 0 -0.35689366634974828 0.23865726176967661 0 -0.3637449320256837 0.23462317477255459 0 -0.36665925593476811 0.2402392529692276 0 -0.35689366634974828 0.23865726176967661 0 -0.36304404037139409 0.23042929735762199 0 -0.36041387714694573 0.22521835140317789 0 -0.36304404037139409 0.23042929735762199 0 -0.36843053074319038 0.2307028505946831 0 -0.36573719559140289 0.222944848248018 0 -0.3637449320256837 0.23462317477255459 0 -0.36304404037139409 0.23042929735762199 0 -0.36843053074319038 0.2307028505946831 0 -0.37780308712422273 0.23309721308500589 0 -0.36843053074319038 0.2307028505946831 0 -0.37349668708843092 0.2226496950895116 0 -0.36843053074319038 0.2307028505946831 0 -0.37349668708843092 0.2226496950895116 0 -0.36573719559140289 0.222944848248018 0 -0.37349668708843092 0.2226496950895116 0 -0.36573719559140289 0.222944848248018 0 -0.36813700589141007 0.21491629458094519 0 -0.36304404037139409 0.23042929735762199 0 -0.36573719559140289 0.222944848248018 0 -0.36041387714694573 0.22521835140317789 0 -0.36573719559140289 0.222944848248018 0 -0.36041387714694573 0.22521835140317789 0 -0.36096209089537368 0.21759825830877291 0 -0.36041387714694573 0.22521835140317789 0 -0.35785158193032179 0.22427444164843771 0 -0.36096209089537368 0.21759825830877291 0 -0.35689366634974828 0.23865726176967661 0 -0.35785158193032179 0.22427444164843771 0 -0.35313669332921982 0.21562389511212349 0 -0.35785158193032179 0.22427444164843771 0 -0.35313669332921982 0.21562389511212349 0 -0.36096209089537368 0.21759825830877291 0 -0.35689366634974828 0.23865726176967661 0 -0.35313669332921982 0.21562389511212349 0 -0.35208907389890948 0.24306917690434299 0 -0.34508884738596168 0.2342440782649087 0 -0.35073439710380072 0.2178298526794567 0 -0.34508884738596168 0.2342440782649087 0 -0.35073439710380072 0.2178298526794567 0 -0.33965737798236312 0.2307841415613546 0 -0.35208907389890948 0.24306917690434299 0 -0.35073439710380072 0.2178298526794567 0 -0.35689366634974828 0.23865726176967661 0 -0.35073439710380072 0.2178298526794567 0 -0.35313669332921982 0.21562389511212349 0 -0.35689366634974828 0.23865726176967661 0 -0.35208907389890948 0.24306917690434299 0 -0.35073439710380072 0.2178298526794567 0 -0.35689366634974828 0.23865726176967661 0 -0.36041387714694573 0.22521835140317789 0 -0.35785158193032179 0.22427444164843771 0 -0.35073439710380072 0.2178298526794567 0 -0.34937972030869158 0.1925905284545705 0 -0.35313669332921982 0.21562389511212349 0 -0.36104277081305908 0.20594574517185199 0 -0.34937972030869158 0.1925905284545705 0 -0.35073439710380072 0.2178298526794567 0 -0.35313669332921982 0.21562389511212349 0 -0.34937972030869158 0.1925905284545705 0 -0.35313669332921982 0.21562389511212349 0 -0.34937972030869158 0.1925905284545705 0 -0.35073439710380072 0.2178298526794567 0 -0.34937972030869158 0.1925905284545705 0 -0.34310613959102931 0.2055031457500841 0 -0.35073439710380072 0.2178298526794567 0 -0.34310613959102931 0.2055031457500841 0 -0.34102096872395049 0.21330790674795511 0 -0.35073439710380072 0.2178298526794567 0 -0.34102096872395049 0.21330790674795511 0 -0.34050958406480097 0.2204489809667724 0 -0.35313669332921982 0.21562389511212349 0 -0.36096209089537368 0.21759825830877291 0 -0.36104277081305908 0.20594574517185199 0 -0.36573719559140289 0.222944848248018 0 -0.36096209089537368 0.21759825830877291 0 -0.36813700589141007 0.21491629458094519 0 -0.36096209089537368 0.21759825830877291 0 -0.36813700589141007 0.21491629458094519 0 -0.36104277081305908 0.20594574517185199 0 -0.37752279527241261 0.21261086987475841 0 -0.37349668708843092 0.2226496950895116 0 -0.36813700589141007 0.21491629458094519 0 -0.37752279527241261 0.21261086987475841 0 -0.36813700589141007 0.21491629458094519 0 -0.37360736010814782 0.20134128663860251 0 -0.36813700589141007 0.21491629458094519 0 -0.36104277081305908 0.20594574517185199 0 -0.37360736010814782 0.20134128663860251 0 -0.37633455857784293 0.18261391494179069 0 -0.37360736010814782 0.20134128663860251 0 -0.36412185028301147 0.19234279238731111 0 -0.36104277081305908 0.20594574517185199 0 -0.37360736010814782 0.20134128663860251 0 -0.36412185028301147 0.19234279238731111 0 -0.36024484160731629 0.17922248672973989 0 -0.36412185028301147 0.19234279238731111 0 -0.34937972030869158 0.1925905284545705 0 -0.36104277081305908 0.20594574517185199 0 -0.36412185028301147 0.19234279238731111 0 -0.34937972030869158 0.1925905284545705 0 -0.33403331992976748 0.18227938602527921 0 -0.34937972030869158 0.1925905284545705 0 -0.33132558757267788 0.19645560619981381 0 -0.34937972030869158 0.1925905284545705 0 -0.33132558757267788 0.19645560619981381 0 -0.34310613959102931 0.2055031457500841 0 -0.33132558757267788 0.19645560619981381 0 -0.33206760714527173 0.20694684499318661 0 -0.34310613959102931 0.2055031457500841 0 -0.33403331992976748 0.18227938602527921 0 -0.31962491903722229 0.18594758427241961 0 -0.33132558757267788 0.19645560619981381 0 -0.31962491903722229 0.18594758427241961 0 -0.33132558757267788 0.19645560619981381 0 -0.32128700159246643 0.2085614296134064 0 -0.31962491903722229 0.18594758427241961 0 -0.32128700159246643 0.2085614296134064 0 -0.31094130810426679 0.20146887601233149 0 -0.31962491903722229 0.18594758427241961 0 -0.32128700159246643 0.2085614296134064 0 -0.32128700159246643 0.2085614296134064 0 -0.30991457648112369 0.2265504040794763 0 -0.30833129431909739 0.21334832502430981 0 -0.32128700159246643 0.2085614296134064 0 -0.30833129431909739 0.21334832502430981 0 -0.31094130810426679 0.20146887601233149 0 -0.32128700159246643 0.2085614296134064 0 -0.334517009846864 0.21514148884522391 0 -0.33414886994078158 0.22469785659874761 0 -0.334517009846864 0.21514148884522391 0 -0.33206760714527173 0.20694684499318661 0 -0.34102096872395049 0.21330790674795511 0 -0.33132558757267788 0.19645560619981381 0 -0.32128700159246643 0.2085614296134064 0 -0.33206760714527173 0.20694684499318661 0 -0.32128700159246643 0.2085614296134064 0 -0.334517009846864 0.21514148884522391 0 -0.33206760714527173 0.20694684499318661 0 -0.33206760714527173 0.20694684499318661 0 -0.34310613959102931 0.2055031457500841 0 -0.34102096872395049 0.21330790674795511 0 -0.334517009846864 0.21514148884522391 0 -0.34102096872395049 0.21330790674795511 0 -0.34050958406480097 0.2204489809667724 0 -0.33965737798236312 0.2307841415613546 0 -0.33414886994078158 0.22469785659874761 0 -0.32294908414771051 0.231175274954393 0 -0.34050958406480097 0.2204489809667724 0 -0.33965737798236312 0.2307841415613546 0 -0.33414886994078158 0.22469785659874761 0 -0.334517009846864 0.21514148884522391 0 -0.34050958406480097 0.2204489809667724 0 -0.33414886994078158 0.22469785659874761 0 -0.35073439710380072 0.2178298526794567 0 -0.34050958406480097 0.2204489809667724 0 -0.33965737798236312 0.2307841415613546 0 -0.32128700159246643 0.2085614296134064 0 -0.33414886994078158 0.22469785659874761 0 -0.32294908414771051 0.231175274954393 0 -0.32128700159246643 0.2085614296134064 0 -0.32294908414771051 0.231175274954393 0 -0.32128700159246643 0.2085614296134064 0 -0.32294908414771051 0.231175274954393 0 -0.30991457648112369 0.2265504040794763 0 -0.32294908414771051 0.231175274954393 0 -0.30659471691689572 0.242716670786389 0 -0.30991457648112369 0.2265504040794763 0 -0.32294908414771051 0.231175274954393 0 -0.30659471691689572 0.242716670786389 0 -0.32493898666941562 0.25370598596143412 0 -0.33965737798236312 0.2307841415613546 0 -0.32294908414771051 0.231175274954393 0 -0.33787454055877381 0.24529314191448051 0 -0.32294908414771051 0.231175274954393 0 -0.33787454055877381 0.24529314191448051 0 -0.32493898666941562 0.25370598596143412 0 -0.34508884738596168 0.2342440782649087 0 -0.33965737798236312 0.2307841415613546 0 -0.33787454055877381 0.24529314191448051 0 -0.28392805579818597 0.24584677119781029 0 -0.30659471691689572 0.242716670786389 0 -0.29475597619187288 0.23283261746471121 0 -0.28392805579818597 0.24584677119781029 0 -0.29475597619187288 0.23283261746471121 0 -0.28109078806307641 0.23123665432302171 0 -0.30991457648112369 0.2265504040794763 0 -0.2995127007984647 0.22240216811521779 0 -0.29475597619187288 0.23283261746471121 0 -0.30659471691689572 0.242716670786389 0 -0.30991457648112369 0.2265504040794763 0 -0.29475597619187288 0.23283261746471121 0 -0.30991457648112369 0.2265504040794763 0 -0.2995127007984647 0.22240216811521779 0 -0.30833129431909739 0.21334832502430981 0 -0.2995127007984647 0.22240216811521779 0 -0.29475597619187288 0.23283261746471121 0 -0.28658767146556752 0.2208426317688808 0 -0.29475597619187288 0.23283261746471121 0 -0.28658767146556752 0.2208426317688808 0 -0.28109078806307641 0.23123665432302171 0 -0.28658767146556752 0.2208426317688808 0 -0.28549164962408852 0.20589081089837991 0 -0.27599235506858921 0.213338138612501 0 -0.2995127007984647 0.22240216811521779 0 -0.28658767146556752 0.2208426317688808 0 -0.29782091388006071 0.2077851852193662 0 -0.28658767146556752 0.2208426317688808 0 -0.28549164962408852 0.20589081089837991 0 -0.29782091388006071 0.2077851852193662 0 -0.2995127007984647 0.22240216811521779 0 -0.30833129431909739 0.21334832502430981 0 -0.29782091388006071 0.2077851852193662 0 -0.30833129431909739 0.21334832502430981 0 -0.29782091388006071 0.2077851852193662 0 -0.31094130810426679 0.20146887601233149 0 -0.31094130810426679 0.20146887601233149 0 -0.28918285092023371 0.18809301854234381 0 -0.30596240671843039 0.18080678990447141 0 -0.31094130810426679 0.20146887601233149 0 -0.28918285092023371 0.18809301854234381 0 -0.31962491903722229 0.18594758427241961 0 -0.31094130810426679 0.20146887601233149 0 -0.30596240671843039 0.18080678990447141 0 -0.29782091388006071 0.2077851852193662 0 -0.31094130810426679 0.20146887601233149 0 -0.28918285092023371 0.18809301854234381 0 -0.28549164962408852 0.20589081089837991 0 -0.28918285092023371 0.18809301854234381 0 -0.27469451239495962 0.19856643751398209 0 -0.28549164962408852 0.20589081089837991 0 -0.29782091388006071 0.2077851852193662 0 -0.28918285092023371 0.18809301854234381 0 -0.27469451239495962 0.19856643751398209 0 -0.25846339158769432 0.19477026040294029 0 -0.26742439373620053 0.1747171610723561 0 -0.27469451239495962 0.19856643751398209 0 -0.25846339158769432 0.19477026040294029 0 -0.26373521695980739 0.20854805576629271 0 -0.25846339158769432 0.19477026040294029 0 -0.25264776582176801 0.2054066783297176 0 -0.24512564856919611 0.1966003761625241 0 -0.25846339158769432 0.19477026040294029 0 -0.26373521695980739 0.20854805576629271 0 -0.25264776582176801 0.2054066783297176 0 -0.26373521695980739 0.20854805576629271 0 -0.25264776582176801 0.2054066783297176 0 -0.25326648915379463 0.21765104414027969 0 -0.26373521695980739 0.20854805576629271 0 -0.25326648915379463 0.21765104414027969 0 -0.26696116117740232 0.2188897629996385 0 -0.26373521695980739 0.20854805576629271 0 -0.27599235506858921 0.213338138612501 0 -0.26696116117740232 0.2188897629996385 0 -0.27469451239495962 0.19856643751398209 0 -0.26373521695980739 0.20854805576629271 0 -0.27599235506858921 0.213338138612501 0 -0.28549164962408852 0.20589081089837991 0 -0.27469451239495962 0.19856643751398209 0 -0.27599235506858921 0.213338138612501 0 -0.28658767146556752 0.2208426317688808 0 -0.27599235506858921 0.213338138612501 0 -0.27366575233363138 0.22408994750137051 0 -0.28658767146556752 0.2208426317688808 0 -0.27366575233363138 0.22408994750137051 0 -0.28109078806307641 0.23123665432302171 0 -0.27366575233363138 0.22408994750137051 0 -0.28109078806307641 0.23123665432302171 0 -0.26613842301448931 0.22948780180005629 0 -0.27366575233363138 0.22408994750137051 0 -0.26613842301448931 0.22948780180005629 0 -0.27599235506858921 0.213338138612501 0 -0.27366575233363138 0.22408994750137051 0 -0.26696116117740232 0.2188897629996385 0 -0.27366575233363138 0.22408994750137051 0 -0.26613842301448931 0.22948780180005629 0 -0.26696116117740232 0.2188897629996385 0 -0.25326648915379463 0.21765104414027969 0 -0.26613842301448931 0.22948780180005629 0 -0.25326648915379463 0.21765104414027969 0 -0.26613842301448931 0.22948780180005629 0 -0.26696116117740232 0.2188897629996385 0 -0.26613842301448931 0.22948780180005629 0 -0.25250373055295899 0.22903132158689779 0 -0.2468893326351202 0.24329134098969171 0 -0.25326648915379463 0.21765104414027969 0 -0.26613842301448931 0.22948780180005629 0 -0.25250373055295899 0.22903132158689779 0 -0.26613842301448931 0.22948780180005629 0 -0.2468893326351202 0.24329134098969171 0 -0.26613842301448931 0.22948780180005629 0 -0.26514282027817931 0.24842266601513599 0 -0.2468893326351202 0.24329134098969171 0 -0.28392805579818597 0.24584677119781029 0 -0.26613842301448931 0.22948780180005629 0 -0.26514282027817931 0.24842266601513599 0 -0.28392805579818597 0.24584677119781029 0 -0.26613842301448931 0.22948780180005629 0 -0.28392805579818597 0.24584677119781029 0 -0.28109078806307641 0.23123665432302171 0 -0.26613842301448931 0.22948780180005629 0 -0.29674228528268098 0.14167201189203629 0 -0.29210011904845101 0.16519073176382951 0 -0.2788144627000812 0.14703818685698561 0 -0.29674228528268098 0.14167201189203629 0 -0.2788144627000812 0.14703818685698561 0 -0.2804226891664876 0.12940513594623221 0 -0.29674228528268098 0.14167201189203629 0 -0.2804226891664876 0.12940513594623221 0 -0.29563289833704792 0.1211109261551389 0 -0.29674228528268098 0.14167201189203629 0 -0.30835875028686138 0.12836861128214669 0 -0.29563289833704792 0.1211109261551389 0 -0.31630075392673418 0.14071989359044609 0 -0.29674228528268098 0.14167201189203629 0 -0.30835875028686138 0.12836861128214669 0 -0.31796283648197832 0.1633337389314328 0 -0.31630075392673418 0.14071989359044609 0 -0.29674228528268098 0.14167201189203629 0 -0.31796283648197832 0.1633337389314328 0 -0.30596240671843039 0.18080678990447141 0 -0.29210011904845101 0.16519073176382951 0 -0.31796283648197832 0.1633337389314328 0 -0.29674228528268098 0.14167201189203629 0 -0.29210011904845101 0.16519073176382951 0 -0.28918285092023371 0.18809301854234381 0 -0.30596240671843039 0.18080678990447141 0 -0.29210011904845101 0.16519073176382951 0 -0.28918285092023371 0.18809301854234381 0 -0.29210011904845101 0.16519073176382951 0 -0.26742439373620053 0.1747171610723561 0 -0.29210011904845101 0.16519073176382951 0 -0.26645859331151961 0.15770478106228089 0 -0.2788144627000812 0.14703818685698561 0 -0.29210011904845101 0.16519073176382951 0 -0.26645859331151961 0.15770478106228089 0 -0.26742439373620053 0.1747171610723561 0 -0.28918285092023371 0.18809301854234381 0 -0.27469451239495962 0.19856643751398209 0 -0.26742439373620053 0.1747171610723561 0 -0.28918285092023371 0.18809301854234381 0 -0.26742439373620053 0.1747171610723561 0 -0.25846339158769432 0.19477026040294029 0 -0.26742439373620053 0.1747171610723561 0 -0.2425545525554833 0.18325607046718431 0 -0.26742439373620053 0.1747171610723561 0 -0.24566593655216731 0.1613413036023684 0 -0.2425545525554833 0.18325607046718431 0 -0.26742439373620053 0.1747171610723561 0 -0.24566593655216731 0.1613413036023684 0 -0.26645859331151961 0.15770478106228089 0 -0.26742439373620053 0.1747171610723561 0 -0.24566593655216731 0.1613413036023684 0 -0.26645859331151961 0.15770478106228089 0 -0.26077588748637798 0.14053443996503889 0 -0.24566593655216731 0.1613413036023684 0 -0.26645859331151961 0.15770478106228089 0 -0.2788144627000812 0.14703818685698561 0 -0.26077588748637798 0.14053443996503889 0 -0.2788144627000812 0.14703818685698561 0 -0.2804226891664876 0.12940513594623221 0 -0.26077588748637798 0.14053443996503889 0 -0.2804226891664876 0.12940513594623221 0 -0.26077588748637798 0.14053443996503889 0 -0.26620622488190782 0.1187168322113534 0 -0.26077588748637798 0.14053443996503889 0 -0.25033803458298193 0.12914144363467839 0 -0.2394413917758374 0.14053574488666021 0 -0.26077588748637798 0.14053443996503889 0 -0.25033803458298193 0.12914144363467839 0 -0.26620622488190782 0.1187168322113534 0 -0.25033803458298193 0.12914144363467839 0 -0.25364395357421121 0.10678394025260531 0 -0.26620622488190782 0.1187168322113534 0 -0.25364395357421121 0.10678394025260531 0 -0.26910496068450029 0.10059928658519129 0 -0.26340159681891351 0.087305486383429762 0 -0.25364395357421121 0.10678394025260531 0 -0.26910496068450029 0.10059928658519129 0 -0.26620622488190782 0.1187168322113534 0 -0.26910496068450029 0.10059928658519129 0 -0.28436437631082973 0.10735841859683989 0 -0.28176033911896858 0.090840469038767704 0 -0.26910496068450029 0.10059928658519129 0 -0.26620622488190782 0.1187168322113534 0 -0.28436437631082973 0.10735841859683989 0 -0.2804226891664876 0.12940513594623221 0 -0.26620622488190782 0.1187168322113534 0 -0.28436437631082973 0.10735841859683989 0 -0.2804226891664876 0.12940513594623221 0 -0.29563289833704792 0.1211109261551389 0 -0.28436437631082973 0.10735841859683989 0 -0.29563289833704792 0.1211109261551389 0 -0.28436437631082973 0.10735841859683989 0 -0.30333203744139958 0.1018092028156232 0 -0.28436437631082973 0.10735841859683989 0 -0.30333203744139958 0.1018092028156232 0 -0.29505738772415852 0.092466809089677027 0 -0.28436437631082973 0.10735841859683989 0 -0.29505738772415852 0.092466809089677027 0 -0.28176033911896858 0.090840469038767704 0 -0.30333203744139958 0.1018092028156232 0 -0.31115114737422961 0.1134627277541034 0 -0.31621893882499519 0.096173217231134644 0 -0.29563289833704792 0.1211109261551389 0 -0.30333203744139958 0.1018092028156232 0 -0.31115114737422961 0.1134627277541034 0 -0.30835875028686138 0.12836861128214669 0 -0.29563289833704792 0.1211109261551389 0 -0.31115114737422961 0.1134627277541034 0 -0.2988364877494265 0.069896585727329402 0 -0.3095990562077543 0.082833834969606807 0 -0.31708477734686968 0.066938799678275263 0 -0.2988364877494265 0.069896585727329402 0 -0.30266664287706341 0.054708362279179482 0 -0.31708477734686968 0.066938799678275263 0 -0.2988364877494265 0.069896585727329402 0 -0.28935545939309398 0.062964548691125152 0 -0.30266664287706341 0.054708362279179482 0 -0.30333203744139958 0.1018092028156232 0 -0.3095990562077543 0.082833834969606807 0 -0.31621893882499519 0.096173217231134644 0 -0.30333203744139958 0.1018092028156232 0 -0.3095990562077543 0.082833834969606807 0 -0.29505738772415852 0.092466809089677027 0 -0.3095990562077543 0.082833834969606807 0 -0.29687345717375091 0.081902945336330912 0 -0.29505738772415852 0.092466809089677027 0 -0.2988364877494265 0.069896585727329402 0 -0.3095990562077543 0.082833834969606807 0 -0.29687345717375091 0.081902945336330912 0 -0.29687345717375091 0.081902945336330912 0 -0.28176033911896858 0.090840469038767704 0 -0.2804463735768567 0.075556206852953223 0 -0.29687345717375091 0.081902945336330912 0 -0.29505738772415852 0.092466809089677027 0 -0.28176033911896858 0.090840469038767704 0 -0.2988364877494265 0.069896585727329402 0 -0.28935545939309398 0.062964548691125152 0 -0.2804463735768567 0.075556206852953223 0 -0.2988364877494265 0.069896585727329402 0 -0.29687345717375091 0.081902945336330912 0 -0.2804463735768567 0.075556206852953223 0 -0.28935545939309398 0.062964548691125152 0 -0.28020443427428848 0.065937434716272045 0 -0.28232948387749679 0.060243429622273227 0 -0.28935545939309398 0.062964548691125152 0 -0.28020443427428848 0.065937434716272045 0 -0.2804463735768567 0.075556206852953223 0 -0.2804463735768567 0.075556206852953223 0 -0.26340159681891351 0.087305486383429762 0 -0.26195798501385009 0.070226375813507561 0 -0.28020443427428848 0.065937434716272045 0 -0.26195798501385009 0.070226375813507561 0 -0.2800946942601637 0.055740888585776333 0 -0.28020443427428848 0.065937434716272045 0 -0.2804463735768567 0.075556206852953223 0 -0.26195798501385009 0.070226375813507561 0 -0.26195798501385009 0.070226375813507561 0 -0.2800946942601637 0.055740888585776333 0 -0.26910496068450029 0.10059928658519129 0 -0.28176033911896858 0.090840469038767704 0 -0.26340159681891351 0.087305486383429762 0 -0.28176033911896858 0.090840469038767704 0 -0.2804463735768567 0.075556206852953223 0 -0.26340159681891351 0.087305486383429762 0 -0.26340159681891351 0.087305486383429762 0 -0.26195798501385009 0.070226375813507561 0 -0.24382127576753621 0.084711863041238192 0 -0.25364395357421121 0.10678394025260531 0 -0.26340159681891351 0.087305486383429762 0 -0.24382127576753621 0.084711863041238192 0 -0.26195798501385009 0.070226375813507561 0 -0.24382127576753621 0.084711863041238192 0 -0.26195798501385009 0.070226375813507561 0 -0.26253060434091768 0.04486583530805522 0 -0.24534917185526489 0.049526218608574313 0 -0.26253060434091768 0.04486583530805522 0 -0.25642639863326749 0.02710060176493858 0 -0.24534917185526489 0.049526218608574313 0 -0.26253060434091768 0.04486583530805522 0 -0.27431483662099609 0.037465275048419483 0 -0.25642639863326749 0.02710060176493858 0 -0.26253060434091768 0.04486583530805522 0 -0.27431483662099609 0.037465275048419483 0 -0.2800946942601637 0.055740888585776333 0 -0.26195798501385009 0.070226375813507561 0 -0.26253060434091768 0.04486583530805522 0 -0.2800946942601637 0.055740888585776333 0 -0.28020443427428848 0.065937434716272045 0 -0.2800946942601637 0.055740888585776333 0 -0.28232948387749679 0.060243429622273227 0 -0.26431478179583978 -0.01186883573312463 0 -0.25132042997239518 0.0027134119798401068 0 -0.26646431581863778 0.01029557754540468 0 -0.25132042997239518 0.0027134119798401068 0 -0.25642639863326749 0.02710060176493858 0 -0.26646431581863778 0.01029557754540468 0 -0.27431483662099609 0.037465275048419483 0 -0.25642639863326749 0.02710060176493858 0 -0.27962863155723588 0.021383722316491719 0 -0.25642639863326749 0.02710060176493858 0 -0.27962863155723588 0.021383722316491719 0 -0.26646431581863778 0.01029557754540468 0 -0.2820771903446922 -0.0013122005201030101 0 -0.27962863155723588 0.021383722316491719 0 -0.26646431581863778 0.01029557754540468 0 -0.2820771903446922 -0.0013122005201030101 0 -0.30047775033007851 -0.00039401612408775783 0 -0.29196914664965867 0.01010181790504874 0 -0.2820771903446922 -0.0013122005201030101 0 -0.27962863155723588 0.021383722316491719 0 -0.29196914664965867 0.01010181790504874 0 -0.27962863155723588 0.021383722316491719 0 -0.29196914664965867 0.01010181790504874 0 -0.3056930143666281 0.020729765947894 0 -0.27962863155723588 0.021383722316491719 0 -0.3056930143666281 0.020729765947894 0 -0.2928938543133956 0.038235327266834943 0 -0.3056930143666281 0.020729765947894 0 -0.2928938543133956 0.038235327266834943 0 -0.3056930143666281 0.020729765947894 0 -0.30086997028822832 0.039148022070134687 0 -0.32164524631629432 0.022555155554494829 0 -0.30086997028822832 0.039148022070134687 0 -0.32164524631629432 0.022555155554494829 0 -0.3056930143666281 0.020729765947894 0 -0.31849217441985911 0.0032242046289520012 0 -0.30047775033007851 -0.00039401612408775783 0 -0.3056930143666281 0.020729765947894 0 -0.31849217441985911 0.0032242046289520012 0 -0.30047775033007851 -0.00039401612408775783 0 -0.29196914664965867 0.01010181790504874 0 -0.3056930143666281 0.020729765947894 0 -0.2800946942601637 0.055740888585776333 0 -0.30086997028822832 0.039148022070134687 0 -0.28935545939309398 0.062964548691125152 0 -0.2800946942601637 0.055740888585776333 0 -0.30266664287706341 0.054708362279179482 0 -0.2800946942601637 0.055740888585776333 0 -0.2928938543133956 0.038235327266834943 0 -0.2800946942601637 0.055740888585776333 0 -0.30086997028822832 0.039148022070134687 0 -0.30266664287706341 0.054708362279179482 0 -0.28935545939309398 0.062964548691125152 0 -0.2800946942601637 0.055740888585776333 0 -0.28232948387749679 0.060243429622273227 0 -0.2800946942601637 0.055740888585776333 0 -0.2928938543133956 0.038235327266834943 0 -0.30086997028822832 0.039148022070134687 0 -0.27431483662099609 0.037465275048419483 0 -0.27962863155723588 0.021383722316491719 0 -0.2928938543133956 0.038235327266834943 0 -0.27431483662099609 0.037465275048419483 0 -0.2800946942601637 0.055740888585776333 0 -0.2928938543133956 0.038235327266834943 0 -0.3056930143666281 0.020729765947894 0 -0.2928938543133956 0.038235327266834943 0 -0.30086997028822832 0.039148022070134687 0 -0.30086997028822832 0.039148022070134687 0 -0.30266664287706341 0.054708362279179482 0 -0.3262676586483656 0.050894384371173287 0 -0.30266664287706341 0.054708362279179482 0 -0.3262676586483656 0.050894384371173287 0 -0.31708477734686968 0.066938799678275263 0 -0.3262676586483656 0.050894384371173287 0 -0.32164524631629432 0.022555155554494829 0 -0.30086997028822832 0.039148022070134687 0 -0.3262676586483656 0.050894384371173287 0 -0.32164524631629432 0.022555155554494829 0 -0.3262676586483656 0.050894384371173287 0 -0.32164524631629432 0.022555155554494829 0 -0.34047985126035502 0.026774828886197279 0 -0.3419631627684111 0.054410778814259472 0 -0.34047985126035502 0.026774828886197279 0 -0.3262676586483656 0.050894384371173287 0 -0.3419631627684111 0.054410778814259472 0 -0.34047985126035502 0.026774828886197279 0 -0.3262676586483656 0.050894384371173287 0 -0.3419631627684111 0.054410778814259472 0 -0.33089007098043072 0.079233613187852742 0 -0.3056930143666281 0.020729765947894 0 -0.31849217441985911 0.0032242046289520012 0 -0.32164524631629432 0.022555155554494829 0 -0.31849217441985911 0.0032242046289520012 0 -0.32164524631629432 0.022555155554494829 0 -0.33742136738088668 0.0099550307423931228 0 -0.31849217441985911 0.0032242046289520012 0 -0.32164524631629432 0.022555155554494829 0 -0.32164524631629432 0.022555155554494829 0 -0.33742136738088668 0.0099550307423931228 0 -0.32164524631629432 0.022555155554494829 0 -0.34047985126035502 0.026774828886197279 0 -0.33742136738088668 0.0099550307423931228 0 -0.35319748844548088 -0.0026450940697062141 0 -0.33742136738088668 0.0099550307423931228 0 -0.35319748844548088 -0.0026450940697062141 0 -0.33742136738088668 0.0099550307423931228 0 -0.35568472126330458 0.01398178967161531 0 -0.34047985126035502 0.026774828886197279 0 -0.35568472126330458 0.01398178967161531 0 -0.36050468596179641 0.029201478886372499 0 -0.34047985126035502 0.026774828886197279 0 -0.33742136738088668 0.0099550307423931228 0 -0.35568472126330458 0.01398178967161531 0 -0.35568472126330458 0.01398178967161531 0 -0.36050468596179641 0.029201478886372499 0 -0.37274578052696178 0.01868977009819147 0 -0.37753126207020948 0.034899308803226177 0 -0.36050468596179641 0.029201478886372499 0 -0.37274578052696178 0.01868977009819147 0 -0.35319748844548088 -0.0026450940697062141 0 -0.35568472126330458 0.01398178967161531 0 -0.36979036210562988 0.0025511841975563729 0 -0.35568472126330458 0.01398178967161531 0 -0.37274578052696178 0.01868977009819147 0 -0.36979036210562988 0.0025511841975563729 0 -0.35367539322405089 0.052192583201526178 0 -0.35229578078182711 0.042127528613546239 0 -0.36485581069452189 0.048057973279375742 0 -0.35367539322405089 0.052192583201526178 0 -0.36174043644781612 0.059537200304905107 0 -0.34707042967454638 0.066493871458924422 0 -0.3419631627684111 0.054410778814259472 0 -0.35367539322405089 0.052192583201526178 0 -0.34707042967454638 0.066493871458924422 0 -0.3419631627684111 0.054410778814259472 0 -0.35367539322405089 0.052192583201526178 0 -0.35229578078182711 0.042127528613546239 0 -0.34047985126035502 0.026774828886197279 0 -0.36050468596179641 0.029201478886372499 0 -0.35229578078182711 0.042127528613546239 0 -0.3419631627684111 0.054410778814259472 0 -0.34047985126035502 0.026774828886197279 0 -0.35229578078182711 0.042127528613546239 0 -0.36050468596179641 0.029201478886372499 0 -0.35229578078182711 0.042127528613546239 0 -0.36485581069452189 0.048057973279375742 0 -0.37753126207020948 0.034899308803226177 0 -0.36050468596179641 0.029201478886372499 0 -0.36485581069452189 0.048057973279375742 0 -0.37830855690199738 0.048851891747440382 0 -0.37753126207020948 0.034899308803226177 0 -0.36485581069452189 0.048057973279375742 0 -0.37830855690199738 0.048851891747440382 0 -0.36485581069452189 0.048057973279375742 0 -0.37119345183321822 0.058853827639881867 0 -0.35367539322405089 0.052192583201526178 0 -0.36485581069452189 0.048057973279375742 0 -0.36174043644781612 0.059537200304905107 0 -0.36485581069452189 0.048057973279375742 0 -0.36174043644781612 0.059537200304905107 0 -0.37119345183321822 0.058853827639881867 0 -0.37201358599706058 0.070711840939253895 0 -0.36026946930678239 0.075913175113325196 0 -0.34707042967454638 0.066493871458924422 0 -0.37904886912469499 0.067110231928434197 0 -0.37119345183321822 0.058853827639881867 0 -0.37201358599706058 0.070711840939253895 0 -0.37201358599706058 0.070711840939253895 0 -0.34707042967454638 0.066493871458924422 0 -0.36174043644781612 0.059537200304905107 0 -0.37119345183321822 0.058853827639881867 0 -0.37201358599706058 0.070711840939253895 0 -0.36174043644781612 0.059537200304905107 0 -0.37201358599706058 0.070711840939253895 0 -0.34707042967454638 0.066493871458924422 0 -0.37201358599706058 0.070711840939253895 0 -0.36026946930678239 0.075913175113325196 0 -0.37016311523106599 0.083751267223082917 0 -0.38119130922167832 0.078766060501995444 0 -0.37201358599706058 0.070711840939253895 0 -0.37016311523106599 0.083751267223082917 0 -0.3419631627684111 0.054410778814259472 0 -0.34707042967454638 0.066493871458924422 0 -0.34344647427646718 0.082046728742321648 0 -0.36026946930678239 0.075913175113325196 0 -0.35274187612612162 0.077211514003190262 0 -0.34707042967454638 0.066493871458924422 0 -0.35274187612612162 0.077211514003190262 0 -0.34707042967454638 0.066493871458924422 0 -0.34344647427646718 0.082046728742321648 0 -0.35295667425925747 0.085123838591775802 0 -0.35001973748798287 0.095551702326820934 0 -0.34344647427646718 0.082046728742321648 0 -0.35274187612612162 0.077211514003190262 0 -0.35295667425925747 0.085123838591775802 0 -0.34344647427646718 0.082046728742321648 0 -0.35274187612612162 0.077211514003190262 0 -0.35295667425925747 0.085123838591775802 0 -0.35935833950511731 0.08139738194217451 0 -0.35295667425925747 0.085123838591775802 0 -0.35935833950511731 0.08139738194217451 0 -0.35921694390059838 0.089411865944371699 0 -0.36026946930678239 0.075913175113325196 0 -0.35274187612612162 0.077211514003190262 0 -0.35935833950511731 0.08139738194217451 0 -0.35295667425925747 0.085123838591775802 0 -0.35921694390059838 0.089411865944371699 0 -0.35001973748798287 0.095551702326820934 0 -0.35921694390059838 0.089411865944371699 0 -0.37016311523106599 0.083751267223082917 0 -0.36611800641667808 0.094109198156665408 0 -0.36026946930678239 0.075913175113325196 0 -0.35935833950511731 0.08139738194217451 0 -0.37016311523106599 0.083751267223082917 0 -0.35935833950511731 0.08139738194217451 0 -0.35921694390059838 0.089411865944371699 0 -0.37016311523106599 0.083751267223082917 0 -0.37643332436138899 0.09558572737664002 0 -0.37016311523106599 0.083751267223082917 0 -0.36611800641667808 0.094109198156665408 0 -0.37643332436138899 0.09558572737664002 0 -0.36831342086492491 0.1042920553550029 0 -0.36611800641667808 0.094109198156665408 0 -0.37896648635229202 0.10715504183998489 0 -0.37643332436138899 0.09558572737664002 0 -0.36831342086492491 0.1042920553550029 0 -0.36831342086492491 0.1042920553550029 0 -0.35948680904503588 0.10793893666500461 0 -0.35938862515943509 0.099383552161339872 0 -0.35921694390059838 0.089411865944371699 0 -0.35938862515943509 0.099383552161339872 0 -0.36611800641667808 0.094109198156665408 0 -0.36831342086492491 0.1042920553550029 0 -0.35938862515943509 0.099383552161339872 0 -0.36611800641667808 0.094109198156665408 0 -0.37896648635229202 0.10715504183998489 0 -0.36831342086492491 0.1042920553550029 0 -0.36716541190589658 0.118616890008602 0 -0.36831342086492491 0.1042920553550029 0 -0.35948680904503588 0.10793893666500461 0 -0.36716541190589658 0.118616890008602 0 -0.35948680904503588 0.10793893666500461 0 -0.36716541190589658 0.118616890008602 0 -0.35375916145188291 0.11350041634001019 0 -0.34641309729257957 0.13731862859844601 0 -0.34492978578452338 0.1096826786703838 0 -0.34641309729257957 0.13731862859844601 0 -0.35352278934268327 0.12307152153672141 0 -0.34492978578452338 0.1096826786703838 0 -0.36716541190589658 0.118616890008602 0 -0.35352278934268327 0.12307152153672141 0 -0.35375916145188291 0.11350041634001019 0 -0.35375916145188291 0.11350041634001019 0 -0.34492978578452338 0.1096826786703838 0 -0.35317683324139082 0.10499755452017361 0 -0.35352278934268327 0.12307152153672141 0 -0.35375916145188291 0.11350041634001019 0 -0.34492978578452338 0.1096826786703838 0 -0.34492978578452338 0.1096826786703838 0 -0.35001973748798287 0.095551702326820934 0 -0.34344647427646718 0.082046728742321648 0 -0.34492978578452338 0.1096826786703838 0 -0.34344647427646718 0.082046728742321648 0 -0.35921694390059838 0.089411865944371699 0 -0.35938862515943509 0.099383552161339872 0 -0.35001973748798287 0.095551702326820934 0 -0.35938862515943509 0.099383552161339872 0 -0.35317683324139082 0.10499755452017361 0 -0.35001973748798287 0.095551702326820934 0 -0.35948680904503588 0.10793893666500461 0 -0.35938862515943509 0.099383552161339872 0 -0.35317683324139082 0.10499755452017361 0 -0.35948680904503588 0.10793893666500461 0 -0.35375916145188291 0.11350041634001019 0 -0.35317683324139082 0.10499755452017361 0 -0.34492978578452338 0.1096826786703838 0 -0.35317683324139082 0.10499755452017361 0 -0.35001973748798287 0.095551702326820934 0 -0.33551248331249578 0.10757284200453231 0 -0.32636827877939262 0.096437598311714251 0 -0.33089007098043072 0.079233613187852742 0 -0.34492978578452338 0.1096826786703838 0 -0.33551248331249578 0.10757284200453231 0 -0.34344647427646718 0.082046728742321648 0 -0.34013489564456101 0.1359120708212119 0 -0.33551248331249578 0.10757284200453231 0 -0.33106980320980312 0.1246503866679774 0 -0.33551248331249578 0.10757284200453231 0 -0.33106980320980312 0.1246503866679774 0 -0.3276422557938925 0.11637059862038419 0 -0.34013489564456101 0.1359120708212119 0 -0.33551248331249578 0.10757284200453231 0 -0.34013489564456101 0.1359120708212119 0 -0.34492978578452338 0.1096826786703838 0 -0.33551248331249578 0.10757284200453231 0 -0.33551248331249578 0.10757284200453231 0 -0.3276422557938925 0.11637059862038419 0 -0.32202007013965611 0.108381668790018 0 -0.31115114737422961 0.1134627277541034 0 -0.32196666651361477 0.12487749701900901 0 -0.32202007013965611 0.108381668790018 0 -0.32196666651361477 0.12487749701900901 0 -0.3276422557938925 0.11637059862038419 0 -0.32202007013965611 0.108381668790018 0 -0.33106980320980312 0.1246503866679774 0 -0.32196666651361477 0.12487749701900901 0 -0.3276422557938925 0.11637059862038419 0 -0.30835875028686138 0.12836861128214669 0 -0.31115114737422961 0.1134627277541034 0 -0.32196666651361477 0.12487749701900901 0 -0.31115114737422961 0.1134627277541034 0 -0.32202007013965611 0.108381668790018 0 -0.31621893882499519 0.096173217231134644 0 -0.32636827877939262 0.096437598311714251 0 -0.32202007013965611 0.108381668790018 0 -0.31621893882499519 0.096173217231134644 0 -0.33551248331249578 0.10757284200453231 0 -0.32636827877939262 0.096437598311714251 0 -0.32202007013965611 0.108381668790018 0 -0.32636827877939262 0.096437598311714251 0 -0.3206518095107353 0.086423961441370711 0 -0.33089007098043072 0.079233613187852742 0 -0.3095990562077543 0.082833834969606807 0 -0.31621893882499519 0.096173217231134644 0 -0.3206518095107353 0.086423961441370711 0 -0.32636827877939262 0.096437598311714251 0 -0.31621893882499519 0.096173217231134644 0 -0.3206518095107353 0.086423961441370711 0 -0.3206518095107353 0.086423961441370711 0 -0.3195564285114475 0.078857552319276381 0 -0.33089007098043072 0.079233613187852742 0 -0.3095990562077543 0.082833834969606807 0 -0.3206518095107353 0.086423961441370711 0 -0.3195564285114475 0.078857552319276381 0 -0.3095990562077543 0.082833834969606807 0 -0.3195564285114475 0.078857552319276381 0 -0.31708477734686968 0.066938799678275263 0 -0.3262676586483656 0.050894384371173287 0 -0.31708477734686968 0.066938799678275263 0 -0.33089007098043072 0.079233613187852742 0 -0.3195564285114475 0.078857552319276381 0 -0.31708477734686968 0.066938799678275263 0 -0.33089007098043072 0.079233613187852742 0 -0.3262676586483656 0.050894384371173287 0 -0.33089007098043072 0.079233613187852742 0 -0.3419631627684111 0.054410778814259472 0 -0.34344647427646718 0.082046728742321648 0 -0.3419631627684111 0.054410778814259472 0 -0.34344647427646718 0.082046728742321648 0 -0.33089007098043072 0.079233613187852742 0 -0.33551248331249578 0.10757284200453231 0 -0.34344647427646718 0.082046728742321648 0 -0.33089007098043072 0.079233613187852742 0 -0.33551248331249578 0.10757284200453231 0 -0.33089007098043072 0.079233613187852742 0 -0.38413367002432852 0.48466820949397371 0 -0.39197467039505129 0.46611734068214988 0 -0.41460981883164078 0.48516798004791117 0 -0.3981750166650535 0.50000000000000056 0 -0.38413367002432852 0.48466820949397371 0 -0.41460981883164078 0.48516798004791117 0 -0.3981750166650535 0.50000000000000056 0 -0.38413367002432852 0.48466820949397371 0 -0.37107410569903487 0.5 0 -0.39197467039505129 0.46611734068214988 0 -0.36482960672615539 0.47476559140937902 0 -0.38413367002432852 0.48466820949397371 0 -0.39197467039505129 0.46611734068214988 0 -0.36580706476392733 0.47631646954851292 0 -0.38785270990024268 0.44600589254376838 0 -0.39197467039505129 0.46611734068214988 0 -0.37006527051019528 0.45259743283909409 0 -0.39197467039505129 0.46611734068214988 0 -0.37006527051019528 0.45259743283909409 0 -0.36482960672615539 0.47476559140937902 0 -0.38785270990024268 0.44600589254376838 0 -0.37388199021079188 0.43349662060099697 0 -0.37006527051019528 0.45259743283909409 0 -0.38785270990024268 0.44600589254376838 0 -0.40320620376676342 0.45007503942677379 0 -0.39595691431975 0.42995942871021692 0 -0.38785270990024268 0.44600589254376838 0 -0.40320620376676342 0.45007503942677379 0 -0.39197467039505129 0.46611734068214988 0 -0.40320620376676342 0.45007503942677379 0 -0.39197467039505129 0.46611734068214988 0 -0.41277096383307582 0.46532813801804862 0 -0.40320620376676342 0.45007503942677379 0 -0.42781315099835598 0.44205737320498029 0 -0.39595691431975 0.42995942871021692 0 -0.40320620376676342 0.45007503942677379 0 -0.41277096383307582 0.46532813801804862 0 -0.42781315099835598 0.44205737320498029 0 -0.42781315099835598 0.44205737320498029 0 -0.43466730821188831 0.46706657063262308 0 -0.44460389203804629 0.44806533343805571 0 -0.42781315099835598 0.44205737320498029 0 -0.4310446209982266 0.47033596009582029 0 -0.42781315099835598 0.44205737320498029 0 -0.43466730821188831 0.46706657063262308 0 -0.4310446209982266 0.47033596009582029 0 -0.41277096383307582 0.46532813801804862 0 -0.42781315099835598 0.44205737320498029 0 -0.4310446209982266 0.47033596009582029 0 -0.43466730821188831 0.46706657063262308 0 -0.4310446209982266 0.47033596009582029 0 -0.4310446209982266 0.47033596009582029 0 -0.43443441043131342 0.50000000000000755 0 -0.4447827686264566 0.47926022536349122 0 -0.4310446209982266 0.47033596009582029 0 -0.41460981883164078 0.48516798004791117 0 -0.4310446209982266 0.47033596009582029 0 -0.41460981883164078 0.48516798004791117 0 -0.42409839095234109 0.48887598503593521 0 -0.43466730821188831 0.46706657063262308 0 -0.4310446209982266 0.47033596009582029 0 -0.4447827686264566 0.47926022536349122 0 -0.39197467039505129 0.46611734068214988 0 -0.41277096383307582 0.46532813801804862 0 -0.41460981883164078 0.48516798004791117 0 -0.41277096383307582 0.46532813801804862 0 -0.4310446209982266 0.47033596009582029 0 -0.41460981883164078 0.48516798004791117 0 -0.3981750166650535 0.50000000000000056 0 -0.41460981883164078 0.48516798004791117 0 -0.3981750166650535 0.50000000000000056 0 -0.41460981883164078 0.48516798004791117 0 -0.41630471354818338 0.5 0 -0.41460981883164078 0.48516798004791117 0 -0.41630471354818338 0.5 0 -0.42409839095234109 0.48887598503593521 0 -0.41630471354818338 0.5 0 -0.43443441043131342 0.50000000000000755 0 -0.42409839095234109 0.48887598503593521 0 -0.4310446209982266 0.47033596009582029 0 -0.43443441043131342 0.50000000000000755 0 -0.4310446209982266 0.47033596009582029 0 -0.43443441043131342 0.50000000000000755 0 -0.42409839095234109 0.48887598503593521 0 -0.43443441043131342 0.50000000000000755 0 -0.4447827686264566 0.47926022536349122 0 -0.4595127163698095 0.50000000000000022 0 -0.5 0.5 0 -0.47335596745111108 0.44169355163120572 0 -0.5 0.40038011321019712 0 -0.43466730821188831 0.46706657063262308 0 -0.4447827686264566 0.47926022536349122 0 -0.44899911668232212 0.46303481381032341 0 -0.4447827686264566 0.47926022536349122 0 -0.46015144363500948 0.47359397987248231 0 -0.44899911668232212 0.46303481381032341 0 -0.4447827686264566 0.47926022536349122 0 -0.46015144363500948 0.47359397987248231 0 -0.4595127163698095 0.50000000000000022 0 -0.46015144363500948 0.47359397987248231 0 -0.4595127163698095 0.50000000000000022 0 -0.46015144363500948 0.47359397987248231 0 -0.4595127163698095 0.50000000000000022 0 -0.5 0.5 0 -0.46015144363500948 0.47359397987248231 0 -0.5 0.5 0 -0.47335596745111108 0.44169355163120572 0 -0.46015144363500948 0.47359397987248231 0 -0.47335596745111108 0.44169355163120572 0 -0.46079017090020952 0.44718795974496428 0 -0.46079017090020952 0.44718795974496428 0 -0.44460389203804629 0.44806533343805571 0 -0.45590269758544211 0.43346995798949911 0 -0.47335596745111108 0.44169355163120572 0 -0.46079017090020952 0.44718795974496428 0 -0.45590269758544211 0.43346995798949911 0 -0.46015144363500948 0.47359397987248231 0 -0.46079017090020952 0.44718795974496428 0 -0.44899911668232212 0.46303481381032341 0 -0.46015144363500948 0.47359397987248231 0 -0.46079017090020952 0.44718795974496428 0 -0.43466730821188831 0.46706657063262308 0 -0.44899911668232212 0.46303481381032341 0 -0.44460389203804629 0.44806533343805571 0 -0.42781315099835598 0.44205737320498029 0 -0.44460389203804629 0.44806533343805571 0 -0.44268906624812487 0.42665452579602331 0 -0.46079017090020952 0.44718795974496428 0 -0.44899911668232212 0.46303481381032341 0 -0.44460389203804629 0.44806533343805571 0 -0.44460389203804629 0.44806533343805571 0 -0.44268906624812487 0.42665452579602331 0 -0.45590269758544211 0.43346995798949911 0 -0.44268906624812487 0.42665452579602331 0 -0.45186506472241439 0.42144574071262142 0 -0.45590269758544211 0.43346995798949911 0 -0.44268906624812487 0.42665452579602331 0 -0.45186506472241439 0.42144574071262142 0 -0.44576315445017062 0.40546276927260178 0 -0.44268906624812487 0.42665452579602331 0 -0.44576315445017062 0.40546276927260178 0 -0.42458168099848842 0.41377878631413989 0 -0.46310534060592018 0.42019570979236182 0 -0.47346151536459102 0.41731684507507272 0 -0.46374026742882618 0.39151162716981691 0 -0.45186506472241439 0.42144574071262142 0 -0.46310534060592018 0.42019570979236182 0 -0.44576315445017062 0.40546276927260178 0 -0.47335596745111108 0.44169355163120572 0 -0.46310534060592018 0.42019570979236182 0 -0.45590269758544211 0.43346995798949911 0 -0.45186506472241439 0.42144574071262142 0 -0.46310534060592018 0.42019570979236182 0 -0.45590269758544211 0.43346995798949911 0 -0.47335596745111108 0.44169355163120572 0 -0.46310534060592018 0.42019570979236182 0 -0.47346151536459102 0.41731684507507272 0 -0.47335596745111108 0.44169355163120572 0 -0.47346151536459102 0.41731684507507272 0 -0.5 0.40038011321019712 0 -0.47346151536459102 0.41731684507507272 0 -0.5 0.40038011321019712 0 -0.47533567507008778 0.39330498401591851 0 -0.47346151536459102 0.41731684507507272 0 -0.47533567507008778 0.39330498401591851 0 -0.47346151536459102 0.41731684507507272 0 -0.47533567507008778 0.39330498401591851 0 -0.46374026742882618 0.39151162716981691 0 -0.5 0.40038011321019712 0 -0.47533567507008778 0.39330498401591851 0 -0.47720983477558448 0.36929312295676431 0 -0.47533567507008778 0.39330498401591851 0 -0.47720983477558448 0.36929312295676431 0 -0.47533567507008778 0.39330498401591851 0 -0.46374026742882618 0.39151162716981691 0 -0.47720983477558448 0.36929312295676431 0 -0.46374026742882618 0.39151162716981691 0 -0.45297946443592813 0.37787116286410599 0 -0.46437519425173218 0.36282754454727217 0 -0.46374026742882618 0.39151162716981691 0 -0.45297946443592813 0.37787116286410599 0 -0.44807155782876301 0.39051600802545461 0 -0.46374026742882618 0.39151162716981691 0 -0.46437519425173218 0.36282754454727217 0 -0.46310534060592018 0.42019570979236182 0 -0.46374026742882618 0.39151162716981691 0 -0.46310534060592018 0.42019570979236182 0 -0.46374026742882618 0.39151162716981691 0 -0.44576315445017062 0.40546276927260178 0 -0.46374026742882618 0.39151162716981691 0 -0.44576315445017062 0.40546276927260178 0 -0.44807155782876301 0.39051600802545461 0 -0.44576315445017062 0.40546276927260178 0 -0.44807155782876301 0.39051600802545461 0 -0.43603237714897469 0.39502180629923989 0 -0.45297946443592813 0.37787116286410599 0 -0.44807155782876301 0.39051600802545461 0 -0.44039528146883089 0.37985126846070372 0 -0.44807155782876301 0.39051600802545461 0 -0.44039528146883089 0.37985126846070372 0 -0.43603237714897469 0.39502180629923989 0 -0.44039528146883089 0.37985126846070372 0 -0.42135021099862069 0.38550019942329938 0 -0.43603237714897469 0.39502180629923989 0 -0.44039528146883089 0.37985126846070372 0 -0.42135021099862069 0.38550019942329938 0 -0.43330693618304927 0.36743111704715392 0 -0.42135021099862069 0.38550019942329938 0 -0.3928737426436214 0.38288862872844909 0 -0.41811874099875312 0.35722161253245888 0 -0.42135021099862069 0.38550019942329938 0 -0.42458168099848842 0.41377878631413989 0 -0.40302940150938782 0.40252809503019821 0 -0.44576315445017062 0.40546276927260178 0 -0.43603237714897469 0.39502180629923989 0 -0.42458168099848842 0.41377878631413989 0 -0.42135021099862069 0.38550019942329938 0 -0.42458168099848842 0.41377878631413989 0 -0.42135021099862069 0.38550019942329938 0 -0.43603237714897469 0.39502180629923989 0 -0.42458168099848842 0.41377878631413989 0 -0.42781315099835598 0.44205737320498029 0 -0.42458168099848842 0.41377878631413989 0 -0.39595691431975 0.42995942871021692 0 -0.42781315099835598 0.44205737320498029 0 -0.44268906624812487 0.42665452579602331 0 -0.42458168099848842 0.41377878631413989 0 -0.42781315099835598 0.44205737320498029 0 -0.42458168099848842 0.41377878631413989 0 -0.42458168099848842 0.41377878631413989 0 -0.39595691431975 0.42995942871021692 0 -0.40302940150938782 0.40252809503019821 0 -0.39595691431975 0.42995942871021692 0 -0.38133644129271771 0.41060795377957438 0 -0.40302940150938782 0.40252809503019821 0 -0.39595691431975 0.42995942871021692 0 -0.38133644129271771 0.41060795377957438 0 -0.37388199021079188 0.43349662060099697 0 -0.38785270990024268 0.44600589254376838 0 -0.39595691431975 0.42995942871021692 0 -0.37388199021079188 0.43349662060099697 0 -0.39595691431975 0.42995942871021692 0 -0.38133644129271771 0.41060795377957438 0 -0.38133644129271771 0.41060795377957438 0 -0.3928737426436214 0.38288862872844909 0 -0.36671596826568531 0.39125647884893172 0 -0.3928737426436214 0.38288862872844909 0 -0.37126589511329411 0.37377724987418581 0 -0.36671596826568531 0.39125647884893172 0 -0.42135021099862069 0.38550019942329938 0 -0.3928737426436214 0.38288862872844909 0 -0.40302940150938782 0.40252809503019821 0 -0.38133644129271771 0.41060795377957438 0 -0.3928737426436214 0.38288862872844909 0 -0.40302940150938782 0.40252809503019821 0 -0.39068435811404417 0.36093702398180222 0 -0.39395667907880888 0.34326368506717603 0 -0.41811874099875312 0.35722161253245888 0 -0.3928737426436214 0.38288862872844909 0 -0.39068435811404417 0.36093702398180222 0 -0.41811874099875312 0.35722161253245888 0 -0.3928737426436214 0.38288862872844909 0 -0.39068435811404417 0.36093702398180222 0 -0.37126589511329411 0.37377724987418581 0 -0.39068435811404417 0.36093702398180222 0 -0.37302608715873109 0.35758434449273291 0 -0.37126589511329411 0.37377724987418581 0 -0.39395667907880888 0.34326368506717603 0 -0.37302608715873109 0.35758434449273291 0 -0.39068435811404417 0.36093702398180222 0 -0.39395667907880888 0.34326368506717603 0 -0.37302608715873109 0.35758434449273291 0 -0.37563375498023588 0.33893957100260502 0 -0.39395667907880888 0.34326368506717603 0 -0.37302608715873109 0.35758434449273291 0 -0.37563375498023588 0.33893957100260502 0 -0.3809584867257152 0.31995934924364311 0 -0.39395667907880888 0.34326368506717603 0 -0.3809584867257152 0.31995934924364311 0 -0.40019053093036899 0.31727751782089808 0 -0.39395667907880888 0.34326368506717603 0 -0.40019053093036899 0.31727751782089808 0 -0.39395667907880888 0.34326368506717603 0 -0.414887270998886 0.32894302564161831 0 -0.39395667907880888 0.34326368506717603 0 -0.414887270998886 0.32894302564161831 0 -0.414887270998886 0.32894302564161831 0 -0.41811874099875312 0.35722161253245888 0 -0.39395667907880888 0.34326368506717603 0 -0.414887270998886 0.32894302564161831 0 -0.41811874099875312 0.35722161253245888 0 -0.414887270998886 0.32894302564161831 0 -0.4287524947490482 0.33739992334137159 0 -0.41811874099875312 0.35722161253245888 0 -0.414887270998886 0.32894302564161831 0 -0.42784370751339318 0.3200782636988328 0 -0.41182569378737999 0.30215117016961263 0 -0.414887270998886 0.32894302564161831 0 -0.41182569378737999 0.30215117016961263 0 -0.40019053093036899 0.31727751782089808 0 -0.414887270998886 0.32894302564161831 0 -0.41182569378737999 0.30215117016961263 0 -0.414887270998886 0.32894302564161831 0 -0.42784370751339318 0.3200782636988328 0 -0.42784370751339318 0.3200782636988328 0 -0.44080014402789969 0.3112135017560464 0 -0.414887270998886 0.32894302564161831 0 -0.42784370751339318 0.3200782636988328 0 -0.4287524947490482 0.33739992334137159 0 -0.42784370751339318 0.3200782636988328 0 -0.4287524947490482 0.33739992334137159 0 -0.44455732798665581 0.33082357613192309 0 -0.4287524947490482 0.33739992334137159 0 -0.43835542624755341 0.34993313870202492 0 -0.44455732798665581 0.33082357613192309 0 -0.4287524947490482 0.33739992334137159 0 -0.41811874099875312 0.35722161253245888 0 -0.43835542624755341 0.34993313870202492 0 -0.41811874099875312 0.35722161253245888 0 -0.43330693618304927 0.36743111704715392 0 -0.43835542624755341 0.34993313870202492 0 -0.42135021099862069 0.38550019942329938 0 -0.41811874099875312 0.35722161253245888 0 -0.42135021099862069 0.38550019942329938 0 -0.41811874099875312 0.35722161253245888 0 -0.43330693618304927 0.36743111704715392 0 -0.44039528146883089 0.37985126846070372 0 -0.43330693618304927 0.36743111704715392 0 -0.44831502120148831 0.36464936611728249 0 -0.5 0.40038011321019712 0 -0.47720983477558448 0.36929312295676431 0 -0.5 0.32588146503443682 0 -0.43330693618304927 0.36743111704715392 0 -0.44831502120148831 0.36464936611728249 0 -0.43835542624755341 0.34993313870202492 0 -0.45297946443592813 0.37787116286410599 0 -0.44039528146883089 0.37985126846070372 0 -0.44831502120148831 0.36464936611728249 0 -0.44831502120148831 0.36464936611728249 0 -0.45212261815241361 0.34847541748464589 0 -0.43835542624755341 0.34993313870202492 0 -0.46437519425173218 0.36282754454727217 0 -0.46501012107463818 0.3341434619247271 0 -0.45212261815241361 0.34847541748464589 0 -0.46437519425173218 0.36282754454727217 0 -0.46501012107463818 0.3341434619247271 0 -0.44831502120148831 0.36464936611728249 0 -0.45212261815241361 0.34847541748464589 0 -0.46437519425173218 0.36282754454727217 0 -0.45297946443592813 0.37787116286410599 0 -0.44831502120148831 0.36464936611728249 0 -0.46437519425173218 0.36282754454727217 0 -0.46374026742882618 0.39151162716981691 0 -0.46437519425173218 0.36282754454727217 0 -0.47720983477558448 0.36929312295676431 0 -0.47720983477558448 0.36929312295676431 0 -0.4790839944810813 0.34528126189761021 0 -0.5 0.32588146503443682 0 -0.46437519425173218 0.36282754454727217 0 -0.47720983477558448 0.36929312295676431 0 -0.4790839944810813 0.34528126189761021 0 -0.46437519425173218 0.36282754454727217 0 -0.4790839944810813 0.34528126189761021 0 -0.46501012107463818 0.3341434619247271 0 -0.47720983477558448 0.36929312295676431 0 -0.4790839944810813 0.34528126189761021 0 -0.5 0.32588146503443682 0 -0.48095815418657811 0.32126940083845601 0 -0.48438341280173691 0.2990237851864897 0 -0.4790839944810813 0.34528126189761021 0 -0.5 0.32588146503443682 0 -0.48095815418657811 0.32126940083845601 0 -0.4790839944810813 0.34528126189761021 0 -0.48095815418657811 0.32126940083845601 0 -0.4790839944810813 0.34528126189761021 0 -0.48095815418657811 0.32126940083845601 0 -0.46501012107463818 0.3341434619247271 0 -0.48095815418657811 0.32126940083845601 0 -0.46501012107463818 0.3341434619247271 0 -0.46564504789754418 0.30545937930218209 0 -0.46501012107463818 0.3341434619247271 0 -0.46564504789754418 0.30545937930218209 0 -0.45334860311094782 0.31584311053598302 0 -0.46501012107463818 0.3341434619247271 0 -0.44455732798665581 0.33082357613192309 0 -0.45334860311094782 0.31584311053598302 0 -0.46501012107463818 0.3341434619247271 0 -0.46564504789754418 0.30545937930218209 0 -0.45212261815241361 0.34847541748464589 0 -0.46501012107463818 0.3341434619247271 0 -0.44455732798665581 0.33082357613192309 0 -0.45212261815241361 0.34847541748464589 0 -0.43835542624755341 0.34993313870202492 0 -0.44455732798665581 0.33082357613192309 0 -0.45334860311094782 0.31584311053598302 0 -0.44455732798665581 0.33082357613192309 0 -0.44080014402789969 0.3112135017560464 0 -0.42784370751339318 0.3200782636988328 0 -0.44455732798665581 0.33082357613192309 0 -0.44080014402789969 0.3112135017560464 0 -0.45334860311094782 0.31584311053598302 0 -0.44080014402789969 0.3112135017560464 0 -0.45212090372732222 0.29751224224269018 0 -0.44080014402789969 0.3112135017560464 0 -0.45212090372732222 0.29751224224269018 0 -0.43098419661848369 0.29848737705662681 0 -0.45212090372732222 0.29751224224269018 0 -0.44106680473088589 0.27968718865599468 0 -0.43098419661848369 0.29848737705662681 0 -0.45212090372732222 0.29751224224269018 0 -0.46878861662768212 0.293945894508436 0 -0.46620416538631942 0.27832296974934079 0 -0.45212090372732222 0.29751224224269018 0 -0.46620416538631942 0.27832296974934079 0 -0.44106680473088589 0.27968718865599468 0 -0.45334860311094782 0.31584311053598302 0 -0.45212090372732222 0.29751224224269018 0 -0.46564504789754418 0.30545937930218209 0 -0.45212090372732222 0.29751224224269018 0 -0.46564504789754418 0.30545937930218209 0 -0.46878861662768212 0.293945894508436 0 -0.48095815418657811 0.32126940083845601 0 -0.46564504789754418 0.30545937930218209 0 -0.47422271850004488 0.30257989257828583 0 -0.48095815418657811 0.32126940083845601 0 -0.48283231389207593 0.29725753977930192 0 -0.48095815418657811 0.32126940083845601 0 -0.48283231389207593 0.29725753977930192 0 -0.48438341280173691 0.2990237851864897 0 -0.48095815418657811 0.32126940083845601 0 -0.48283231389207593 0.29725753977930192 0 -0.47422271850004488 0.30257989257828583 0 -0.5 0.32588146503443682 0 -0.48438341280173691 0.2990237851864897 0 -0.5 0.27058277969487637 0 -0.48283231389207593 0.29725753977930192 0 -0.48438341280173691 0.2990237851864897 0 -0.48283231389207593 0.29725753977930192 0 -0.47422271850004488 0.30257989257828583 0 -0.46878861662768212 0.293945894508436 0 -0.46564504789754418 0.30545937930218209 0 -0.47422271850004488 0.30257989257828583 0 -0.46878861662768212 0.293945894508436 0 -0.48283231389207593 0.29725753977930192 0 -0.46620416538631942 0.27832296974934079 0 -0.4832665619079245 0.29169392479429618 0 -0.48272378290968532 0.2745465744653578 0 -0.46620416538631942 0.27832296974934079 0 -0.48283231389207593 0.29725753977930192 0 -0.46878861662768212 0.293945894508436 0 -0.46620416538631942 0.27832296974934079 0 -0.48283231389207593 0.29725753977930192 0 -0.4832665619079245 0.29169392479429618 0 -0.46620416538631942 0.27832296974934079 0 -0.48283231389207593 0.29725753977930192 0 -0.4832665619079245 0.29169392479429618 0 -0.48438341280173691 0.2990237851864897 0 -0.48283231389207593 0.29725753977930192 0 -0.4832665619079245 0.29169392479429618 0 -0.4832665619079245 0.29169392479429618 0 -0.48438341280173691 0.2990237851864897 0 -0.5 0.27058277969487637 0 -0.48510068849613291 0.2464952989699998 0 -0.5 0.27058277969487637 0 -0.47736829551405641 0.25971614189080378 0 -0.4832665619079245 0.29169392479429618 0 -0.5 0.27058277969487637 0 -0.48272378290968532 0.2745465744653578 0 -0.5 0.27058277969487637 0 -0.48272378290968532 0.2745465744653578 0 -0.47736829551405641 0.25971614189080378 0 -0.48272378290968532 0.2745465744653578 0 -0.47736829551405641 0.25971614189080378 0 -0.46620416538631942 0.27832296974934079 0 -0.48510068849613291 0.2464952989699998 0 -0.4662317729600568 0.24711617116125539 0 -0.47736829551405641 0.25971614189080378 0 -0.4662317729600568 0.24711617116125539 0 -0.47736829551405641 0.25971614189080378 0 -0.44957601688056159 0.25938839971938082 0 -0.47736829551405641 0.25971614189080378 0 -0.46620416538631942 0.27832296974934079 0 -0.44957601688056159 0.25938839971938082 0 -0.46620416538631942 0.27832296974934079 0 -0.44957601688056159 0.25938839971938082 0 -0.46620416538631942 0.27832296974934079 0 -0.44106680473088589 0.27968718865599468 0 -0.44957601688056159 0.25938839971938082 0 -0.44106680473088589 0.27968718865599468 0 -0.44957601688056159 0.25938839971938082 0 -0.42702456861835142 0.26373592368695459 0 -0.43294786837480398 0.2404538296894207 0 -0.44957601688056159 0.25938839971938082 0 -0.42702456861835142 0.26373592368695459 0 -0.43294786837480398 0.2404538296894207 0 -0.40570253936436479 0.24856745922560119 0 -0.42702456861835142 0.26373592368695459 0 -0.40570253936436479 0.24856745922560119 0 -0.40876411657587441 0.27535931469760672 0 -0.40570253936436479 0.24856745922560119 0 -0.42702456861835142 0.26373592368695459 0 -0.40876411657587441 0.27535931469760672 0 -0.42702456861835142 0.26373592368695459 0 -0.40876411657587441 0.27535931469760672 0 -0.42393307606619501 0.28388419485335897 0 -0.44106680473088589 0.27968718865599468 0 -0.42702456861835142 0.26373592368695459 0 -0.42393307606619501 0.28388419485335897 0 -0.44106680473088589 0.27968718865599468 0 -0.42393307606619501 0.28388419485335897 0 -0.43098419661848369 0.29848737705662681 0 -0.42393307606619501 0.28388419485335897 0 -0.43098419661848369 0.29848737705662681 0 -0.41182569378737999 0.30215117016961263 0 -0.42784370751339318 0.3200782636988328 0 -0.44080014402789969 0.3112135017560464 0 -0.43098419661848369 0.29848737705662681 0 -0.42784370751339318 0.3200782636988328 0 -0.43098419661848369 0.29848737705662681 0 -0.41182569378737999 0.30215117016961263 0 -0.40876411657587441 0.27535931469760672 0 -0.42393307606619501 0.28388419485335897 0 -0.41182569378737999 0.30215117016961263 0 -0.40876411657587441 0.27535931469760672 0 -0.41182569378737999 0.30215117016961263 0 -0.40876411657587441 0.27535931469760672 0 -0.41182569378737999 0.30215117016961263 0 -0.38942632587964537 0.29641120061531351 0 -0.40876411657587441 0.27535931469760672 0 -0.38942632587964537 0.29641120061531351 0 -0.38778179087320769 0.27529621765694001 0 -0.40019053093036899 0.31727751782089808 0 -0.41182569378737999 0.30215117016961263 0 -0.38942632587964537 0.29641120061531351 0 -0.3809584867257152 0.31995934924364311 0 -0.38942632587964537 0.29641120061531351 0 -0.36990774782730562 0.30465198401604282 0 -0.3809584867257152 0.31995934924364311 0 -0.40019053093036899 0.31727751782089808 0 -0.38942632587964537 0.29641120061531351 0 -0.38942632587964537 0.29641120061531351 0 -0.38778179087320769 0.27529621765694001 0 -0.37124129201382 0.2841753332327091 0 -0.38942632587964537 0.29641120061531351 0 -0.37124129201382 0.2841753332327091 0 -0.36990774782730562 0.30465198401604282 0 -0.38778179087320769 0.27529621765694001 0 -0.37230359566927929 0.26610576231553251 0 -0.37124129201382 0.2841753332327091 0 -0.38778179087320769 0.27529621765694001 0 -0.38900306751682168 0.25733661077056619 0 -0.37230359566927929 0.26610576231553251 0 -0.38900306751682168 0.25733661077056619 0 -0.37230359566927929 0.26610576231553251 0 -0.37675611103540763 0.25409865512553548 0 -0.38900306751682168 0.25733661077056619 0 -0.37230359566927929 0.26610576231553251 0 -0.38455494932564349 0.24416718140159829 0 -0.37675611103540763 0.25409865512553548 0 -0.38900306751682168 0.25733661077056619 0 -0.40570253936436479 0.24856745922560119 0 -0.40876411657587441 0.27535931469760672 0 -0.38900306751682168 0.25733661077056619 0 -0.40570253936436479 0.24856745922560119 0 -0.38900306751682168 0.25733661077056619 0 -0.40876411657587441 0.27535931469760672 0 -0.38778179087320769 0.27529621765694001 0 -0.38900306751682168 0.25733661077056619 0 -0.35344375069401829 0.26830850112922933 0 -0.35479842748912699 0.29354782535411539 0 -0.33783775680192157 0.27023153782616838 0 -0.35344375069401829 0.26830850112922933 0 -0.35479842748912699 0.29354782535411539 0 -0.35926376548055328 0.2486735779402334 0 -0.35208907389890948 0.24306917690434299 0 -0.35344375069401829 0.26830850112922933 0 -0.35208907389890948 0.24306917690434299 0 -0.35344375069401829 0.26830850112922933 0 -0.34142207509263922 0.25572960106260723 0 -0.35208907389890948 0.24306917690434299 0 -0.35344375069401829 0.26830850112922933 0 -0.35344375069401829 0.26830850112922933 0 -0.33783775680192157 0.27023153782616838 0 -0.34142207509263922 0.25572960106260723 0 -0.35344375069401829 0.26830850112922933 0 -0.36723308052532222 0.25309369692869038 0 -0.37230359566927929 0.26610576231553251 0 -0.35926376548055328 0.2486735779402334 0 -0.35344375069401829 0.26830850112922933 0 -0.36723308052532222 0.25309369692869038 0 -0.37552267705158737 0.2431978490864326 0 -0.37675611103540763 0.25409865512553548 0 -0.36723308052532222 0.25309369692869038 0 -0.37675611103540763 0.25409865512553548 0 -0.36723308052532222 0.25309369692869038 0 -0.37230359566927929 0.26610576231553251 0 -0.35344375069401829 0.26830850112922933 0 -0.37230359566927929 0.26610576231553251 0 -0.37124129201382 0.2841753332327091 0 -0.37124129201382 0.2841753332327091 0 -0.36990774782730562 0.30465198401604282 0 -0.35479842748912699 0.29354782535411539 0 -0.35344375069401829 0.26830850112922933 0 -0.37124129201382 0.2841753332327091 0 -0.35479842748912699 0.29354782535411539 0 -0.36990774782730562 0.30465198401604282 0 -0.35479842748912699 0.29354782535411539 0 -0.35615310428423591 0.31878714957900162 0 -0.35479842748912699 0.29354782535411539 0 -0.35615310428423591 0.31878714957900162 0 -0.35479842748912699 0.29354782535411539 0 -0.33790089425573833 0.30106400074382289 0 -0.35615310428423591 0.31878714957900162 0 -0.35479842748912699 0.29354782535411539 0 -0.32994760687178648 0.28429515218691809 0 -0.33783775680192157 0.27023153782616838 0 -0.35479842748912699 0.29354782535411539 0 -0.32994760687178648 0.28429515218691809 0 -0.33790089425573833 0.30106400074382289 0 -0.33790089425573833 0.30106400074382289 0 -0.31376474629655843 0.30225304786416751 0 -0.33257481532433891 0.31836647764434117 0 -0.32994760687178648 0.28429515218691809 0 -0.33790089425573833 0.30106400074382289 0 -0.31376474629655843 0.30225304786416751 0 -0.32994760687178648 0.28429515218691809 0 -0.31376474629655843 0.30225304786416751 0 -0.30745975664346697 0.28108303278283259 0 -0.32994760687178648 0.28429515218691809 0 -0.32025265357816562 0.27050697347699348 0 -0.30745975664346697 0.28108303278283259 0 -0.32994760687178648 0.28429515218691809 0 -0.32025265357816562 0.27050697347699348 0 -0.33783775680192157 0.27023153782616838 0 -0.33783775680192157 0.27023153782616838 0 -0.34142207509263922 0.25572960106260723 0 -0.32493898666941562 0.25370598596143412 0 -0.33787454055877381 0.24529314191448051 0 -0.34142207509263922 0.25572960106260723 0 -0.32493898666941562 0.25370598596143412 0 -0.32025265357816562 0.27050697347699348 0 -0.32493898666941562 0.25370598596143412 0 -0.3017176885818823 0.26220574059556451 0 -0.32025265357816562 0.27050697347699348 0 -0.33783775680192157 0.27023153782616838 0 -0.32493898666941562 0.25370598596143412 0 -0.28392805579818597 0.24584677119781029 0 -0.30659471691689572 0.242716670786389 0 -0.3017176885818823 0.26220574059556451 0 -0.30659471691689572 0.242716670786389 0 -0.32493898666941562 0.25370598596143412 0 -0.3017176885818823 0.26220574059556451 0 -0.32025265357816562 0.27050697347699348 0 -0.3017176885818823 0.26220574059556451 0 -0.30745975664346697 0.28108303278283259 0 -0.3017176885818823 0.26220574059556451 0 -0.30745975664346697 0.28108303278283259 0 -0.28581088023419748 0.27213864639403801 0 -0.28392805579818597 0.24584677119781029 0 -0.3017176885818823 0.26220574059556451 0 -0.28392805579818597 0.24584677119781029 0 -0.3017176885818823 0.26220574059556451 0 -0.28581088023419748 0.27213864639403801 0 -0.28392805579818597 0.24584677119781029 0 -0.28581088023419748 0.27213864639403801 0 -0.26655259030946182 0.26726307071448002 0 -0.28392805579818597 0.24584677119781029 0 -0.26514282027817931 0.24842266601513599 0 -0.26655259030946182 0.26726307071448002 0 -0.28581088023419748 0.27213864639403801 0 -0.26655259030946182 0.26726307071448002 0 -0.26709784128719349 0.28662765883125513 0 -0.26655259030946182 0.26726307071448002 0 -0.26709784128719349 0.28662765883125513 0 -0.24190471242523851 0.27972751922608308 0 -0.26655259030946182 0.26726307071448002 0 -0.24943129659764751 0.26000894523212309 0 -0.24190471242523851 0.27972751922608308 0 -0.26514282027817931 0.24842266601513599 0 -0.26655259030946182 0.26726307071448002 0 -0.24943129659764751 0.26000894523212309 0 -0.26514282027817931 0.24842266601513599 0 -0.24943129659764751 0.26000894523212309 0 -0.2468893326351202 0.24329134098969171 0 -0.25616918259472732 0.30236015827283808 0 -0.26709784128719349 0.28662765883125513 0 -0.24190471242523851 0.27972751922608308 0 -0.28581088023419748 0.27213864639403801 0 -0.26709784128719349 0.28662765883125513 0 -0.29016097772449478 0.2935014559625142 0 -0.26709784128719349 0.28662765883125513 0 -0.27491611994182802 0.30516871221215541 0 -0.29016097772449478 0.2935014559625142 0 -0.25616918259472732 0.30236015827283808 0 -0.27491611994182802 0.30516871221215541 0 -0.27043365276421599 0.32499279731959319 0 -0.25616918259472732 0.30236015827283808 0 -0.26709784128719349 0.28662765883125513 0 -0.27491611994182802 0.30516871221215541 0 -0.27491611994182802 0.30516871221215541 0 -0.29016097772449478 0.2935014559625142 0 -0.29169578744288521 0.31398791816734961 0 -0.30745975664346697 0.28108303278283259 0 -0.28581088023419748 0.27213864639403801 0 -0.29016097772449478 0.2935014559625142 0 -0.31376474629655843 0.30225304786416751 0 -0.30745975664346697 0.28108303278283259 0 -0.29016097772449478 0.2935014559625142 0 -0.31376474629655843 0.30225304786416751 0 -0.29016097772449478 0.2935014559625142 0 -0.29169578744288521 0.31398791816734961 0 -0.31376474629655843 0.30225304786416751 0 -0.31074538478735791 0.32738191455196902 0 -0.29169578744288521 0.31398791816734961 0 -0.31074538478735791 0.32738191455196902 0 -0.29170910681836448 0.3316805874579164 0 -0.29169578744288521 0.31398791816734961 0 -0.31074538478735791 0.32738191455196902 0 -0.30097258616365841 0.34441487088432199 0 -0.31556783578130437 0.34561409599239279 0 -0.31074538478735791 0.32738191455196902 0 -0.29170910681836448 0.3316805874579164 0 -0.30097258616365841 0.34441487088432199 0 -0.29170910681836448 0.3316805874579164 0 -0.28469812293370489 0.34762543636634829 0 -0.30097258616365841 0.34441487088432199 0 -0.29170910681836448 0.3316805874579164 0 -0.27043365276421599 0.32499279731959319 0 -0.28469812293370489 0.34762543636634829 0 -0.29170910681836448 0.3316805874579164 0 -0.29169578744288521 0.31398791816734961 0 -0.27043365276421599 0.32499279731959319 0 -0.27491611994182802 0.30516871221215541 0 -0.29169578744288521 0.31398791816734961 0 -0.27043365276421599 0.32499279731959319 0 -0.27043365276421599 0.32499279731959319 0 -0.26243222306204511 0.35090504016953772 0 -0.28469812293370489 0.34762543636634829 0 -0.27043365276421599 0.32499279731959319 0 -0.28469812293370489 0.34762543636634829 0 -0.27043365276421599 0.32499279731959319 0 -0.25002058798003007 0.3320526588471332 0 -0.26243222306204511 0.35090504016953772 0 -0.25616918259472732 0.30236015827283808 0 -0.27043365276421599 0.32499279731959319 0 -0.25616918259472732 0.30236015827283808 0 -0.27043365276421599 0.32499279731959319 0 -0.25002058798003007 0.3320526588471332 0 -0.25717133997193298 0.37426095615225607 0 -0.26243222306204511 0.35090504016953772 0 -0.27169383631612543 0.36953364855257259 0 -0.25717133997193298 0.37426095615225607 0 -0.26243222306204511 0.35090504016953772 0 -0.24481421723968019 0.36490975255658048 0 -0.27524778858216448 0.35766291394235578 0 -0.28324842690769031 0.36508823660180101 0 -0.28469812293370489 0.34762543636634829 0 -0.26243222306204511 0.35090504016953772 0 -0.27524778858216448 0.35766291394235578 0 -0.27169383631612543 0.36953364855257259 0 -0.26243222306204511 0.35090504016953772 0 -0.27524778858216448 0.35766291394235578 0 -0.28469812293370489 0.34762543636634829 0 -0.27524778858216448 0.35766291394235578 0 -0.27169383631612543 0.36953364855257259 0 -0.28324842690769031 0.36508823660180101 0 -0.27169383631612543 0.36953364855257259 0 -0.28324842690769031 0.36508823660180101 0 -0.28209338532393202 0.38222600668133688 0 -0.28324842690769031 0.36508823660180101 0 -0.28469812293370489 0.34762543636634829 0 -0.29896259310319367 0.37025807541310352 0 -0.28324842690769031 0.36508823660180101 0 -0.29896259310319367 0.37025807541310352 0 -0.28209338532393202 0.38222600668133688 0 -0.28469812293370489 0.34762543636634829 0 -0.29896259310319367 0.37025807541310352 0 -0.28469812293370489 0.34762543636634829 0 -0.30097258616365841 0.34441487088432199 0 -0.29896259310319367 0.37025807541310352 0 -0.30097258616365841 0.34441487088432199 0 -0.30971140611047582 0.35873879640362499 0 -0.29896259310319367 0.37025807541310352 0 -0.30097258616365841 0.34441487088432199 0 -0.29896259310319367 0.37025807541310352 0 -0.30097258616365841 0.34441487088432199 0 -0.30971140611047582 0.35873879640362499 0 -0.31556783578130437 0.34561409599239279 0 -0.30971140611047582 0.35873879640362499 0 -0.29896259310319367 0.37025807541310352 0 -0.31229554397435733 0.37005867265250031 0 -0.29896259310319367 0.37025807541310352 0 -0.31229554397435733 0.37005867265250031 0 -0.30732872976294823 0.38353215772995369 0 -0.31229554397435733 0.37005867265250031 0 -0.32118050234516199 0.36201264788746418 0 -0.32091897818789411 0.37757395005697603 0 -0.30971140611047582 0.35873879640362499 0 -0.31229554397435733 0.37005867265250031 0 -0.32118050234516199 0.36201264788746418 0 -0.32118050234516199 0.36201264788746418 0 -0.33508210951592582 0.36870163953731322 0 -0.32091897818789411 0.37757395005697603 0 -0.33508210951592582 0.36870163953731322 0 -0.35209549523865291 0.37190500391828912 0 -0.33393211710626841 0.38433234248782061 0 -0.32118050234516199 0.36201264788746418 0 -0.33508210951592582 0.36870163953731322 0 -0.33321476088078839 0.35466849371962073 0 -0.33508210951592582 0.36870163953731322 0 -0.33321476088078839 0.35466849371962073 0 -0.34577529297467657 0.36353966338233001 0 -0.33321476088078839 0.35466849371962073 0 -0.34577529297467657 0.36353966338233001 0 -0.34447532111727192 0.34884924989517158 0 -0.33321476088078839 0.35466849371962073 0 -0.33003563329740881 0.33925758124412497 0 -0.34447532111727192 0.34884924989517158 0 -0.32118050234516199 0.36201264788746418 0 -0.33321476088078839 0.35466849371962073 0 -0.31556783578130437 0.34561409599239279 0 -0.30971140611047582 0.35873879640362499 0 -0.32118050234516199 0.36201264788746418 0 -0.31556783578130437 0.34561409599239279 0 -0.33321476088078839 0.35466849371962073 0 -0.31556783578130437 0.34561409599239279 0 -0.33003563329740881 0.33925758124412497 0 -0.31074538478735791 0.32738191455196902 0 -0.33257481532433891 0.31836647764434117 0 -0.33003563329740881 0.33925758124412497 0 -0.31074538478735791 0.32738191455196902 0 -0.31556783578130437 0.34561409599239279 0 -0.33003563329740881 0.33925758124412497 0 -0.31376474629655843 0.30225304786416751 0 -0.31074538478735791 0.32738191455196902 0 -0.33257481532433891 0.31836647764434117 0 -0.33790089425573833 0.30106400074382289 0 -0.33257481532433891 0.31836647764434117 0 -0.35615310428423591 0.31878714957900162 0 -0.33257481532433891 0.31836647764434117 0 -0.33003563329740881 0.33925758124412497 0 -0.34490357793898208 0.33379293979876401 0 -0.33003563329740881 0.33925758124412497 0 -0.34490357793898208 0.33379293979876401 0 -0.34447532111727192 0.34884924989517158 0 -0.34490357793898208 0.33379293979876401 0 -0.34447532111727192 0.34884924989517158 0 -0.35750778107934472 0.34402647380388779 0 -0.35615310428423591 0.31878714957900162 0 -0.35750778107934472 0.34402647380388779 0 -0.34490357793898208 0.33379293979876401 0 -0.35615310428423591 0.31878714957900162 0 -0.35750778107934472 0.34402647380388779 0 -0.33257481532433891 0.31836647764434117 0 -0.34490357793898208 0.33379293979876401 0 -0.35615310428423591 0.31878714957900162 0 -0.3809584867257152 0.31995934924364311 0 -0.36990774782730562 0.30465198401604282 0 -0.35615310428423591 0.31878714957900162 0 -0.37563375498023588 0.33893957100260502 0 -0.3809584867257152 0.31995934924364311 0 -0.35615310428423591 0.31878714957900162 0 -0.37563375498023588 0.33893957100260502 0 -0.35615310428423591 0.31878714957900162 0 -0.35750778107934472 0.34402647380388779 0 -0.37563375498023588 0.33893957100260502 0 -0.37302608715873109 0.35758434449273291 0 -0.35750778107934472 0.34402647380388779 0 -0.37302608715873109 0.35758434449273291 0 -0.35750778107934472 0.34402647380388779 0 -0.35541488053243109 0.35781034742230239 0 -0.37302608715873109 0.35758434449273291 0 -0.35209549523865291 0.37190500391828912 0 -0.35541488053243109 0.35781034742230239 0 -0.37302608715873109 0.35758434449273291 0 -0.37126589511329411 0.37377724987418581 0 -0.35209549523865291 0.37190500391828912 0 -0.37302608715873109 0.35758434449273291 0 -0.35209549523865291 0.37190500391828912 0 -0.33508210951592582 0.36870163953731322 0 -0.35209549523865291 0.37190500391828912 0 -0.34577529297467657 0.36353966338233001 0 -0.35209549523865291 0.37190500391828912 0 -0.34577529297467657 0.36353966338233001 0 -0.35209549523865291 0.37190500391828912 0 -0.34577529297467657 0.36353966338233001 0 -0.35541488053243109 0.35781034742230239 0 -0.34577529297467657 0.36353966338233001 0 -0.34447532111727192 0.34884924989517158 0 -0.35541488053243109 0.35781034742230239 0 -0.34447532111727192 0.34884924989517158 0 -0.35750778107934472 0.34402647380388779 0 -0.35541488053243109 0.35781034742230239 0 -0.35026082972236822 0.40458613969335172 0 -0.34862050747833878 0.38874946299455448 0 -0.33552343261133938 0.40009846525415782 0 -0.35026082972236822 0.40458613969335172 0 -0.34862050747833878 0.38874946299455448 0 -0.36671596826568531 0.39125647884893172 0 -0.35209549523865291 0.37190500391828912 0 -0.34862050747833878 0.38874946299455448 0 -0.33393211710626841 0.38433234248782061 0 -0.35209549523865291 0.37190500391828912 0 -0.34862050747833878 0.38874946299455448 0 -0.36671596826568531 0.39125647884893172 0 -0.35209549523865291 0.37190500391828912 0 -0.36671596826568531 0.39125647884893172 0 -0.37126589511329411 0.37377724987418581 0 -0.35209549523865291 0.37190500391828912 0 -0.36671596826568531 0.39125647884893172 0 -0.38133644129271771 0.41060795377957438 0 -0.36671596826568531 0.39125647884893172 0 -0.35026082972236822 0.40458613969335172 0 -0.36671596826568531 0.39125647884893172 0 -0.36333227490387549 0.41594406858258898 0 -0.38133644129271771 0.41060795377957438 0 -0.36671596826568531 0.39125647884893172 0 -0.36333227490387549 0.41594406858258898 0 -0.38133644129271771 0.41060795377957438 0 -0.36333227490387549 0.41594406858258898 0 -0.37388199021079188 0.43349662060099697 0 -0.36333227490387549 0.41594406858258898 0 -0.37388199021079188 0.43349662060099697 0 -0.35906691460358248 0.43302642702751659 0 -0.36333227490387549 0.41594406858258898 0 -0.35906691460358248 0.43302642702751659 0 -0.35160825139420282 0.41805423523185442 0 -0.35906691460358248 0.43302642702751659 0 -0.34586475289765162 0.42738691828786168 0 -0.34964894770477822 0.45067928662270329 0 -0.35906691460358248 0.43302642702751659 0 -0.34586475289765162 0.42738691828786168 0 -0.35160825139420282 0.41805423523185442 0 -0.35026082972236822 0.40458613969335172 0 -0.36333227490387549 0.41594406858258898 0 -0.35160825139420282 0.41805423523185442 0 -0.34586475289765162 0.42738691828786168 0 -0.35160825139420282 0.41805423523185442 0 -0.33955069738530769 0.4144169953609998 0 -0.35026082972236822 0.40458613969335172 0 -0.35160825139420282 0.41805423523185442 0 -0.33955069738530769 0.4144169953609998 0 -0.35026082972236822 0.40458613969335172 0 -0.33955069738530769 0.4144169953609998 0 -0.33552343261133938 0.40009846525415782 0 -0.33446828868340289 0.42659298183602629 0 -0.325081577553051 0.41169961094141633 0 -0.33955069738530769 0.4144169953609998 0 -0.33446828868340289 0.42659298183602629 0 -0.325081577553051 0.41169961094141633 0 -0.33955069738530769 0.4144169953609998 0 -0.325081577553051 0.41169961094141633 0 -0.33552343261133938 0.40009846525415782 0 -0.33446828868340289 0.42659298183602629 0 -0.32353211865850812 0.43458959004027897 0 -0.33054677899099522 0.44587833955602901 0 -0.34586475289765162 0.42738691828786168 0 -0.33446828868340289 0.42659298183602629 0 -0.34964894770477822 0.45067928662270329 0 -0.34586475289765162 0.42738691828786168 0 -0.33446828868340289 0.42659298183602629 0 -0.34586475289765162 0.42738691828786168 0 -0.33955069738530769 0.4144169953609998 0 -0.33446828868340289 0.42659298183602629 0 -0.33446828868340289 0.42659298183602629 0 -0.31463215430362917 0.42521109444957261 0 -0.33446828868340289 0.42659298183602629 0 -0.31463215430362917 0.42521109444957261 0 -0.32353211865850812 0.43458959004027897 0 -0.31463215430362917 0.42521109444957261 0 -0.32353211865850812 0.43458959004027897 0 -0.30632691414132052 0.4383163993433048 0 -0.325081577553051 0.41169961094141633 0 -0.31576873897388319 0.39675968105735149 0 -0.30808160252936673 0.4121977433748496 0 -0.31463215430362917 0.42521109444957261 0 -0.325081577553051 0.41169961094141633 0 -0.30808160252936673 0.4121977433748496 0 -0.33446828868340289 0.42659298183602629 0 -0.31463215430362917 0.42521109444957261 0 -0.325081577553051 0.41169961094141633 0 -0.325081577553051 0.41169961094141633 0 -0.31576873897388319 0.39675968105735149 0 -0.33552343261133938 0.40009846525415782 0 -0.325081577553051 0.41169961094141633 0 -0.31576873897388319 0.39675968105735149 0 -0.34862050747833878 0.38874946299455448 0 -0.33552343261133938 0.40009846525415782 0 -0.33393211710626841 0.38433234248782061 0 -0.31576873897388319 0.39675968105735149 0 -0.33552343261133938 0.40009846525415782 0 -0.33393211710626841 0.38433234248782061 0 -0.35209549523865291 0.37190500391828912 0 -0.33393211710626841 0.38433234248782061 0 -0.33508210951592582 0.36870163953731322 0 -0.33393211710626841 0.38433234248782061 0 -0.32091897818789411 0.37757395005697603 0 -0.31576873897388319 0.39675968105735149 0 -0.32091897818789411 0.37757395005697603 0 -0.30732872976294823 0.38353215772995369 0 -0.31576873897388319 0.39675968105735149 0 -0.33393211710626841 0.38433234248782061 0 -0.31576873897388319 0.39675968105735149 0 -0.33393211710626841 0.38433234248782061 0 -0.32091897818789411 0.37757395005697603 0 -0.31229554397435733 0.37005867265250031 0 -0.32091897818789411 0.37757395005697603 0 -0.30732872976294823 0.38353215772995369 0 -0.29896259310319367 0.37025807541310352 0 -0.30732872976294823 0.38353215772995369 0 -0.29700674132229032 0.39540516601558717 0 -0.29896259310319367 0.37025807541310352 0 -0.29700674132229032 0.39540516601558717 0 -0.31576873897388319 0.39675968105735149 0 -0.30732872976294823 0.38353215772995369 0 -0.29896259310319367 0.37025807541310352 0 -0.30732872976294823 0.38353215772995369 0 -0.29700674132229032 0.39540516601558717 0 -0.30259284054109448 0.40478096048040529 0 -0.29641605771867308 0.41403951143914192 0 -0.31576873897388319 0.39675968105735149 0 -0.29700674132229032 0.39540516601558717 0 -0.30259284054109448 0.40478096048040529 0 -0.31576873897388319 0.39675968105735149 0 -0.30732872976294823 0.38353215772995369 0 -0.29700674132229032 0.39540516601558717 0 -0.31576873897388319 0.39675968105735149 0 -0.30259284054109448 0.40478096048040529 0 -0.30808160252936673 0.4121977433748496 0 -0.29700674132229032 0.39540516601558717 0 -0.28209338532393202 0.38222600668133688 0 -0.27839968129949771 0.4031848713431353 0 -0.29896259310319367 0.37025807541310352 0 -0.29700674132229032 0.39540516601558717 0 -0.28209338532393202 0.38222600668133688 0 -0.27169383631612543 0.36953364855257259 0 -0.28209338532393202 0.38222600668133688 0 -0.26324903299479457 0.38988604216182182 0 -0.27839968129949771 0.4031848713431353 0 -0.26324903299479457 0.38988604216182182 0 -0.26044543261494202 0.40722350202507612 0 -0.28209338532393202 0.38222600668133688 0 -0.27839968129949771 0.4031848713431353 0 -0.26324903299479457 0.38988604216182182 0 -0.26324903299479457 0.38988604216182182 0 -0.26044543261494202 0.40722350202507612 0 -0.24448809762487089 0.40050868906775772 0 -0.25717133997193298 0.37426095615225607 0 -0.26324903299479457 0.38988604216182182 0 -0.24074374520667241 0.38242687998337299 0 -0.25717133997193298 0.37426095615225607 0 -0.27169383631612543 0.36953364855257259 0 -0.26324903299479457 0.38988604216182182 0 -0.25382358621835049 0.43542260228310259 0 -0.27015352040741047 0.42211248350195679 0 -0.2459368307481366 0.42042542405070832 0 -0.27015352040741047 0.42211248350195679 0 -0.2459368307481366 0.42042542405070832 0 -0.26044543261494202 0.40722350202507612 0 -0.2459368307481366 0.42042542405070832 0 -0.24448809762487089 0.40050868906775772 0 -0.26044543261494202 0.40722350202507612 0 -0.27015352040741047 0.42211248350195679 0 -0.2459368307481366 0.42042542405070832 0 -0.27839968129949771 0.4031848713431353 0 -0.26044543261494202 0.40722350202507612 0 -0.27015352040741047 0.42211248350195679 0 -0.27839968129949771 0.4031848713431353 0 -0.27015352040741047 0.42211248350195679 0 -0.2950508895413867 0.42055225661807089 0 -0.25382358621835049 0.43542260228310259 0 -0.27015352040741047 0.42211248350195679 0 -0.27451598641054692 0.44016370142941202 0 -0.27015352040741047 0.42211248350195679 0 -0.28251112199335982 0.43211478794536817 0 -0.27451598641054692 0.44016370142941202 0 -0.28251112199335982 0.43211478794536817 0 -0.29479601992385501 0.42382920706312738 0 -0.29069111349206073 0.44135124015641658 0 -0.29479601992385501 0.42382920706312738 0 -0.29069111349206073 0.44135124015641658 0 -0.27015352040741047 0.42211248350195679 0 -0.28251112199335982 0.43211478794536817 0 -0.29479601992385501 0.42382920706312738 0 -0.27015352040741047 0.42211248350195679 0 -0.29479601992385501 0.42382920706312738 0 -0.27015352040741047 0.42211248350195679 0 -0.29479601992385501 0.42382920706312738 0 -0.2950508895413867 0.42055225661807089 0 -0.29479601992385501 0.42382920706312738 0 -0.2950508895413867 0.42055225661807089 0 -0.29700674132229032 0.39540516601558717 0 -0.2950508895413867 0.42055225661807089 0 -0.29641605771867308 0.41403951143914192 0 -0.29700674132229032 0.39540516601558717 0 -0.27839968129949771 0.4031848713431353 0 -0.2950508895413867 0.42055225661807089 0 -0.29700674132229032 0.39540516601558717 0 -0.2950508895413867 0.42055225661807089 0 -0.2950508895413867 0.42055225661807089 0 -0.29641605771867308 0.41403951143914192 0 -0.31463215430362917 0.42521109444957261 0 -0.2950508895413867 0.42055225661807089 0 -0.30808160252936673 0.4121977433748496 0 -0.30259284054109448 0.40478096048040529 0 -0.29641605771867308 0.41403951143914192 0 -0.30808160252936673 0.4121977433748496 0 -0.2950508895413867 0.42055225661807089 0 -0.29641605771867308 0.41403951143914192 0 -0.30808160252936673 0.4121977433748496 0 -0.31463215430362917 0.42521109444957261 0 -0.29479601992385501 0.42382920706312738 0 -0.2950508895413867 0.42055225661807089 0 -0.31463215430362917 0.42521109444957261 0 -0.29479601992385501 0.42382920706312738 0 -0.30632691414132052 0.4383163993433048 0 -0.29479601992385501 0.42382920706312738 0 -0.30632691414132052 0.4383163993433048 0 -0.29069111349206073 0.44135124015641658 0 -0.31463215430362917 0.42521109444957261 0 -0.29479601992385501 0.42382920706312738 0 -0.30632691414132052 0.4383163993433048 0 -0.3106014077299023 0.45452137664490028 0 -0.31918078655937843 0.44538174228416588 0 -0.30632691414132052 0.4383163993433048 0 -0.29796494780926752 0.45236230629258078 0 -0.3106014077299023 0.45452137664490028 0 -0.30632691414132052 0.4383163993433048 0 -0.29796494780926752 0.45236230629258078 0 -0.29069111349206073 0.44135124015641658 0 -0.3106014077299023 0.45452137664490028 0 -0.30192672627001949 0.46374394226332799 0 -0.31684143562260331 0.46858494716702748 0 -0.30192672627001949 0.46374394226332799 0 -0.31684143562260331 0.46858494716702748 0 -0.29796494780926752 0.45236230629258078 0 -0.3106014077299023 0.45452137664490028 0 -0.30192672627001949 0.46374394226332799 0 -0.28701201691743577 0.45890293735962839 0 -0.28352738281579593 0.4755269213664215 0 -0.30192672627001949 0.46374394226332799 0 -0.28701201691743577 0.45890293735962839 0 -0.30030559437380339 0.47420586516231239 0 -0.30192672627001949 0.46374394226332799 0 -0.28701201691743577 0.45890293735962839 0 -0.29796494780926752 0.45236230629258078 0 -0.30192672627001949 0.46374394226332799 0 -0.28701201691743577 0.45890293735962839 0 -0.28701201691743577 0.45890293735962839 0 -0.29069111349206073 0.44135124015641658 0 -0.28701201691743577 0.45890293735962839 0 -0.29069111349206073 0.44135124015641658 0 -0.27451598641054692 0.44016370142941202 0 -0.29796494780926752 0.45236230629258078 0 -0.28701201691743577 0.45890293735962839 0 -0.29069111349206073 0.44135124015641658 0 -0.28251112199335982 0.43211478794536817 0 -0.29069111349206073 0.44135124015641658 0 -0.27451598641054692 0.44016370142941202 0 -0.28701201691743577 0.45890293735962839 0 -0.27451598641054692 0.44016370142941202 0 -0.2629045594346644 0.45107815732999917 0 -0.28701201691743577 0.45890293735962839 0 -0.2629045594346644 0.45107815732999917 0 -0.28701201691743577 0.45890293735962839 0 -0.27023974482395158 0.46466667776273851 0 -0.28352738281579593 0.4755269213664215 0 -0.28701201691743577 0.45890293735962839 0 -0.27023974482395158 0.46466667776273851 0 -0.2629045594346644 0.45107815732999917 0 -0.27023974482395158 0.46466667776273851 0 -0.2629045594346644 0.45107815732999917 0 -0.2489120775907421 0.45611132706247232 0 -0.27023974482395158 0.46466667776273851 0 -0.24576275637927339 0.47027392540463459 0 -0.2489120775907421 0.45611132706247232 0 -0.25382358621835049 0.43542260228310259 0 -0.2629045594346644 0.45107815732999917 0 -0.2387971019518931 0.44325337730036979 0 -0.2629045594346644 0.45107815732999917 0 -0.2387971019518931 0.44325337730036979 0 -0.2629045594346644 0.45107815732999917 0 -0.2387971019518931 0.44325337730036979 0 -0.2489120775907421 0.45611132706247232 0 -0.25382358621835049 0.43542260228310259 0 -0.27451598641054692 0.44016370142941202 0 -0.2629045594346644 0.45107815732999917 0 -0.26267046183496029 0.5 0 -0.26550391405888962 0.48189416376756322 0 -0.24740973726578031 0.48747235416832729 0 -0.26550391405888962 0.48189416376756322 0 -0.24576275637927339 0.47027392540463459 0 -0.24740973726578031 0.48747235416832729 0 -0.27023974482395158 0.46466667776273851 0 -0.26550391405888962 0.48189416376756322 0 -0.24576275637927339 0.47027392540463459 0 -0.27023974482395158 0.46466667776273851 0 -0.26550391405888962 0.48189416376756322 0 -0.28352738281579593 0.4755269213664215 0 -0.26550391405888962 0.48189416376756322 0 -0.28004274871415491 0.49215090537321432 0 -0.28352738281579593 0.4755269213664215 0 -0.26267046183496029 0.5 0 -0.26550391405888962 0.48189416376756322 0 -0.28004274871415491 0.49215090537321432 0 -0.26267046183496029 0.5 0 -0.28004274871415491 0.49215090537321432 0 -0.28977137280097909 0.5 0 -0.28004274871415491 0.49215090537321432 0 -0.29422506909847679 0.48481709335143458 0 -0.28977137280097909 0.5 0 -0.29422506909847679 0.48481709335143458 0 -0.28977137280097909 0.5 0 -0.30059562840125281 0.49523014277448563 0 -0.29422506909847679 0.48481709335143458 0 -0.28352738281579593 0.4755269213664215 0 -0.30030559437380339 0.47420586516231239 0 -0.28004274871415491 0.49215090537321432 0 -0.29422506909847679 0.48481709335143458 0 -0.28352738281579593 0.4755269213664215 0 -0.28701201691743577 0.45890293735962839 0 -0.28352738281579593 0.4755269213664215 0 -0.30030559437380339 0.47420586516231239 0 -0.28004274871415491 0.49215090537321432 0 -0.28352738281579593 0.4755269213664215 0 -0.30192672627001949 0.46374394226332799 0 -0.30030559437380339 0.47420586516231239 0 -0.31684143562260331 0.46858494716702748 0 -0.30030559437380339 0.47420586516231239 0 -0.3087338265938282 0.48140676030859753 0 -0.31684143562260331 0.46858494716702748 0 -0.29422506909847679 0.48481709335143458 0 -0.30030559437380339 0.47420586516231239 0 -0.3087338265938282 0.48140676030859753 0 -0.28977137280097909 0.5 0 -0.30059562840125281 0.49523014277448563 0 -0.31687228376699761 0.5 0 -0.3087338265938282 0.48140676030859753 0 -0.30059562840125281 0.49523014277448563 0 -0.32200695450955369 0.48840862565278359 0 -0.30059562840125281 0.49523014277448563 0 -0.32200695450955369 0.48840862565278359 0 -0.29422506909847679 0.48481709335143458 0 -0.3087338265938282 0.48140676030859753 0 -0.30059562840125281 0.49523014277448563 0 -0.30059562840125281 0.49523014277448563 0 -0.31687228376699761 0.5 0 -0.32200695450955369 0.48840862565278359 0 -0.31687228376699761 0.5 0 -0.32200695450955369 0.48840862565278359 0 -0.33307541777069588 0.49179723018598798 0 -0.32200695450955369 0.48840862565278359 0 -0.34341828061785462 0.48158710853108161 0 -0.32200695450955369 0.48840862565278359 0 -0.33307541777069588 0.49179723018598798 0 -0.34341828061785462 0.48158710853108161 0 -0.33307541777069588 0.49179723018598798 0 -0.34341828061785462 0.48158710853108161 0 -0.34397319473301619 0.5 0 -0.31687228376699761 0.5 0 -0.33307541777069588 0.49179723018598798 0 -0.34397319473301619 0.5 0 -0.32200695450955369 0.48840862565278359 0 -0.34341828061785462 0.48158710853108161 0 -0.32987443399239552 0.47516769423785971 0 -0.34341828061785462 0.48158710853108161 0 -0.32987443399239552 0.47516769423785971 0 -0.34602126269748001 0.46829680282094799 0 -0.32987443399239552 0.47516769423785971 0 -0.31870391104731738 0.47862303310617538 0 -0.31684143562260331 0.46858494716702748 0 -0.32200695450955369 0.48840862565278359 0 -0.32987443399239552 0.47516769423785971 0 -0.31870391104731738 0.47862303310617538 0 -0.3087338265938282 0.48140676030859753 0 -0.32200695450955369 0.48840862565278359 0 -0.31870391104731738 0.47862303310617538 0 -0.3087338265938282 0.48140676030859753 0 -0.31870391104731738 0.47862303310617538 0 -0.31684143562260331 0.46858494716702748 0 -0.31684143562260331 0.46858494716702748 0 -0.32297313966047753 0.4563916054492167 0 -0.33347739267942988 0.46163483110378051 0 -0.32987443399239552 0.47516769423785971 0 -0.31684143562260331 0.46858494716702748 0 -0.33347739267942988 0.46163483110378051 0 -0.3106014077299023 0.45452137664490028 0 -0.31684143562260331 0.46858494716702748 0 -0.32297313966047753 0.4563916054492167 0 -0.32353211865850812 0.43458959004027897 0 -0.30632691414132052 0.4383163993433048 0 -0.31918078655937843 0.44538174228416588 0 -0.3106014077299023 0.45452137664490028 0 -0.32297313966047753 0.4563916054492167 0 -0.31918078655937843 0.44538174228416588 0 -0.32297313966047753 0.4563916054492167 0 -0.31918078655937843 0.44538174228416588 0 -0.33054677899099522 0.44587833955602901 0 -0.32353211865850812 0.43458959004027897 0 -0.31918078655937843 0.44538174228416588 0 -0.33054677899099522 0.44587833955602901 0 -0.33054677899099522 0.44587833955602901 0 -0.33347739267942988 0.46163483110378051 0 -0.34964894770477822 0.45067928662270329 0 -0.33446828868340289 0.42659298183602629 0 -0.34964894770477822 0.45067928662270329 0 -0.33446828868340289 0.42659298183602629 0 -0.33054677899099522 0.44587833955602901 0 -0.34964894770477822 0.45067928662270329 0 -0.32297313966047753 0.4563916054492167 0 -0.33054677899099522 0.44587833955602901 0 -0.33347739267942988 0.46163483110378051 0 -0.33347739267942988 0.46163483110378051 0 -0.34602126269748001 0.46829680282094799 0 -0.34964894770477822 0.45067928662270329 0 -0.32987443399239552 0.47516769423785971 0 -0.33347739267942988 0.46163483110378051 0 -0.34602126269748001 0.46829680282094799 0 -0.34964894770477822 0.45067928662270329 0 -0.36482960672615539 0.47476559140937902 0 -0.34602126269748001 0.46829680282094799 0 -0.34964894770477822 0.45067928662270329 0 -0.36482960672615539 0.47476559140937902 0 -0.37388199021079188 0.43349662060099697 0 -0.35906691460358248 0.43302642702751659 0 -0.37006527051019528 0.45259743283909409 0 -0.35906691460358248 0.43302642702751659 0 -0.34964894770477822 0.45067928662270329 0 -0.37006527051019528 0.45259743283909409 0 -0.34964894770477822 0.45067928662270329 0 -0.37006527051019528 0.45259743283909409 0 -0.36482960672615539 0.47476559140937902 0 -0.39197467039505129 0.46611734068214988 0 -0.36580706476392733 0.47631646954851292 0 -0.36482960672615539 0.47476559140937902 0 -0.38413367002432852 0.48466820949397371 0 -0.36580706476392733 0.47631646954851292 0 -0.36922226322768142 0.48798439540463678 0 -0.36580706476392733 0.47631646954851292 0 -0.36482960672615539 0.47476559140937902 0 -0.36580706476392733 0.47631646954851292 0 -0.36011621247549508 0.48220740160321018 0 -0.36922226322768142 0.48798439540463678 0 -0.36580706476392733 0.47631646954851292 0 -0.36482960672615539 0.47476559140937902 0 -0.36011621247549508 0.48220740160321018 0 -0.38413367002432852 0.48466820949397371 0 -0.36922226322768142 0.48798439540463678 0 -0.37107410569903487 0.5 0 -0.36922226322768142 0.48798439540463678 0 -0.37107410569903487 0.5 0 -0.35730384704185653 0.49038344312244059 0 -0.36011621247549508 0.48220740160321018 0 -0.36922226322768142 0.48798439540463678 0 -0.35730384704185653 0.49038344312244059 0 -0.34341828061785462 0.48158710853108161 0 -0.36011621247549508 0.48220740160321018 0 -0.35730384704185653 0.49038344312244059 0 -0.37107410569903487 0.5 0 -0.35730384704185653 0.49038344312244059 0 -0.34397319473301619 0.5 0 -0.34341828061785462 0.48158710853108161 0 -0.35730384704185653 0.49038344312244059 0 -0.34397319473301619 0.5 0 -0.34341828061785462 0.48158710853108161 0 -0.36482960672615539 0.47476559140937902 0 -0.36011621247549508 0.48220740160321018 0 -0.34341828061785462 0.48158710853108161 0 -0.34602126269748001 0.46829680282094799 0 -0.36482960672615539 0.47476559140937902 0 -0.34341828061785462 0.48158710853108161 0 -0.36482960672615539 0.47476559140937902 0 -0.14108182703901029 0.47856052106912539 0 -0.15218575011213231 0.48928026053456308 0 -0.15838645381207381 0.47784012782054008 0 -0.14108182703901029 0.47856052106912539 0 -0.15141758041572639 0.46790752156545012 0 -0.15838645381207381 0.47784012782054008 0 -0.14108182703901029 0.47856052106912539 0 -0.15218575011213231 0.48928026053456308 0 -0.14103512141071931 0.48261116844817892 0 -0.14108182703901029 0.47856052106912539 0 -0.15218575011213231 0.48928026053456308 0 -0.14103512141071931 0.48261116844817892 0 -0.14108182703901029 0.47856052106912539 0 -0.15218575011213231 0.48928026053456308 0 -0.14247376316698551 0.5 0 -0.1632896731852537 0.50000000000000155 0 -0.15218575011213231 0.48928026053456308 0 -0.14247376316698551 0.5 0 -0.14194011071192181 0.49099964735320722 0 -0.14103512141071931 0.48261116844817892 0 -0.15218575011213231 0.48928026053456308 0 -0.14194011071192181 0.49099964735320722 0 -0.14247376316698551 0.5 0 -0.13206580815784999 0.49210716043008701 0 -0.1216578531487173 0.50000000000000155 0 -0.13206580815784999 0.49210716043008701 0 -0.1215246548466888 0.48036061179670092 0 -0.1216578531487173 0.50000000000000155 0 -0.14103512141071931 0.48261116844817892 0 -0.13206580815784999 0.49210716043008701 0 -0.1215246548466888 0.48036061179670092 0 -0.14103512141071931 0.48261116844817892 0 -0.14194011071192181 0.49099964735320722 0 -0.13206580815784999 0.49210716043008701 0 -0.14247376316698551 0.5 0 -0.14194011071192181 0.49099964735320722 0 -0.13206580815784999 0.49210716043008701 0 -0.14103512141071931 0.48261116844817892 0 -0.14108182703901029 0.47856052106912539 0 -0.1215246548466888 0.48036061179670092 0 -0.14108182703901029 0.47856052106912539 0 -0.11987972175203609 0.45809198546251739 0 -0.1215246548466888 0.48036061179670092 0 -0.14108182703901029 0.47856052106912539 0 -0.14131813266979709 0.45806640035822538 0 -0.11987972175203609 0.45809198546251739 0 -0.14108182703901029 0.47856052106912539 0 -0.11987972175203609 0.45809198546251739 0 -0.12509104342100061 0.44188941827772182 0 -0.14131813266979709 0.45806640035822538 0 -0.11987972175203609 0.45809198546251739 0 -0.12509104342100061 0.44188941827772182 0 -0.14155443830058789 0.43757227964732542 0 -0.14131813266979709 0.45806640035822538 0 -0.14155443830058789 0.43757227964732542 0 -0.1590732886589914 0.44456462379371309 0 -0.14157918638415079 0.43542594817740249 0 -0.1590732886589914 0.44456462379371309 0 -0.1665175895587078 0.4467511244817659 0 -0.14157918638415079 0.43542594817740249 0 -0.1665175895587078 0.4467511244817659 0 -0.15486041744653839 0.43233395996053492 0 -0.14157918638415079 0.43542594817740249 0 -0.14155443830058789 0.43757227964732542 0 -0.14890115189103559 0.44846787442591368 0 -0.1590732886589914 0.44456462379371309 0 -0.1665175895587078 0.4467511244817659 0 -0.14157918638415079 0.43542594817740249 0 -0.14155443830058789 0.43757227964732542 0 -0.14890115189103559 0.44846787442591368 0 -0.14131813266979709 0.45806640035822538 0 -0.14155443830058789 0.43757227964732542 0 -0.1590732886589914 0.44456462379371309 0 -0.14155443830058789 0.43757227964732542 0 -0.14131813266979709 0.45806640035822538 0 -0.14890115189103559 0.44846787442591368 0 -0.15489186999573309 0.45643812449532861 0 -0.1590732886589914 0.44456462379371309 0 -0.14108182703901029 0.47856052106912539 0 -0.14131813266979709 0.45806640035822538 0 -0.14108182703901029 0.47856052106912539 0 -0.14131813266979709 0.45806640035822538 0 -0.15141758041572639 0.46790752156545012 0 -0.14890115189103559 0.44846787442591368 0 -0.14131813266979709 0.45806640035822538 0 -0.15489186999573309 0.45643812449532861 0 -0.14131813266979709 0.45806640035822538 0 -0.15489186999573309 0.45643812449532861 0 -0.15141758041572639 0.46790752156545012 0 -0.15489186999573309 0.45643812449532861 0 -0.15141758041572639 0.46790752156545012 0 -0.1637083375647361 0.46571847743475431 0 -0.15489186999573309 0.45643812449532861 0 -0.1637083375647361 0.46571847743475431 0 -0.16576602081972819 0.45650349861697093 0 -0.1637083375647361 0.46571847743475431 0 -0.1745644688617857 0.46423929942095737 0 -0.17520348646433229 0.47613194070040032 0 -0.1637083375647361 0.46571847743475431 0 -0.16576602081972819 0.45650349861697093 0 -0.1745644688617857 0.46423929942095737 0 -0.1590732886589914 0.44456462379371309 0 -0.17659213901739471 0.45155696794010108 0 -0.1590732886589914 0.44456462379371309 0 -0.1665175895587078 0.4467511244817659 0 -0.17659213901739471 0.45155696794010108 0 -0.16576602081972819 0.45650349861697093 0 -0.1590732886589914 0.44456462379371309 0 -0.17659213901739471 0.45155696794010108 0 -0.1665175895587078 0.4467511244817659 0 -0.1659354897241099 0.43449929542802312 0 -0.15486041744653839 0.43233395996053492 0 -0.15489186999573309 0.45643812449532861 0 -0.16576602081972819 0.45650349861697093 0 -0.1590732886589914 0.44456462379371309 0 -0.1665175895587078 0.4467511244817659 0 -0.1740586998674569 0.43899754936367941 0 -0.1659354897241099 0.43449929542802312 0 -0.1740586998674569 0.43899754936367941 0 -0.17659213901739471 0.45155696794010108 0 -0.1868590329817707 0.43357197228301869 0 -0.1665175895587078 0.4467511244817659 0 -0.1740586998674569 0.43899754936367941 0 -0.17659213901739471 0.45155696794010108 0 -0.1745644688617857 0.46423929942095737 0 -0.18738907724301901 0.4651958722260251 0 -0.17520348646433229 0.47613194070040032 0 -0.17659213901739471 0.45155696794010108 0 -0.1745644688617857 0.46423929942095737 0 -0.18738907724301901 0.4651958722260251 0 -0.16576602081972819 0.45650349861697093 0 -0.17659213901739471 0.45155696794010108 0 -0.1745644688617857 0.46423929942095737 0 -0.17520348646433229 0.47613194070040032 0 -0.17737148462513211 0.4885994124146576 0 -0.1949767913905355 0.48049775525153071 0 -0.18738907724301901 0.4651958722260251 0 -0.17520348646433229 0.47613194070040032 0 -0.1949767913905355 0.48049775525153071 0 -0.17520348646433229 0.47613194070040032 0 -0.1660045063390565 0.48636736612135473 0 -0.17737148462513211 0.4885994124146576 0 -0.17520348646433229 0.47613194070040032 0 -0.15838645381207381 0.47784012782054008 0 -0.1660045063390565 0.48636736612135473 0 -0.1637083375647361 0.46571847743475431 0 -0.17520348646433229 0.47613194070040032 0 -0.15838645381207381 0.47784012782054008 0 -0.15141758041572639 0.46790752156545012 0 -0.1637083375647361 0.46571847743475431 0 -0.15838645381207381 0.47784012782054008 0 -0.15218575011213231 0.48928026053456308 0 -0.1632896731852537 0.50000000000000155 0 -0.15218575011213231 0.48928026053456308 0 -0.15838645381207381 0.47784012782054008 0 -0.1660045063390565 0.48636736612135473 0 -0.15218575011213231 0.48928026053456308 0 -0.1632896731852537 0.50000000000000155 0 -0.1660045063390565 0.48636736612135473 0 -0.1632896731852537 0.50000000000000155 0 -0.1660045063390565 0.48636736612135473 0 -0.17737148462513211 0.4885994124146576 0 -0.1632896731852537 0.50000000000000155 0 -0.18738296574648311 0.5 0 -0.17737148462513211 0.4885994124146576 0 -0.18738296574648311 0.5 0 -0.17737148462513211 0.4885994124146576 0 -0.1949767913905355 0.48049775525153071 0 -0.18738296574648311 0.5 0 -0.1949767913905355 0.48049775525153071 0 -0.21147625830771241 0.5 0 -0.1949767913905355 0.48049775525153071 0 -0.2193327115732171 0.47785732409434201 0 -0.2030958722774939 0.45571464818868052 0 -0.1949767913905355 0.48049775525153071 0 -0.21147625830771241 0.5 0 -0.2193327115732171 0.47785732409434201 0 -0.21147625830771241 0.5 0 -0.2193327115732171 0.47785732409434201 0 -0.23556955086894171 0.50000000000000278 0 -0.2193327115732171 0.47785732409434201 0 -0.24740973726578031 0.48747235416832729 0 -0.23556955086894171 0.50000000000000278 0 -0.2193327115732171 0.47785732409434201 0 -0.23556955086894171 0.50000000000000278 0 -0.2193327115732171 0.47785732409434201 0 -0.24576275637927339 0.47027392540463459 0 -0.24740973726578031 0.48747235416832729 0 -0.26267046183496029 0.5 0 -0.24740973726578031 0.48747235416832729 0 -0.23556955086894171 0.50000000000000278 0 -0.2387971019518931 0.44325337730036979 0 -0.2489120775907421 0.45611132706247232 0 -0.22784244863720851 0.45419089524536999 0 -0.24576275637927339 0.47027392540463459 0 -0.2489120775907421 0.45611132706247232 0 -0.22784244863720851 0.45419089524536999 0 -0.2193327115732171 0.47785732409434201 0 -0.24576275637927339 0.47027392540463459 0 -0.22784244863720851 0.45419089524536999 0 -0.2387971019518931 0.44325337730036979 0 -0.22784244863720851 0.45419089524536999 0 -0.22695118484456259 0.43760496865691229 0 -0.22784244863720851 0.45419089524536999 0 -0.22695118484456259 0.43760496865691229 0 -0.21077827595677989 0.43843038173964088 0 -0.2387971019518931 0.44325337730036979 0 -0.22695118484456259 0.43760496865691229 0 -0.23717077667227929 0.4322920750106754 0 -0.22784244863720851 0.45419089524536999 0 -0.21077827595677989 0.43843038173964088 0 -0.2030958722774939 0.45571464818868052 0 -0.2193327115732171 0.47785732409434201 0 -0.22784244863720851 0.45419089524536999 0 -0.2030958722774939 0.45571464818868052 0 -0.2193327115732171 0.47785732409434201 0 -0.2030958722774939 0.45571464818868052 0 -0.18738907724301901 0.4651958722260251 0 -0.1949767913905355 0.48049775525153071 0 -0.2030958722774939 0.45571464818868052 0 -0.17659213901739471 0.45155696794010108 0 -0.18738907724301901 0.4651958722260251 0 -0.2030958722774939 0.45571464818868052 0 -0.17659213901739471 0.45155696794010108 0 -0.2030958722774939 0.45571464818868052 0 -0.1868590329817707 0.43357197228301869 0 -0.21077827595677989 0.43843038173964088 0 -0.2030958722774939 0.45571464818868052 0 -0.1868590329817707 0.43357197228301869 0 -0.2030958722774939 0.45571464818868052 0 -0.1868590329817707 0.43357197228301869 0 -0.21077827595677989 0.43843038173964088 0 -0.20038953475864499 0.42285930103310698 0 -0.1868590329817707 0.43357197228301869 0 -0.20038953475864499 0.42285930103310698 0 -0.18865851951403981 0.41114723081592358 0 -0.1868590329817707 0.43357197228301869 0 -0.20038953475864499 0.42285930103310698 0 -0.18865851951403981 0.41114723081592358 0 -0.20316386533702549 0.40742415296633488 0 -0.20038953475864499 0.42285930103310698 0 -0.20316386533702549 0.40742415296633488 0 -0.22016732100465239 0.41985811398850509 0 -0.20316386533702549 0.40742415296633488 0 -0.22016732100465239 0.41985811398850509 0 -0.21769018938602511 0.40540249138439582 0 -0.20316386533702549 0.40742415296633488 0 -0.22016732100465239 0.41985811398850509 0 -0.21077827595677989 0.43843038173964088 0 -0.20038953475864499 0.42285930103310698 0 -0.22016732100465239 0.41985811398850509 0 -0.22695118484456259 0.43760496865691229 0 -0.22016732100465239 0.41985811398850509 0 -0.23717077667227929 0.4322920750106754 0 -0.22695118484456259 0.43760496865691229 0 -0.21077827595677989 0.43843038173964088 0 -0.22016732100465239 0.41985811398850509 0 -0.22016732100465239 0.41985811398850509 0 -0.23358788463652869 0.41983625247023992 0 -0.23717077667227929 0.4322920750106754 0 -0.22016732100465239 0.41985811398850509 0 -0.23717077667227929 0.4322920750106754 0 -0.22016732100465239 0.41985811398850509 0 -0.23115288141678619 0.40759276862782062 0 -0.21769018938602511 0.40540249138439582 0 -0.22016732100465239 0.41985811398850509 0 -0.23115288141678619 0.40759276862782062 0 -0.23358788463652869 0.41983625247023992 0 -0.23115288141678619 0.40759276862782062 0 -0.2459368307481366 0.42042542405070832 0 -0.24448809762487089 0.40050868906775772 0 -0.23115288141678619 0.40759276862782062 0 -0.23358788463652869 0.41983625247023992 0 -0.2459368307481366 0.42042542405070832 0 -0.25382358621835049 0.43542260228310259 0 -0.2459368307481366 0.42042542405070832 0 -0.23717077667227929 0.4322920750106754 0 -0.25382358621835049 0.43542260228310259 0 -0.2387971019518931 0.44325337730036979 0 -0.23717077667227929 0.4322920750106754 0 -0.23358788463652869 0.41983625247023992 0 -0.2459368307481366 0.42042542405070832 0 -0.23717077667227929 0.4322920750106754 0 -0.26324903299479457 0.38988604216182182 0 -0.24074374520667241 0.38242687998337299 0 -0.24448809762487089 0.40050868906775772 0 -0.24074374520667241 0.38242687998337299 0 -0.24448809762487089 0.40050868906775772 0 -0.22634736018434309 0.39356380059118778 0 -0.23115288141678619 0.40759276862782062 0 -0.24448809762487089 0.40050868906775772 0 -0.22634736018434309 0.39356380059118778 0 -0.23115288141678619 0.40759276862782062 0 -0.22634736018434309 0.39356380059118778 0 -0.21769018938602511 0.40540249138439582 0 -0.24074374520667241 0.38242687998337299 0 -0.22634736018434309 0.39356380059118778 0 -0.21798062289891881 0.38062313327343511 0 -0.24074374520667241 0.38242687998337299 0 -0.21798062289891881 0.38062313327343511 0 -0.22441740966967141 0.36662202833489849 0 -0.21798062289891881 0.38062313327343511 0 -0.2053182195646632 0.38898911660535768 0 -0.20402060209966261 0.36833430411321649 0 -0.22634736018434309 0.39356380059118778 0 -0.21798062289891881 0.38062313327343511 0 -0.2053182195646632 0.38898911660535768 0 -0.22634736018434309 0.39356380059118778 0 -0.2053182195646632 0.38898911660535768 0 -0.21769018938602511 0.40540249138439582 0 -0.20316386533702549 0.40742415296633488 0 -0.2053182195646632 0.38898911660535768 0 -0.21769018938602511 0.40540249138439582 0 -0.20316386533702549 0.40742415296633488 0 -0.2053182195646632 0.38898911660535768 0 -0.18616040966939809 0.39499019194416529 0 -0.20316386533702549 0.40742415296633488 0 -0.18616040966939809 0.39499019194416529 0 -0.18865851951403981 0.41114723081592358 0 -0.20316386533702549 0.40742415296633488 0 -0.18616040966939809 0.39499019194416529 0 -0.2053182195646632 0.38898911660535768 0 -0.1927326532436788 0.38193994064591369 0 -0.18616040966939809 0.39499019194416529 0 -0.2053182195646632 0.38898911660535768 0 -0.1927326532436788 0.38193994064591369 0 -0.20402060209966261 0.36833430411321649 0 -0.1927326532436788 0.38193994064591369 0 -0.18374665136976759 0.37937871402705908 0 -0.18616040966939809 0.39499019194416529 0 -0.1744309637910503 0.37769149803556362 0 -0.1642142843906749 0.3789418502636645 0 -0.1838985270783616 0.39091510453828221 0 -0.1642142843906749 0.3789418502636645 0 -0.18616040966939809 0.39499019194416529 0 -0.1838985270783616 0.39091510453828221 0 -0.1927326532436788 0.38193994064591369 0 -0.18374665136976759 0.37937871402705908 0 -0.18362379452965399 0.37004657989153639 0 -0.18374665136976759 0.37937871402705908 0 -0.1744309637910503 0.37769149803556362 0 -0.1838985270783616 0.39091510453828221 0 -0.1642142843906749 0.3789418502636645 0 -0.18616040966939809 0.39499019194416529 0 -0.18374665136976759 0.37937871402705908 0 -0.1744309637910503 0.37769149803556362 0 -0.18362379452965399 0.37004657989153639 0 -0.18374665136976759 0.37937871402705908 0 -0.18616040966939809 0.39499019194416529 0 -0.18374665136976759 0.37937871402705908 0 -0.1838985270783616 0.39091510453828221 0 -0.18374665136976759 0.37937871402705908 0 -0.18616040966939809 0.39499019194416529 0 -0.1838985270783616 0.39091510453828221 0 -0.1642142843906749 0.3789418502636645 0 -0.1639919076143399 0.3974747808383628 0 -0.1489802686125267 0.38257497248127392 0 -0.1642142843906749 0.3789418502636645 0 -0.1639919076143399 0.3974747808383628 0 -0.18616040966939809 0.39499019194416529 0 -0.1744309637910503 0.37769149803556362 0 -0.1642142843906749 0.3789418502636645 0 -0.15874130784498061 0.37213542046662212 0 -0.1639919076143399 0.3974747808383628 0 -0.17750104491285451 0.40432040146684922 0 -0.17119334285363949 0.41366940226894577 0 -0.18865851951403981 0.41114723081592358 0 -0.18616040966939809 0.39499019194416529 0 -0.18865851951403981 0.41114723081592358 0 -0.17750104491285451 0.40432040146684922 0 -0.18616040966939809 0.39499019194416529 0 -0.1639919076143399 0.3974747808383628 0 -0.17750104491285451 0.40432040146684922 0 -0.18616040966939809 0.39499019194416529 0 -0.18865851951403981 0.41114723081592358 0 -0.17750104491285451 0.40432040146684922 0 -0.17119334285363949 0.41366940226894577 0 -0.18865851951403981 0.41114723081592358 0 -0.17459283461559361 0.42601523789076512 0 -0.17119334285363949 0.41366940226894577 0 -0.18865851951403981 0.41114723081592358 0 -0.1868590329817707 0.43357197228301869 0 -0.17459283461559361 0.42601523789076512 0 -0.1740586998674569 0.43899754936367941 0 -0.1868590329817707 0.43357197228301869 0 -0.17459283461559361 0.42601523789076512 0 -0.1740586998674569 0.43899754936367941 0 -0.17459283461559361 0.42601523789076512 0 -0.1659354897241099 0.43449929542802312 0 -0.17459283461559361 0.42601523789076512 0 -0.1659354897241099 0.43449929542802312 0 -0.16085192275254509 0.42420597718500008 0 -0.1659354897241099 0.43449929542802312 0 -0.16085192275254509 0.42420597718500008 0 -0.15486041744653839 0.43233395996053492 0 -0.1639919076143399 0.3974747808383628 0 -0.17119334285363949 0.41366940226894577 0 -0.1558060921739825 0.41026488178479492 0 -0.17459283461559361 0.42601523789076512 0 -0.16085192275254509 0.42420597718500008 0 -0.17119334285363949 0.41366940226894577 0 -0.16085192275254509 0.42420597718500008 0 -0.17119334285363949 0.41366940226894577 0 -0.1558060921739825 0.41026488178479492 0 -0.1558060921739825 0.41026488178479492 0 -0.1418117271851779 0.41525834053060801 0 -0.14204426798620681 0.39509073288381358 0 -0.16085192275254509 0.42420597718500008 0 -0.1558060921739825 0.41026488178479492 0 -0.1418117271851779 0.41525834053060801 0 -0.1418117271851779 0.41525834053060801 0 -0.14157918638415079 0.43542594817740249 0 -0.16085192275254509 0.42420597718500008 0 -0.1418117271851779 0.41525834053060801 0 -0.15486041744653839 0.43233395996053492 0 -0.1418117271851779 0.41525834053060801 0 -0.15486041744653839 0.43233395996053492 0 -0.14157918638415079 0.43542594817740249 0 -0.14155443830058789 0.43757227964732542 0 -0.14157918638415079 0.43542594817740249 0 -0.14155443830058789 0.43757227964732542 0 -0.14157918638415079 0.43542594817740249 0 -0.12025274126089 0.42574105579372712 0 -0.14155443830058789 0.43757227964732542 0 -0.1161249595423428 0.42742254588607831 0 -0.14157918638415079 0.43542594817740249 0 -0.12025274126089 0.42574105579372712 0 -0.1418117271851779 0.41525834053060801 0 -0.14157918638415079 0.43542594817740249 0 -0.12025274126089 0.42574105579372712 0 -0.14155443830058789 0.43757227964732542 0 -0.12025274126089 0.42574105579372712 0 -0.1161249595423428 0.42742254588607831 0 -0.12509104342100061 0.44188941827772182 0 -0.14155443830058789 0.43757227964732542 0 -0.1161249595423428 0.42742254588607831 0 -0.1418117271851779 0.41525834053060801 0 -0.1277268958593005 0.40709158096490278 0 -0.12025274126089 0.42574105579372712 0 -0.1418117271851779 0.41525834053060801 0 -0.1277268958593005 0.40709158096490278 0 -0.14204426798620681 0.39509073288381358 0 -0.1277268958593005 0.40709158096490278 0 -0.14204426798620681 0.39509073288381358 0 -0.1224972888069677 0.39405447109156733 0 -0.13238272395945991 0.37847398983736519 0 -0.1224972888069677 0.39405447109156733 0 -0.13238272395945991 0.37847398983736519 0 -0.14204426798620681 0.39509073288381358 0 -0.1224972888069677 0.39405447109156733 0 -0.13238272395945991 0.37847398983736519 0 -0.1489802686125267 0.38257497248127392 0 -0.14204426798620681 0.39509073288381358 0 -0.1639919076143399 0.3974747808383628 0 -0.1558060921739825 0.41026488178479492 0 -0.14204426798620681 0.39509073288381358 0 -0.1639919076143399 0.3974747808383628 0 -0.1489802686125267 0.38257497248127392 0 -0.14204426798620681 0.39509073288381358 0 -0.1418117271851779 0.41525834053060801 0 -0.14204426798620681 0.39509073288381358 0 -0.15552397359905151 0.35856797270850038 0 -0.1422681591119519 0.36289350858316322 0 -0.15574239997404821 0.34165669361972989 0 -0.1422681591119519 0.36289350858316322 0 -0.15574239997404821 0.34165669361972989 0 -0.13774544015442541 0.3595862213862932 0 -0.1344905665345571 0.34689990383467079 0 -0.15574239997404821 0.34165669361972989 0 -0.1422681591119519 0.36289350858316322 0 -0.13774544015442541 0.3595862213862932 0 -0.15574239997404821 0.34165669361972989 0 -0.1642142843906749 0.3789418502636645 0 -0.1422681591119519 0.36289350858316322 0 -0.13238272395945991 0.37847398983736519 0 -0.1489802686125267 0.38257497248127392 0 -0.1422681591119519 0.36289350858316322 0 -0.1642142843906749 0.3789418502636645 0 -0.1422681591119519 0.36289350858316322 0 -0.15874130784498061 0.37213542046662212 0 -0.1642142843906749 0.3789418502636645 0 -0.1489802686125267 0.38257497248127392 0 -0.1422681591119519 0.36289350858316322 0 -0.15552397359905151 0.35856797270850038 0 -0.1422681591119519 0.36289350858316322 0 -0.15874130784498061 0.37213542046662212 0 -0.1422681591119519 0.36289350858316322 0 -0.13774544015442541 0.3595862213862932 0 -0.12881796099468981 0.36725667352730101 0 -0.13238272395945991 0.37847398983736519 0 -0.12881796099468981 0.36725667352730101 0 -0.114951385737499 0.37611001703161828 0 -0.1422681591119519 0.36289350858316322 0 -0.13774544015442541 0.3595862213862932 0 -0.13238272395945991 0.37847398983736519 0 -0.1422681591119519 0.36289350858316322 0 -0.13238272395945991 0.37847398983736519 0 -0.1422681591119519 0.36289350858316322 0 -0.12881796099468981 0.36725667352730101 0 -0.13774544015442541 0.3595862213862932 0 -0.12881796099468981 0.36725667352730101 0 -0.13085154266849261 0.35745626259395852 0 -0.12881796099468981 0.36725667352730101 0 -0.13085154266849261 0.35745626259395852 0 -0.1223522029902982 0.35608225162756879 0 -0.13085154266849261 0.35745626259395852 0 -0.1344905665345571 0.34689990383467079 0 -0.1223522029902982 0.35608225162756879 0 -0.1344905665345571 0.34689990383467079 0 -0.1215793900664241 0.33965542352680428 0 -0.1223522029902982 0.35608225162756879 0 -0.13774544015442541 0.3595862213862932 0 -0.13085154266849261 0.35745626259395852 0 -0.1344905665345571 0.34689990383467079 0 -0.13871584827508379 0.32805163350527011 0 -0.1213981112161233 0.32606083512094008 0 -0.1215793900664241 0.33965542352680428 0 -0.1344905665345571 0.34689990383467079 0 -0.13871584827508379 0.32805163350527011 0 -0.1215793900664241 0.33965542352680428 0 -0.13871584827508379 0.32805163350527011 0 -0.122665507124936 0.30739316482981133 0 -0.1213981112161233 0.32606083512094008 0 -0.13871584827508379 0.32805163350527011 0 -0.1433184724342442 0.30536206331891741 0 -0.122665507124936 0.30739316482981133 0 -0.13871584827508379 0.32805163350527011 0 -0.1692166408361446 0.32041987865629651 0 -0.1433184724342442 0.30536206331891741 0 -0.1344905665345571 0.34689990383467079 0 -0.13871584827508379 0.32805163350527011 0 -0.15574239997404821 0.34165669361972989 0 -0.13871584827508379 0.32805163350527011 0 -0.15574239997404821 0.34165669361972989 0 -0.1692166408361446 0.32041987865629651 0 -0.15574239997404821 0.34165669361972989 0 -0.16882657531294051 0.33343050367394028 0 -0.16727942812343491 0.34541839291957183 0 -0.16882657531294051 0.33343050367394028 0 -0.1740652221397718 0.31676208059972089 0 -0.17253785706623809 0.33742704001517521 0 -0.15574239997404821 0.34165669361972989 0 -0.1692166408361446 0.32041987865629651 0 -0.15574239997404821 0.34165669361972989 0 -0.16882657531294051 0.33343050367394028 0 -0.1692166408361446 0.32041987865629651 0 -0.17253785706623809 0.33742704001517521 0 -0.17248005025835489 0.34536210115862542 0 -0.16727942812343491 0.34541839291957183 0 -0.16882657531294051 0.33343050367394028 0 -0.17253785706623809 0.33742704001517521 0 -0.16727942812343491 0.34541839291957183 0 -0.16882657531294051 0.33343050367394028 0 -0.1692166408361446 0.32041987865629651 0 -0.1740652221397718 0.31676208059972089 0 -0.18300185264204469 0.32280423575908729 0 -0.1740652221397718 0.31676208059972089 0 -0.17819295282042311 0.34345902717413063 0 -0.18300185264204469 0.32280423575908729 0 -0.1740652221397718 0.31676208059972089 0 -0.18269088169824049 0.29918306369286279 0 -0.18300185264204469 0.32280423575908729 0 -0.17819295282042311 0.34345902717413063 0 -0.18331282358584941 0.34642540782531189 0 -0.1740652221397718 0.31676208059972089 0 -0.17819295282042311 0.34345902717413063 0 -0.1740652221397718 0.31676208059972089 0 -0.17253785706623809 0.33742704001517521 0 -0.17819295282042311 0.34345902717413063 0 -0.18300185264204469 0.32280423575908729 0 -0.18331282358584941 0.34642540782531189 0 -0.17253785706623809 0.33742704001517521 0 -0.17819295282042311 0.34345902717413063 0 -0.17248005025835489 0.34536210115862542 0 -0.17819295282042311 0.34345902717413063 0 -0.17266476351591969 0.35237730914779941 0 -0.18362379452965399 0.37004657989153639 0 -0.17819295282042311 0.34345902717413063 0 -0.18331282358584941 0.34642540782531189 0 -0.18362379452965399 0.37004657989153639 0 -0.17819295282042311 0.34345902717413063 0 -0.18362379452965399 0.37004657989153639 0 -0.18331282358584941 0.34642540782531189 0 -0.18362379452965399 0.37004657989153639 0 -0.19396205315185269 0.35773027909378607 0 -0.18331282358584941 0.34642540782531189 0 -0.18362379452965399 0.37004657989153639 0 -0.17819295282042311 0.34345902717413063 0 -0.17266476351591969 0.35237730914779941 0 -0.17248005025835489 0.34536210115862542 0 -0.17266476351591969 0.35237730914779941 0 -0.16727942812343491 0.34541839291957183 0 -0.16404697378228 0.35342911006401911 0 -0.15552397359905151 0.35856797270850038 0 -0.15574239997404821 0.34165669361972989 0 -0.16404697378228 0.35342911006401911 0 -0.17266476351591969 0.35237730914779941 0 -0.17248005025835489 0.34536210115862542 0 -0.16727942812343491 0.34541839291957183 0 -0.17266476351591969 0.35237730914779941 0 -0.1697011683865553 0.35883091161224728 0 -0.16404697378228 0.35342911006401911 0 -0.1697011683865553 0.35883091161224728 0 -0.16404697378228 0.35342911006401911 0 -0.1633701090946704 0.36372338037626623 0 -0.15552397359905151 0.35856797270850038 0 -0.16404697378228 0.35342911006401911 0 -0.1633701090946704 0.36372338037626623 0 -0.15574239997404821 0.34165669361972989 0 -0.16727942812343491 0.34541839291957183 0 -0.16404697378228 0.35342911006401911 0 -0.15874130784498061 0.37213542046662212 0 -0.18362379452965399 0.37004657989153639 0 -0.15874130784498061 0.37213542046662212 0 -0.1633701090946704 0.36372338037626623 0 -0.18362379452965399 0.37004657989153639 0 -0.15552397359905151 0.35856797270850038 0 -0.15874130784498061 0.37213542046662212 0 -0.1633701090946704 0.36372338037626623 0 -0.17266476351591969 0.35237730914779941 0 -0.1697011683865553 0.35883091161224728 0 -0.18362379452965399 0.37004657989153639 0 -0.1697011683865553 0.35883091161224728 0 -0.1633701090946704 0.36372338037626623 0 -0.18362379452965399 0.37004657989153639 0 -0.1744309637910503 0.37769149803556362 0 -0.15874130784498061 0.37213542046662212 0 -0.18362379452965399 0.37004657989153639 0 -0.18374665136976759 0.37937871402705908 0 -0.18362379452965399 0.37004657989153639 0 -0.1927326532436788 0.38193994064591369 0 -0.18362379452965399 0.37004657989153639 0 -0.20402060209966261 0.36833430411321649 0 -0.18362379452965399 0.37004657989153639 0 -0.20402060209966261 0.36833430411321649 0 -0.18362379452965399 0.37004657989153639 0 -0.19396205315185269 0.35773027909378607 0 -0.20402060209966261 0.36833430411321649 0 -0.19396205315185269 0.35773027909378607 0 -0.208999317395312 0.3446492875548014 0 -0.20402060209966261 0.36833430411321649 0 -0.18331282358584941 0.34642540782531189 0 -0.19396205315185269 0.35773027909378607 0 -0.208999317395312 0.3446492875548014 0 -0.208999317395312 0.3446492875548014 0 -0.20402060209966261 0.36833430411321649 0 -0.22441740966967141 0.36662202833489849 0 -0.20402060209966261 0.36833430411321649 0 -0.22441740966967141 0.36662202833489849 0 -0.21798062289891881 0.38062313327343511 0 -0.20402060209966261 0.36833430411321649 0 -0.22441740966967141 0.36662202833489849 0 -0.208999317395312 0.3446492875548014 0 -0.23479591562654789 0.35148704487088239 0 -0.2313273246892763 0.33558392302215828 0 -0.208999317395312 0.3446492875548014 0 -0.22441740966967141 0.36662202833489849 0 -0.23479591562654789 0.35148704487088239 0 -0.25002058798003007 0.3320526588471332 0 -0.26243222306204511 0.35090504016953772 0 -0.23479591562654789 0.35148704487088239 0 -0.26243222306204511 0.35090504016953772 0 -0.23479591562654789 0.35148704487088239 0 -0.24481421723968019 0.36490975255658048 0 -0.22441740966967141 0.36662202833489849 0 -0.24481421723968019 0.36490975255658048 0 -0.24074374520667241 0.38242687998337299 0 -0.22441740966967141 0.36662202833489849 0 -0.24481421723968019 0.36490975255658048 0 -0.22441740966967141 0.36662202833489849 0 -0.23479591562654789 0.35148704487088239 0 -0.24481421723968019 0.36490975255658048 0 -0.25717133997193298 0.37426095615225607 0 -0.24074374520667241 0.38242687998337299 0 -0.24481421723968019 0.36490975255658048 0 -0.25616918259472732 0.30236015827283808 0 -0.25002058798003007 0.3320526588471332 0 -0.23403114015321011 0.31709209002172778 0 -0.25002058798003007 0.3320526588471332 0 -0.23479591562654789 0.35148704487088239 0 -0.2313273246892763 0.33558392302215828 0 -0.25002058798003007 0.3320526588471332 0 -0.2313273246892763 0.33558392302215828 0 -0.23403114015321011 0.31709209002172778 0 -0.208999317395312 0.3446492875548014 0 -0.2313273246892763 0.33558392302215828 0 -0.21850591254547599 0.32628872173457818 0 -0.23403114015321011 0.31709209002172778 0 -0.21850591254547599 0.32628872173457818 0 -0.21603293622121081 0.30879617143541382 0 -0.2313273246892763 0.33558392302215828 0 -0.23403114015321011 0.31709209002172778 0 -0.21850591254547599 0.32628872173457818 0 -0.21850591254547599 0.32628872173457818 0 -0.20213884426837089 0.32532213663878978 0 -0.21603293622121081 0.30879617143541382 0 -0.20213884426837089 0.32532213663878978 0 -0.19725183072938909 0.30509230858372249 0 -0.21603293622121081 0.30879617143541382 0 -0.208999317395312 0.3446492875548014 0 -0.21850591254547599 0.32628872173457818 0 -0.20213884426837089 0.32532213663878978 0 -0.18331282358584941 0.34642540782531189 0 -0.208999317395312 0.3446492875548014 0 -0.20213884426837089 0.32532213663878978 0 -0.18300185264204469 0.32280423575908729 0 -0.18331282358584941 0.34642540782531189 0 -0.20213884426837089 0.32532213663878978 0 -0.18300185264204469 0.32280423575908729 0 -0.20213884426837089 0.32532213663878978 0 -0.19725183072938909 0.30509230858372249 0 -0.19725183072938909 0.30509230858372249 0 -0.1906964717749009 0.28656541518329992 0 -0.18269088169824049 0.29918306369286279 0 -0.18300185264204469 0.32280423575908729 0 -0.19725183072938909 0.30509230858372249 0 -0.18269088169824049 0.29918306369286279 0 -0.19725183072938909 0.30509230858372249 0 -0.1906964717749009 0.28656541518329992 0 -0.20894999777156681 0.28788282879288141 0 -0.1906964717749009 0.28656541518329992 0 -0.20894999777156681 0.28788282879288141 0 -0.19560748054403571 0.27391850694798181 0 -0.19725183072938909 0.30509230858372249 0 -0.20894999777156681 0.28788282879288141 0 -0.21603293622121081 0.30879617143541382 0 -0.20894999777156681 0.28788282879288141 0 -0.21603293622121081 0.30879617143541382 0 -0.23010937568771669 0.29589673977315029 0 -0.23403114015321011 0.31709209002172778 0 -0.21603293622121081 0.30879617143541382 0 -0.23010937568771669 0.29589673977315029 0 -0.20894999777156681 0.28788282879288141 0 -0.23010937568771669 0.29589673977315029 0 -0.2234747025956966 0.27824585991597089 0 -0.23010937568771669 0.29589673977315029 0 -0.24190471242523851 0.27972751922608308 0 -0.2234747025956966 0.27824585991597089 0 -0.25616918259472732 0.30236015827283808 0 -0.24190471242523851 0.27972751922608308 0 -0.25616918259472732 0.30236015827283808 0 -0.23010937568771669 0.29589673977315029 0 -0.24190471242523851 0.27972751922608308 0 -0.25616918259472732 0.30236015827283808 0 -0.23403114015321011 0.31709209002172778 0 -0.23010937568771669 0.29589673977315029 0 -0.24943129659764751 0.26000894523212309 0 -0.24190471242523851 0.27972751922608308 0 -0.22764024225575111 0.25709488017932702 0 -0.22764024225575111 0.25709488017932702 0 -0.2468893326351202 0.24329134098969171 0 -0.24943129659764751 0.26000894523212309 0 -0.22764024225575111 0.25709488017932702 0 -0.2468893326351202 0.24329134098969171 0 -0.24190471242523851 0.27972751922608308 0 -0.22764024225575111 0.25709488017932702 0 -0.24190471242523851 0.27972751922608308 0 -0.2234747025956966 0.27824585991597089 0 -0.22764024225575111 0.25709488017932702 0 -0.2234747025956966 0.27824585991597089 0 -0.22764024225575111 0.25709488017932702 0 -0.20876918483820989 0.27062733160841262 0 -0.22764024225575111 0.25709488017932702 0 -0.21239874098331929 0.25437807278244762 0 -0.20876918483820989 0.27062733160841262 0 -0.22764024225575111 0.25709488017932702 0 -0.20876918483820989 0.27062733160841262 0 -0.21239874098331929 0.25437807278244762 0 -0.20876918483820989 0.27062733160841262 0 -0.2025020270240801 0.26019521754276942 0 -0.21239874098331929 0.25437807278244762 0 -0.2025020270240801 0.26019521754276942 0 -0.2046840695697589 0.2451395929661444 0 -0.20894999777156681 0.28788282879288141 0 -0.2234747025956966 0.27824585991597089 0 -0.20876918483820989 0.27062733160841262 0 -0.20894999777156681 0.28788282879288141 0 -0.20876918483820989 0.27062733160841262 0 -0.19560748054403571 0.27391850694798181 0 -0.19560748054403571 0.27391850694798181 0 -0.18940688912330481 0.25610334311205268 0 -0.18232207730982461 0.27116889680334472 0 -0.20876918483820989 0.27062733160841262 0 -0.19560748054403571 0.27391850694798181 0 -0.2025020270240801 0.26019521754276942 0 -0.1906964717749009 0.28656541518329992 0 -0.19560748054403571 0.27391850694798181 0 -0.18232207730982461 0.27116889680334472 0 -0.19560748054403571 0.27391850694798181 0 -0.2025020270240801 0.26019521754276942 0 -0.18940688912330481 0.25610334311205268 0 -0.2025020270240801 0.26019521754276942 0 -0.18940688912330481 0.25610334311205268 0 -0.2046840695697589 0.2451395929661444 0 -0.18940688912330481 0.25610334311205268 0 -0.17508206900779469 0.25918785244088571 0 -0.18195408303730121 0.23534357450296481 0 -0.18940688912330481 0.25610334311205268 0 -0.17508206900779469 0.25918785244088571 0 -0.18232207730982461 0.27116889680334472 0 -0.16225317791305921 0.25358582624422438 0 -0.1601147340924314 0.27132493958040771 0 -0.14746997276257359 0.25293699741112718 0 -0.17508206900779469 0.25918785244088571 0 -0.16225317791305921 0.25358582624422438 0 -0.1601147340924314 0.27132493958040771 0 -0.1601147340924314 0.27132493958040771 0 -0.18232207730982461 0.27116889680334472 0 -0.1715163911286523 0.28419500503467149 0 -0.17508206900779469 0.25918785244088571 0 -0.1601147340924314 0.27132493958040771 0 -0.18232207730982461 0.27116889680334472 0 -0.1906964717749009 0.28656541518329992 0 -0.18232207730982461 0.27116889680334472 0 -0.18269088169824049 0.29918306369286279 0 -0.18232207730982461 0.27116889680334472 0 -0.18269088169824049 0.29918306369286279 0 -0.1715163911286523 0.28419500503467149 0 -0.18232207730982461 0.27116889680334472 0 -0.18269088169824049 0.29918306369286279 0 -0.1906964717749009 0.28656541518329992 0 -0.18269088169824049 0.29918306369286279 0 -0.18300185264204469 0.32280423575908729 0 -0.18269088169824049 0.29918306369286279 0 -0.1692166408361446 0.32041987865629651 0 -0.18269088169824049 0.29918306369286279 0 -0.1692166408361446 0.32041987865629651 0 -0.1740652221397718 0.31676208059972089 0 -0.18269088169824049 0.29918306369286279 0 -0.1692166408361446 0.32041987865629651 0 -0.16093787141411231 0.2951031200620709 0 -0.1433184724342442 0.30536206331891741 0 -0.1692166408361446 0.32041987865629651 0 -0.18269088169824049 0.29918306369286279 0 -0.16093787141411231 0.2951031200620709 0 -0.18269088169824049 0.29918306369286279 0 -0.1715163911286523 0.28419500503467149 0 -0.16093787141411231 0.2951031200620709 0 -0.1601147340924314 0.27132493958040771 0 -0.1715163911286523 0.28419500503467149 0 -0.16093787141411231 0.2951031200620709 0 -0.1601147340924314 0.27132493958040771 0 -0.16093787141411231 0.2951031200620709 0 -0.140940242444347 0.28770890845956881 0 -0.16093787141411231 0.2951031200620709 0 -0.140940242444347 0.28770890845956881 0 -0.16093787141411231 0.2951031200620709 0 -0.140940242444347 0.28770890845956881 0 -0.1433184724342442 0.30536206331891741 0 -0.1433184724342442 0.30536206331891741 0 -0.12743472451084159 0.29349567440048657 0 -0.122665507124936 0.30739316482981133 0 -0.140940242444347 0.28770890845956881 0 -0.1433184724342442 0.30536206331891741 0 -0.12743472451084159 0.29349567440048657 0 -0.140940242444347 0.28770890845956881 0 -0.1209426134745812 0.28031469685706822 0 -0.140940242444347 0.28770890845956881 0 -0.12743472451084159 0.29349567440048657 0 -0.1209426134745812 0.28031469685706822 0 -0.140940242444347 0.28770890845956881 0 -0.12748957136376979 0.2697364722205553 0 -0.1209426134745812 0.28031469685706822 0 -0.140940242444347 0.28770890845956881 0 -0.1385418352730507 0.26582091200169278 0 -0.12748957136376979 0.2697364722205553 0 -0.1385418352730507 0.26582091200169278 0 -0.1252623291810667 0.25912953992318971 0 -0.13357218109292621 0.2499317644564327 0 -0.1385418352730507 0.26582091200169278 0 -0.14746997276257359 0.25293699741112718 0 -0.13357218109292621 0.2499317644564327 0 -0.1385418352730507 0.26582091200169278 0 -0.12748957136376979 0.2697364722205553 0 -0.1252623291810667 0.25912953992318971 0 -0.1252623291810667 0.25912953992318971 0 -0.13357218109292621 0.2499317644564327 0 -0.1213089330464012 0.24626659804535689 0 -0.1601147340924314 0.27132493958040771 0 -0.1385418352730507 0.26582091200169278 0 -0.14746997276257359 0.25293699741112718 0 -0.1601147340924314 0.27132493958040771 0 -0.140940242444347 0.28770890845956881 0 -0.1385418352730507 0.26582091200169278 0 -0.095230237001734636 0.27080743213428882 0 -0.101831548476812 0.26048951589785008 0 -0.1165241005361865 0.26558405137515151 0 -0.095230237001734636 0.27080743213428882 0 -0.1209426134745812 0.28031469685706822 0 -0.095230237001734636 0.27080743213428882 0 -0.101831548476812 0.26048951589785008 0 -0.101831548476812 0.26048951589785008 0 -0.112097455783086 0.24444379951602521 0 -0.096974545082976191 0.25880538532589209 0 -0.101831548476812 0.26048951589785008 0 -0.112097455783086 0.24444379951602521 0 -0.095230237001734636 0.27080743213428882 0 -0.096974545082976191 0.25880538532589209 0 -0.101831548476812 0.26048951589785008 0 -0.096974545082976191 0.25880538532589209 0 -0.101831548476812 0.26048951589785008 0 -0.101831548476812 0.26048951589785008 0 -0.1165241005361865 0.26558405137515151 0 -0.101831548476812 0.26048951589785008 0 -0.11521273165378559 0.25497892835963998 0 -0.112097455783086 0.24444379951602521 0 -0.101831548476812 0.26048951589785008 0 -0.1165241005361865 0.26558405137515151 0 -0.11521273165378559 0.25497892835963998 0 -0.1252623291810667 0.25912953992318971 0 -0.11521273165378559 0.25497892835963998 0 -0.1213089330464012 0.24626659804535689 0 -0.12748957136376979 0.2697364722205553 0 -0.1252623291810667 0.25912953992318971 0 -0.1165241005361865 0.26558405137515151 0 -0.1252623291810667 0.25912953992318971 0 -0.1165241005361865 0.26558405137515151 0 -0.11521273165378559 0.25497892835963998 0 -0.12748957136376979 0.2697364722205553 0 -0.1165241005361865 0.26558405137515151 0 -0.11826192468166601 0.27279143104315778 0 -0.095230237001734636 0.27080743213428882 0 -0.1165241005361865 0.26558405137515151 0 -0.11826192468166601 0.27279143104315778 0 -0.095230237001734636 0.27080743213428882 0 -0.11826192468166601 0.27279143104315778 0 -0.1209426134745812 0.28031469685706822 0 -0.12748957136376979 0.2697364722205553 0 -0.11826192468166601 0.27279143104315778 0 -0.1209426134745812 0.28031469685706822 0 -0.1209426134745812 0.28031469685706822 0 -0.099156256926613839 0.29556062278638268 0 -0.12743472451084159 0.29349567440048657 0 -0.1209426134745812 0.28031469685706822 0 -0.099156256926613839 0.29556062278638268 0 -0.12743472451084159 0.29349567440048657 0 -0.122665507124936 0.30739316482981133 0 -0.099156256926613839 0.29556062278638268 0 -0.1041414057358224 0.31201579539373148 0 -0.099156256926613839 0.29556062278638268 0 -0.091673901452025128 0.31746800270450398 0 -0.122665507124936 0.30739316482981133 0 -0.1041414057358224 0.31201579539373148 0 -0.099156256926613839 0.29556062278638268 0 -0.095230237001734636 0.27080743213428882 0 -0.1209426134745812 0.28031469685706822 0 -0.099156256926613839 0.29556062278638268 0 -0.081993310338176556 0.29149688165626692 0 -0.071574905525993715 0.28647654560898889 0 -0.088307373389434785 0.26824767274871397 0 -0.095230237001734636 0.27080743213428882 0 -0.099156256926613839 0.29556062278638268 0 -0.081993310338176556 0.29149688165626692 0 -0.099156256926613839 0.29556062278638268 0 -0.0773699003786468 0.31080654871569757 0 -0.091673901452025128 0.31746800270450398 0 -0.099156256926613839 0.29556062278638268 0 -0.0773699003786468 0.31080654871569757 0 -0.081993310338176556 0.29149688165626692 0 -0.0773699003786468 0.31080654871569757 0 -0.099156256926613839 0.29556062278638268 0 -0.081993310338176556 0.29149688165626692 0 -0.0773699003786468 0.31080654871569757 0 -0.081993310338176556 0.29149688165626692 0 -0.0773699003786468 0.31080654871569757 0 -0.07000108740115632 0.31024084673351238 0 -0.081993310338176556 0.29149688165626692 0 -0.07000108740115632 0.31024084673351238 0 -0.07082691849754412 0.29686868922251758 0 -0.081993310338176556 0.29149688165626692 0 -0.07000108740115632 0.31024084673351238 0 -0.06406362287003417 0.30105685935529619 0 -0.07000108740115632 0.31024084673351238 0 -0.07082691849754412 0.29686868922251758 0 -0.06406362287003417 0.30105685935529619 0 -0.07000108740115632 0.31024084673351238 0 -0.05903493703298672 0.30842013861035528 0 -0.081993310338176556 0.29149688165626692 0 -0.071574905525993715 0.28647654560898889 0 -0.07082691849754412 0.29686868922251758 0 -0.071574905525993715 0.28647654560898889 0 -0.07082691849754412 0.29686868922251758 0 -0.064150197611200194 0.29028153745804169 0 -0.06406362287003417 0.30105685935529619 0 -0.07082691849754412 0.29686868922251758 0 -0.064150197611200194 0.29028153745804169 0 -0.071574905525993715 0.28647654560898889 0 -0.064150197611200194 0.29028153745804169 0 -0.066272470786091969 0.27951596978905408 0 -0.066272470786091969 0.27951596978905408 0 -0.064867048676514966 0.26815492676469338 0 -0.075116873927680253 0.27479103085629453 0 -0.066272470786091969 0.27951596978905408 0 -0.064867048676514966 0.26815492676469338 0 -0.056753075498150757 0.28085207326825551 0 -0.064867048676514966 0.26815492676469338 0 -0.075116873927680253 0.27479103085629453 0 -0.074399806026204385 0.26466482186588819 0 -0.075116873927680253 0.27479103085629453 0 -0.079975847673146208 0.26885948770409202 0 -0.074399806026204385 0.26466482186588819 0 -0.071574905525993715 0.28647654560898889 0 -0.066272470786091969 0.27951596978905408 0 -0.075116873927680253 0.27479103085629453 0 -0.095230237001734636 0.27080743213428882 0 -0.081993310338176556 0.29149688165626692 0 -0.095230237001734636 0.27080743213428882 0 -0.081993310338176556 0.29149688165626692 0 -0.088307373389434785 0.26824767274871397 0 -0.071574905525993715 0.28647654560898889 0 -0.088307373389434785 0.26824767274871397 0 -0.071574905525993715 0.28647654560898889 0 -0.075116873927680253 0.27479103085629453 0 -0.088307373389434785 0.26824767274871397 0 -0.079975847673146208 0.26885948770409202 0 -0.084329260359261832 0.26677674789216088 0 -0.074399806026204385 0.26466482186588819 0 -0.075116873927680253 0.27479103085629453 0 -0.079975847673146208 0.26885948770409202 0 -0.088307373389434785 0.26824767274871397 0 -0.079975847673146208 0.26885948770409202 0 -0.084329260359261832 0.26677674789216088 0 -0.088307373389434785 0.26824767274871397 0 -0.095230237001734636 0.27080743213428882 0 -0.096974545082976191 0.25880538532589209 0 -0.088307373389434785 0.26824767274871397 0 -0.084329260359261832 0.26677674789216088 0 -0.088307373389434785 0.26824767274871397 0 -0.095230237001734636 0.27080743213428882 0 -0.088307373389434785 0.26824767274871397 0 -0.096974545082976191 0.25880538532589209 0 -0.073553522625709841 0.25068431627396631 0 -0.088715331182393942 0.2449718195011524 0 -0.096974545082976191 0.25880538532589209 0 -0.084329260359261832 0.26677674789216088 0 -0.073553522625709841 0.25068431627396631 0 -0.096974545082976191 0.25880538532589209 0 -0.073553522625709841 0.25068431627396631 0 -0.096974545082976191 0.25880538532589209 0 -0.088307373389434785 0.26824767274871397 0 -0.096974545082976191 0.25880538532589209 0 -0.084329260359261832 0.26677674789216088 0 -0.088307373389434785 0.26824767274871397 0 -0.084329260359261832 0.26677674789216088 0 -0.073553522625709841 0.25068431627396631 0 -0.074399806026204385 0.26466482186588819 0 -0.064867048676514966 0.26815492676469338 0 -0.073553522625709841 0.25068431627396631 0 -0.050450936449665702 0.26047062327699849 0 -0.064867048676514966 0.26815492676469338 0 -0.073553522625709841 0.25068431627396631 0 -0.074399806026204385 0.26466482186588819 0 -0.073553522625709841 0.25068431627396631 0 -0.050450936449665702 0.26047062327699849 0 -0.050132500168443887 0.2425632472220397 0 -0.064867048676514966 0.26815492676469338 0 -0.050450936449665702 0.26047062327699849 0 -0.056753075498150757 0.28085207326825551 0 -0.050450936449665702 0.26047062327699849 0 -0.056753075498150757 0.28085207326825551 0 -0.041567118232982071 0.28155035039042642 0 -0.050450936449665702 0.26047062327699849 0 -0.032664289439585513 0.26886008103247921 0 -0.041567118232982071 0.28155035039042642 0 -0.032664289439585513 0.26886008103247921 0 -0.025724023578003428 0.28484302527062832 0 -0.041567118232982071 0.28155035039042642 0 -0.050450936449665702 0.26047062327699849 0 -0.032664289439585513 0.26886008103247921 0 -0.029881977245259539 0.25372898958001938 0 -0.050450936449665702 0.26047062327699849 0 -0.029881977245259539 0.25372898958001938 0 -0.050132500168443887 0.2425632472220397 0 -0.029881977245259539 0.25372898958001938 0 -0.019473314891880141 0.26767922737850353 0 -0.0082457657602449386 0.25246627485226031 0 -0.032664289439585513 0.26886008103247921 0 -0.029881977245259539 0.25372898958001938 0 -0.019473314891880141 0.26767922737850353 0 -0.019473314891880141 0.26767922737850353 0 -0.0042610585373493576 0.2771562680236046 0 -0.025724023578003428 0.28484302527062832 0 -0.032664289439585513 0.26886008103247921 0 -0.019473314891880141 0.26767922737850353 0 -0.025724023578003428 0.28484302527062832 0 -0.019473314891880141 0.26767922737850353 0 -0.0042610585373493576 0.2771562680236046 0 -0.0082457657602449386 0.25246627485226031 0 -0.0042610585373493576 0.2771562680236046 0 -0.0082457657602449386 0.25246627485226031 0 0.0071094060709509964 0.26564087220093879 0 -0.0069555348311276686 0.31079851600377723 0 -0.00058836015198596755 0.32088344941533808 0 0.0054341821912287152 0.30403492879740468 0 -0.013098506886936411 0.29875518722530359 0 -0.0069555348311276686 0.31079851600377723 0 0.0054341821912287152 0.30403492879740468 0 -0.013098506886936411 0.29875518722530359 0 -0.0069555348311276686 0.31079851600377723 0 -0.020687787070248039 0.31403805852116051 0 -0.0042610585373493576 0.2771562680236046 0 -0.013098506886936411 0.29875518722530359 0 -0.025724023578003428 0.28484302527062832 0 -0.0042610585373493576 0.2771562680236046 0 -0.013098506886936411 0.29875518722530359 0 0.0054341821912287152 0.30403492879740468 0 -0.013098506886936411 0.29875518722530359 0 -0.025724023578003428 0.28484302527062832 0 -0.02904570801181227 0.30414560716861699 0 -0.013098506886936411 0.29875518722530359 0 -0.02904570801181227 0.30414560716861699 0 -0.020687787070248039 0.31403805852116051 0 -0.02904570801181227 0.30414560716861699 0 -0.034308890996313193 0.31619803717231232 0 -0.020687787070248039 0.31403805852116051 0 -0.02904570801181227 0.30414560716861699 0 -0.04581664775108537 0.30961879620062571 0 -0.039958169045478269 0.29575445567546388 0 -0.02904570801181227 0.30414560716861699 0 -0.04581664775108537 0.30961879620062571 0 -0.034308890996313193 0.31619803717231232 0 -0.025724023578003428 0.28484302527062832 0 -0.02904570801181227 0.30414560716861699 0 -0.039958169045478269 0.29575445567546388 0 -0.025724023578003428 0.28484302527062832 0 -0.039958169045478269 0.29575445567546388 0 -0.041567118232982071 0.28155035039042642 0 -0.039958169045478269 0.29575445567546388 0 -0.041567118232982071 0.28155035039042642 0 -0.055410192489386563 0.29691908750413831 0 -0.056753075498150757 0.28085207326825551 0 -0.041567118232982071 0.28155035039042642 0 -0.055410192489386563 0.29691908750413831 0 -0.064150197611200194 0.29028153745804169 0 -0.056753075498150757 0.28085207326825551 0 -0.055410192489386563 0.29691908750413831 0 -0.06406362287003417 0.30105685935529619 0 -0.064150197611200194 0.29028153745804169 0 -0.055410192489386563 0.29691908750413831 0 -0.064150197611200194 0.29028153745804169 0 -0.066272470786091969 0.27951596978905408 0 -0.056753075498150757 0.28085207326825551 0 -0.04581664775108537 0.30961879620062571 0 -0.055410192489386563 0.29691908750413831 0 -0.05903493703298672 0.30842013861035528 0 -0.04581664775108537 0.30961879620062571 0 -0.039958169045478269 0.29575445567546388 0 -0.055410192489386563 0.29691908750413831 0 -0.06406362287003417 0.30105685935529619 0 -0.055410192489386563 0.29691908750413831 0 -0.05903493703298672 0.30842013861035528 0 -0.04581664775108537 0.30961879620062571 0 -0.05999398685661865 0.32296608029812152 0 -0.042756171354298787 0.3224483405388896 0 -0.05999398685661865 0.32296608029812152 0 -0.04261807333459134 0.33512561188054663 0 -0.042756171354298787 0.3224483405388896 0 -0.04581664775108537 0.30961879620062571 0 -0.05903493703298672 0.30842013861035528 0 -0.05999398685661865 0.32296608029812152 0 -0.05999398685661865 0.32296608029812152 0 -0.056804034856699187 0.33429177223338907 0 -0.04261807333459134 0.33512561188054663 0 -0.056804034856699187 0.33429177223338907 0 -0.046192251460743447 0.34598703554363702 0 -0.071259793987160716 0.33632540193228971 0 -0.046192251460743447 0.34598703554363702 0 -0.071259793987160716 0.33632540193228971 0 -0.05999398685661865 0.32296608029812152 0 -0.04261807333459134 0.33512561188054663 0 -0.05999398685661865 0.32296608029812152 0 -0.056804034856699187 0.33429177223338907 0 -0.064831017760781137 0.32924814232959693 0 -0.056804034856699187 0.33429177223338907 0 -0.04261807333459134 0.33512561188054663 0 -0.046192251460743447 0.34598703554363702 0 -0.04261807333459134 0.33512561188054663 0 -0.034276320251641283 0.34282206612864702 0 -0.046192251460743447 0.34598703554363702 0 -0.04261807333459134 0.33512561188054663 0 -0.034276320251641283 0.34282206612864702 0 -0.031043257832885369 0.32833317714284199 0 -0.04261807333459134 0.33512561188054663 0 -0.042756171354298787 0.3224483405388896 0 -0.031043257832885369 0.32833317714284199 0 -0.04581664775108537 0.30961879620062571 0 -0.042756171354298787 0.3224483405388896 0 -0.034308890996313193 0.31619803717231232 0 -0.042756171354298787 0.3224483405388896 0 -0.034308890996313193 0.31619803717231232 0 -0.031043257832885369 0.32833317714284199 0 -0.020687787070248039 0.31403805852116051 0 -0.031043257832885369 0.32833317714284199 0 -0.01426308592107553 0.32709781564023149 0 -0.034308890996313193 0.31619803717231232 0 -0.020687787070248039 0.31403805852116051 0 -0.031043257832885369 0.32833317714284199 0 -0.025032962324117471 0.33875149869244531 0 -0.01426308592107553 0.32709781564023149 0 -0.014716180493599089 0.34442071988127893 0 -0.031043257832885369 0.32833317714284199 0 -0.025032962324117471 0.33875149869244531 0 -0.01426308592107553 0.32709781564023149 0 -0.034276320251641283 0.34282206612864702 0 -0.025032962324117471 0.33875149869244531 0 -0.023787543000920942 0.34541073846433867 0 -0.034276320251641283 0.34282206612864702 0 -0.031043257832885369 0.32833317714284199 0 -0.025032962324117471 0.33875149869244531 0 -0.025032962324117471 0.33875149869244531 0 -0.014716180493599089 0.34442071988127893 0 -0.023787543000920942 0.34541073846433867 0 -0.0025616559074486049 0.3329031852911295 0 -0.01426308592107553 0.32709781564023149 0 -0.014716180493599089 0.34442071988127893 0 -0.0025616559074486049 0.3329031852911295 0 -0.002583240235104544 0.34489224502179239 0 -0.014716180493599089 0.34442071988127893 0 -0.0069555348311276686 0.31079851600377723 0 -0.020687787070248039 0.31403805852116051 0 -0.01426308592107553 0.32709781564023149 0 -0.0025616559074486049 0.3329031852911295 0 -0.00058836015198596755 0.32088344941533808 0 -0.01426308592107553 0.32709781564023149 0 -0.0069555348311276686 0.31079851600377723 0 -0.00058836015198596755 0.32088344941533808 0 -0.01426308592107553 0.32709781564023149 0 -0.012102714267097759 0.36590539057294968 0 -0.001064505034491721 0.37161458349227261 0 0.0039428335920915006 0.36531030276633031 0 -0.021124708934325921 0.35564866915498361 0 0.0039428335920915006 0.36531030276633031 0 -0.001064505034491721 0.37161458349227261 0 -0.017677659244944521 0.37122807787390621 0 -0.017803283764421592 0.37921609746689411 0 -0.012102714267097759 0.36590539057294968 0 -0.001064505034491721 0.37161458349227261 0 -0.017677659244944521 0.37122807787390621 0 -0.012102714267097759 0.36590539057294968 0 -0.021124708934325921 0.35564866915498361 0 0.0039428335920915006 0.36531030276633031 0 -0.0064988099748367559 0.35299106404641623 0 -0.021124708934325921 0.35564866915498361 0 0.0039428335920915006 0.36531030276633031 0 -0.0064988099748367559 0.35299106404641623 0 -0.002583240235104544 0.34489224502179239 0 0.0032447233134405931 0.35422125060834359 0 -0.0064988099748367559 0.35299106404641623 0 -0.002583240235104544 0.34489224502179239 0 -0.014716180493599089 0.34442071988127893 0 -0.0064988099748367559 0.35299106404641623 0 -0.014716180493599089 0.34442071988127893 0 -0.021124708934325921 0.35564866915498361 0 -0.021124708934325921 0.35564866915498361 0 -0.03312405361854439 0.36059385714354403 0 -0.039104805720823227 0.35618275869992938 0 -0.014716180493599089 0.34442071988127893 0 -0.021124708934325921 0.35564866915498361 0 -0.023787543000920942 0.34541073846433867 0 -0.034276320251641283 0.34282206612864702 0 -0.021124708934325921 0.35564866915498361 0 -0.023787543000920942 0.34541073846433867 0 -0.021124708934325921 0.35564866915498361 0 -0.0246585823330631 0.36616539344166837 0 -0.03312405361854439 0.36059385714354403 0 -0.0246585823330631 0.36616539344166837 0 -0.033447590357386023 0.36570071259042941 0 -0.03312405361854439 0.36059385714354403 0 -0.012102714267097759 0.36590539057294968 0 -0.021124708934325921 0.35564866915498361 0 -0.0246585823330631 0.36616539344166837 0 -0.017677659244944521 0.37122807787390621 0 -0.032897312064139907 0.37411907212457252 0 -0.017803283764421592 0.37921609746689411 0 -0.012102714267097759 0.36590539057294968 0 -0.0246585823330631 0.36616539344166837 0 -0.017677659244944521 0.37122807787390621 0 -0.0246585823330631 0.36616539344166837 0 -0.017677659244944521 0.37122807787390621 0 -0.032897312064139907 0.37411907212457252 0 -0.0246585823330631 0.36616539344166837 0 -0.032897312064139907 0.37411907212457252 0 -0.0246585823330631 0.36616539344166837 0 -0.032897312064139907 0.37411907212457252 0 -0.033447590357386023 0.36570071259042941 0 -0.032897312064139907 0.37411907212457252 0 -0.059723517795068168 0.36506026769318489 0 -0.032897312064139907 0.37411907212457252 0 -0.033447590357386023 0.36570071259042941 0 -0.04311041341379776 0.36192452765193173 0 -0.032897312064139907 0.37411907212457252 0 -0.046925961112427347 0.36446589286881009 0 -0.059723517795068168 0.36506026769318489 0 -0.032897312064139907 0.37411907212457252 0 -0.049098878804771373 0.3725140996878949 0 -0.043775979817191349 0.37615739516056462 0 -0.03312405361854439 0.36059385714354403 0 -0.04311041341379776 0.36192452765193173 0 -0.039104805720823227 0.35618275869992938 0 -0.033447590357386023 0.36570071259042941 0 -0.03312405361854439 0.36059385714354403 0 -0.04311041341379776 0.36192452765193173 0 -0.032897312064139907 0.37411907212457252 0 -0.04311041341379776 0.36192452765193173 0 -0.046925961112427347 0.36446589286881009 0 -0.034276320251641283 0.34282206612864702 0 -0.021124708934325921 0.35564866915498361 0 -0.046192251460743447 0.34598703554363702 0 -0.021124708934325921 0.35564866915498361 0 -0.039104805720823227 0.35618275869992938 0 -0.046192251460743447 0.34598703554363702 0 -0.021124708934325921 0.35564866915498361 0 -0.046192251460743447 0.34598703554363702 0 -0.039104805720823227 0.35618275869992938 0 -0.046192251460743447 0.34598703554363702 0 -0.051972601176704672 0.35675970400555063 0 -0.04311041341379776 0.36192452765193173 0 -0.039104805720823227 0.35618275869992938 0 -0.051972601176704672 0.35675970400555063 0 -0.046192251460743447 0.34598703554363702 0 -0.066911938965716039 0.35448421406914471 0 -0.071259793987160716 0.33632540193228971 0 -0.046192251460743447 0.34598703554363702 0 -0.051972601176704672 0.35675970400555063 0 -0.066911938965716039 0.35448421406914471 0 -0.051972601176704672 0.35675970400555063 0 -0.059723517795068168 0.36506026769318489 0 -0.066911938965716039 0.35448421406914471 0 -0.032897312064139907 0.37411907212457252 0 -0.049098878804771373 0.3725140996878949 0 -0.059723517795068168 0.36506026769318489 0 -0.049098878804771373 0.3725140996878949 0 -0.056089193364373929 0.37273715424054699 0 -0.050724207312953518 0.37700173675436199 0 -0.051972601176704672 0.35675970400555063 0 -0.046925961112427347 0.36446589286881009 0 -0.059723517795068168 0.36506026769318489 0 -0.04311041341379776 0.36192452765193173 0 -0.051972601176704672 0.35675970400555063 0 -0.046925961112427347 0.36446589286881009 0 -0.049098878804771373 0.3725140996878949 0 -0.059723517795068168 0.36506026769318489 0 -0.056089193364373929 0.37273715424054699 0 -0.059723517795068168 0.36506026769318489 0 -0.056089193364373929 0.37273715424054699 0 -0.062564083944274151 0.37264302620600032 0 -0.062075486208271788 0.37468365416042188 0 -0.062564083944274151 0.37264302620600032 0 -0.062075486208271788 0.37468365416042188 0 -0.062564083944274151 0.37264302620600032 0 -0.064607287490063475 0.3752877934920828 0 -0.069626031180744216 0.37451783031500979 0 -0.079039419043354958 0.3748493973737258 0 -0.082597891671162132 0.35089307241393791 0 -0.062564083944274151 0.37264302620600032 0 -0.066911938965716039 0.35448421406914471 0 -0.062564083944274151 0.37264302620600032 0 -0.069626031180744216 0.37451783031500979 0 -0.064607287490063475 0.3752877934920828 0 -0.062564083944274151 0.37264302620600032 0 -0.069626031180744216 0.37451783031500979 0 -0.082597891671162132 0.35089307241393791 0 -0.062564083944274151 0.37264302620600032 0 -0.082597891671162132 0.35089307241393791 0 -0.059723517795068168 0.36506026769318489 0 -0.062564083944274151 0.37264302620600032 0 -0.066911938965716039 0.35448421406914471 0 -0.090941745129797052 0.36956363188929697 0 -0.082597891671162132 0.35089307241393791 0 -0.097939085056313616 0.35825468271447503 0 -0.079039419043354958 0.3748493973737258 0 -0.090941745129797052 0.36956363188929697 0 -0.082597891671162132 0.35089307241393791 0 -0.082597891671162132 0.35089307241393791 0 -0.097939085056313616 0.35825468271447503 0 -0.099795521962392192 0.34663223796478099 0 -0.066911938965716039 0.35448421406914471 0 -0.071259793987160716 0.33632540193228971 0 -0.082597891671162132 0.35089307241393791 0 -0.066911938965716039 0.35448421406914471 0 -0.079003984513522238 0.34200566120660753 0 -0.066911938965716039 0.35448421406914471 0 -0.071259793987160716 0.33632540193228971 0 -0.079003984513522238 0.34200566120660753 0 -0.062564083944274151 0.37264302620600032 0 -0.082597891671162132 0.35089307241393791 0 -0.066911938965716039 0.35448421406914471 0 -0.056804034856699187 0.33429177223338907 0 -0.064831017760781137 0.32924814232959693 0 -0.071259793987160716 0.33632540193228971 0 -0.071259793987160716 0.33632540193228971 0 -0.079659291821908368 0.33308803351003258 0 -0.071259793987160716 0.33632540193228971 0 -0.079003984513522238 0.34200566120660753 0 -0.079659291821908368 0.33308803351003258 0 -0.0773699003786468 0.31080654871569757 0 -0.07000108740115632 0.31024084673351238 0 -0.05999398685661865 0.32296608029812152 0 -0.0773699003786468 0.31080654871569757 0 -0.071259793987160716 0.33632540193228971 0 -0.0773699003786468 0.31080654871569757 0 -0.071259793987160716 0.33632540193228971 0 -0.079659291821908368 0.33308803351003258 0 -0.0773699003786468 0.31080654871569757 0 -0.05999398685661865 0.32296608029812152 0 -0.0773699003786468 0.31080654871569757 0 -0.064831017760781137 0.32924814232959693 0 -0.071259793987160716 0.33632540193228971 0 -0.0773699003786468 0.31080654871569757 0 -0.05999398685661865 0.32296608029812152 0 -0.064831017760781137 0.32924814232959693 0 -0.07000108740115632 0.31024084673351238 0 -0.05903493703298672 0.30842013861035528 0 -0.05999398685661865 0.32296608029812152 0 -0.091673901452025128 0.31746800270450398 0 -0.079659291821908368 0.33308803351003258 0 -0.1026316993980491 0.32914311862187462 0 -0.0773699003786468 0.31080654871569757 0 -0.091673901452025128 0.31746800270450398 0 -0.079659291821908368 0.33308803351003258 0 -0.082597891671162132 0.35089307241393791 0 -0.1026316993980491 0.32914311862187462 0 -0.082597891671162132 0.35089307241393791 0 -0.079003984513522238 0.34200566120660753 0 -0.1026316993980491 0.32914311862187462 0 -0.079003984513522238 0.34200566120660753 0 -0.079659291821908368 0.33308803351003258 0 -0.1026316993980491 0.32914311862187462 0 -0.082597891671162132 0.35089307241393791 0 -0.1026316993980491 0.32914311862187462 0 -0.099795521962392192 0.34663223796478099 0 -0.1026316993980491 0.32914311862187462 0 -0.11309959964963499 0.35023802862820708 0 -0.099795521962392192 0.34663223796478099 0 -0.1041414057358224 0.31201579539373148 0 -0.091673901452025128 0.31746800270450398 0 -0.1026316993980491 0.32914311862187462 0 -0.122665507124936 0.30739316482981133 0 -0.1041414057358224 0.31201579539373148 0 -0.1026316993980491 0.32914311862187462 0 -0.122665507124936 0.30739316482981133 0 -0.1026316993980491 0.32914311862187462 0 -0.1213981112161233 0.32606083512094008 0 -0.122665507124936 0.30739316482981133 0 -0.1026316993980491 0.32914311862187462 0 -0.1026316993980491 0.32914311862187462 0 -0.1215793900664241 0.33965542352680428 0 -0.11309959964963499 0.35023802862820708 0 -0.1026316993980491 0.32914311862187462 0 -0.1213981112161233 0.32606083512094008 0 -0.1215793900664241 0.33965542352680428 0 -0.1215793900664241 0.33965542352680428 0 -0.11309959964963499 0.35023802862820708 0 -0.1223522029902982 0.35608225162756879 0 -0.11309959964963499 0.35023802862820708 0 -0.1223522029902982 0.35608225162756879 0 -0.1091573093543224 0.361674516205302 0 -0.12881796099468981 0.36725667352730101 0 -0.1223522029902982 0.35608225162756879 0 -0.11881971476920231 0.36528086459794751 0 -0.12881796099468981 0.36725667352730101 0 -0.11881971476920231 0.36528086459794751 0 -0.114951385737499 0.37611001703161828 0 -0.11881971476920231 0.36528086459794751 0 -0.1091573093543224 0.361674516205302 0 -0.114951385737499 0.37611001703161828 0 -0.1223522029902982 0.35608225162756879 0 -0.11881971476920231 0.36528086459794751 0 -0.1091573093543224 0.361674516205302 0 -0.1091573093543224 0.361674516205302 0 -0.1012990589455684 0.36953412384373102 0 -0.097939085056313616 0.35825468271447503 0 -0.1091573093543224 0.361674516205302 0 -0.1012990589455684 0.36953412384373102 0 -0.114951385737499 0.37611001703161828 0 -0.090941745129797052 0.36956363188929697 0 -0.1012990589455684 0.36953412384373102 0 -0.098890550417286477 0.38099249480062602 0 -0.090941745129797052 0.36956363188929697 0 -0.1012990589455684 0.36953412384373102 0 -0.097939085056313616 0.35825468271447503 0 -0.11309959964963499 0.35023802862820708 0 -0.097939085056313616 0.35825468271447503 0 -0.099795521962392192 0.34663223796478099 0 -0.11309959964963499 0.35023802862820708 0 -0.1091573093543224 0.361674516205302 0 -0.097939085056313616 0.35825468271447503 0 -0.094424665366596924 0.39634464281418252 0 -0.11202845405726 0.40531330452479791 0 -0.098926296137628822 0.41605616341005208 0 -0.1085605322944487 0.39079571404043828 0 -0.094424665366596924 0.39634464281418252 0 -0.11202845405726 0.40531330452479791 0 -0.1085605322944487 0.39079571404043828 0 -0.098890550417286477 0.38099249480062602 0 -0.114951385737499 0.37611001703161828 0 -0.1085605322944487 0.39079571404043828 0 -0.094424665366596924 0.39634464281418252 0 -0.098890550417286477 0.38099249480062602 0 -0.1012990589455684 0.36953412384373102 0 -0.098890550417286477 0.38099249480062602 0 -0.114951385737499 0.37611001703161828 0 -0.1085605322944487 0.39079571404043828 0 -0.114951385737499 0.37611001703161828 0 -0.1224972888069677 0.39405447109156733 0 -0.13238272395945991 0.37847398983736519 0 -0.114951385737499 0.37611001703161828 0 -0.1224972888069677 0.39405447109156733 0 -0.1277268958593005 0.40709158096490278 0 -0.1224972888069677 0.39405447109156733 0 -0.11202845405726 0.40531330452479791 0 -0.1085605322944487 0.39079571404043828 0 -0.1224972888069677 0.39405447109156733 0 -0.11202845405726 0.40531330452479791 0 -0.11202845405726 0.40531330452479791 0 -0.12025274126089 0.42574105579372712 0 -0.098926296137628822 0.41605616341005208 0 -0.12025274126089 0.42574105579372712 0 -0.098926296137628822 0.41605616341005208 0 -0.1277268958593005 0.40709158096490278 0 -0.11202845405726 0.40531330452479791 0 -0.12025274126089 0.42574105579372712 0 -0.12025274126089 0.42574105579372712 0 -0.1161249595423428 0.42742254588607831 0 -0.098926296137628822 0.41605616341005208 0 -0.12509104342100061 0.44188941827772182 0 -0.1161249595423428 0.42742254588607831 0 -0.098677616465060528 0.43762344985591101 0 -0.1161249595423428 0.42742254588607831 0 -0.090695480784097504 0.41727281212483158 0 -0.1161249595423428 0.42742254588607831 0 -0.090695480784097504 0.41727281212483158 0 -0.098677616465060528 0.43762344985591101 0 -0.1161249595423428 0.42742254588607831 0 -0.098926296137628822 0.41605616341005208 0 -0.090695480784097504 0.41727281212483158 0 -0.098926296137628822 0.41605616341005208 0 -0.077599851014367602 0.40637127102637732 0 -0.094424665366596924 0.39634464281418252 0 -0.098926296137628822 0.41605616341005208 0 -0.077599851014367602 0.40637127102637732 0 -0.098926296137628822 0.41605616341005208 0 -0.090695480784097504 0.41727281212483158 0 -0.077599851014367602 0.40637127102637732 0 -0.090695480784097504 0.41727281212483158 0 -0.077599851014367602 0.40637127102637732 0 -0.077475511178084946 0.4171549142493044 0 -0.077475511178084946 0.4171549142493044 0 -0.098677616465060528 0.43762344985591101 0 -0.090695480784097504 0.41727281212483158 0 -0.077475511178084946 0.4171549142493044 0 -0.098677616465060528 0.43762344985591101 0 -0.077475511178084946 0.4171549142493044 0 -0.078698858269308614 0.44343419105434712 0 -0.098677616465060528 0.43762344985591101 0 -0.077475511178084946 0.4171549142493044 0 -0.059178928229814701 0.4365201208845606 0 -0.055106871557328428 0.42305161159228227 0 -0.077475511178084946 0.4171549142493044 0 -0.059178928229814701 0.4365201208845606 0 -0.078698858269308614 0.44343419105434712 0 -0.077475511178084946 0.4171549142493044 0 -0.056273405891107527 0.39668637864269979 0 -0.077599851014367602 0.40637127102637732 0 -0.077475511178084946 0.4171549142493044 0 -0.056273405891107527 0.39668637864269979 0 -0.077599851014367602 0.40637127102637732 0 -0.056273405891107527 0.39668637864269979 0 -0.077599851014367602 0.40637127102637732 0 -0.078331801269405671 0.3911923311589619 0 -0.056273405891107527 0.39668637864269979 0 -0.094424665366596924 0.39634464281418252 0 -0.077599851014367602 0.40637127102637732 0 -0.078331801269405671 0.3911923311589619 0 -0.094424665366596924 0.39634464281418252 0 -0.078331801269405671 0.3911923311589619 0 -0.087166581823546807 0.38268142547449258 0 -0.079039419043354958 0.3748493973737258 0 -0.078331801269405671 0.3911923311589619 0 -0.087166581823546807 0.38268142547449258 0 -0.090941745129797052 0.36956363188929697 0 -0.098890550417286477 0.38099249480062602 0 -0.087166581823546807 0.38268142547449258 0 -0.094424665366596924 0.39634464281418252 0 -0.098890550417286477 0.38099249480062602 0 -0.087166581823546807 0.38268142547449258 0 -0.079039419043354958 0.3748493973737258 0 -0.090941745129797052 0.36956363188929697 0 -0.087166581823546807 0.38268142547449258 0 -0.078331801269405671 0.3911923311589619 0 -0.070241768304658683 0.38125320512289401 0 -0.062400115896225239 0.38328565763688038 0 -0.078331801269405671 0.3911923311589619 0 -0.047880784994249512 0.38858413326022379 0 -0.069626031180744216 0.37451783031500979 0 -0.079039419043354958 0.3748493973737258 0 -0.070241768304658683 0.38125320512289401 0 -0.078331801269405671 0.3911923311589619 0 -0.062400115896225239 0.38328565763688038 0 -0.047880784994249512 0.38858413326022379 0 -0.079039419043354958 0.3748493973737258 0 -0.078331801269405671 0.3911923311589619 0 -0.070241768304658683 0.38125320512289401 0 -0.070241768304658683 0.38125320512289401 0 -0.064210651178174066 0.37904237845721811 0 -0.062400115896225239 0.38328565763688038 0 -0.069626031180744216 0.37451783031500979 0 -0.070241768304658683 0.38125320512289401 0 -0.064210651178174066 0.37904237845721811 0 -0.069626031180744216 0.37451783031500979 0 -0.064210651178174066 0.37904237845721811 0 -0.064607287490063475 0.3752877934920828 0 -0.062075486208271788 0.37468365416042188 0 -0.064210651178174066 0.37904237845721811 0 -0.064607287490063475 0.3752877934920828 0 -0.062075486208271788 0.37468365416042188 0 -0.064210651178174066 0.37904237845721811 0 -0.059083848751135488 0.37840884602566088 0 -0.059083848751135488 0.37840884602566088 0 -0.062400115896225239 0.38328565763688038 0 -0.054293362626053041 0.38162223819359442 0 -0.062075486208271788 0.37468365416042188 0 -0.062564083944274151 0.37264302620600032 0 -0.059083848751135488 0.37840884602566088 0 -0.062564083944274151 0.37264302620600032 0 -0.054293362626053041 0.38162223819359442 0 -0.062564083944274151 0.37264302620600032 0 -0.059083848751135488 0.37840884602566088 0 -0.054293362626053041 0.38162223819359442 0 -0.056089193364373929 0.37273715424054699 0 -0.062564083944274151 0.37264302620600032 0 -0.054293362626053041 0.38162223819359442 0 -0.059083848751135488 0.37840884602566088 0 -0.054293362626053041 0.38162223819359442 0 -0.064210651178174066 0.37904237845721811 0 -0.059083848751135488 0.37840884602566088 0 -0.062400115896225239 0.38328565763688038 0 -0.062400115896225239 0.38328565763688038 0 -0.047880784994249512 0.38858413326022379 0 -0.054293362626053041 0.38162223819359442 0 -0.047880784994249512 0.38858413326022379 0 -0.054293362626053041 0.38162223819359442 0 -0.047880784994249512 0.38858413326022379 0 -0.054293362626053041 0.38162223819359442 0 -0.046254793771615982 0.3870143995575549 0 -0.047836657145122599 0.38128015361824008 0 -0.054293362626053041 0.38162223819359442 0 -0.046254793771615982 0.3870143995575549 0 -0.054293362626053041 0.38162223819359442 0 -0.046254793771615982 0.3870143995575549 0 -0.047880784994249512 0.38858413326022379 0 -0.046254793771615982 0.3870143995575549 0 -0.056089193364373929 0.37273715424054699 0 -0.050724207312953518 0.37700173675436199 0 -0.054293362626053041 0.38162223819359442 0 -0.049098878804771373 0.3725140996878949 0 -0.050724207312953518 0.37700173675436199 0 -0.043775979817191349 0.37615739516056462 0 -0.047836657145122599 0.38128015361824008 0 -0.050724207312953518 0.37700173675436199 0 -0.043775979817191349 0.37615739516056462 0 -0.047836657145122599 0.38128015361824008 0 -0.050724207312953518 0.37700173675436199 0 -0.054293362626053041 0.38162223819359442 0 -0.078331801269405671 0.3911923311589619 0 -0.047880784994249512 0.38858413326022379 0 -0.056273405891107527 0.39668637864269979 0 -0.047880784994249512 0.38858413326022379 0 -0.056273405891107527 0.39668637864269979 0 -0.045094078598563243 0.39160955589403151 0 -0.056273405891107527 0.39668637864269979 0 -0.048342871606355781 0.40097934792702961 0 -0.045094078598563243 0.39160955589403151 0 -0.047880784994249512 0.38858413326022379 0 -0.056273405891107527 0.39668637864269979 0 -0.056273405891107527 0.39668637864269979 0 -0.045094078598563243 0.39160955589403151 0 -0.056273405891107527 0.39668637864269979 0 -0.048342871606355781 0.40097934792702961 0 -0.051161828253680347 0.40954535298997258 0 -0.04342775431262437 0.39341862168501102 0 -0.028839939204686131 0.40925606551247828 0 -0.042973684961738069 0.41592643291826231 0 -0.048342871606355781 0.40097934792702961 0 -0.04342775431262437 0.39341862168501102 0 -0.042973684961738069 0.41592643291826231 0 -0.041701311968281377 0.39006881248802111 0 -0.02243782954129785 0.40299049140363558 0 -0.041701311968281377 0.39006881248802111 0 -0.03457878247319518 0.38683428693719679 0 -0.02243782954129785 0.40299049140363558 0 -0.04342775431262437 0.39341862168501102 0 -0.041701311968281377 0.39006881248802111 0 -0.02243782954129785 0.40299049140363558 0 -0.04342775431262437 0.39341862168501102 0 -0.028839939204686131 0.40925606551247828 0 -0.04342775431262437 0.39341862168501102 0 -0.042973684961738069 0.41592643291826231 0 -0.04342775431262437 0.39341862168501102 0 -0.02243782954129785 0.40299049140363558 0 -0.028839939204686131 0.40925606551247828 0 -0.048342871606355781 0.40097934792702961 0 -0.04342775431262437 0.39341862168501102 0 -0.045094078598563243 0.39160955589403151 0 -0.04342775431262437 0.39341862168501102 0 -0.045094078598563243 0.39160955589403151 0 -0.043479046219812342 0.39087612776318198 0 -0.04342775431262437 0.39341862168501102 0 -0.043479046219812342 0.39087612776318198 0 -0.045094078598563243 0.39160955589403151 0 -0.043479046219812342 0.39087612776318198 0 -0.045094078598563243 0.39160955589403151 0 -0.043479046219812342 0.39087612776318198 0 -0.045172553619539632 0.38973569244798251 0 -0.04342775431262437 0.39341862168501102 0 -0.045094078598563243 0.39160955589403151 0 -0.04342775431262437 0.39341862168501102 0 -0.043479046219812342 0.39087612776318198 0 -0.041701311968281377 0.39006881248802111 0 -0.047836657145122599 0.38128015361824008 0 -0.043775979817191349 0.37615739516056462 0 -0.043608491196287617 0.38445965616034072 0 -0.043775979817191349 0.37615739516056462 0 -0.043608491196287617 0.38445965616034072 0 -0.032897312064139907 0.37411907212457252 0 -0.043775979817191349 0.37615739516056462 0 -0.043608491196287617 0.38445965616034072 0 -0.047836657145122599 0.38128015361824008 0 -0.043608491196287617 0.38445965616034072 0 -0.046254793771615982 0.3870143995575549 0 -0.043542573639619581 0.38772713043400647 0 -0.041701311968281377 0.39006881248802111 0 -0.03457878247319518 0.38683428693719679 0 -0.043608491196287617 0.38445965616034072 0 -0.043542573639619581 0.38772713043400647 0 -0.03457878247319518 0.38683428693719679 0 -0.043608491196287617 0.38445965616034072 0 -0.046254793771615982 0.3870143995575549 0 -0.043608491196287617 0.38445965616034072 0 -0.046254793771615982 0.3870143995575549 0 -0.043542573639619581 0.38772713043400647 0 -0.043608491196287617 0.38445965616034072 0 -0.043542573639619581 0.38772713043400647 0 -0.047880784994249512 0.38858413326022379 0 -0.045094078598563243 0.39160955589403151 0 -0.047880784994249512 0.38858413326022379 0 -0.045094078598563243 0.39160955589403151 0 -0.045172553619539632 0.38973569244798251 0 -0.047880784994249512 0.38858413326022379 0 -0.045172553619539632 0.38973569244798251 0 -0.046254793771615982 0.3870143995575549 0 -0.045172553619539632 0.38973569244798251 0 -0.046254793771615982 0.3870143995575549 0 -0.043542573639619581 0.38772713043400647 0 -0.046254793771615982 0.3870143995575549 0 -0.043542573639619581 0.38772713043400647 0 -0.043479046219812342 0.39087612776318198 0 -0.045172553619539632 0.38973569244798251 0 -0.043542573639619581 0.38772713043400647 0 -0.043479046219812342 0.39087612776318198 0 -0.043542573639619581 0.38772713043400647 0 -0.043542573639619581 0.38772713043400647 0 -0.041701311968281377 0.39006881248802111 0 -0.043479046219812342 0.39087612776318198 0 -0.043542573639619581 0.38772713043400647 0 -0.041701311968281377 0.39006881248802111 0 -0.043479046219812342 0.39087612776318198 0 -0.041701311968281377 0.39006881248802111 0 -0.043542573639619581 0.38772713043400647 0 -0.03457878247319518 0.38683428693719679 0 -0.041701311968281377 0.39006881248802111 0 -0.03457878247319518 0.38683428693719679 0 -0.032897312064139907 0.37411907212457252 0 -0.043608491196287617 0.38445965616034072 0 -0.032897312064139907 0.37411907212457252 0 -0.043608491196287617 0.38445965616034072 0 -0.03457878247319518 0.38683428693719679 0 -0.03457878247319518 0.38683428693719679 0 -0.017803283764421592 0.37921609746689411 0 -0.03457878247319518 0.38683428693719679 0 -0.017803283764421592 0.37921609746689411 0 -0.019390911734903489 0.38532149046890818 0 -0.032897312064139907 0.37411907212457252 0 -0.017803283764421592 0.37921609746689411 0 -0.032897312064139907 0.37411907212457252 0 -0.03457878247319518 0.38683428693719679 0 -0.017803283764421592 0.37921609746689411 0 -0.03457878247319518 0.38683428693719679 0 -0.019390911734903489 0.38532149046890818 0 -0.019390911734903489 0.38532149046890818 0 -0.02243782954129785 0.40299049140363558 0 -0.0064316016559190746 0.3999483233353413 0 -0.03457878247319518 0.38683428693719679 0 -0.019390911734903489 0.38532149046890818 0 -0.02243782954129785 0.40299049140363558 0 -0.0064316016559190746 0.3999483233353413 0 -0.0042030409966118051 0.38380869400061962 0 0.010437450069317761 0.40463061763750507 0 -0.001064505034491721 0.37161458349227261 0 -0.017803283764421592 0.37921609746689411 0 -0.001064505034491721 0.37161458349227261 0 -0.017803283764421592 0.37921609746689411 0 -0.0042030409966118051 0.38380869400061962 0 -0.019390911734903489 0.38532149046890818 0 -0.0064316016559190746 0.3999483233353413 0 -0.0042030409966118051 0.38380869400061962 0 -0.017803283764421592 0.37921609746689411 0 -0.0042030409966118051 0.38380869400061962 0 -0.017803283764421592 0.37921609746689411 0 -0.019390911734903489 0.38532149046890818 0 -0.0042030409966118051 0.38380869400061962 0 -0.019390911734903489 0.38532149046890818 0 -0.0042030409966118051 0.38380869400061962 0 -0.014252124096747171 0.42509350933994478 0 0.0048617880261327502 0.44584476697033082 0 -0.014252124096747171 0.42509350933994478 0 -0.010454900682288101 0.44126855924159908 0 0.0048617880261327502 0.44584476697033082 0 -0.014252124096747171 0.42509350933994478 0 -0.0026301228576318379 0.42717885202372191 0 0.0048617880261327502 0.44584476697033082 0 -0.014252124096747171 0.42509350933994478 0 -0.0026301228576318379 0.42717885202372191 0 -0.003174347114314008 0.41591217031924949 0 -0.02243782954129785 0.40299049140363558 0 -0.0064316016559190746 0.3999483233353413 0 -0.003174347114314008 0.41591217031924949 0 -0.02243782954129785 0.40299049140363558 0 -0.003174347114314008 0.41591217031924949 0 -0.02243782954129785 0.40299049140363558 0 -0.014252124096747171 0.42509350933994478 0 -0.003174347114314008 0.41591217031924949 0 -0.014252124096747171 0.42509350933994478 0 -0.003174347114314008 0.41591217031924949 0 -0.014252124096747171 0.42509350933994478 0 -0.028839939204686131 0.40925606551247828 0 -0.02243782954129785 0.40299049140363558 0 -0.014252124096747171 0.42509350933994478 0 -0.028839939204686131 0.40925606551247828 0 -0.014252124096747171 0.42509350933994478 0 -0.028839939204686131 0.40925606551247828 0 -0.022470349574322469 0.43190483207895858 0 -0.014252124096747171 0.42509350933994478 0 -0.022470349574322469 0.43190483207895858 0 -0.010454900682288101 0.44126855924159908 0 -0.014252124096747171 0.42509350933994478 0 -0.022470349574322469 0.43190483207895858 0 -0.022470349574322469 0.43190483207895858 0 -0.010454900682288101 0.44126855924159908 0 -0.022470349574322469 0.43190483207895858 0 -0.042646571141636773 0.43214117214318359 0 -0.04231945732153318 0.44835591136810488 0 -0.022470349574322469 0.43190483207895858 0 -0.042646571141636773 0.43214117214318359 0 -0.042973684961738069 0.41592643291826231 0 -0.042646571141636773 0.43214117214318359 0 -0.042973684961738069 0.41592643291826231 0 -0.022470349574322469 0.43190483207895858 0 -0.042973684961738069 0.41592643291826231 0 -0.028839939204686131 0.40925606551247828 0 -0.022470349574322469 0.43190483207895858 0 -0.042973684961738069 0.41592643291826231 0 -0.077475511178084946 0.4171549142493044 0 -0.051161828253680347 0.40954535298997258 0 -0.055106871557328428 0.42305161159228227 0 -0.077475511178084946 0.4171549142493044 0 -0.056273405891107527 0.39668637864269979 0 -0.051161828253680347 0.40954535298997258 0 -0.048342871606355781 0.40097934792702961 0 -0.042973684961738069 0.41592643291826231 0 -0.051161828253680347 0.40954535298997258 0 -0.042973684961738069 0.41592643291826231 0 -0.051161828253680347 0.40954535298997258 0 -0.042973684961738069 0.41592643291826231 0 -0.051161828253680347 0.40954535298997258 0 -0.055106871557328428 0.42305161159228227 0 -0.042646571141636773 0.43214117214318359 0 -0.059178928229814701 0.4365201208845606 0 -0.055106871557328428 0.42305161159228227 0 -0.042646571141636773 0.43214117214318359 0 -0.042973684961738069 0.41592643291826231 0 -0.055106871557328428 0.42305161159228227 0 -0.042646571141636773 0.43214117214318359 0 -0.059178928229814701 0.4365201208845606 0 -0.049245987713513212 0.44319563894678482 0 -0.059178928229814701 0.4365201208845606 0 -0.050742244958162368 0.46439359559444437 0 -0.049245987713513212 0.44319563894678482 0 -0.050742244958162368 0.46439359559444437 0 -0.044608833217136261 0.45025336211807931 0 -0.059178928229814701 0.4365201208845606 0 -0.050742244958162368 0.46439359559444437 0 -0.065484051744298263 0.4513847118260722 0 -0.059178928229814701 0.4365201208845606 0 -0.049245987713513212 0.44319563894678482 0 -0.050742244958162368 0.46439359559444437 0 -0.050742244958162368 0.46439359559444437 0 -0.061707257777874093 0.47273252787991399 0 -0.073231504917427276 0.46237159316971249 0 -0.050742244958162368 0.46439359559444437 0 -0.073231504917427276 0.46237159316971249 0 -0.0419800222431604 0.46518140433549732 0 -0.04231945732153318 0.44835591136810488 0 -0.025697431038521311 0.45487791879973932 0 -0.0419800222431604 0.46518140433549732 0 -0.04231945732153318 0.44835591136810488 0 -0.0419800222431604 0.46518140433549732 0 -0.044608833217136261 0.45025336211807931 0 -0.04231945732153318 0.44835591136810488 0 -0.050742244958162368 0.46439359559444437 0 -0.0419800222431604 0.46518140433549732 0 -0.050742244958162368 0.46439359559444437 0 -0.0419800222431604 0.46518140433549732 0 -0.044608833217136261 0.45025336211807931 0 -0.022470349574322469 0.43190483207895858 0 -0.04231945732153318 0.44835591136810488 0 -0.042646571141636773 0.43214117214318359 0 -0.049245987713513212 0.44319563894678482 0 -0.04231945732153318 0.44835591136810488 0 -0.042646571141636773 0.43214117214318359 0 -0.04231945732153318 0.44835591136810488 0 -0.049245987713513212 0.44319563894678482 0 -0.044608833217136261 0.45025336211807931 0 -0.04231945732153318 0.44835591136810488 0 -0.044608833217136261 0.45025336211807931 0 -0.04231945732153318 0.44835591136810488 0 -0.022470349574322469 0.43190483207895858 0 -0.04231945732153318 0.44835591136810488 0 -0.022362297003099281 0.44511471557515531 0 -0.04231945732153318 0.44835591136810488 0 -0.022362297003099281 0.44511471557515531 0 -0.025697431038521311 0.45487791879973932 0 -0.022470349574322469 0.43190483207895858 0 -0.022362297003099281 0.44511471557515531 0 -0.010454900682288101 0.44126855924159908 0 -0.022362297003099281 0.44511471557515531 0 -0.025697431038521311 0.45487791879973932 0 -0.01311544116488466 0.453963754661173 0 -0.0419800222431604 0.46518140433549732 0 -0.025697431038521311 0.45487791879973932 0 -0.01345201465746383 0.46774634869629322 0 -0.0419800222431604 0.46518140433549732 0 -0.01345201465746383 0.46774634869629322 0 -0.025697431038521311 0.45487791879973932 0 -0.01311544116488466 0.453963754661173 0 -0.01345201465746383 0.46774634869629322 0 -0.0094095992007081283 0.46654139838691122 0 -0.010427957625441169 0.46801824073108461 0 0.0053167838454733218 0.46943384557929257 0 -0.0094095992007081283 0.46654139838691122 0 0.0015605482097463411 0.45063228640423969 0 -0.010427957625441169 0.46801824073108461 0 0.0053167838454733218 0.46943384557929257 0 -0.0094095992007081283 0.46654139838691122 0 0.0080738590363113663 0.46132998490476868 0 -0.01311544116488466 0.453963754661173 0 -0.0094095992007081283 0.46654139838691122 0 0.0015605482097463411 0.45063228640423969 0 -0.01311544116488466 0.453963754661173 0 -0.01345201465746383 0.46774634869629322 0 -0.0094095992007081283 0.46654139838691122 0 -0.01345201465746383 0.46774634869629322 0 -0.010427957625441169 0.46801824073108461 0 -0.01345201465746383 0.46774634869629322 0 -0.0094095992007081283 0.46654139838691122 0 -0.01345201465746383 0.46774634869629322 0 -0.0094095992007081283 0.46654139838691122 0 -0.010427957625441169 0.46801824073108461 0 -0.0094095992007081283 0.46654139838691122 0 -0.010427957625441169 0.46801824073108461 0 -0.01311544116488466 0.453963754661173 0 -0.010454900682288101 0.44126855924159908 0 0.0015605482097463411 0.45063228640423969 0 -0.010454900682288101 0.44126855924159908 0 0.0048617880261327502 0.44584476697033082 0 0.0015605482097463411 0.45063228640423969 0 -0.010454900682288101 0.44126855924159908 0 0.0015605482097463411 0.45063228640423969 0 -0.022362297003099281 0.44511471557515531 0 -0.01311544116488466 0.453963754661173 0 -0.010454900682288101 0.44126855924159908 0 -0.0067005321321746969 0.5 0 -0.003880604538310756 0.48346324919380129 0 -0.021454488019086362 0.48400912036554289 0 -0.01345201465746383 0.46774634869629322 0 -0.010427957625441169 0.46801824073108461 0 -0.021454488019086362 0.48400912036554289 0 -0.010427957625441169 0.46801824073108461 0 -0.003880604538310756 0.48346324919380129 0 -0.021454488019086362 0.48400912036554289 0 -0.010427957625441169 0.46801824073108461 0 -0.001026908195020756 0.47486914558720472 0 0.0053167838454733218 0.46943384557929257 0 -0.010427957625441169 0.46801824073108461 0 -0.003880604538310756 0.48346324919380129 0 -0.001026908195020756 0.47486914558720472 0 -0.010427957625441169 0.46801824073108461 0 -0.021454488019086362 0.48400912036554289 0 -0.01345201465746383 0.46774634869629322 0 -0.021454488019086362 0.48400912036554289 0 -0.032447842195153342 0.48378293317924542 0 -0.01345201465746383 0.46774634869629322 0 -0.032447842195153342 0.48378293317924542 0 -0.041758062999807367 0.47618372532725728 0 -0.01345201465746383 0.46774634869629322 0 -0.041758062999807367 0.47618372532725728 0 -0.021454488019086362 0.48400912036554289 0 -0.032481018412731863 0.50000000000000089 0 -0.033555046977316587 0.49207813668870121 0 -0.021454488019086362 0.48400912036554289 0 -0.032481018412731863 0.50000000000000089 0 -0.021454488019086362 0.48400912036554289 0 -0.033555046977316587 0.49207813668870121 0 -0.032447842195153342 0.48378293317924542 0 -0.0067005321321746969 0.5 0 -0.021454488019086362 0.48400912036554289 0 -0.032481018412731863 0.50000000000000089 0 -0.033555046977316587 0.49207813668870121 0 -0.039964975186860582 0.49999999999999872 0 -0.042139887415076342 0.49281443204190178 0 -0.032481018412731863 0.50000000000000089 0 -0.033555046977316587 0.49207813668870121 0 -0.039964975186860582 0.49999999999999872 0 -0.042139887415076342 0.49281443204190178 0 -0.041758062999807367 0.47618372532725728 0 -0.033555046977316587 0.49207813668870121 0 -0.042139887415076342 0.49281443204190178 0 -0.032447842195153342 0.48378293317924542 0 -0.042139887415076342 0.49281443204190178 0 -0.046725468384182907 0.47766439368476649 0 -0.039964975186860582 0.49999999999999872 0 -0.042139887415076342 0.49281443204190178 0 -0.053580454847170257 0.49193017513362319 0 -0.039964975186860582 0.49999999999999872 0 -0.042139887415076342 0.49281443204190178 0 -0.042139887415076342 0.49281443204190178 0 -0.046725468384182907 0.47766439368476649 0 -0.041758062999807367 0.47618372532725728 0 -0.0419800222431604 0.46518140433549732 0 -0.01345201465746383 0.46774634869629322 0 -0.041758062999807367 0.47618372532725728 0 -0.042139887415076342 0.49281443204190178 0 -0.032447842195153342 0.48378293317924542 0 -0.041758062999807367 0.47618372532725728 0 -0.046725468384182907 0.47766439368476649 0 -0.041758062999807367 0.47618372532725728 0 -0.0419800222431604 0.46518140433549732 0 -0.046725468384182907 0.47766439368476649 0 -0.041758062999807367 0.47618372532725728 0 -0.050742244958162368 0.46439359559444437 0 -0.0419800222431604 0.46518140433549732 0 -0.046725468384182907 0.47766439368476649 0 -0.0419800222431604 0.46518140433549732 0 -0.041758062999807367 0.47618372532725728 0 -0.046725468384182907 0.47766439368476649 0 -0.061707257777874093 0.47273252787991399 0 -0.071702929972361051 0.48510959578984503 0 -0.046725468384182907 0.47766439368476649 0 -0.071702929972361051 0.48510959578984503 0 -0.050742244958162368 0.46439359559444437 0 -0.046725468384182907 0.47766439368476649 0 -0.061707257777874093 0.47273252787991399 0 -0.050742244958162368 0.46439359559444437 0 -0.046725468384182907 0.47766439368476649 0 -0.046725468384182907 0.47766439368476649 0 -0.053580454847170257 0.49193017513362319 0 -0.071702929972361051 0.48510959578984503 0 -0.039964975186860582 0.49999999999999872 0 -0.053580454847170257 0.49193017513362319 0 -0.067195934507479516 0.5 0 -0.042139887415076342 0.49281443204190178 0 -0.046725468384182907 0.47766439368476649 0 -0.053580454847170257 0.49193017513362319 0 -0.053580454847170257 0.49193017513362319 0 -0.067195934507479516 0.5 0 -0.071702929972361051 0.48510959578984503 0 -0.067195934507479516 0.5 0 -0.071702929972361051 0.48510959578984503 0 -0.094426893828098324 0.5 0 -0.071702929972361051 0.48510959578984503 0 -0.096680391560538939 0.49255479789492401 0 -0.071702929972361051 0.48510959578984503 0 -0.094426893828098324 0.5 0 -0.096680391560538939 0.49255479789492401 0 -0.071702929972361051 0.48510959578984503 0 -0.094342239683345888 0.46564946071770819 0 -0.096680391560538939 0.49255479789492401 0 -0.071702929972361051 0.48510959578984503 0 -0.073231504917427276 0.46237159316971249 0 -0.094342239683345888 0.46564946071770819 0 -0.061707257777874093 0.47273252787991399 0 -0.071702929972361051 0.48510959578984503 0 -0.073231504917427276 0.46237159316971249 0 -0.050742244958162368 0.46439359559444437 0 -0.073231504917427276 0.46237159316971249 0 -0.065484051744298263 0.4513847118260722 0 -0.059178928229814701 0.4365201208845606 0 -0.065484051744298263 0.4513847118260722 0 -0.078698858269308614 0.44343419105434712 0 -0.073231504917427276 0.46237159316971249 0 -0.065484051744298263 0.4513847118260722 0 -0.078698858269308614 0.44343419105434712 0 -0.078698858269308614 0.44343419105434712 0 -0.094342239683345888 0.46564946071770819 0 -0.098677616465060528 0.43762344985591101 0 -0.073231504917427276 0.46237159316971249 0 -0.078698858269308614 0.44343419105434712 0 -0.094342239683345888 0.46564946071770819 0 -0.094342239683345888 0.46564946071770819 0 -0.098677616465060528 0.43762344985591101 0 -0.11987972175203609 0.45809198546251739 0 -0.098677616465060528 0.43762344985591101 0 -0.11987972175203609 0.45809198546251739 0 -0.12509104342100061 0.44188941827772182 0 -0.098677616465060528 0.43762344985591101 0 -0.11987972175203609 0.45809198546251739 0 -0.094342239683345888 0.46564946071770819 0 -0.11987972175203609 0.45809198546251739 0 -0.1215246548466888 0.48036061179670092 0 -0.1215246548466888 0.48036061179670092 0 -0.1216578531487173 0.50000000000000155 0 -0.096680391560538939 0.49255479789492401 0 -0.1216578531487173 0.50000000000000155 0 -0.094426893828098324 0.5 0 -0.096680391560538939 0.49255479789492401 0 -0.1216578531487173 0.50000000000000155 0 -0.096680391560538939 0.49255479789492401 0 -0.094342239683345888 0.46564946071770819 0 -0.1215246548466888 0.48036061179670092 0 -0.096680391560538939 0.49255479789492401 0 -0.16310986573530631 0.084156321085019567 0 -0.17544541039362899 0.09436804860009354 0 -0.15783765240444911 0.096274401630791262 0 -0.16310986573530631 0.084156321085019567 0 -0.15783765240444911 0.096274401630791262 0 -0.16310986573530631 0.084156321085019567 0 -0.1657815390990264 0.070802932860687437 0 -0.15463431661472629 0.07014553381523804 0 -0.16310986573530631 0.084156321085019567 0 -0.1657815390990264 0.070802932860687437 0 -0.17966236107341149 0.074300518116336353 0 -0.1657815390990264 0.070802932860687437 0 -0.17966236107341149 0.074300518116336353 0 -0.1657196129726615 0.054609358426155781 0 -0.1657815390990264 0.070802932860687437 0 -0.15463431661472629 0.07014553381523804 0 -0.1657196129726615 0.054609358426155781 0 -0.17966236107341149 0.074300518116336353 0 -0.1657196129726615 0.054609358426155781 0 -0.19326118210642521 0.060262893486061127 0 -0.17966236107341149 0.074300518116336353 0 -0.1657196129726615 0.054609358426155781 0 -0.16310986573530631 0.084156321085019567 0 -0.17966236107341149 0.074300518116336353 0 -0.17544541039362899 0.09436804860009354 0 -0.17966236107341149 0.074300518116336353 0 -0.17544541039362899 0.09436804860009354 0 -0.19360510917416149 0.093991677806516877 0 -0.17966236107341149 0.074300518116336353 0 -0.19360510917416149 0.093991677806516877 0 -0.17544541039362899 0.09436804860009354 0 -0.18934336527218601 0.1087413065502997 0 -0.19360510917416149 0.093991677806516877 0 -0.17544541039362899 0.09436804860009354 0 -0.16911410870225951 0.1087440664115976 0 -0.18934336527218601 0.1087413065502997 0 -0.18039056500006781 0.12121373119240569 0 -0.16911410870225951 0.1087440664115976 0 -0.18934336527218601 0.1087413065502997 0 -0.18039056500006781 0.12121373119240569 0 -0.16911410870225951 0.1087440664115976 0 -0.18039056500006781 0.12121373119240569 0 -0.16911410870225951 0.1087440664115976 0 -0.15507510040999009 0.1056512286087255 0 -0.18039056500006781 0.12121373119240569 0 -0.15507510040999009 0.1056512286087255 0 -0.1628447509754036 0.1248738178506951 0 -0.15507510040999009 0.1056512286087255 0 -0.15358711882774939 0.11801712706942639 0 -0.18039056500006781 0.12121373119240569 0 -0.1628447509754036 0.1248738178506951 0 -0.15507510040999009 0.1056512286087255 0 -0.17544541039362899 0.09436804860009354 0 -0.16911410870225951 0.1087440664115976 0 -0.15783765240444911 0.096274401630791262 0 -0.16911410870225951 0.1087440664115976 0 -0.15783765240444911 0.096274401630791262 0 -0.16911410870225951 0.1087440664115976 0 -0.15783765240444911 0.096274401630791262 0 -0.15507510040999009 0.1056512286087255 0 -0.15783765240444911 0.096274401630791262 0 -0.14455303356647331 0.096744639073681929 0 -0.15139402388202119 0.11108495737684999 0 -0.14455303356647331 0.096744639073681929 0 -0.15139402388202119 0.11108495737684999 0 -0.12991930243541749 0.1020465165188278 0 -0.15783765240444911 0.096274401630791262 0 -0.15507510040999009 0.1056512286087255 0 -0.15139402388202119 0.11108495737684999 0 -0.15783765240444911 0.096274401630791262 0 -0.15139402388202119 0.11108495737684999 0 -0.15139402388202119 0.11108495737684999 0 -0.12991930243541749 0.1020465165188278 0 -0.14495039535959489 0.12589551312290931 0 -0.1628447509754036 0.1248738178506951 0 -0.15358711882774939 0.11801712706942639 0 -0.14495039535959489 0.12589551312290931 0 -0.15358711882774939 0.11801712706942639 0 -0.15139402388202119 0.11108495737684999 0 -0.14495039535959489 0.12589551312290931 0 -0.15507510040999009 0.1056512286087255 0 -0.15358711882774939 0.11801712706942639 0 -0.15139402388202119 0.11108495737684999 0 -0.15139402388202119 0.11108495737684999 0 -0.14495039535959489 0.12589551312290931 0 -0.12991930243541749 0.1020465165188278 0 -0.14495039535959489 0.12589551312290931 0 -0.12991930243541749 0.1020465165188278 0 -0.14495039535959489 0.12589551312290931 0 -0.13028426483969929 0.13221647237215789 0 -0.14455303356647331 0.096744639073681929 0 -0.12991930243541749 0.1020465165188278 0 -0.13683438329036771 0.088098653177494879 0 -0.12991930243541749 0.1020465165188278 0 -0.13683438329036771 0.088098653177494879 0 -0.1248370695698198 0.083226530136874921 0 -0.13683438329036771 0.088098653177494879 0 -0.13729578978526799 0.073558919561796721 0 -0.1248370695698198 0.083226530136874921 0 -0.13683438329036771 0.088098653177494879 0 -0.14756672109485969 0.08491666059629295 0 -0.13729578978526799 0.073558919561796721 0 -0.14455303356647331 0.096744639073681929 0 -0.13683438329036771 0.088098653177494879 0 -0.14756672109485969 0.08491666059629295 0 -0.14756672109485969 0.08491666059629295 0 -0.13729578978526799 0.073558919561796721 0 -0.16310986573530631 0.084156321085019567 0 -0.14756672109485969 0.08491666059629295 0 -0.15463431661472629 0.07014553381523804 0 -0.16310986573530631 0.084156321085019567 0 -0.15783765240444911 0.096274401630791262 0 -0.14756672109485969 0.08491666059629295 0 -0.15783765240444911 0.096274401630791262 0 -0.14756672109485969 0.08491666059629295 0 -0.15783765240444911 0.096274401630791262 0 -0.14455303356647331 0.096744639073681929 0 -0.14756672109485969 0.08491666059629295 0 -0.14756672109485969 0.08491666059629295 0 -0.15463431661472629 0.07014553381523804 0 -0.13729578978526799 0.073558919561796721 0 -0.15463431661472629 0.07014553381523804 0 -0.13729578978526799 0.073558919561796721 0 -0.14428807100988511 0.057223156242914672 0 -0.13729578978526799 0.073558919561796721 0 -0.1311901693420546 0.060374133793646992 0 -0.14428807100988511 0.057223156242914672 0 -0.13729578978526799 0.073558919561796721 0 -0.12498233095038511 0.069533312171706482 0 -0.1248370695698198 0.083226530136874921 0 -0.13729578978526799 0.073558919561796721 0 -0.1311901693420546 0.060374133793646992 0 -0.12498233095038511 0.069533312171706482 0 -0.1311901693420546 0.060374133793646992 0 -0.1304591025064194 0.044551821316570157 0 -0.1169815729820268 0.057446916627697332 0 -0.1311901693420546 0.060374133793646992 0 -0.1304591025064194 0.044551821316570157 0 -0.14428807100988511 0.057223156242914672 0 -0.1304591025064194 0.044551821316570157 0 -0.1338093633065561 0.031702984145267947 0 -0.14718764802187309 0.041237794311798179 0 -0.1304591025064194 0.044551821316570157 0 -0.1338093633065561 0.031702984145267947 0 -0.120950474974805 0.030974477430810402 0 -0.14718764802187309 0.041237794311798179 0 -0.14507935476777459 0.024735833563247479 0 -0.16332082262574071 0.033969476032413119 0 -0.1338093633065561 0.031702984145267947 0 -0.14718764802187309 0.041237794311798179 0 -0.14507935476777459 0.024735833563247479 0 -0.1304591025064194 0.044551821316570157 0 -0.14718764802187309 0.041237794311798179 0 -0.14428807100988511 0.057223156242914672 0 -0.15463431661472629 0.07014553381523804 0 -0.14428807100988511 0.057223156242914672 0 -0.1657196129726615 0.054609358426155781 0 -0.14718764802187309 0.041237794311798179 0 -0.14428807100988511 0.057223156242914672 0 -0.1657196129726615 0.054609358426155781 0 -0.1273771369441013 0.0023450629401116992 0 -0.12537023626190849 0.01701499410391356 0 -0.14358534871595791 0.0085390787577918573 0 -0.14275634286812811 -0.006203461430080404 0 -0.1273771369441013 0.0023450629401116992 0 -0.14358534871595791 0.0085390787577918573 0 -0.1338093633065561 0.031702984145267947 0 -0.12537023626190849 0.01701499410391356 0 -0.14507935476777459 0.024735833563247479 0 -0.12537023626190849 0.01701499410391356 0 -0.14507935476777459 0.024735833563247479 0 -0.14358534871595791 0.0085390787577918573 0 -0.1338093633065561 0.031702984145267947 0 -0.12537023626190849 0.01701499410391356 0 -0.120950474974805 0.030974477430810402 0 -0.14507935476777459 0.024735833563247479 0 -0.14358534871595791 0.0085390787577918573 0 -0.1631610812614456 0.0141265482177085 0 -0.15796117991031841 -0.00029962151665172479 0 -0.14358534871595791 0.0085390787577918573 0 -0.1631610812614456 0.0141265482177085 0 -0.14275634286812811 -0.006203461430080404 0 -0.15796117991031841 -0.00029962151665172479 0 -0.14358534871595791 0.0085390787577918573 0 -0.15796117991031841 -0.00029962151665172479 0 -0.17967452986780849 -0.0030086181600807401 0 -0.1631610812614456 0.0141265482177085 0 -0.1631610812614456 0.0141265482177085 0 -0.18063081477410151 0.02444866588981499 0 -0.16332082262574071 0.033969476032413119 0 -0.14507935476777459 0.024735833563247479 0 -0.1631610812614456 0.0141265482177085 0 -0.16332082262574071 0.033969476032413119 0 -0.17967452986780849 -0.0030086181600807401 0 -0.1631610812614456 0.0141265482177085 0 -0.18063081477410151 0.02444866588981499 0 -0.17967452986780849 -0.0030086181600807401 0 -0.18063081477410151 0.02444866588981499 0 -0.19591489879339791 0.012499298725408061 0 -0.1657196129726615 0.054609358426155781 0 -0.16332082262574071 0.033969476032413119 0 -0.1853408533429271 0.041769259974547668 0 -0.14718764802187309 0.041237794311798179 0 -0.1657196129726615 0.054609358426155781 0 -0.16332082262574071 0.033969476032413119 0 -0.18063081477410151 0.02444866588981499 0 -0.16332082262574071 0.033969476032413119 0 -0.1853408533429271 0.041769259974547668 0 -0.1657196129726615 0.054609358426155781 0 -0.1853408533429271 0.041769259974547668 0 -0.19326118210642521 0.060262893486061127 0 -0.1853408533429271 0.041769259974547668 0 -0.19326118210642521 0.060262893486061127 0 -0.20638984228336041 0.047204147208118788 0 -0.18063081477410151 0.02444866588981499 0 -0.1853408533429271 0.041769259974547668 0 -0.2003712226561333 0.029120430419108619 0 -0.1853408533429271 0.041769259974547668 0 -0.20638984228336041 0.047204147208118788 0 -0.2003712226561333 0.029120430419108619 0 -0.20638984228336041 0.047204147208118788 0 -0.2003712226561333 0.029120430419108619 0 -0.21890969838457369 0.03387481538926377 0 -0.20638984228336041 0.047204147208118788 0 -0.2248274879423891 0.050626958701997932 0 -0.21890969838457369 0.03387481538926377 0 -0.20638984228336041 0.047204147208118788 0 -0.2248274879423891 0.050626958701997932 0 -0.21240822864659401 0.064474545157398255 0 -0.19326118210642521 0.060262893486061127 0 -0.20638984228336041 0.047204147208118788 0 -0.21240822864659401 0.064474545157398255 0 -0.17967452986780849 -0.0030086181600807401 0 -0.20680301002479959 -0.0020434230711429339 0 -0.19591489879339791 0.012499298725408061 0 -0.18063081477410151 0.02444866588981499 0 -0.19591489879339791 0.012499298725408061 0 -0.2003712226561333 0.029120430419108619 0 -0.2003712226561333 0.029120430419108619 0 -0.2150412283584397 0.01492639532749848 0 -0.21890969838457369 0.03387481538926377 0 -0.19591489879339791 0.012499298725408061 0 -0.2003712226561333 0.029120430419108619 0 -0.2150412283584397 0.01492639532749848 0 -0.20680301002479959 -0.0020434230711429339 0 -0.19591489879339791 0.012499298725408061 0 -0.2150412283584397 0.01492639532749848 0 -0.20680301002479959 -0.0020434230711429339 0 -0.2150412283584397 0.01492639532749848 0 -0.22850437187820721 0.00061554774341724197 0 -0.2150412283584397 0.01492639532749848 0 -0.22850437187820721 0.00061554774341724197 0 -0.23416676111704099 0.01917273774715204 0 -0.23416676111704099 0.01917273774715204 0 -0.21890969838457369 0.03387481538926377 0 -0.23451298379830759 0.036058925104307242 0 -0.2150412283584397 0.01492639532749848 0 -0.23416676111704099 0.01917273774715204 0 -0.21890969838457369 0.03387481538926377 0 -0.25132042997239518 0.0027134119798401068 0 -0.25642639863326749 0.02710060176493858 0 -0.23416676111704099 0.01917273774715204 0 -0.25642639863326749 0.02710060176493858 0 -0.23416676111704099 0.01917273774715204 0 -0.23451298379830759 0.036058925104307242 0 -0.25132042997239518 0.0027134119798401068 0 -0.22850437187820721 0.00061554774341724197 0 -0.23416676111704099 0.01917273774715204 0 -0.2248274879423891 0.050626958701997932 0 -0.234130504556473 0.067172247096954504 0 -0.21240822864659401 0.064474545157398255 0 -0.2248274879423891 0.050626958701997932 0 -0.21890969838457369 0.03387481538926377 0 -0.23451298379830759 0.036058925104307242 0 -0.25642639863326749 0.02710060176493858 0 -0.23451298379830759 0.036058925104307242 0 -0.24534917185526489 0.049526218608574313 0 -0.2248274879423891 0.050626958701997932 0 -0.23451298379830759 0.036058925104307242 0 -0.24534917185526489 0.049526218608574313 0 -0.26195798501385009 0.070226375813507561 0 -0.24534917185526489 0.049526218608574313 0 -0.234130504556473 0.067172247096954504 0 -0.2248274879423891 0.050626958701997932 0 -0.24534917185526489 0.049526218608574313 0 -0.234130504556473 0.067172247096954504 0 -0.26195798501385009 0.070226375813507561 0 -0.24382127576753621 0.084711863041238192 0 -0.234130504556473 0.067172247096954504 0 -0.24382127576753621 0.084711863041238192 0 -0.22568456652122221 0.099197350268968809 0 -0.24382127576753621 0.084711863041238192 0 -0.221160002309051 0.081738136999685213 0 -0.22568456652122221 0.099197350268968809 0 -0.221160002309051 0.081738136999685213 0 -0.20949418686790969 0.097522886253834359 0 -0.22568456652122221 0.099197350268968809 0 -0.24382127576753621 0.084711863041238192 0 -0.221160002309051 0.081738136999685213 0 -0.234130504556473 0.067172247096954504 0 -0.221160002309051 0.081738136999685213 0 -0.234130504556473 0.067172247096954504 0 -0.21240822864659401 0.064474545157398255 0 -0.221160002309051 0.081738136999685213 0 -0.21240822864659401 0.064474545157398255 0 -0.19789508720454749 0.077516785054754192 0 -0.221160002309051 0.081738136999685213 0 -0.19789508720454749 0.077516785054754192 0 -0.20949418686790969 0.097522886253834359 0 -0.17966236107341149 0.074300518116336353 0 -0.19789508720454749 0.077516785054754192 0 -0.19360510917416149 0.093991677806516877 0 -0.19789508720454749 0.077516785054754192 0 -0.19360510917416149 0.093991677806516877 0 -0.20949418686790969 0.097522886253834359 0 -0.19326118210642521 0.060262893486061127 0 -0.21240822864659401 0.064474545157398255 0 -0.19789508720454749 0.077516785054754192 0 -0.17966236107341149 0.074300518116336353 0 -0.19326118210642521 0.060262893486061127 0 -0.19789508720454749 0.077516785054754192 0 -0.20040659369392541 0.1193864456313013 0 -0.18934336527218601 0.1087413065502997 0 -0.2075478572749084 0.11368283749669961 0 -0.18039056500006781 0.12121373119240569 0 -0.20040659369392541 0.1193864456313013 0 -0.18934336527218601 0.1087413065502997 0 -0.19360510917416149 0.093991677806516877 0 -0.2075478572749084 0.11368283749669961 0 -0.18934336527218601 0.1087413065502997 0 -0.19360510917416149 0.093991677806516877 0 -0.2075478572749084 0.11368283749669961 0 -0.19360510917416149 0.093991677806516877 0 -0.20949418686790969 0.097522886253834359 0 -0.2075478572749084 0.11368283749669961 0 -0.2075478572749084 0.11368283749669961 0 -0.22568456652122221 0.099197350268968809 0 -0.20949418686790969 0.097522886253834359 0 -0.2075478572749084 0.11368283749669961 0 -0.22568456652122221 0.099197350268968809 0 -0.2075478572749084 0.11368283749669961 0 -0.22488407219564061 0.1186598638475915 0 -0.22370276663374011 0.1364982034250237 0 -0.20040659369392541 0.1193864456313013 0 -0.2075478572749084 0.11368283749669961 0 -0.20214902218410111 0.13458958866239301 0 -0.20040659369392541 0.1193864456313013 0 -0.2075478572749084 0.11368283749669961 0 -0.2075478572749084 0.11368283749669961 0 -0.22488407219564061 0.1186598638475915 0 -0.22568456652122221 0.099197350268968809 0 -0.22488407219564061 0.1186598638475915 0 -0.23975573915859391 0.1186480270080747 0 -0.23562440086935879 0.12869665656040569 0 -0.22488407219564061 0.1186598638475915 0 -0.22568456652122221 0.099197350268968809 0 -0.23888908650362611 0.1045060591559635 0 -0.24382127576753621 0.084711863041238192 0 -0.22568456652122221 0.099197350268968809 0 -0.23888908650362611 0.1045060591559635 0 -0.25364395357421121 0.10678394025260531 0 -0.24382127576753621 0.084711863041238192 0 -0.23888908650362611 0.1045060591559635 0 -0.25033803458298193 0.12914144363467839 0 -0.25364395357421121 0.10678394025260531 0 -0.23975573915859391 0.1186480270080747 0 -0.22488407219564061 0.1186598638475915 0 -0.23888908650362611 0.1045060591559635 0 -0.23975573915859391 0.1186480270080747 0 -0.25364395357421121 0.10678394025260531 0 -0.23888908650362611 0.1045060591559635 0 -0.23975573915859391 0.1186480270080747 0 -0.25033803458298193 0.12914144363467839 0 -0.23975573915859391 0.1186480270080747 0 -0.23562440086935879 0.12869665656040569 0 -0.25033803458298193 0.12914144363467839 0 -0.2394413917758374 0.14053574488666021 0 -0.23562440086935879 0.12869665656040569 0 -0.2394413917758374 0.14053574488666021 0 -0.23562440086935879 0.12869665656040569 0 -0.22370276663374011 0.1364982034250237 0 -0.22488407219564061 0.1186598638475915 0 -0.23562440086935879 0.12869665656040569 0 -0.22370276663374011 0.1364982034250237 0 -0.2394413917758374 0.14053574488666021 0 -0.22370276663374011 0.1364982034250237 0 -0.22390747936813421 0.14796544613238069 0 -0.22390747936813421 0.14796544613238069 0 -0.22774584105848089 0.15976823357977049 0 -0.2168312664826515 0.15850745189495519 0 -0.2394413917758374 0.14053574488666021 0 -0.22390747936813421 0.14796544613238069 0 -0.24566593655216731 0.1613413036023684 0 -0.22390747936813421 0.14796544613238069 0 -0.24566593655216731 0.1613413036023684 0 -0.26077588748637798 0.14053443996503889 0 -0.2394413917758374 0.14053574488666021 0 -0.24566593655216731 0.1613413036023684 0 -0.24566593655216731 0.1613413036023684 0 -0.2425545525554833 0.18325607046718431 0 -0.22457868183097049 0.171258732689378 0 -0.2425545525554833 0.18325607046718431 0 -0.2235130486054053 0.18492553164669809 0 -0.22457868183097049 0.171258732689378 0 -0.2425545525554833 0.18325607046718431 0 -0.2235130486054053 0.18492553164669809 0 -0.2315679775879351 0.19375458513227489 0 -0.2235130486054053 0.18492553164669809 0 -0.22457868183097049 0.171258732689378 0 -0.209750232499154 0.17791844316711489 0 -0.24566593655216731 0.1613413036023684 0 -0.22774584105848089 0.15976823357977049 0 -0.22457868183097049 0.171258732689378 0 -0.22390747936813421 0.14796544613238069 0 -0.24566593655216731 0.1613413036023684 0 -0.22774584105848089 0.15976823357977049 0 -0.22774584105848089 0.15976823357977049 0 -0.22457868183097049 0.171258732689378 0 -0.2168312664826515 0.15850745189495519 0 -0.2168312664826515 0.15850745189495519 0 -0.21186753860838101 0.16733255095299371 0 -0.20758447520558959 0.15683863127083711 0 -0.22457868183097049 0.171258732689378 0 -0.2168312664826515 0.15850745189495519 0 -0.21186753860838101 0.16733255095299371 0 -0.21186753860838101 0.16733255095299371 0 -0.209750232499154 0.17791844316711489 0 -0.20173639765426299 0.1643971743801825 0 -0.21186753860838101 0.16733255095299371 0 -0.20758447520558959 0.15683863127083711 0 -0.20173639765426299 0.1643971743801825 0 -0.20758447520558959 0.15683863127083711 0 -0.20173639765426299 0.1643971743801825 0 -0.20024290349544879 0.15519061181074151 0 -0.22457868183097049 0.171258732689378 0 -0.21186753860838101 0.16733255095299371 0 -0.209750232499154 0.17791844316711489 0 -0.19610042498268601 0.17522502183351021 0 -0.19038698318195549 0.16711234260031069 0 -0.17752183765376101 0.1775748035498933 0 -0.19610042498268601 0.17522502183351021 0 -0.19785886193094021 0.18900131099286041 0 -0.17752183765376101 0.1775748035498933 0 -0.19785886193094021 0.18900131099286041 0 -0.17752183765376101 0.1775748035498933 0 -0.209750232499154 0.17791844316711489 0 -0.19610042498268601 0.17522502183351021 0 -0.19785886193094021 0.18900131099286041 0 -0.209750232499154 0.17791844316711489 0 -0.19610042498268601 0.17522502183351021 0 -0.20173639765426299 0.1643971743801825 0 -0.20173639765426299 0.1643971743801825 0 -0.1927705130470404 0.15866088515044 0 -0.20024290349544879 0.15519061181074151 0 -0.19610042498268601 0.17522502183351021 0 -0.20173639765426299 0.1643971743801825 0 -0.19038698318195549 0.16711234260031069 0 -0.20173639765426299 0.1643971743801825 0 -0.19038698318195549 0.16711234260031069 0 -0.1927705130470404 0.15866088515044 0 -0.19038698318195549 0.16711234260031069 0 -0.1927705130470404 0.15866088515044 0 -0.18413510522225521 0.16259499244525211 0 -0.1927705130470404 0.15866088515044 0 -0.19507878308752141 0.1486405391940768 0 -0.1852646507768699 0.1545619776798173 0 -0.19507878308752141 0.1486405391940768 0 -0.18706065072040501 0.14468661846275019 0 -0.1852646507768699 0.1545619776798173 0 -0.19507878308752141 0.1486405391940768 0 -0.20024290349544879 0.15519061181074151 0 -0.20390252305447459 0.15036513687703029 0 -0.1927705130470404 0.15866088515044 0 -0.19507878308752141 0.1486405391940768 0 -0.20024290349544879 0.15519061181074151 0 -0.19507878308752141 0.1486405391940768 0 -0.202312374299252 0.1441640524023215 0 -0.19563802519160789 0.13807458821396759 0 -0.19507878308752141 0.1486405391940768 0 -0.202312374299252 0.1441640524023215 0 -0.20390252305447459 0.15036513687703029 0 -0.19507878308752141 0.1486405391940768 0 -0.19563802519160789 0.13807458821396759 0 -0.18706065072040501 0.14468661846275019 0 -0.18039056500006781 0.12121373119240569 0 -0.20214902218410111 0.13458958866239301 0 -0.18039056500006781 0.12121373119240569 0 -0.20040659369392541 0.1193864456313013 0 -0.20214902218410111 0.13458958866239301 0 -0.18039056500006781 0.12121373119240569 0 -0.19563802519160789 0.13807458821396759 0 -0.20214902218410111 0.13458958866239301 0 -0.18039056500006781 0.12121373119240569 0 -0.19563802519160789 0.13807458821396759 0 -0.202312374299252 0.1441640524023215 0 -0.19563802519160789 0.13807458821396759 0 -0.20214902218410111 0.13458958866239301 0 -0.2075478572749084 0.11368283749669961 0 -0.22370276663374011 0.1364982034250237 0 -0.20214902218410111 0.13458958866239301 0 -0.2075478572749084 0.11368283749669961 0 -0.22370276663374011 0.1364982034250237 0 -0.22370276663374011 0.1364982034250237 0 -0.22390747936813421 0.14796544613238069 0 -0.20214902218410111 0.13458958866239301 0 -0.22390747936813421 0.14796544613238069 0 -0.20214902218410111 0.13458958866239301 0 -0.22390747936813421 0.14796544613238069 0 -0.20214902218410111 0.13458958866239301 0 -0.20948943058945241 0.14863997276184041 0 -0.22390747936813421 0.14796544613238069 0 -0.2168312664826515 0.15850745189495519 0 -0.20948943058945241 0.14863997276184041 0 -0.2168312664826515 0.15850745189495519 0 -0.20758447520558959 0.15683863127083711 0 -0.20948943058945241 0.14863997276184041 0 -0.20758447520558959 0.15683863127083711 0 -0.20948943058945241 0.14863997276184041 0 -0.20390252305447459 0.15036513687703029 0 -0.20758447520558959 0.15683863127083711 0 -0.20024290349544879 0.15519061181074151 0 -0.20390252305447459 0.15036513687703029 0 -0.202312374299252 0.1441640524023215 0 -0.20214902218410111 0.13458958866239301 0 -0.20948943058945241 0.14863997276184041 0 -0.202312374299252 0.1441640524023215 0 -0.20948943058945241 0.14863997276184041 0 -0.20390252305447459 0.15036513687703029 0 -0.22764024225575111 0.25709488017932702 0 -0.2151106411052526 0.2372148610219694 0 -0.22764024225575111 0.25709488017932702 0 -0.2283272457552897 0.2411225242229286 0 -0.2468893326351202 0.24329134098969171 0 -0.22764024225575111 0.25709488017932702 0 -0.2283272457552897 0.2411225242229286 0 -0.2151106411052526 0.2372148610219694 0 -0.2283272457552897 0.2411225242229286 0 -0.22236430254422471 0.22707510271615991 0 -0.2151106411052526 0.2372148610219694 0 -0.2283272457552897 0.2411225242229286 0 -0.2468893326351202 0.24329134098969171 0 -0.2329273297721271 0.2301735095518313 0 -0.25250373055295899 0.22903132158689779 0 -0.2468893326351202 0.24329134098969171 0 -0.24260825180894061 0.22311859240920151 0 -0.2468893326351202 0.24329134098969171 0 -0.24260825180894061 0.22311859240920151 0 -0.2329273297721271 0.2301735095518313 0 -0.25326648915379463 0.21765104414027969 0 -0.25250373055295899 0.22903132158689779 0 -0.24260825180894061 0.22311859240920151 0 -0.24260825180894061 0.22311859240920151 0 -0.23239639752576971 0.22100751879425451 0 -0.2329273297721271 0.2301735095518313 0 -0.23239639752576971 0.22100751879425451 0 -0.2329273297721271 0.2301735095518313 0 -0.22236430254422471 0.22707510271615991 0 -0.2283272457552897 0.2411225242229286 0 -0.2329273297721271 0.2301735095518313 0 -0.22236430254422471 0.22707510271615991 0 -0.23239639752576971 0.22100751879425451 0 -0.22236430254422471 0.22707510271615991 0 -0.2228431611521535 0.2155973608413651 0 -0.2228431611521535 0.2155973608413651 0 -0.2385329104852989 0.2118543258787943 0 -0.21819588620811961 0.20042781843582741 0 -0.2385329104852989 0.2118543258787943 0 -0.21819588620811961 0.20042781843582741 0 -0.23239639752576971 0.22100751879425451 0 -0.2228431611521535 0.2155973608413651 0 -0.2385329104852989 0.2118543258787943 0 -0.2385329104852989 0.2118543258787943 0 -0.24039455529309961 0.2058142864805034 0 -0.21819588620811961 0.20042781843582741 0 -0.24260825180894061 0.22311859240920151 0 -0.23239639752576971 0.22100751879425451 0 -0.2385329104852989 0.2118543258787943 0 -0.25326648915379463 0.21765104414027969 0 -0.24039455529309961 0.2058142864805034 0 -0.25326648915379463 0.21765104414027969 0 -0.2385329104852989 0.2118543258787943 0 -0.24039455529309961 0.2058142864805034 0 -0.25326648915379463 0.21765104414027969 0 -0.24260825180894061 0.22311859240920151 0 -0.2385329104852989 0.2118543258787943 0 -0.25264776582176801 0.2054066783297176 0 -0.25326648915379463 0.21765104414027969 0 -0.24039455529309961 0.2058142864805034 0 -0.25846339158769432 0.19477026040294029 0 -0.2425545525554833 0.18325607046718431 0 -0.24512564856919611 0.1966003761625241 0 -0.24039455529309961 0.2058142864805034 0 -0.24512564856919611 0.1966003761625241 0 -0.2315679775879351 0.19375458513227489 0 -0.25264776582176801 0.2054066783297176 0 -0.24039455529309961 0.2058142864805034 0 -0.24512564856919611 0.1966003761625241 0 -0.2425545525554833 0.18325607046718431 0 -0.24512564856919611 0.1966003761625241 0 -0.2315679775879351 0.19375458513227489 0 -0.24039455529309961 0.2058142864805034 0 -0.2315679775879351 0.19375458513227489 0 -0.21819588620811961 0.20042781843582741 0 -0.2235130486054053 0.18492553164669809 0 -0.2315679775879351 0.19375458513227489 0 -0.21819588620811961 0.20042781843582741 0 -0.21819588620811961 0.20042781843582741 0 -0.19785886193094021 0.18900131099286041 0 -0.2235130486054053 0.18492553164669809 0 -0.209750232499154 0.17791844316711489 0 -0.21819588620811961 0.20042781843582741 0 -0.209750232499154 0.17791844316711489 0 -0.21819588620811961 0.20042781843582741 0 -0.19785886193094021 0.18900131099286041 0 -0.21819588620811961 0.20042781843582741 0 -0.20376966825666501 0.2022924765927995 0 -0.19785886193094021 0.18900131099286041 0 -0.19785886193094021 0.18900131099286041 0 -0.19005143880425829 0.1974548227072519 0 -0.17752183765376101 0.1775748035498933 0 -0.20376966825666501 0.2022924765927995 0 -0.19785886193094021 0.18900131099286041 0 -0.19005143880425829 0.1974548227072519 0 -0.19005143880425829 0.1974548227072519 0 -0.187650486280975 0.21451757224245291 0 -0.20258103995475549 0.21733484186461069 0 -0.19005143880425829 0.1974548227072519 0 -0.20258103995475549 0.21733484186461069 0 -0.20376966825666501 0.2022924765927995 0 -0.19005143880425829 0.1974548227072519 0 -0.20258103995475549 0.21733484186461069 0 -0.2228431611521535 0.2155973608413651 0 -0.21819588620811961 0.20042781843582741 0 -0.20258103995475549 0.21733484186461069 0 -0.21819588620811961 0.20042781843582741 0 -0.20376966825666501 0.2022924765927995 0 -0.20258103995475549 0.21733484186461069 0 -0.20258103995475549 0.21733484186461069 0 -0.19839606398960871 0.22991008851962841 0 -0.2151106411052526 0.2372148610219694 0 -0.22236430254422471 0.22707510271615991 0 -0.2228431611521535 0.2155973608413651 0 -0.20258103995475549 0.21733484186461069 0 -0.22236430254422471 0.22707510271615991 0 -0.20258103995475549 0.21733484186461069 0 -0.2151106411052526 0.2372148610219694 0 -0.20258103995475549 0.21733484186461069 0 -0.2151106411052526 0.2372148610219694 0 -0.187650486280975 0.21451757224245291 0 -0.20258103995475549 0.21733484186461069 0 -0.19839606398960871 0.22991008851962841 0 -0.187650486280975 0.21451757224245291 0 -0.19839606398960871 0.22991008851962841 0 -0.18195408303730121 0.23534357450296481 0 -0.18940688912330481 0.25610334311205268 0 -0.2046840695697589 0.2451395929661444 0 -0.18195408303730121 0.23534357450296481 0 -0.2046840695697589 0.2451395929661444 0 -0.18195408303730121 0.23534357450296481 0 -0.19839606398960871 0.22991008851962841 0 -0.2046840695697589 0.2451395929661444 0 -0.18195408303730121 0.23534357450296481 0 -0.21239874098331929 0.25437807278244762 0 -0.2046840695697589 0.2451395929661444 0 -0.2151106411052526 0.2372148610219694 0 -0.19839606398960871 0.22991008851962841 0 -0.2046840695697589 0.2451395929661444 0 -0.2151106411052526 0.2372148610219694 0 -0.22764024225575111 0.25709488017932702 0 -0.21239874098331929 0.25437807278244762 0 -0.2151106411052526 0.2372148610219694 0 -0.16225317791305921 0.25358582624422438 0 -0.18195408303730121 0.23534357450296481 0 -0.155242522585569 0.24016045739440639 0 -0.17508206900779469 0.25918785244088571 0 -0.16225317791305921 0.25358582624422438 0 -0.18195408303730121 0.23534357450296481 0 -0.187650486280975 0.21451757224245291 0 -0.18195408303730121 0.23534357450296481 0 -0.17144823439391829 0.2141895330645725 0 -0.18195408303730121 0.23534357450296481 0 -0.15922409650484359 0.2255475560397853 0 -0.18195408303730121 0.23534357450296481 0 -0.15922409650484359 0.2255475560397853 0 -0.155242522585569 0.24016045739440639 0 -0.18195408303730121 0.23534357450296481 0 -0.15922409650484359 0.2255475560397853 0 -0.17144823439391829 0.2141895330645725 0 -0.15922409650484359 0.2255475560397853 0 -0.15900733689739069 0.21062159977010589 0 -0.17144823439391829 0.2141895330645725 0 -0.15900733689739069 0.21062159977010589 0 -0.1653418357915476 0.2018213455952054 0 -0.15361129879784891 0.20139719057542019 0 -0.17144823439391829 0.2141895330645725 0 -0.17723797391968729 0.20390802022475071 0 -0.1653418357915476 0.2018213455952054 0 -0.15900733689739069 0.21062159977010589 0 -0.17144823439391829 0.2141895330645725 0 -0.1653418357915476 0.2018213455952054 0 -0.187650486280975 0.21451757224245291 0 -0.17144823439391829 0.2141895330645725 0 -0.17723797391968729 0.20390802022475071 0 -0.19005143880425829 0.1974548227072519 0 -0.187650486280975 0.21451757224245291 0 -0.17723797391968729 0.20390802022475071 0 -0.19005143880425829 0.1974548227072519 0 -0.17169787432773731 0.19155682751427069 0 -0.17752183765376101 0.1775748035498933 0 -0.19005143880425829 0.1974548227072519 0 -0.17723797391968729 0.20390802022475071 0 -0.17169787432773731 0.19155682751427069 0 -0.19005143880425829 0.1974548227072519 0 -0.17752183765376101 0.1775748035498933 0 -0.17169787432773731 0.19155682751427069 0 -0.1653418357915476 0.2018213455952054 0 -0.15791164184663151 0.19274793286901881 0 -0.17723797391968729 0.20390802022475071 0 -0.17169787432773731 0.19155682751427069 0 -0.1653418357915476 0.2018213455952054 0 -0.1653418357915476 0.2018213455952054 0 -0.15791164184663151 0.19274793286901881 0 -0.15361129879784891 0.20139719057542019 0 -0.17169787432773731 0.19155682751427069 0 -0.15791164184663151 0.19274793286901881 0 -0.16134243263699979 0.18146195783717889 0 -0.15791164184663151 0.19274793286901881 0 -0.15361129879784891 0.20139719057542019 0 -0.14754997702249989 0.19123102061556399 0 -0.15791164184663151 0.19274793286901881 0 -0.14754997702249989 0.19123102061556399 0 -0.15378055215212841 0.1853342336718547 0 -0.15361129879784891 0.20139719057542019 0 -0.144337775963609 0.20069921068637719 0 -0.14754997702249989 0.19123102061556399 0 -0.14754997702249989 0.19123102061556399 0 -0.13411435042981179 0.19106266128805069 0 -0.1463292802833521 0.18023770330257241 0 -0.144337775963609 0.20069921068637719 0 -0.14754997702249989 0.19123102061556399 0 -0.13411435042981179 0.19106266128805069 0 -0.13411435042981179 0.19106266128805069 0 -0.12967955466007261 0.2074258594294596 0 -0.1235431789710726 0.1969801993001162 0 -0.13411435042981179 0.19106266128805069 0 -0.13770187294137159 0.2043383794177894 0 -0.12967955466007261 0.2074258594294596 0 -0.144337775963609 0.20069921068637719 0 -0.13411435042981179 0.19106266128805069 0 -0.13770187294137159 0.2043383794177894 0 -0.13770187294137159 0.2043383794177894 0 -0.13855706597983281 0.21350408889879899 0 -0.14247480998137141 0.20718589651263181 0 -0.1364941099723872 0.21575153757660309 0 -0.120958802369795 0.22183359367242919 0 -0.11894773722242739 0.20818951851535461 0 -0.12967955466007261 0.2074258594294596 0 -0.1364941099723872 0.21575153757660309 0 -0.11894773722242739 0.20818951851535461 0 -0.13770187294137159 0.2043383794177894 0 -0.12967955466007261 0.2074258594294596 0 -0.13855706597983281 0.21350408889879899 0 -0.1364941099723872 0.21575153757660309 0 -0.11894773722242739 0.20818951851535461 0 -0.12967955466007261 0.2074258594294596 0 -0.1364941099723872 0.21575153757660309 0 -0.13855706597983281 0.21350408889879899 0 -0.1364941099723872 0.21575153757660309 0 -0.13855706597983281 0.21350408889879899 0 -0.15922409650484359 0.2255475560397853 0 -0.1364941099723872 0.21575153757660309 0 -0.13855706597983281 0.21350408889879899 0 -0.15922409650484359 0.2255475560397853 0 -0.13855706597983281 0.21350408889879899 0 -0.14930252504067221 0.21020190704756139 0 -0.13855706597983281 0.21350408889879899 0 -0.14247480998137141 0.20718589651263181 0 -0.14930252504067221 0.21020190704756139 0 -0.144337775963609 0.20069921068637719 0 -0.14247480998137141 0.20718589651263181 0 -0.14930252504067221 0.21020190704756139 0 -0.144337775963609 0.20069921068637719 0 -0.13770187294137159 0.2043383794177894 0 -0.14247480998137141 0.20718589651263181 0 -0.15900733689739069 0.21062159977010589 0 -0.15361129879784891 0.20139719057542019 0 -0.14930252504067221 0.21020190704756139 0 -0.15361129879784891 0.20139719057542019 0 -0.144337775963609 0.20069921068637719 0 -0.14930252504067221 0.21020190704756139 0 -0.15922409650484359 0.2255475560397853 0 -0.15900733689739069 0.21062159977010589 0 -0.14930252504067221 0.21020190704756139 0 -0.15922409650484359 0.2255475560397853 0 -0.13635804662702189 0.23039018670563211 0 -0.14207867318260539 0.23889574066385899 0 -0.15922409650484359 0.2255475560397853 0 -0.1364941099723872 0.21575153757660309 0 -0.13635804662702189 0.23039018670563211 0 -0.15922409650484359 0.2255475560397853 0 -0.1364941099723872 0.21575153757660309 0 -0.1364941099723872 0.21575153757660309 0 -0.13635804662702189 0.23039018670563211 0 -0.11673432752768111 0.2372784614512472 0 -0.1364941099723872 0.21575153757660309 0 -0.11673432752768111 0.2372784614512472 0 -0.13635804662702189 0.23039018670563211 0 -0.12961957513534 0.23973743310435161 0 -0.11673432752768111 0.2372784614512472 0 -0.13635804662702189 0.23039018670563211 0 -0.12961957513534 0.23973743310435161 0 -0.14207867318260539 0.23889574066385899 0 -0.12961957513534 0.23973743310435161 0 -0.13357218109292621 0.2499317644564327 0 -0.1213089330464012 0.24626659804535689 0 -0.12961957513534 0.23973743310435161 0 -0.13357218109292621 0.2499317644564327 0 -0.14207867318260539 0.23889574066385899 0 -0.14746997276257359 0.25293699741112718 0 -0.13357218109292621 0.2499317644564327 0 -0.14207867318260539 0.23889574066385899 0 -0.15922409650484359 0.2255475560397853 0 -0.14207867318260539 0.23889574066385899 0 -0.155242522585569 0.24016045739440639 0 -0.14746997276257359 0.25293699741112718 0 -0.14207867318260539 0.23889574066385899 0 -0.155242522585569 0.24016045739440639 0 -0.16225317791305921 0.25358582624422438 0 -0.14746997276257359 0.25293699741112718 0 -0.155242522585569 0.24016045739440639 0 -0.166988808872575 0.14091924592242799 0 -0.1736883691443292 0.1501381655411517 0 -0.1666646902223726 0.16034837340756511 0 -0.166988808872575 0.14091924592242799 0 -0.1666646902223726 0.16034837340756511 0 -0.15580754279098399 0.143121943265237 0 -0.1666646902223726 0.16034837340756511 0 -0.1549726550285947 0.15674585516748279 0 -0.15580754279098399 0.143121943265237 0 -0.1666646902223726 0.16034837340756511 0 -0.15580754279098399 0.143121943265237 0 -0.1628447509754036 0.1248738178506951 0 -0.166988808872575 0.14091924592242799 0 -0.17824709647023271 0.1379937977022469 0 -0.1628447509754036 0.1248738178506951 0 -0.166988808872575 0.14091924592242799 0 -0.15580754279098399 0.143121943265237 0 -0.18039056500006781 0.12121373119240569 0 -0.1628447509754036 0.1248738178506951 0 -0.17824709647023271 0.1379937977022469 0 -0.19563802519160789 0.13807458821396759 0 -0.17824709647023271 0.1379937977022469 0 -0.18706065072040501 0.14468661846275019 0 -0.18039056500006781 0.12121373119240569 0 -0.19563802519160789 0.13807458821396759 0 -0.17824709647023271 0.1379937977022469 0 -0.17824709647023271 0.1379937977022469 0 -0.18706065072040501 0.14468661846275019 0 -0.1811623126986891 0.14793864394101769 0 -0.166988808872575 0.14091924592242799 0 -0.17824709647023271 0.1379937977022469 0 -0.1736883691443292 0.1501381655411517 0 -0.17824709647023271 0.1379937977022469 0 -0.1811623126986891 0.14793864394101769 0 -0.1736883691443292 0.1501381655411517 0 -0.1811623126986891 0.14793864394101769 0 -0.1736883691443292 0.1501381655411517 0 -0.17666515903818969 0.15970684649729899 0 -0.1811623126986891 0.14793864394101769 0 -0.1852646507768699 0.1545619776798173 0 -0.17666515903818969 0.15970684649729899 0 -0.18706065072040501 0.14468661846275019 0 -0.1811623126986891 0.14793864394101769 0 -0.1852646507768699 0.1545619776798173 0 -0.17752183765376101 0.1775748035498933 0 -0.1666646902223726 0.16034837340756511 0 -0.1927705130470404 0.15866088515044 0 -0.1852646507768699 0.1545619776798173 0 -0.18413510522225521 0.16259499244525211 0 -0.17666515903818969 0.15970684649729899 0 -0.17752183765376101 0.1775748035498933 0 -0.1666646902223726 0.16034837340756511 0 -0.1852646507768699 0.1545619776798173 0 -0.18413510522225521 0.16259499244525211 0 -0.17666515903818969 0.15970684649729899 0 -0.18413510522225521 0.16259499244525211 0 -0.17666515903818969 0.15970684649729899 0 -0.17752183765376101 0.1775748035498933 0 -0.19038698318195549 0.16711234260031069 0 -0.18413510522225521 0.16259499244525211 0 -0.17752183765376101 0.1775748035498933 0 -0.1736883691443292 0.1501381655411517 0 -0.17666515903818969 0.15970684649729899 0 -0.1666646902223726 0.16034837340756511 0 -0.17169787432773731 0.19155682751427069 0 -0.17752183765376101 0.1775748035498933 0 -0.16134243263699979 0.18146195783717889 0 -0.17752183765376101 0.1775748035498933 0 -0.160166055014445 0.16782332876165751 0 -0.17752183765376101 0.1775748035498933 0 -0.16134243263699979 0.18146195783717889 0 -0.160166055014445 0.16782332876165751 0 -0.16134243263699979 0.18146195783717889 0 -0.160166055014445 0.16782332876165751 0 -0.1543363168372556 0.17604552304072019 0 -0.16134243263699979 0.18146195783717889 0 -0.15378055215212841 0.1853342336718547 0 -0.1543363168372556 0.17604552304072019 0 -0.15791164184663151 0.19274793286901881 0 -0.16134243263699979 0.18146195783717889 0 -0.15378055215212841 0.1853342336718547 0 -0.17752183765376101 0.1775748035498933 0 -0.1666646902223726 0.16034837340756511 0 -0.160166055014445 0.16782332876165751 0 -0.1666646902223726 0.16034837340756511 0 -0.160166055014445 0.16782332876165751 0 -0.1549726550285947 0.15674585516748279 0 -0.160166055014445 0.16782332876165751 0 -0.1549726550285947 0.15674585516748279 0 -0.14281027237512919 0.15807185397342149 0 -0.160166055014445 0.16782332876165751 0 -0.14281027237512919 0.15807185397342149 0 -0.160166055014445 0.16782332876165751 0 -0.1483000089644074 0.1706867490983929 0 -0.14281027237512919 0.15807185397342149 0 -0.160166055014445 0.16782332876165751 0 -0.1483000089644074 0.1706867490983929 0 -0.1543363168372556 0.17604552304072019 0 -0.1483000089644074 0.1706867490983929 0 -0.14281027237512919 0.15807185397342149 0 -0.13856119746919621 0.1732320213376258 0 -0.14754997702249989 0.19123102061556399 0 -0.15378055215212841 0.1853342336718547 0 -0.1463292802833521 0.18023770330257241 0 -0.15378055215212841 0.1853342336718547 0 -0.1543363168372556 0.17604552304072019 0 -0.1463292802833521 0.18023770330257241 0 -0.1483000089644074 0.1706867490983929 0 -0.1543363168372556 0.17604552304072019 0 -0.1463292802833521 0.18023770330257241 0 -0.1483000089644074 0.1706867490983929 0 -0.1463292802833521 0.18023770330257241 0 -0.13856119746919621 0.1732320213376258 0 -0.13411435042981179 0.19106266128805069 0 -0.13856119746919621 0.1732320213376258 0 -0.12609153575556739 0.16924223779836581 0 -0.13411435042981179 0.19106266128805069 0 -0.12609153575556739 0.16924223779836581 0 -0.1152399272795421 0.1851742901109647 0 -0.13411435042981179 0.19106266128805069 0 -0.1463292802833521 0.18023770330257241 0 -0.13856119746919621 0.1732320213376258 0 -0.14281027237512919 0.15807185397342149 0 -0.12609153575556739 0.16924223779836581 0 -0.135520965557581 0.14756887546063741 0 -0.12609153575556739 0.16924223779836581 0 -0.135520965557581 0.14756887546063741 0 -0.14281027237512919 0.15807185397342149 0 -0.13856119746919621 0.1732320213376258 0 -0.12609153575556739 0.16924223779836581 0 -0.135520965557581 0.14756887546063741 0 -0.13028426483969929 0.13221647237215789 0 -0.1192914655824909 0.15059360814623801 0 -0.12609153575556739 0.16924223779836581 0 -0.135520965557581 0.14756887546063741 0 -0.1192914655824909 0.15059360814623801 0 -0.1549726550285947 0.15674585516748279 0 -0.14281027237512919 0.15807185397342149 0 -0.14652630769324659 0.14708303210739521 0 -0.14281027237512919 0.15807185397342149 0 -0.135520965557581 0.14756887546063741 0 -0.14652630769324659 0.14708303210739521 0 -0.1549726550285947 0.15674585516748279 0 -0.14652630769324659 0.14708303210739521 0 -0.15580754279098399 0.143121943265237 0 -0.1628447509754036 0.1248738178506951 0 -0.15580754279098399 0.143121943265237 0 -0.14495039535959489 0.12589551312290931 0 -0.135520965557581 0.14756887546063741 0 -0.14652630769324659 0.14708303210739521 0 -0.14495039535959489 0.12589551312290931 0 -0.15580754279098399 0.143121943265237 0 -0.14495039535959489 0.12589551312290931 0 -0.14652630769324659 0.14708303210739521 0 -0.15580754279098399 0.143121943265237 0 -0.14495039535959489 0.12589551312290931 0 -0.135520965557581 0.14756887546063741 0 -0.14495039535959489 0.12589551312290931 0 -0.135520965557581 0.14756887546063741 0 -0.14495039535959489 0.12589551312290931 0 -0.13028426483969929 0.13221647237215789 0 -0.13028426483969929 0.13221647237215789 0 -0.1131006250587715 0.12959615498317961 0 -0.1192914655824909 0.15059360814623801 0 -0.1131006250587715 0.12959615498317961 0 -0.10078539792307099 0.15464240809582361 0 -0.092802426943272898 0.12960292979422991 0 -0.1131006250587715 0.12959615498317961 0 -0.10078539792307099 0.15464240809582361 0 -0.1192914655824909 0.15059360814623801 0 -0.10078539792307099 0.15464240809582361 0 -0.1192914655824909 0.15059360814623801 0 -0.10897534263953949 0.16967833346669081 0 -0.12609153575556739 0.16924223779836581 0 -0.1192914655824909 0.15059360814623801 0 -0.10897534263953949 0.16967833346669081 0 -0.12609153575556739 0.16924223779836581 0 -0.1152399272795421 0.1851742901109647 0 -0.10897534263953949 0.16967833346669081 0 -0.1152399272795421 0.1851742901109647 0 -0.098409264142157865 0.1851788001203086 0 -0.10897534263953949 0.16967833346669081 0 -0.098409264142157865 0.1851788001203086 0 -0.10897534263953949 0.16967833346669081 0 -0.082277471490505807 0.17420718144711089 0 -0.10078539792307099 0.15464240809582361 0 -0.10897534263953949 0.16967833346669081 0 -0.082277471490505807 0.17420718144711089 0 -0.10078539792307099 0.15464240809582361 0 -0.082277471490505807 0.17420718144711089 0 -0.082277471490505807 0.17420718144711089 0 -0.065615427061545384 0.16058384892905991 0 -0.074642854581774637 0.14147916649728479 0 -0.10078539792307099 0.15464240809582361 0 -0.082277471490505807 0.17420718144711089 0 -0.074642854581774637 0.14147916649728479 0 -0.098409264142157865 0.1851788001203086 0 -0.082277471490505807 0.17420718144711089 0 -0.084152214828733252 0.19620669612267311 0 -0.082277471490505807 0.17420718144711089 0 -0.063769545057940663 0.19377195479839809 0 -0.082277471490505807 0.17420718144711089 0 -0.063769545057940663 0.19377195479839809 0 -0.051824687549248197 0.17345858692208871 0 -0.082277471490505807 0.17420718144711089 0 -0.065615427061545384 0.16058384892905991 0 -0.051824687549248197 0.17345858692208871 0 -0.074642854581774637 0.14147916649728479 0 -0.055186524828957063 0.1281687789626855 0 -0.07438317581125764 0.1124407737129243 0 -0.074642854581774637 0.14147916649728479 0 -0.092802426943272898 0.12960292979422991 0 -0.07438317581125764 0.1124407737129243 0 -0.10078539792307099 0.15464240809582361 0 -0.074642854581774637 0.14147916649728479 0 -0.092802426943272898 0.12960292979422991 0 -0.10058650277722481 0.24229521027045481 0 -0.11673432752768111 0.2372784614512472 0 -0.1053270170515283 0.2324499666522013 0 -0.096974545082976191 0.25880538532589209 0 -0.10058650277722481 0.24229521027045481 0 -0.088715331182393942 0.2449718195011524 0 -0.096974545082976191 0.25880538532589209 0 -0.10058650277722481 0.24229521027045481 0 -0.11673432752768111 0.2372784614512472 0 -0.096974545082976191 0.25880538532589209 0 -0.112097455783086 0.24444379951602521 0 -0.11673432752768111 0.2372784614512472 0 -0.096974545082976191 0.25880538532589209 0 -0.11673432752768111 0.2372784614512472 0 -0.10058650277722481 0.24229521027045481 0 -0.091983872440322634 0.23323291704093771 0 -0.088715331182393942 0.2449718195011524 0 -0.10058650277722481 0.24229521027045481 0 -0.1053270170515283 0.2324499666522013 0 -0.091983872440322634 0.23323291704093771 0 -0.11521273165378559 0.25497892835963998 0 -0.112097455783086 0.24444379951602521 0 -0.1213089330464012 0.24626659804535689 0 -0.112097455783086 0.24444379951602521 0 -0.1213089330464012 0.24626659804535689 0 -0.11673432752768111 0.2372784614512472 0 -0.12961957513534 0.23973743310435161 0 -0.1213089330464012 0.24626659804535689 0 -0.11673432752768111 0.2372784614512472 0 -0.11673432752768111 0.2372784614512472 0 -0.111977792011399 0.2261119040305537 0 -0.1053270170515283 0.2324499666522013 0 -0.1364941099723872 0.21575153757660309 0 -0.11673432752768111 0.2372784614512472 0 -0.120958802369795 0.22183359367242919 0 -0.11673432752768111 0.2372784614512472 0 -0.120958802369795 0.22183359367242919 0 -0.111977792011399 0.2261119040305537 0 -0.120958802369795 0.22183359367242919 0 -0.111977792011399 0.2261119040305537 0 -0.11263418842693861 0.21654350143059611 0 -0.111977792011399 0.2261119040305537 0 -0.1027476190553803 0.22153268259517769 0 -0.11263418842693861 0.21654350143059611 0 -0.1027476190553803 0.22153268259517769 0 -0.088008266818085573 0.21525264443096179 0 -0.091983872440322634 0.23323291704093771 0 -0.111977792011399 0.2261119040305537 0 -0.1027476190553803 0.22153268259517769 0 -0.1053270170515283 0.2324499666522013 0 -0.1027476190553803 0.22153268259517769 0 -0.1053270170515283 0.2324499666522013 0 -0.091983872440322634 0.23323291704093771 0 -0.1027476190553803 0.22153268259517769 0 -0.1014013644724687 0.20062749945410349 0 -0.088008266818085573 0.21525264443096179 0 -0.1027476190553803 0.22153268259517769 0 -0.11263418842693861 0.21654350143059611 0 -0.1014013644724687 0.20062749945410349 0 -0.11263418842693861 0.21654350143059611 0 -0.11894773722242739 0.20818951851535461 0 -0.1014013644724687 0.20062749945410349 0 -0.11894773722242739 0.20818951851535461 0 -0.1014013644724687 0.20062749945410349 0 -0.120958802369795 0.22183359367242919 0 -0.11263418842693861 0.21654350143059611 0 -0.11894773722242739 0.20818951851535461 0 -0.12967955466007261 0.2074258594294596 0 -0.11894773722242739 0.20818951851535461 0 -0.1235431789710726 0.1969801993001162 0 -0.11894773722242739 0.20818951851535461 0 -0.1235431789710726 0.1969801993001162 0 -0.1014013644724687 0.20062749945410349 0 -0.13411435042981179 0.19106266128805069 0 -0.1152399272795421 0.1851742901109647 0 -0.1235431789710726 0.1969801993001162 0 -0.1152399272795421 0.1851742901109647 0 -0.1235431789710726 0.1969801993001162 0 -0.1014013644724687 0.20062749945410349 0 -0.1152399272795421 0.1851742901109647 0 -0.098409264142157865 0.1851788001203086 0 -0.1014013644724687 0.20062749945410349 0 -0.098409264142157865 0.1851788001203086 0 -0.1014013644724687 0.20062749945410349 0 -0.084152214828733252 0.19620669612267311 0 -0.084152214828733252 0.19620669612267311 0 -0.063769545057940663 0.19377195479839809 0 -0.072142849724606259 0.2099260872470029 0 -0.082277471490505807 0.17420718144711089 0 -0.084152214828733252 0.19620669612267311 0 -0.063769545057940663 0.19377195479839809 0 -0.072142849724606259 0.2099260872470029 0 -0.088008266818085573 0.21525264443096179 0 -0.068407602306599244 0.22780678473085289 0 -0.084152214828733252 0.19620669612267311 0 -0.072142849724606259 0.2099260872470029 0 -0.088008266818085573 0.21525264443096179 0 -0.1014013644724687 0.20062749945410349 0 -0.084152214828733252 0.19620669612267311 0 -0.088008266818085573 0.21525264443096179 0 -0.091983872440322634 0.23323291704093771 0 -0.068407602306599244 0.22780678473085289 0 -0.080478212985736569 0.23984126859451149 0 -0.088008266818085573 0.21525264443096179 0 -0.091983872440322634 0.23323291704093771 0 -0.068407602306599244 0.22780678473085289 0 -0.073553522625709841 0.25068431627396631 0 -0.068407602306599244 0.22780678473085289 0 -0.080478212985736569 0.23984126859451149 0 -0.073553522625709841 0.25068431627396631 0 -0.068407602306599244 0.22780678473085289 0 -0.050132500168443887 0.2425632472220397 0 -0.073553522625709841 0.25068431627396631 0 -0.080478212985736569 0.23984126859451149 0 -0.088715331182393942 0.2449718195011524 0 -0.091983872440322634 0.23323291704093771 0 -0.080478212985736569 0.23984126859451149 0 -0.088715331182393942 0.2449718195011524 0 -0.050132500168443887 0.2425632472220397 0 -0.026711477711177899 0.23444217817011309 0 -0.029881977245259539 0.25372898958001938 0 -0.050132500168443887 0.2425632472220397 0 -0.026711477711177899 0.23444217817011309 0 -0.050132500168443887 0.2425632472220397 0 -0.042100384295285467 0.22888272761933071 0 -0.026711477711177899 0.23444217817011309 0 -0.073553522625709841 0.25068431627396631 0 -0.050132500168443887 0.2425632472220397 0 -0.068407602306599244 0.22780678473085289 0 -0.050132500168443887 0.2425632472220397 0 -0.042100384295285467 0.22888272761933071 0 -0.068407602306599244 0.22780678473085289 0 -0.042100384295285467 0.22888272761933071 0 -0.045261618625375449 0.21333672814968549 0 -0.045261618625375449 0.21333672814968549 0 -0.02675369219281019 0.23290150150097291 0 -0.045261618625375449 0.21333672814968549 0 -0.02772339752401377 0.22169904798743939 0 -0.02675369219281019 0.23290150150097291 0 -0.042100384295285467 0.22888272761933071 0 -0.045261618625375449 0.21333672814968549 0 -0.02675369219281019 0.23290150150097291 0 -0.042100384295285467 0.22888272761933071 0 -0.02675369219281019 0.23290150150097291 0 -0.026711477711177899 0.23444217817011309 0 -0.045261618625375449 0.21333672814968549 0 -0.025983012380334781 0.2115930184476672 0 -0.02772339752401377 0.22169904798743939 0 -0.045261618625375449 0.21333672814968549 0 -0.029252980350323681 0.1977376245802884 0 -0.025983012380334781 0.2115930184476672 0 -0.063769545057940663 0.19377195479839809 0 -0.045261618625375449 0.21333672814968549 0 -0.063769545057940663 0.19377195479839809 0 -0.072142849724606259 0.2099260872470029 0 -0.045261618625375449 0.21333672814968549 0 -0.072142849724606259 0.2099260872470029 0 -0.068407602306599244 0.22780678473085289 0 -0.045261618625375449 0.21333672814968549 0 -0.063769545057940663 0.19377195479839809 0 -0.045261618625375449 0.21333672814968549 0 -0.041349789320347038 0.18749549167170951 0 -0.029252980350323681 0.1977376245802884 0 -0.041349789320347038 0.18749549167170951 0 -0.02440704960050057 0.1813667693045137 0 -0.045261618625375449 0.21333672814968549 0 -0.029252980350323681 0.1977376245802884 0 -0.041349789320347038 0.18749549167170951 0 -0.029252980350323681 0.1977376245802884 0 -0.01949536222664228 0.1923427933584827 0 -0.02440704960050057 0.1813667693045137 0 -0.029252980350323681 0.1977376245802884 0 -0.019383630886315679 0.20246845033521829 0 -0.01949536222664228 0.1923427933584827 0 -0.019383630886315679 0.20246845033521829 0 -0.01949536222664228 0.1923427933584827 0 -0.011799668219416901 0.19617813045667529 0 -0.01949536222664228 0.1923427933584827 0 -0.011799668219416901 0.19617813045667529 0 -0.0099503170468955675 0.185467411183286 0 -0.0047591026019954026 0.19332022418589959 0 -0.011799668219416901 0.19617813045667529 0 -0.0099503170468955675 0.185467411183286 0 -0.0047591026019954026 0.19332022418589959 0 -0.003081975793268537 0.18782002811878001 0 -0.0099503170468955675 0.185467411183286 0 -0.0047591026019954026 0.19332022418589959 0 -2.3422743153838069e-05 0.1988005567515452 0 0.0015327128313205251 0.1915709431207247 0 -0.0047591026019954026 0.19332022418589959 0 -0.003081975793268537 0.18782002811878001 0 0.0015327128313205251 0.1915709431207247 0 -2.3422743153838069e-05 0.1988005567515452 0 -0.0064134676939889088 0.1997865992100484 0 -0.0042090490499692894 0.20625736901624969 0 -0.0047591026019954026 0.19332022418589959 0 -2.3422743153838069e-05 0.1988005567515452 0 -0.0064134676939889088 0.1997865992100484 0 -0.0047591026019954026 0.19332022418589959 0 -0.0064134676939889088 0.1997865992100484 0 -0.011799668219416901 0.19617813045667529 0 -0.019383630886315679 0.20246845033521829 0 -0.011799668219416901 0.19617813045667529 0 -0.01127609585540912 0.20437671563987239 0 -0.0064134676939889088 0.1997865992100484 0 -0.011799668219416901 0.19617813045667529 0 -0.01127609585540912 0.20437671563987239 0 -0.019383630886315679 0.20246845033521829 0 -0.01127609585540912 0.20437671563987239 0 -0.015975625416527989 0.21106072298800291 0 -0.0098363755348389904 0.2097806401996784 0 -0.01127609585540912 0.20437671563987239 0 -0.015975625416527989 0.21106072298800291 0 -0.0098363755348389904 0.2097806401996784 0 -0.01127609585540912 0.20437671563987239 0 -0.0042090490499692894 0.20625736901624969 0 -0.0042090490499692894 0.20625736901624969 0 0.00083142932333707279 0.21381627434491049 0 0.0029581381265264858 0.20519393183106241 0 -0.0064134676939889088 0.1997865992100484 0 -0.01127609585540912 0.20437671563987239 0 -0.0042090490499692894 0.20625736901624969 0 -0.0098363755348389904 0.2097806401996784 0 -0.0042090490499692894 0.20625736901624969 0 -0.0060196598873338584 0.21321125444391051 0 -2.3422743153838069e-05 0.1988005567515452 0 -0.0042090490499692894 0.20625736901624969 0 0.0029581381265264858 0.20519393183106241 0 -0.0055559642639475869 0.21913689448513271 0 0.0001093474821353509 0.22215689039817851 0 0.00083142932333707279 0.21381627434491049 0 -0.0060196598873338584 0.21321125444391051 0 -0.0055559642639475869 0.21913689448513271 0 0.00083142932333707279 0.21381627434491049 0 -0.0042090490499692894 0.20625736901624969 0 -0.0060196598873338584 0.21321125444391051 0 0.00083142932333707279 0.21381627434491049 0 -0.0060196598873338584 0.21321125444391051 0 -0.01091493828254137 0.21625783395607551 0 -0.0055559642639475869 0.21913689448513271 0 -0.01091493828254137 0.21625783395607551 0 -0.015975625416527989 0.21106072298800291 0 -0.017588491814277241 0.22188462813269769 0 -0.0098363755348389904 0.2097806401996784 0 -0.0060196598873338584 0.21321125444391051 0 -0.01091493828254137 0.21625783395607551 0 -0.0098363755348389904 0.2097806401996784 0 -0.01091493828254137 0.21625783395607551 0 -0.015975625416527989 0.21106072298800291 0 -0.015975625416527989 0.21106072298800291 0 -0.025983012380334781 0.2115930184476672 0 -0.017588491814277241 0.22188462813269769 0 -0.019383630886315679 0.20246845033521829 0 -0.015975625416527989 0.21106072298800291 0 -0.025983012380334781 0.2115930184476672 0 -0.029252980350323681 0.1977376245802884 0 -0.019383630886315679 0.20246845033521829 0 -0.025983012380334781 0.2115930184476672 0 -0.025983012380334781 0.2115930184476672 0 -0.02772339752401377 0.22169904798743939 0 -0.017588491814277241 0.22188462813269769 0 -0.02772339752401377 0.22169904798743939 0 -0.02675369219281019 0.23290150150097291 0 -0.022352419066048221 0.22652947853539249 0 -0.02675369219281019 0.23290150150097291 0 -0.017344094733091689 0.22963273652046001 0 -0.01246950101347712 0.23792538229425519 0 -0.02675369219281019 0.23290150150097291 0 -0.017344094733091689 0.22963273652046001 0 -0.022352419066048221 0.22652947853539249 0 -0.017344094733091689 0.22963273652046001 0 -0.017588491814277241 0.22188462813269769 0 -0.01350500053265637 0.2263729039251991 0 -0.017344094733091689 0.22963273652046001 0 -0.022352419066048221 0.22652947853539249 0 -0.017588491814277241 0.22188462813269769 0 -0.02772339752401377 0.22169904798743939 0 -0.022352419066048221 0.22652947853539249 0 -0.017588491814277241 0.22188462813269769 0 -0.01091493828254137 0.21625783395607551 0 -0.017588491814277241 0.22188462813269769 0 -0.01009356448405245 0.2229710377255022 0 -0.017588491814277241 0.22188462813269769 0 -0.01350500053265637 0.2263729039251991 0 -0.01009356448405245 0.2229710377255022 0 -0.01091493828254137 0.21625783395607551 0 -0.01009356448405245 0.2229710377255022 0 -0.0055559642639475869 0.21913689448513271 0 -0.01009356448405245 0.2229710377255022 0 -0.0055559642639475869 0.21913689448513271 0 -0.0046023563546483629 0.22639127835839259 0 -0.0055559642639475869 0.21913689448513271 0 -0.0046023563546483629 0.22639127835839259 0 0.0001093474821353509 0.22215689039817851 0 -0.0046023563546483629 0.22639127835839259 0 0.0010433620948100131 0.23240638127880581 0 0.0001093474821353509 0.22215689039817851 0 -0.0046023563546483629 0.22639127835839259 0 -0.0089938510992040935 0.23100321332213661 0 0.0010433620948100131 0.23240638127880581 0 -0.017344094733091689 0.22963273652046001 0 -0.0089938510992040935 0.23100321332213661 0 -0.01246950101347712 0.23792538229425519 0 -0.01009356448405245 0.2229710377255022 0 -0.0046023563546483629 0.22639127835839259 0 -0.0089938510992040935 0.23100321332213661 0 -0.017344094733091689 0.22963273652046001 0 -0.01350500053265637 0.2263729039251991 0 -0.0089938510992040935 0.23100321332213661 0 -0.01350500053265637 0.2263729039251991 0 -0.01009356448405245 0.2229710377255022 0 -0.0089938510992040935 0.23100321332213661 0 -0.0089938510992040935 0.23100321332213661 0 -0.001965278602122185 0.24182690426762959 0 0.0010433620948100131 0.23240638127880581 0 -0.0089938510992040935 0.23100321332213661 0 -0.01246950101347712 0.23792538229425519 0 -0.001965278602122185 0.24182690426762959 0 -0.0082457657602449386 0.25246627485226031 0 -0.01246950101347712 0.23792538229425519 0 -0.001965278602122185 0.24182690426762959 0 -0.0082457657602449386 0.25246627485226031 0 -0.02675369219281019 0.23290150150097291 0 -0.01246950101347712 0.23792538229425519 0 -0.029881977245259539 0.25372898958001938 0 -0.0082457657602449386 0.25246627485226031 0 -0.026711477711177899 0.23444217817011309 0 -0.0082457657602449386 0.25246627485226031 0 -0.02675369219281019 0.23290150150097291 0 -0.026711477711177899 0.23444217817011309 0 -0.0082457657602449386 0.25246627485226031 0 -0.02675369219281019 0.23290150150097291 0 -0.046893106203257602 0.1507880314475378 0 -0.033582854738693747 0.16530128627528251 0 -0.03096555907766051 0.14775731769023701 0 -0.035508455794597132 0.13046501110523001 0 -0.046893106203257602 0.1507880314475378 0 -0.03096555907766051 0.14775731769023701 0 -0.035508455794597132 0.13046501110523001 0 -0.046893106203257602 0.1507880314475378 0 -0.035508455794597132 0.13046501110523001 0 -0.055186524828957063 0.1281687789626855 0 -0.046893106203257602 0.1507880314475378 0 -0.035508455794597132 0.13046501110523001 0 -0.055186524828957063 0.1281687789626855 0 -0.04045215309894238 0.1165912735558266 0 -0.074642854581774637 0.14147916649728479 0 -0.055186524828957063 0.1281687789626855 0 -0.046893106203257602 0.1507880314475378 0 -0.065615427061545384 0.16058384892905991 0 -0.074642854581774637 0.14147916649728479 0 -0.046893106203257602 0.1507880314475378 0 -0.065615427061545384 0.16058384892905991 0 -0.046893106203257602 0.1507880314475378 0 -0.051824687549248197 0.17345858692208871 0 -0.063769545057940663 0.19377195479839809 0 -0.051824687549248197 0.17345858692208871 0 -0.041349789320347038 0.18749549167170951 0 -0.041349789320347038 0.18749549167170951 0 -0.033582854738693747 0.16530128627528251 0 -0.02440704960050057 0.1813667693045137 0 -0.051824687549248197 0.17345858692208871 0 -0.041349789320347038 0.18749549167170951 0 -0.033582854738693747 0.16530128627528251 0 -0.046893106203257602 0.1507880314475378 0 -0.051824687549248197 0.17345858692208871 0 -0.033582854738693747 0.16530128627528251 0 -0.033582854738693747 0.16530128627528251 0 -0.022139091883514501 0.16815071126606429 0 -0.02440704960050057 0.1813667693045137 0 -0.033582854738693747 0.16530128627528251 0 -0.022139091883514501 0.16815071126606429 0 -0.016648491277264341 0.15771365056650341 0 -0.033582854738693747 0.16530128627528251 0 -0.016648491277264341 0.15771365056650341 0 -0.03096555907766051 0.14775731769023701 0 -0.022139091883514501 0.16815071126606429 0 -0.02440704960050057 0.1813667693045137 0 -0.01283771780100665 0.17547196173435681 0 -0.01949536222664228 0.1923427933584827 0 -0.02440704960050057 0.1813667693045137 0 -0.0099503170468955675 0.185467411183286 0 -0.02440704960050057 0.1813667693045137 0 -0.0099503170468955675 0.185467411183286 0 -0.01283771780100665 0.17547196173435681 0 -0.0099503170468955675 0.185467411183286 0 -0.01283771780100665 0.17547196173435681 0 -0.00450206117857799 0.17688747855202069 0 -0.01283771780100665 0.17547196173435681 0 -0.00450206117857799 0.17688747855202069 0 -0.0026654791677323511 0.16604552865166611 0 -0.00450206117857799 0.17688747855202069 0 -0.0026654791677323511 0.16604552865166611 0 0.0024081860720475369 0.17557227428335351 0 -0.00450206117857799 0.17688747855202069 0 0.00053502205069707774 0.18188021690744111 0 0.0024081860720475369 0.17557227428335351 0 -0.0099503170468955675 0.185467411183286 0 -0.00450206117857799 0.17688747855202069 0 0.00053502205069707774 0.18188021690744111 0 -0.003081975793268537 0.18782002811878001 0 -0.0099503170468955675 0.185467411183286 0 0.00053502205069707774 0.18188021690744111 0 -0.022139091883514501 0.16815071126606429 0 -0.016648491277264341 0.15771365056650341 0 -0.0026654791677323511 0.16604552865166611 0 -0.022139091883514501 0.16815071126606429 0 -0.01283771780100665 0.17547196173435681 0 -0.0026654791677323511 0.16604552865166611 0 -0.016648491277264341 0.15771365056650341 0 -0.0026654791677323511 0.16604552865166611 0 0.00151890392611572 0.15456094484017679 0 -0.016648491277264341 0.15771365056650341 0 -0.0026654791677323511 0.16604552865166611 0 -0.0082797250895681185 0.13474448294352481 0 0.00151890392611572 0.15456094484017679 0 -0.016648491277264341 0.15771365056650341 0 -0.0082797250895681185 0.13474448294352481 0 0.00151890392611572 0.15456094484017679 0 -0.016648491277264341 0.15771365056650341 0 -0.03096555907766051 0.14775731769023701 0 -0.022194887374489752 0.13451860905663129 0 -0.016648491277264341 0.15771365056650341 0 -0.022194887374489752 0.13451860905663129 0 -0.0082797250895681185 0.13474448294352481 0 -0.035508455794597132 0.13046501110523001 0 -0.03096555907766051 0.14775731769023701 0 -0.022194887374489752 0.13451860905663129 0 -0.035508455794597132 0.13046501110523001 0 -0.022194887374489752 0.13451860905663129 0 -0.02222625157844095 0.1227088344756834 0 -0.022194887374489752 0.13451860905663129 0 -0.012678773622269129 0.1213748672570316 0 -0.02222625157844095 0.1227088344756834 0 -0.022194887374489752 0.13451860905663129 0 -0.0082797250895681185 0.13474448294352481 0 -0.012678773622269129 0.1213748672570316 0 -0.0082797250895681185 0.13474448294352481 0 -0.012678773622269129 0.1213748672570316 0 0.0010393500416724941 0.12595831854165979 0 -0.012678773622269129 0.1213748672570316 0 -0.0069683050282923539 0.11495619240176071 0 0.0010393500416724941 0.12595831854165979 0 -0.0069683050282923539 0.11495619240176071 0 0.00039794405216867472 0.112072386291362 0 0.0010393500416724941 0.12595831854165979 0 -0.012678773622269129 0.1213748672570316 0 -0.012248850971573841 0.1125208075020822 0 -0.01744198128355802 0.11503771634109559 0 -0.012678773622269129 0.1213748672570316 0 -0.012248850971573841 0.1125208075020822 0 -0.0069683050282923539 0.11495619240176071 0 -0.012248850971573841 0.1125208075020822 0 -0.0069683050282923539 0.11495619240176071 0 -0.0083997351711877014 0.10895079227570641 0 -0.0069683050282923539 0.11495619240176071 0 -0.0083997351711877014 0.10895079227570641 0 0.00039794405216867472 0.112072386291362 0 -0.011506603279544361 0.087618711973773578 0 0.0058206420146291954 0.1114089238878985 0 0.00039794405216867472 0.112072386291362 0 -0.015837719346710199 0.095350294128549784 0 -0.011506603279544361 0.087618711973773578 0 0.00039794405216867472 0.112072386291362 0 -0.011506603279544361 0.087618711973773578 0 0.0058206420146291954 0.1114089238878985 0 -0.015837719346710199 0.095350294128549784 0 0.00039794405216867472 0.112072386291362 0 -0.0083997351711877014 0.10895079227570641 0 -0.015837719346710199 0.095350294128549784 0 0.00039794405216867472 0.112072386291362 0 -0.011506603279544361 0.087618711973773578 0 0.0017142141577850001 0.096485027642689541 0 0.0058206420146291954 0.1114089238878985 0 -0.0083997351711877014 0.10895079227570641 0 -0.013221823848225379 0.1065091018144344 0 -0.015837719346710199 0.095350294128549784 0 -0.012248850971573841 0.1125208075020822 0 -0.0083997351711877014 0.10895079227570641 0 -0.013221823848225379 0.1065091018144344 0 -0.012248850971573841 0.1125208075020822 0 -0.013221823848225379 0.1065091018144344 0 -0.017997844109414411 0.1087655018954708 0 -0.017997844109414411 0.1087655018954708 0 -0.015837719346710199 0.095350294128549784 0 -0.024123805385937312 0.11014199076292169 0 -0.013221823848225379 0.1065091018144344 0 -0.017997844109414411 0.1087655018954708 0 -0.015837719346710199 0.095350294128549784 0 -0.024123805385937312 0.11014199076292169 0 -0.032300333499350402 0.090057470672271281 0 -0.015837719346710199 0.095350294128549784 0 -0.024123805385937312 0.11014199076292169 0 -0.032300333499350402 0.090057470672271281 0 -0.015837719346710199 0.095350294128549784 0 -0.024123805385937312 0.11014199076292169 0 -0.035508455794597132 0.13046501110523001 0 -0.024123805385937312 0.11014199076292169 0 -0.023307159817290739 0.1121479686184283 0 -0.035508455794597132 0.13046501110523001 0 -0.02222625157844095 0.1227088344756834 0 -0.023307159817290739 0.1121479686184283 0 -0.035508455794597132 0.13046501110523001 0 -0.024123805385937312 0.11014199076292169 0 -0.024123805385937312 0.11014199076292169 0 -0.023307159817290739 0.1121479686184283 0 -0.012678773622269129 0.1213748672570316 0 -0.02222625157844095 0.1227088344756834 0 -0.01744198128355802 0.11503771634109559 0 -0.02222625157844095 0.1227088344756834 0 -0.01744198128355802 0.11503771634109559 0 -0.023307159817290739 0.1121479686184283 0 -0.012248850971573841 0.1125208075020822 0 -0.017997844109414411 0.1087655018954708 0 -0.01744198128355802 0.11503771634109559 0 -0.017997844109414411 0.1087655018954708 0 -0.024123805385937312 0.11014199076292169 0 -0.023307159817290739 0.1121479686184283 0 -0.017997844109414411 0.1087655018954708 0 -0.01744198128355802 0.11503771634109559 0 -0.023307159817290739 0.1121479686184283 0 -0.0046988296279310846 0.075465987257500103 0 -0.004471055932428975 0.061346262570306953 0 0.0079626054049135586 0.052863747179962457 0 -0.0093767874180366029 0.073051079923104223 0 -0.014915188529848109 0.07157527628023079 0 -0.011506603279544361 0.087618711973773578 0 -0.0096267601800840239 0.066065855624376196 0 -0.01690032334888349 0.065021557104339434 0 -0.015766095144715799 0.059221925757037469 0 -0.0096267601800840239 0.066065855624376196 0 -0.014915188529848109 0.07157527628023079 0 -0.01690032334888349 0.065021557104339434 0 -0.0096267601800840239 0.066065855624376196 0 -0.0093767874180366029 0.073051079923104223 0 -0.014915188529848109 0.07157527628023079 0 -0.0096267601800840239 0.066065855624376196 0 -0.0046988296279310846 0.075465987257500103 0 -0.004471055932428975 0.061346262570306953 0 -0.0046988296279310846 0.075465987257500103 0 -0.0093767874180366029 0.073051079923104223 0 -0.0096267601800840239 0.066065855624376196 0 -0.0046988296279310846 0.075465987257500103 0 -0.0093767874180366029 0.073051079923104223 0 -0.0046988296279310846 0.075465987257500103 0 -0.011506603279544361 0.087618711973773578 0 -0.0046988296279310846 0.075465987257500103 0 -0.0093767874180366029 0.073051079923104223 0 -0.011506603279544361 0.087618711973773578 0 -0.0046988296279310846 0.075465987257500103 0 -0.011506603279544361 0.087618711973773578 0 0.00056903788424511365 0.086682396089073327 0 -0.011506603279544361 0.087618711973773578 0 0.00056903788424511365 0.086682396089073327 0 0.0017142141577850001 0.096485027642689541 0 -0.015837719346710199 0.095350294128549784 0 -0.011506603279544361 0.087618711973773578 0 -0.011506603279544361 0.087618711973773578 0 -0.028157290479737571 0.082661622355085798 0 -0.027165468422692102 0.066119176775560506 0 -0.015837719346710199 0.095350294128549784 0 -0.011506603279544361 0.087618711973773578 0 -0.028157290479737571 0.082661622355085798 0 -0.015837719346710199 0.095350294128549784 0 -0.028157290479737571 0.082661622355085798 0 -0.032300333499350402 0.090057470672271281 0 -0.015837719346710199 0.095350294128549784 0 -0.028157290479737571 0.082661622355085798 0 -0.014915188529848109 0.07157527628023079 0 -0.011506603279544361 0.087618711973773578 0 -0.027165468422692102 0.066119176775560506 0 -0.011506603279544361 0.087618711973773578 0 -0.027165468422692102 0.066119176775560506 0 -0.027165468422692102 0.066119176775560506 0 -0.01690032334888349 0.065021557104339434 0 -0.021155304748881689 0.062203044053262727 0 -0.014915188529848109 0.07157527628023079 0 -0.027165468422692102 0.066119176775560506 0 -0.01690032334888349 0.065021557104339434 0 -0.027165468422692102 0.066119176775560506 0 -0.040476861612764189 0.069972950581621118 0 -0.047888547298180387 0.051767161035057033 0 -0.028157290479737571 0.082661622355085798 0 -0.027165468422692102 0.066119176775560506 0 -0.040476861612764189 0.069972950581621118 0 -0.040476861612764189 0.069972950581621118 0 -0.049934811086014087 0.07186746235717667 0 -0.047859912164240369 0.063897566148078455 0 -0.028157290479737571 0.082661622355085798 0 -0.040476861612764189 0.069972950581621118 0 -0.040476861612764189 0.069972950581621118 0 -0.032300333499350402 0.090057470672271281 0 -0.028157290479737571 0.082661622355085798 0 -0.040476861612764189 0.069972950581621118 0 -0.032300333499350402 0.090057470672271281 0 -0.032300333499350402 0.090057470672271281 0 -0.052294403454901703 0.081174947256086191 0 -0.05578440732887191 0.096170589739797752 0 -0.040476861612764189 0.069972950581621118 0 -0.032300333499350402 0.090057470672271281 0 -0.052294403454901703 0.081174947256086191 0 -0.052294403454901703 0.081174947256086191 0 -0.05578440732887191 0.096170589739797752 0 -0.071620526940906107 0.087533684005701329 0 -0.052294403454901703 0.081174947256086191 0 -0.071620526940906107 0.087533684005701329 0 -0.062515526400001881 0.068377579792855414 0 -0.040476861612764189 0.069972950581621118 0 -0.052294403454901703 0.081174947256086191 0 -0.049934811086014087 0.07186746235717667 0 -0.052294403454901703 0.081174947256086191 0 -0.049934811086014087 0.07186746235717667 0 -0.062515526400001881 0.068377579792855414 0 -0.049934811086014087 0.07186746235717667 0 -0.052204780428632629 0.062945341387988421 0 -0.062515526400001881 0.068377579792855414 0 -0.052204780428632629 0.062945341387988421 0 -0.062515526400001881 0.068377579792855414 0 -0.055379183454653792 0.058514889464143828 0 -0.049934811086014087 0.07186746235717667 0 -0.052204780428632629 0.062945341387988421 0 -0.047859912164240369 0.063897566148078455 0 -0.024123805385937312 0.11014199076292169 0 -0.04045215309894238 0.1165912735558266 0 -0.041170092212669533 0.1046411265361262 0 -0.035508455794597132 0.13046501110523001 0 -0.024123805385937312 0.11014199076292169 0 -0.04045215309894238 0.1165912735558266 0 -0.04045215309894238 0.1165912735558266 0 -0.041170092212669533 0.1046411265361262 0 -0.052159737415513489 0.1112025467171566 0 -0.032300333499350402 0.090057470672271281 0 -0.041170092212669533 0.1046411265361262 0 -0.05578440732887191 0.096170589739797752 0 -0.024123805385937312 0.11014199076292169 0 -0.032300333499350402 0.090057470672271281 0 -0.041170092212669533 0.1046411265361262 0 -0.05578440732887191 0.096170589739797752 0 -0.052159737415513489 0.1112025467171566 0 -0.07438317581125764 0.1124407737129243 0 -0.041170092212669533 0.1046411265361262 0 -0.05578440732887191 0.096170589739797752 0 -0.052159737415513489 0.1112025467171566 0 -0.055186524828957063 0.1281687789626855 0 -0.04045215309894238 0.1165912735558266 0 -0.052159737415513489 0.1112025467171566 0 -0.055186524828957063 0.1281687789626855 0 -0.052159737415513489 0.1112025467171566 0 -0.07438317581125764 0.1124407737129243 0 -0.092802426943272898 0.12960292979422991 0 -0.07438317581125764 0.1124407737129243 0 -0.10110008134148971 0.1098561456819369 0 -0.07438317581125764 0.1124407737129243 0 -0.086834659998143784 0.098004038152668241 0 -0.10110008134148971 0.1098561456819369 0 -0.07438317581125764 0.1124407737129243 0 -0.086834659998143784 0.098004038152668241 0 -0.071620526940906107 0.087533684005701329 0 -0.05578440732887191 0.096170589739797752 0 -0.07438317581125764 0.1124407737129243 0 -0.071620526940906107 0.087533684005701329 0 -0.071620526940906107 0.087533684005701329 0 -0.062515526400001881 0.068377579792855414 0 -0.077633089280774809 0.070659037798975324 0 -0.062515526400001881 0.068377579792855414 0 -0.077633089280774809 0.070659037798975324 0 -0.069862538744371955 0.057777113150521288 0 -0.077633089280774809 0.070659037798975324 0 -0.081860045586377939 0.060182951188062161 0 -0.069862538744371955 0.057777113150521288 0 -0.077633089280774809 0.070659037798975324 0 -0.09054666164713164 0.067286880848174316 0 -0.081860045586377939 0.060182951188062161 0 -0.077633089280774809 0.070659037798975324 0 -0.09054666164713164 0.067286880848174316 0 -0.091096470542610469 0.082323341280698709 0 -0.071620526940906107 0.087533684005701329 0 -0.077633089280774809 0.070659037798975324 0 -0.091096470542610469 0.082323341280698709 0 -0.086834659998143784 0.098004038152668241 0 -0.071620526940906107 0.087533684005701329 0 -0.091096470542610469 0.082323341280698709 0 -0.086834659998143784 0.098004038152668241 0 -0.091096470542610469 0.082323341280698709 0 -0.1074822184466613 0.088136729408796272 0 -0.091096470542610469 0.082323341280698709 0 -0.1074822184466613 0.088136729408796272 0 -0.10104646070399111 0.074349611526457776 0 -0.1074822184466613 0.088136729408796272 0 -0.10104646070399111 0.074349611526457776 0 -0.1134486320906168 0.071653759806922179 0 -0.09054666164713164 0.067286880848174316 0 -0.10104646070399111 0.074349611526457776 0 -0.1026583207929353 0.062347346287697412 0 -0.09054666164713164 0.067286880848174316 0 -0.091096470542610469 0.082323341280698709 0 -0.10104646070399111 0.074349611526457776 0 -0.10104646070399111 0.074349611526457776 0 -0.1134486320906168 0.071653759806922179 0 -0.1026583207929353 0.062347346287697412 0 -0.1134486320906168 0.071653759806922179 0 -0.1169815729820268 0.057446916627697332 0 -0.1026583207929353 0.062347346287697412 0 -0.1134486320906168 0.071653759806922179 0 -0.12498233095038511 0.069533312171706482 0 -0.1248370695698198 0.083226530136874921 0 -0.1134486320906168 0.071653759806922179 0 -0.12498233095038511 0.069533312171706482 0 -0.1169815729820268 0.057446916627697332 0 -0.1074822184466613 0.088136729408796272 0 -0.1134486320906168 0.071653759806922179 0 -0.1248370695698198 0.083226530136874921 0 -0.12991930243541749 0.1020465165188278 0 -0.1074822184466613 0.088136729408796272 0 -0.1248370695698198 0.083226530136874921 0 -0.12991930243541749 0.1020465165188278 0 -0.1074822184466613 0.088136729408796272 0 -0.10110008134148971 0.1098561456819369 0 -0.12991930243541749 0.1020465165188278 0 -0.1131006250587715 0.12959615498317961 0 -0.10110008134148971 0.1098561456819369 0 -0.12991930243541749 0.1020465165188278 0 -0.13028426483969929 0.13221647237215789 0 -0.1131006250587715 0.12959615498317961 0 -0.1131006250587715 0.12959615498317961 0 -0.092802426943272898 0.12960292979422991 0 -0.10110008134148971 0.1098561456819369 0 -0.086834659998143784 0.098004038152668241 0 -0.1074822184466613 0.088136729408796272 0 -0.10110008134148971 0.1098561456819369 0 -0.1061587232064081 0.029080734372794698 0 -0.094449021505079139 0.018227913303066591 0 -0.1094215753963574 0.0115277712725063 0 -0.1061587232064081 0.029080734372794698 0 -0.094924595462104619 0.030399760044886301 0 -0.094449021505079139 0.018227913303066591 0 -0.094449021505079139 0.018227913303066591 0 -0.097507665945787692 0.0040820149966005574 0 -0.1094215753963574 0.0115277712725063 0 -0.097507665945787692 0.0040820149966005574 0 -0.1058521268010089 0.00073384547527136773 0 -0.1094215753963574 0.0115277712725063 0 -0.1152652699767374 -0.0044733142422073097 0 -0.1273771369441013 0.0023450629401116992 0 -0.1094215753963574 0.0115277712725063 0 -0.1152652699767374 -0.0044733142422073097 0 -0.1058521268010089 0.00073384547527136773 0 -0.1094215753963574 0.0115277712725063 0 -0.1273771369441013 0.0023450629401116992 0 -0.12537023626190849 0.01701499410391356 0 -0.1094215753963574 0.0115277712725063 0 -0.12537023626190849 0.01701499410391356 0 -0.1094215753963574 0.0115277712725063 0 -0.1154752524598698 0.02214949429500624 0 -0.12537023626190849 0.01701499410391356 0 -0.1154752524598698 0.02214949429500624 0 -0.120950474974805 0.030974477430810402 0 -0.1061587232064081 0.029080734372794698 0 -0.1094215753963574 0.0115277712725063 0 -0.1154752524598698 0.02214949429500624 0 -0.1061587232064081 0.029080734372794698 0 -0.1154752524598698 0.02214949429500624 0 -0.120950474974805 0.030974477430810402 0 -0.1304591025064194 0.044551821316570157 0 -0.120950474974805 0.030974477430810402 0 -0.112428546201817 0.041955624634692393 0 -0.1061587232064081 0.029080734372794698 0 -0.120950474974805 0.030974477430810402 0 -0.112428546201817 0.041955624634692393 0 -0.1304591025064194 0.044551821316570157 0 -0.112428546201817 0.041955624634692393 0 -0.1169815729820268 0.057446916627697332 0 -0.1311901693420546 0.060374133793646992 0 -0.12498233095038511 0.069533312171706482 0 -0.1169815729820268 0.057446916627697332 0 -0.112428546201817 0.041955624634692393 0 -0.1169815729820268 0.057446916627697332 0 -0.10210071185166431 0.050014029354961582 0 -0.1169815729820268 0.057446916627697332 0 -0.1026583207929353 0.062347346287697412 0 -0.10210071185166431 0.050014029354961582 0 -0.10210071185166431 0.050014029354961582 0 -0.091201579857211959 0.041080799774458047 0 -0.091131717688311603 0.055225201160547438 0 -0.1026583207929353 0.062347346287697412 0 -0.10210071185166431 0.050014029354961582 0 -0.091131717688311603 0.055225201160547438 0 -0.09054666164713164 0.067286880848174316 0 -0.1026583207929353 0.062347346287697412 0 -0.091131717688311603 0.055225201160547438 0 -0.1061587232064081 0.029080734372794698 0 -0.112428546201817 0.041955624634692393 0 -0.1016080011228369 0.039407166226836883 0 -0.112428546201817 0.041955624634692393 0 -0.10210071185166431 0.050014029354961582 0 -0.1016080011228369 0.039407166226836883 0 -0.10210071185166431 0.050014029354961582 0 -0.1016080011228369 0.039407166226836883 0 -0.091201579857211959 0.041080799774458047 0 -0.1061587232064081 0.029080734372794698 0 -0.094924595462104619 0.030399760044886301 0 -0.1016080011228369 0.039407166226836883 0 -0.094924595462104619 0.030399760044886301 0 -0.1016080011228369 0.039407166226836883 0 -0.091201579857211959 0.041080799774458047 0 -0.094924595462104619 0.030399760044886301 0 -0.091201579857211959 0.041080799774458047 0 -0.083613433652756419 0.02825823648094046 0 -0.091201579857211959 0.041080799774458047 0 -0.080163505572120847 0.038728335950810322 0 -0.0801262205712997 0.049966522982092462 0 -0.091201579857211959 0.041080799774458047 0 -0.080163505572120847 0.038728335950810322 0 -0.083613433652756419 0.02825823648094046 0 -0.080163505572120847 0.038728335950810322 0 -0.075199828102842814 0.032505994045140242 0 -0.083613433652756419 0.02825823648094046 0 -0.09054666164713164 0.067286880848174316 0 -0.091131717688311603 0.055225201160547438 0 -0.081860045586377939 0.060182951188062161 0 -0.091201579857211959 0.041080799774458047 0 -0.091131717688311603 0.055225201160547438 0 -0.0801262205712997 0.049966522982092462 0 -0.091131717688311603 0.055225201160547438 0 -0.0801262205712997 0.049966522982092462 0 -0.081860045586377939 0.060182951188062161 0 -0.0801262205712997 0.049966522982092462 0 -0.069862538744371955 0.057777113150521288 0 -0.06901267431079619 0.039797487593251017 0 -0.069862538744371955 0.057777113150521288 0 -0.06901267431079619 0.039797487593251017 0 -0.058907879691800273 0.050969475640674493 0 -0.062515526400001881 0.068377579792855414 0 -0.069862538744371955 0.057777113150521288 0 -0.058907879691800273 0.050969475640674493 0 -0.0801262205712997 0.049966522982092462 0 -0.081860045586377939 0.060182951188062161 0 -0.069862538744371955 0.057777113150521288 0 -0.06901267431079619 0.039797487593251017 0 -0.068009698875697827 0.023239916155559141 0 -0.055300232983598208 0.033561371488493641 0 -0.075199828102842814 0.032505994045140242 0 -0.06901267431079619 0.039797487593251017 0 -0.068009698875697827 0.023239916155559141 0 -0.080163505572120847 0.038728335950810322 0 -0.075199828102842814 0.032505994045140242 0 -0.06901267431079619 0.039797487593251017 0 -0.080163505572120847 0.038728335950810322 0 -0.0801262205712997 0.049966522982092462 0 -0.06901267431079619 0.039797487593251017 0 -0.068009698875697827 0.023239916155559141 0 -0.066123158358303874 0.0069763394170788487 0 -0.055300232983598208 0.033561371488493641 0 -0.068009698875697827 0.023239916155559141 0 -0.083613433652756419 0.02825823648094046 0 -0.080050012301679602 0.015705407900093959 0 -0.068009698875697827 0.023239916155559141 0 -0.080050012301679602 0.015705407900093959 0 -0.07274845615251338 0.0135364418571977 0 -0.075199828102842814 0.032505994045140242 0 -0.068009698875697827 0.023239916155559141 0 -0.083613433652756419 0.02825823648094046 0 -0.094449021505079139 0.018227913303066591 0 -0.083613433652756419 0.02825823648094046 0 -0.080050012301679602 0.015705407900093959 0 -0.094924595462104619 0.030399760044886301 0 -0.094449021505079139 0.018227913303066591 0 -0.083613433652756419 0.02825823648094046 0 -0.089124004628701792 -0.0040277377021705899 0 -0.097507665945787692 0.0040820149966005574 0 -0.086098134196158846 0.0059583430860626887 0 -0.094449021505079139 0.018227913303066591 0 -0.080050012301679602 0.015705407900093959 0 -0.086098134196158846 0.0059583430860626887 0 -0.094449021505079139 0.018227913303066591 0 -0.097507665945787692 0.0040820149966005574 0 -0.086098134196158846 0.0059583430860626887 0 -0.080050012301679602 0.015705407900093959 0 -0.086098134196158846 0.0059583430860626887 0 -0.076810955074372203 0.0082241039560588727 0 -0.079764572027605563 -0.001208843295517239 0 -0.086098134196158846 0.0059583430860626887 0 -0.076810955074372203 0.0082241039560588727 0 -0.079764572027605563 -0.001208843295517239 0 -0.089124004628701792 -0.0040277377021705899 0 -0.086098134196158846 0.0059583430860626887 0 -0.079764572027605563 -0.001208843295517239 0 -0.076810955074372203 0.0082241039560588727 0 -0.066123158358303874 0.0069763394170788487 0 -0.068009698875697827 0.023239916155559141 0 -0.07274845615251338 0.0135364418571977 0 -0.066123158358303874 0.0069763394170788487 0 -0.076810955074372203 0.0082241039560588727 0 -0.07274845615251338 0.0135364418571977 0 -0.066123158358303874 0.0069763394170788487 0 -0.080050012301679602 0.015705407900093959 0 -0.076810955074372203 0.0082241039560588727 0 -0.07274845615251338 0.0135364418571977 0 -0.047617207273071643 -0.0035118018543059538 0 -0.059664616745900671 -0.0040500510012267867 0 -0.050798470683601923 0.01183886002179501 0 -0.059664616745900671 -0.0040500510012267867 0 -0.066123158358303874 0.0069763394170788487 0 -0.050798470683601923 0.01183886002179501 0 -0.059664616745900671 -0.0040500510012267867 0 -0.050798470683601923 0.01183886002179501 0 -0.047617207273071643 -0.0035118018543059538 0 -0.050798470683601923 0.01183886002179501 0 -0.050798470683601923 0.01183886002179501 0 -0.055300232983598208 0.033561371488493641 0 -0.04692109718252771 0.035386244484329407 0 -0.066123158358303874 0.0069763394170788487 0 -0.055300232983598208 0.033561371488493641 0 -0.066123158358303874 0.0069763394170788487 0 -0.050798470683601923 0.01183886002179501 0 -0.055300232983598208 0.033561371488493641 0 -0.050798470683601923 0.01183886002179501 0 -0.055300232983598208 0.033561371488493641 0 -0.050798470683601923 0.01183886002179501 0 -0.034391162446891957 0.018187238464497092 0 -0.037793901381418679 0.035144188298954319 0 -0.034391162446891957 0.018187238464497092 0 -0.037793901381418679 0.035144188298954319 0 -0.022455882408961961 0.026825405924253771 0 -0.050798470683601923 0.01183886002179501 0 -0.037793901381418679 0.035144188298954319 0 -0.050798470683601923 0.01183886002179501 0 -0.04692109718252771 0.035386244484329407 0 -0.037793901381418679 0.035144188298954319 0 -0.050798470683601923 0.01183886002179501 0 -0.034391162446891957 0.018187238464497092 0 -0.03671052455766443 0.0037031618858211421 0 -0.034391162446891957 0.018187238464497092 0 -0.03671052455766443 0.0037031618858211421 0 -0.022890364083827771 0.01081673007749915 0 -0.047617207273071643 -0.0035118018543059538 0 -0.050798470683601923 0.01183886002179501 0 -0.03671052455766443 0.0037031618858211421 0 -0.062515526400001881 0.068377579792855414 0 -0.058907879691800273 0.050969475640674493 0 -0.062515526400001881 0.068377579792855414 0 -0.055379183454653792 0.058514889464143828 0 -0.058907879691800273 0.050969475640674493 0 -0.052204780428632629 0.062945341387988421 0 -0.047859912164240369 0.063897566148078455 0 -0.047888547298180387 0.051767161035057033 0 -0.052204780428632629 0.062945341387988421 0 -0.055379183454653792 0.058514889464143828 0 -0.047888547298180387 0.051767161035057033 0 -0.055379183454653792 0.058514889464143828 0 -0.058907879691800273 0.050969475640674493 0 -0.047888547298180387 0.051767161035057033 0 -0.06901267431079619 0.039797487593251017 0 -0.058907879691800273 0.050969475640674493 0 -0.055300232983598208 0.033561371488493641 0 -0.047888547298180387 0.051767161035057033 0 -0.055300232983598208 0.033561371488493641 0 -0.04692109718252771 0.035386244484329407 0 -0.058907879691800273 0.050969475640674493 0 -0.047888547298180387 0.051767161035057033 0 -0.055300232983598208 0.033561371488493641 0 -0.047888547298180387 0.051767161035057033 0 -0.055300232983598208 0.033561371488493641 0 -0.058907879691800273 0.050969475640674493 0 -0.055300232983598208 0.033561371488493641 0 -0.037793901381418679 0.035144188298954319 0 -0.024789332079235359 0.058449516576113518 0 -0.047888547298180387 0.051767161035057033 0 -0.04692109718252771 0.035386244484329407 0 -0.042824333565839388 0.044619641577347061 0 -0.037793901381418679 0.035144188298954319 0 -0.042824333565839388 0.044619641577347061 0 -0.024789332079235359 0.058449516576113518 0 -0.04692109718252771 0.035386244484329407 0 -0.037793901381418679 0.035144188298954319 0 -0.042824333565839388 0.044619641577347061 0 -0.027165468422692102 0.066119176775560506 0 -0.047888547298180387 0.051767161035057033 0 -0.042824333565839388 0.044619641577347061 0 -0.040476861612764189 0.069972950581621118 0 -0.047859912164240369 0.063897566148078455 0 -0.047888547298180387 0.051767161035057033 0 -0.040476861612764189 0.069972950581621118 0 -0.047888547298180387 0.051767161035057033 0 -0.027165468422692102 0.066119176775560506 0 -0.042824333565839388 0.044619641577347061 0 -0.027165468422692102 0.066119176775560506 0 -0.042824333565839388 0.044619641577347061 0 -0.024789332079235359 0.058449516576113518 0 -0.015766095144715799 0.059221925757037469 0 -0.024789332079235359 0.058449516576113518 0 -0.0190365636870411 0.05257699221554326 0 -0.015766095144715799 0.059221925757037469 0 -0.021155304748881689 0.062203044053262727 0 -0.024789332079235359 0.058449516576113518 0 -0.01690032334888349 0.065021557104339434 0 -0.015766095144715799 0.059221925757037469 0 -0.021155304748881689 0.062203044053262727 0 -0.027165468422692102 0.066119176775560506 0 -0.021155304748881689 0.062203044053262727 0 -0.024789332079235359 0.058449516576113518 0 -0.024789332079235359 0.058449516576113518 0 -0.0190365636870411 0.05257699221554326 0 -0.02501616098884394 0.043295095323351421 0 -0.0190365636870411 0.05257699221554326 0 -0.02501616098884394 0.043295095323351421 0 -0.010574666535369299 0.049341431205670631 0 -0.037793901381418679 0.035144188298954319 0 -0.024789332079235359 0.058449516576113518 0 -0.02501616098884394 0.043295095323351421 0 -0.037793901381418679 0.035144188298954319 0 -0.02501616098884394 0.043295095323351421 0 -0.022455882408961961 0.026825405924253771 0 -0.02501616098884394 0.043295095323351421 0 -0.01174883101074616 0.035626247072063598 0 -0.022455882408961961 0.026825405924253771 0 -0.02501616098884394 0.043295095323351421 0 -0.01174883101074616 0.035626247072063598 0 -0.010574666535369299 0.049341431205670631 0 -0.01174883101074616 0.035626247072063598 0 -0.010574666535369299 0.049341431205670631 0 0.0050554059078342702 0.036817447586302399 0 -0.010574666535369299 0.049341431205670631 0 -0.004471055932428975 0.061346262570306953 0 0.0079626054049135586 0.052863747179962457 0 -0.015766095144715799 0.059221925757037469 0 -0.0190365636870411 0.05257699221554326 0 -0.010574666535369299 0.049341431205670631 0 -0.015766095144715799 0.059221925757037469 0 -0.010574666535369299 0.049341431205670631 0 -0.004471055932428975 0.061346262570306953 0 -0.0096267601800840239 0.066065855624376196 0 -0.015766095144715799 0.059221925757037469 0 -0.004471055932428975 0.061346262570306953 0 -0.025670282478897081 -0.0054027298625421993 0 -0.03671052455766443 0.0037031618858211421 0 -0.022890364083827771 0.01081673007749915 0 -0.025670282478897081 -0.0054027298625421993 0 -0.022890364083827771 0.01081673007749915 0 -0.010105069976996849 0.0023765649732562961 0 -0.022890364083827771 0.01081673007749915 0 -0.022455882408961961 0.026825405924253771 0 -0.0028948745420432241 0.01788293630915707 0 -0.034391162446891957 0.018187238464497092 0 -0.022890364083827771 0.01081673007749915 0 -0.022455882408961961 0.026825405924253771 0 -0.01174883101074616 0.035626247072063598 0 -0.022455882408961961 0.026825405924253771 0 -0.0028948745420432241 0.01788293630915707 0 -0.01174883101074616 0.035626247072063598 0 -0.0028948745420432241 0.01788293630915707 0 0.0050554059078342702 0.036817447586302399 0 -0.022890364083827771 0.01081673007749915 0 -0.0028948745420432241 0.01788293630915707 0 -0.010105069976996849 0.0023765649732562961 0 -0.0028948745420432241 0.01788293630915707 0 -0.010105069976996849 0.0023765649732562961 0 0.0047038114401232534 -0.001040937293712483 0 -0.0028948745420432241 0.01788293630915707 0 0.020415517075116841 0.0076517724901667356 0 0.0047038114401232534 -0.001040937293712483 0 -0.0028948745420432241 0.01788293630915707 0 0.020342672512877309 0.02491627604112644 0 0.020415517075116841 0.0076517724901667356 0 -0.0028948745420432241 0.01788293630915707 0 0.020342672512877309 0.02491627604112644 0 0.0050554059078342702 0.036817447586302399 0 0.020342672512877309 0.02491627604112644 0 0.020415517075116841 0.0076517724901667356 0 0.04034715667016759 0.018897687307637179 0 0.020342672512877309 0.02491627604112644 0 0.02507841675544124 0.048354097280414877 0 0.04034715667016759 0.018897687307637179 0 0.0079626054049135586 0.052863747179962457 0 0.02507841675544124 0.048354097280414877 0 0.010722424996073881 0.068121568230846891 0 -0.010574666535369299 0.049341431205670631 0 0.0079626054049135586 0.052863747179962457 0 0.0050554059078342702 0.036817447586302399 0 0.0079626054049135586 0.052863747179962457 0 0.0050554059078342702 0.036817447586302399 0 0.02507841675544124 0.048354097280414877 0 0.020342672512877309 0.02491627604112644 0 0.0050554059078342702 0.036817447586302399 0 0.02507841675544124 0.048354097280414877 0 0.02507841675544124 0.048354097280414877 0 0.050251726499931808 0.044842678424317363 0 0.039807943620716157 0.068946520475498749 0 0.050251726499931808 0.044842678424317363 0 0.039807943620716157 0.068946520475498749 0 0.02507841675544124 0.048354097280414877 0 0.050251726499931808 0.044842678424317363 0 0.04034715667016759 0.018897687307637179 0 0.050251726499931808 0.044842678424317363 0 0.060695509379147472 0.02073883637313596 0 0.066628286533047365 0.040173783681243101 0 0.050251726499931808 0.044842678424317363 0 0.060695509379147472 0.02073883637313596 0 0.050251726499931808 0.044842678424317363 0 0.066628286533047365 0.040173783681243101 0 0.063756980967503582 0.059761195325569103 0 0.050251726499931808 0.044842678424317363 0 0.063756980967503582 0.059761195325569103 0 0.039807943620716157 0.068946520475498749 0 0.020415517075116841 0.0076517724901667356 0 0.04034715667016759 0.018897687307637179 0 0.039787151186370009 -0.0039594854922263374 0 0.04034715667016759 0.018897687307637179 0 0.053306813386582982 0.0056008818424343951 0 0.039787151186370009 -0.0039594854922263374 0 0.050251726499931808 0.044842678424317363 0 0.04034715667016759 0.018897687307637179 0 0.060695509379147472 0.02073883637313596 0 0.04034715667016759 0.018897687307637179 0 0.060695509379147472 0.02073883637313596 0 0.053306813386582982 0.0056008818424343951 0 0.060695509379147472 0.02073883637313596 0 0.053306813386582982 0.0056008818424343951 0 0.065940651683257009 0.0024831850618150888 0 0.060695509379147472 0.02073883637313596 0 0.065940651683257009 0.0024831850618150888 0 0.07992851590561921 0.0082161523869754144 0 0.065940651683257009 0.0024831850618150888 0 0.07992851590561921 0.0082161523869754144 0 0.074177093133044117 -0.010507922444979889 0 0.07992851590561921 0.0082161523869754144 0 0.1009244284881298 0.0078078577834924806 0 0.09649789417263642 -0.0037639840011086311 0 0.07992851590561921 0.0082161523869754144 0 0.1009244284881298 0.0078078577834924806 0 0.09893654195113713 0.02570505514797651 0 0.07992851590561921 0.0082161523869754144 0 0.08516149451907469 0.032589503251719387 0 0.07992851590561921 0.0082161523869754144 0 0.08516149451907469 0.032589503251719387 0 0.09893654195113713 0.02570505514797651 0 0.060695509379147472 0.02073883637313596 0 0.07992851590561921 0.0082161523869754144 0 0.08516149451907469 0.032589503251719387 0 0.060695509379147472 0.02073883637313596 0 0.066628286533047365 0.040173783681243101 0 0.08516149451907469 0.032589503251719387 0 0.066628286533047365 0.040173783681243101 0 0.076734924211177571 0.049535316522237388 0 0.08516149451907469 0.032589503251719387 0 0.066628286533047365 0.040173783681243101 0 0.063756980967503582 0.059761195325569103 0 0.076734924211177571 0.049535316522237388 0 0.063756980967503582 0.059761195325569103 0 0.076734924211177571 0.049535316522237388 0 0.078896317813284711 0.063130005487330554 0 0.076734924211177571 0.049535316522237388 0 0.090394473132530156 0.056962854116463339 0 0.078896317813284711 0.063130005487330554 0 0.090394473132530156 0.056962854116463339 0 0.08516149451907469 0.032589503251719387 0 0.076734924211177571 0.049535316522237388 0 0.090394473132530156 0.056962854116463339 0 0.08516149451907469 0.032589503251719387 0 0.090394473132530156 0.056962854116463339 0 0.08516149451907469 0.032589503251719387 0 0.096764564946639139 0.043178279343160431 0 0.08516149451907469 0.032589503251719387 0 0.096764564946639139 0.043178279343160431 0 0.09893654195113713 0.02570505514797651 0 0.096764564946639139 0.043178279343160431 0 0.10666951487556919 0.040720151324231749 0 0.09893654195113713 0.02570505514797651 0 0.096764564946639139 0.043178279343160431 0 0.10666951487556919 0.040720151324231749 0 0.10388747543703999 0.053358399551525167 0 0.10666951487556919 0.040720151324231749 0 0.1142736493139349 0.03087626799389703 0 0.09893654195113713 0.02570505514797651 0 0.10388747543703999 0.053358399551525167 0 0.11892469151436 0.060175562481194378 0 0.096340815718618328 0.066677421107029802 0 0.090394473132530156 0.056962854116463339 0 0.10388747543703999 0.053358399551525167 0 0.096340815718618328 0.066677421107029802 0 0.090394473132530156 0.056962854116463339 0 0.096764564946639139 0.043178279343160431 0 0.10388747543703999 0.053358399551525167 0 0.10666951487556919 0.040720151324231749 0 0.10388747543703999 0.053358399551525167 0 0.1137328545953389 0.049471119462924477 0 0.1137328545953389 0.049471119462924477 0 0.11892469151436 0.060175562481194378 0 0.12367169586596689 0.04413069599522032 0 0.10388747543703999 0.053358399551525167 0 0.1137328545953389 0.049471119462924477 0 0.11892469151436 0.060175562481194378 0 0.10666951487556919 0.040720151324231749 0 0.12367169586596689 0.04413069599522032 0 0.1142736493139349 0.03087626799389703 0 0.12367169586596689 0.04413069599522032 0 0.1142736493139349 0.03087626799389703 0 0.13034027439662041 0.028127834929059549 0 0.10666951487556919 0.040720151324231749 0 0.1137328545953389 0.049471119462924477 0 0.12367169586596689 0.04413069599522032 0 0.1142736493139349 0.03087626799389703 0 0.111750219480381 0.015697602572997061 0 0.13034027439662041 0.028127834929059549 0 0.11917198148314 0.002581966002757949 0 0.13034027439662041 0.028127834929059549 0 0.111750219480381 0.015697602572997061 0 0.11917198148314 0.002581966002757949 0 0.13034027439662041 0.028127834929059549 0 0.11917198148314 0.002581966002757949 0 0.1309849453148588 0.01811654968683717 0 0.1228376310831711 -0.00076623140119310329 0 0.11917198148314 0.002581966002757949 0 0.1228376310831711 -0.00076623140119310329 0 0.11917198148314 0.002581966002757949 0 0.1133629416093747 0.002418872237081233 0 0.1105415625726717 -0.0014271332550589229 0 0.11917198148314 0.002581966002757949 0 0.1133629416093747 0.002418872237081233 0 0.11092652002007269 0.0067640166461111727 0 0.1133629416093747 0.002418872237081233 0 0.1078625722471533 0.0022823866337398822 0 0.1105415625726717 -0.0014271332550589229 0 0.1133629416093747 0.002418872237081233 0 0.11092652002007269 0.0067640166461111727 0 0.1078625722471533 0.0022823866337398822 0 0.111750219480381 0.015697602572997061 0 0.11917198148314 0.002581966002757949 0 0.11092652002007269 0.0067640166461111727 0 0.111750219480381 0.015697602572997061 0 0.11092652002007269 0.0067640166461111727 0 0.1009244284881298 0.0078078577834924806 0 0.1078625722471533 0.0022823866337398822 0 0.1009244284881298 0.0078078577834924806 0 0.1039166904039584 -0.0028966343462391718 0 0.11092652002007269 0.0067640166461111727 0 0.1078625722471533 0.0022823866337398822 0 0.1009244284881298 0.0078078577834924806 0 0.1009244284881298 0.0078078577834924806 0 0.1039166904039584 -0.0028966343462391718 0 0.09649789417263642 -0.0037639840011086311 0 0.111750219480381 0.015697602572997061 0 0.1009244284881298 0.0078078577834924806 0 0.09893654195113713 0.02570505514797651 0 0.1142736493139349 0.03087626799389703 0 0.111750219480381 0.015697602572997061 0 0.09893654195113713 0.02570505514797651 0 0.10086043035944101 0.1057095558459509 0 0.088353675930770217 0.1090445403681379 0 0.098136173783193614 0.12855261503670501 0 0.10086043035944101 0.1057095558459509 0 0.11707998843366239 0.12090166170324231 0 0.098136173783193614 0.12855261503670501 0 0.10086043035944101 0.1057095558459509 0 0.11707998843366239 0.12090166170324231 0 0.12018819637303869 0.10164151191590461 0 0.11707998843366239 0.12090166170324231 0 0.12018819637303869 0.10164151191590461 0 0.1368974078767736 0.107501873099266 0 0.10086043035944101 0.1057095558459509 0 0.12018819637303869 0.10164151191590461 0 0.11039993896964689 0.089589601033300492 0 0.12018819637303869 0.10164151191590461 0 0.1225478872688979 0.090713611373926736 0 0.11039993896964689 0.089589601033300492 0 0.1225478872688979 0.090713611373926736 0 0.1210037722340596 0.082520495593825793 0 0.11039993896964689 0.089589601033300492 0 0.1210037722340596 0.082520495593825793 0 0.11039993896964689 0.089589601033300492 0 0.1079674466630436 0.07575227550831827 0 0.1243405792371938 0.066503547411893488 0 0.1152310018430296 0.068591719667449438 0 0.13121537104960351 0.072689189806444385 0 0.1152310018430296 0.068591719667449438 0 0.1079674466630436 0.07575227550831827 0 0.13121537104960351 0.072689189806444385 0 0.11892469151436 0.060175562481194378 0 0.1152310018430296 0.068591719667449438 0 0.096340815718618328 0.066677421107029802 0 0.1210037722340596 0.082520495593825793 0 0.1079674466630436 0.07575227550831827 0 0.13121537104960351 0.072689189806444385 0 0.1079674466630436 0.07575227550831827 0 0.13121537104960351 0.072689189806444385 0 0.11892469151436 0.060175562481194378 0 0.1243405792371938 0.066503547411893488 0 0.1152310018430296 0.068591719667449438 0 0.090394473132530156 0.056962854116463339 0 0.096340815718618328 0.066677421107029802 0 0.095627451745985609 0.081336204981207194 0 0.11892469151436 0.060175562481194378 0 0.096340815718618328 0.066677421107029802 0 0.1152310018430296 0.068591719667449438 0 0.1079674466630436 0.07575227550831827 0 0.096340815718618328 0.066677421107029802 0 0.1079674466630436 0.07575227550831827 0 0.096340815718618328 0.066677421107029802 0 0.095627451745985609 0.081336204981207194 0 0.10086043035944101 0.1057095558459509 0 0.095627451745985609 0.081336204981207194 0 0.10086043035944101 0.1057095558459509 0 0.095627451745985609 0.081336204981207194 0 0.085469831166676849 0.087436677031336632 0 0.10086043035944101 0.1057095558459509 0 0.11039993896964689 0.089589601033300492 0 0.095627451745985609 0.081336204981207194 0 0.11039993896964689 0.089589601033300492 0 0.1079674466630436 0.07575227550831827 0 0.095627451745985609 0.081336204981207194 0 0.095627451745985609 0.081336204981207194 0 0.085469831166676849 0.087436677031336632 0 0.085588317529406169 0.073238424790440806 0 0.085469831166676849 0.087436677031336632 0 0.085588317529406169 0.073238424790440806 0 0.076873554133312927 0.079435143693455501 0 0.085469831166676849 0.087436677031336632 0 0.070098818600398835 0.095008337279511162 0 0.081838863589211913 0.097859807548057495 0 0.085588317529406169 0.073238424790440806 0 0.078896317813284711 0.063130005487330554 0 0.076873554133312927 0.079435143693455501 0 0.090394473132530156 0.056962854116463339 0 0.095627451745985609 0.081336204981207194 0 0.090394473132530156 0.056962854116463339 0 0.095627451745985609 0.081336204981207194 0 0.085588317529406169 0.073238424790440806 0 0.090394473132530156 0.056962854116463339 0 0.085588317529406169 0.073238424790440806 0 0.078896317813284711 0.063130005487330554 0 0.063756980967503582 0.059761195325569103 0 0.076873554133312927 0.079435143693455501 0 0.058428932400687923 0.080576723114904505 0 0.063756980967503582 0.059761195325569103 0 0.078896317813284711 0.063130005487330554 0 0.076873554133312927 0.079435143693455501 0 0.076873554133312927 0.079435143693455501 0 0.070098818600398835 0.095008337279511162 0 0.058428932400687923 0.080576723114904505 0 0.085469831166676849 0.087436677031336632 0 0.076873554133312927 0.079435143693455501 0 0.070098818600398835 0.095008337279511162 0 0.076873554133312927 0.079435143693455501 0 0.070098818600398835 0.095008337279511162 0 0.070098818600398835 0.095008337279511162 0 0.063324083067484813 0.1105815308655668 0 0.056772327777908818 0.093355456469435216 0 0.070098818600398835 0.095008337279511162 0 0.073686861685182473 0.1058294153104071 0 0.063324083067484813 0.1105815308655668 0 0.070098818600398835 0.095008337279511162 0 0.063324083067484813 0.1105815308655668 0 0.070098818600398835 0.095008337279511162 0 0.073686861685182473 0.1058294153104071 0 0.081838863589211913 0.097859807548057495 0 0.10086043035944101 0.1057095558459509 0 0.088353675930770217 0.1090445403681379 0 0.081838863589211913 0.097859807548057495 0 0.10086043035944101 0.1057095558459509 0 0.085469831166676849 0.087436677031336632 0 0.081838863589211913 0.097859807548057495 0 0.073686861685182473 0.1058294153104071 0 0.081838863589211913 0.097859807548057495 0 0.081058066011519173 0.11973636453468819 0 0.081838863589211913 0.097859807548057495 0 0.081058066011519173 0.11973636453468819 0 0.088353675930770217 0.1090445403681379 0 0.081838863589211913 0.097859807548057495 0 0.081058066011519173 0.11973636453468819 0 0.081058066011519173 0.11973636453468819 0 0.098136173783193614 0.12855261503670501 0 0.088353675930770217 0.1090445403681379 0 0.081058066011519173 0.11973636453468819 0 0.098136173783193614 0.12855261503670501 0 0.081058066011519173 0.11973636453468819 0 0.063324083067484813 0.1105815308655668 0 0.068402942841081005 0.12865021266463919 0 0.081058066011519173 0.11973636453468819 0 0.063324083067484813 0.1105815308655668 0 0.073686861685182473 0.1058294153104071 0 0.081058066011519173 0.11973636453468819 0 0.063324083067484813 0.1105815308655668 0 0.063324083067484813 0.1105815308655668 0 0.047212646671147621 0.11637508280246631 0 0.046344121904492837 0.10181594669612309 0 0.063324083067484813 0.1105815308655668 0 0.047212646671147621 0.11637508280246631 0 0.054704645729867107 0.1303951701743557 0 0.063324083067484813 0.1105815308655668 0 0.054704645729867107 0.1303951701743557 0 0.068402942841081005 0.12865021266463919 0 0.063324083067484813 0.1105815308655668 0 0.054704645729867107 0.1303951701743557 0 0.063324083067484813 0.1105815308655668 0 0.046344121904492837 0.10181594669612309 0 0.056772327777908818 0.093355456469435216 0 0.063324083067484813 0.1105815308655668 0 0.046344121904492837 0.10181594669612309 0 0.046344121904492837 0.10181594669612309 0 0.056772327777908818 0.093355456469435216 0 0.045320775007697253 0.087378911453508054 0 0.046344121904492837 0.10181594669612309 0 0.0293641607415005 0.093050362526680058 0 0.027539824430943272 0.097260859315675907 0 0.046344121904492837 0.10181594669612309 0 0.0293641607415005 0.093050362526680058 0 0.046344121904492837 0.10181594669612309 0 0.045320775007697253 0.087378911453508054 0 0.0293641607415005 0.093050362526680058 0 0.046344121904492837 0.10181594669612309 0 0.034802580128522533 0.108370238657299 0 0.027539824430943272 0.097260859315675907 0 0.047212646671147621 0.11637508280246631 0 0.046344121904492837 0.10181594669612309 0 0.034802580128522533 0.108370238657299 0 0.034802580128522533 0.108370238657299 0 0.02295827912300942 0.1143792008990337 0 0.036209801575650402 0.12755429465012871 0 0.047212646671147621 0.11637508280246631 0 0.054704645729867107 0.1303951701743557 0 0.036209801575650402 0.12755429465012871 0 0.047212646671147621 0.11637508280246631 0 0.034802580128522533 0.108370238657299 0 0.036209801575650402 0.12755429465012871 0 0.063756980967503582 0.059761195325569103 0 0.058428932400687923 0.080576723114904505 0 0.039807943620716157 0.068946520475498749 0 0.058428932400687923 0.080576723114904505 0 0.045320775007697253 0.087378911453508054 0 0.039807943620716157 0.068946520475498749 0 0.070098818600398835 0.095008337279511162 0 0.058428932400687923 0.080576723114904505 0 0.056772327777908818 0.093355456469435216 0 0.058428932400687923 0.080576723114904505 0 0.056772327777908818 0.093355456469435216 0 0.045320775007697253 0.087378911453508054 0 0.039807943620716157 0.068946520475498749 0 0.02523443473854358 0.074793540318702806 0 0.0293641607415005 0.093050362526680058 0 0.045320775007697253 0.087378911453508054 0 0.039807943620716157 0.068946520475498749 0 0.0293641607415005 0.093050362526680058 0 0.039807943620716157 0.068946520475498749 0 0.0293641607415005 0.093050362526680058 0 0.02507841675544124 0.048354097280414877 0 0.039807943620716157 0.068946520475498749 0 0.02523443473854358 0.074793540318702806 0 0.02523443473854358 0.074793540318702806 0 0.01233266555678463 0.084258174892090337 0 0.010722424996073881 0.068121568230846891 0 0.02507841675544124 0.048354097280414877 0 0.02523443473854358 0.074793540318702806 0 0.010722424996073881 0.068121568230846891 0 0.0293641607415005 0.093050362526680058 0 0.01233266555678463 0.084258174892090337 0 0.0293641607415005 0.093050362526680058 0 0.01233266555678463 0.084258174892090337 0 0.019584721545335231 0.095933386042030777 0 0.02523443473854358 0.074793540318702806 0 0.0293641607415005 0.093050362526680058 0 0.01233266555678463 0.084258174892090337 0 -0.0046988296279310846 0.075465987257500103 0 0.01233266555678463 0.084258174892090337 0 -0.0046988296279310846 0.075465987257500103 0 0.00056903788424511365 0.086682396089073327 0 0.01233266555678463 0.084258174892090337 0 0.01233266555678463 0.084258174892090337 0 0.019584721545335231 0.095933386042030777 0 0.0096773837387348072 0.094713106344260181 0 0.00056903788424511365 0.086682396089073327 0 0.0096773837387348072 0.094713106344260181 0 0.0017142141577850001 0.096485027642689541 0 0.00056903788424511365 0.086682396089073327 0 0.01233266555678463 0.084258174892090337 0 0.0096773837387348072 0.094713106344260181 0 -0.0046988296279310846 0.075465987257500103 0 0.0079626054049135586 0.052863747179962457 0 -0.0046988296279310846 0.075465987257500103 0 0.01233266555678463 0.084258174892090337 0 0.010722424996073881 0.068121568230846891 0 -0.0046988296279310846 0.075465987257500103 0 0.0079626054049135586 0.052863747179962457 0 0.010722424996073881 0.068121568230846891 0 0.02295827912300942 0.1143792008990337 0 0.016633607451047409 0.12879447845417449 0 0.036209801575650402 0.12755429465012871 0 0.02295827912300942 0.1143792008990337 0 0.02320798257890765 0.1047443639128517 0 0.017264926825327171 0.1093249123190818 0 0.02295827912300942 0.1143792008990337 0 0.017264926825327171 0.1093249123190818 0 0.01360187540002143 0.11722717171449371 0 0.02295827912300942 0.1143792008990337 0 0.01360187540002143 0.11722717171449371 0 0.016633607451047409 0.12879447845417449 0 0.034802580128522533 0.108370238657299 0 0.027539824430943272 0.097260859315675907 0 0.02320798257890765 0.1047443639128517 0 0.034802580128522533 0.108370238657299 0 0.02295827912300942 0.1143792008990337 0 0.02320798257890765 0.1047443639128517 0 0.0293641607415005 0.093050362526680058 0 0.027539824430943272 0.097260859315675907 0 0.019584721545335231 0.095933386042030777 0 0.027539824430943272 0.097260859315675907 0 0.019584721545335231 0.095933386042030777 0 0.02320798257890765 0.1047443639128517 0 0.0293641607415005 0.093050362526680058 0 0.027539824430943272 0.097260859315675907 0 0.019584721545335231 0.095933386042030777 0 0.02320798257890765 0.1047443639128517 0 0.01504081682007688 0.10253598369847031 0 0.02320798257890765 0.1047443639128517 0 0.017264926825327171 0.1093249123190818 0 0.01504081682007688 0.10253598369847031 0 0.0088228464681819972 0.10238366970120689 0 0.01151568020462046 0.1077378413705596 0 0.0058206420146291954 0.1114089238878985 0 0.017264926825327171 0.1093249123190818 0 0.01504081682007688 0.10253598369847031 0 0.01151568020462046 0.1077378413705596 0 0.01504081682007688 0.10253598369847031 0 0.0088228464681819972 0.10238366970120689 0 0.01151568020462046 0.1077378413705596 0 0.019584721545335231 0.095933386042030777 0 0.01504081682007688 0.10253598369847031 0 0.0096773837387348072 0.094713106344260181 0 0.01504081682007688 0.10253598369847031 0 0.0088228464681819972 0.10238366970120689 0 0.0096773837387348072 0.094713106344260181 0 0.0088228464681819972 0.10238366970120689 0 0.0096773837387348072 0.094713106344260181 0 0.0017142141577850001 0.096485027642689541 0 0.0088228464681819972 0.10238366970120689 0 0.0017142141577850001 0.096485027642689541 0 0.0058206420146291954 0.1114089238878985 0 0.0058206420146291954 0.1114089238878985 0 0.00039794405216867472 0.112072386291362 0 0.01360187540002143 0.11722717171449371 0 0.00039794405216867472 0.112072386291362 0 0.016633607451047409 0.12879447845417449 0 0.00039794405216867472 0.112072386291362 0 0.01360187540002143 0.11722717171449371 0 0.016633607451047409 0.12879447845417449 0 0.00039794405216867472 0.112072386291362 0 0.0010393500416724941 0.12595831854165979 0 0.016633607451047409 0.12879447845417449 0 0.01151568020462046 0.1077378413705596 0 0.0058206420146291954 0.1114089238878985 0 0.01360187540002143 0.11722717171449371 0 0.017264926825327171 0.1093249123190818 0 0.01151568020462046 0.1077378413705596 0 0.01360187540002143 0.11722717171449371 0 -0.0082797250895681185 0.13474448294352481 0 0.0010393500416724941 0.12595831854165979 0 0.01291562537333717 0.14373886088149129 0 0.0010393500416724941 0.12595831854165979 0 0.016633607451047409 0.12879447845417449 0 0.01291562537333717 0.14373886088149129 0 0.016633607451047409 0.12879447845417449 0 0.030096440749716711 0.14309687622970299 0 0.036209801575650402 0.12755429465012871 0 0.016633607451047409 0.12879447845417449 0 0.030096440749716711 0.14309687622970299 0 0.01291562537333717 0.14373886088149129 0 0.030096440749716711 0.14309687622970299 0 0.01291562537333717 0.14373886088149129 0 0.026789162612504271 0.15663130254031199 0 0.01291562537333717 0.14373886088149129 0 0.015650655317666261 0.15865613344587939 0 0.026789162612504271 0.15663130254031199 0 0.01291562537333717 0.14373886088149129 0 0.00151890392611572 0.15456094484017679 0 0.015650655317666261 0.15865613344587939 0 -0.0082797250895681185 0.13474448294352481 0 0.01291562537333717 0.14373886088149129 0 0.00151890392611572 0.15456094484017679 0 0.00151890392611572 0.15456094484017679 0 0.01131753294179963 0.17437740673682869 0 0.00151890392611572 0.15456094484017679 0 0.012386788017382491 0.1641388541230504 0 0.01131753294179963 0.17437740673682869 0 -0.0026654791677323511 0.16604552865166611 0 0.00151890392611572 0.15456094484017679 0 0.01131753294179963 0.17437740673682869 0 -0.0026654791677323511 0.16604552865166611 0 0.01131753294179963 0.17437740673682869 0 0.012386788017382491 0.1641388541230504 0 0.01131753294179963 0.17437740673682869 0 0.021060059883948341 0.16896093146931659 0 0.00151890392611572 0.15456094484017679 0 0.012386788017382491 0.1641388541230504 0 0.015650655317666261 0.15865613344587939 0 0.0072367552089822543 0.1840346549744645 0 0.003085550936940849 0.18695469644268639 0 0.007927604969267173 0.18944813828794729 0 0.0072367552089822543 0.1840346549744645 0 0.003085550936940849 0.18695469644268639 0 0.00053502205069707774 0.18188021690744111 0 -0.003081975793268537 0.18782002811878001 0 0.003085550936940849 0.18695469644268639 0 0.00053502205069707774 0.18188021690744111 0 0.0072367552089822543 0.1840346549744645 0 0.00053502205069707774 0.18188021690744111 0 0.0082701590199136289 0.17900500476799119 0 -0.0026654791677323511 0.16604552865166611 0 0.0024081860720475369 0.17557227428335351 0 0.01131753294179963 0.17437740673682869 0 0.0024081860720475369 0.17557227428335351 0 0.01131753294179963 0.17437740673682869 0 0.0082701590199136289 0.17900500476799119 0 0.00053502205069707774 0.18188021690744111 0 0.0024081860720475369 0.17557227428335351 0 0.0082701590199136289 0.17900500476799119 0 0.01131753294179963 0.17437740673682869 0 0.013543000689093809 0.1790660034635034 0 0.021389494149062459 0.18037885708243739 0 0.01131753294179963 0.17437740673682869 0 0.013543000689093809 0.1790660034635034 0 0.01131753294179963 0.17437740673682869 0 0.013543000689093809 0.1790660034635034 0 0.0082701590199136289 0.17900500476799119 0 0.013543000689093809 0.1790660034635034 0 0.0115175493401282 0.18523262863701309 0 0.016985704636488509 0.19275209946522329 0 0.0072367552089822543 0.1840346549744645 0 0.0082701590199136289 0.17900500476799119 0 0.0115175493401282 0.18523262863701309 0 0.013543000689093809 0.1790660034635034 0 0.0082701590199136289 0.17900500476799119 0 0.0115175493401282 0.18523262863701309 0 0.0072367552089822543 0.1840346549744645 0 0.0115175493401282 0.18523262863701309 0 0.007927604969267173 0.18944813828794729 0 0.021389494149062459 0.18037885708243739 0 0.039453436217199322 0.18340126598870379 0 0.013543000689093809 0.1790660034635034 0 0.021389494149062459 0.18037885708243739 0 0.02230428843080948 0.19662630733770359 0 0.013543000689093809 0.1790660034635034 0 0.021389494149062459 0.18037885708243739 0 0.01131753294179963 0.17437740673682869 0 0.021389494149062459 0.18037885708243739 0 0.01131753294179963 0.17437740673682869 0 0.021389494149062459 0.18037885708243739 0 0.021060059883948341 0.16896093146931659 0 0.021389494149062459 0.18037885708243739 0 0.021060059883948341 0.16896093146931659 0 0.034487576316221548 0.17006964541133651 0 0.021389494149062459 0.18037885708243739 0 0.036772518206031037 0.18954494233072339 0 0.012386788017382491 0.1641388541230504 0 0.015650655317666261 0.15865613344587939 0 0.021060059883948341 0.16896093146931659 0 0.015650655317666261 0.15865613344587939 0 0.021060059883948341 0.16896093146931659 0 0.026789162612504271 0.15663130254031199 0 0.021060059883948341 0.16896093146931659 0 0.026789162612504271 0.15663130254031199 0 0.034487576316221548 0.17006964541133651 0 0.026789162612504271 0.15663130254031199 0 0.034487576316221548 0.17006964541133651 0 0.046085208392249437 0.15020880948314461 0 0.034487576316221548 0.17006964541133651 0 0.049790080527993393 0.16878629006039211 0 0.046085208392249437 0.15020880948314461 0 0.021389494149062459 0.18037885708243739 0 0.039453436217199322 0.18340126598870379 0 0.036772518206031037 0.18954494233072339 0 0.021389494149062459 0.18037885708243739 0 0.034487576316221548 0.17006964541133651 0 0.039453436217199322 0.18340126598870379 0 0.034487576316221548 0.17006964541133651 0 0.039453436217199322 0.18340126598870379 0 0.049790080527993393 0.16878629006039211 0 0.039453436217199322 0.18340126598870379 0 0.057517378285335978 0.18642367489497111 0 0.049790080527993393 0.16878629006039211 0 0.057517378285335978 0.18642367489497111 0 0.06670876632053821 0.16536039993208129 0 0.039453436217199322 0.18340126598870379 0 0.057517378285335978 0.18642367489497111 0 0.039453436217199322 0.18340126598870379 0 0.057517378285335978 0.18642367489497111 0 0.046621016020550923 0.1898787739154234 0 0.057517378285335978 0.18642367489497111 0 0.049790080527993393 0.16878629006039211 0 0.06670876632053821 0.16536039993208129 0 0.056759789081437029 0.15816783404816359 0 0.049790080527993393 0.16878629006039211 0 0.06670876632053821 0.16536039993208129 0 0.056759789081437029 0.15816783404816359 0 0.049790080527993393 0.16878629006039211 0 0.046085208392249437 0.15020880948314461 0 0.056759789081437029 0.15816783404816359 0 0.046085208392249437 0.15020880948314461 0 0.06445510108496709 0.14831583671703669 0 0.054704645729867107 0.1303951701743557 0 0.046085208392249437 0.15020880948314461 0 0.06445510108496709 0.14831583671703669 0 0.054704645729867107 0.1303951701743557 0 0.046085208392249437 0.15020880948314461 0 0.054704645729867107 0.1303951701743557 0 0.036209801575650402 0.12755429465012871 0 0.046085208392249437 0.15020880948314461 0 0.030096440749716711 0.14309687622970299 0 0.036209801575650402 0.12755429465012871 0 0.046085208392249437 0.15020880948314461 0 0.030096440749716711 0.14309687622970299 0 0.026789162612504271 0.15663130254031199 0 0.046085208392249437 0.15020880948314461 0 0.02117589590128718 0.2395927914801684 0 0.012156823249103331 0.25259817100369902 0 0.030652172791378579 0.25229956247347313 0 0.02117589590128718 0.2395927914801684 0 0.034188277432347557 0.23988537883147459 0 0.030652172791378579 0.25229956247347313 0 0.02117589590128718 0.2395927914801684 0 0.030323397599499081 0.22959965211839081 0 0.034188277432347557 0.23988537883147459 0 -0.0082457657602449386 0.25246627485226031 0 -0.001965278602122185 0.24182690426762959 0 0.012156823249103331 0.25259817100369902 0 0.02117589590128718 0.2395927914801684 0 0.008579196815527634 0.23953031834541311 0 0.012156823249103331 0.25259817100369902 0 -0.001965278602122185 0.24182690426762959 0 0.008579196815527634 0.23953031834541311 0 0.012156823249103331 0.25259817100369902 0 -0.001965278602122185 0.24182690426762959 0 0.008579196815527634 0.23953031834541311 0 0.0010433620948100131 0.23240638127880581 0 0.02117589590128718 0.2395927914801684 0 0.008579196815527634 0.23953031834541311 0 0.01115565641706814 0.2303537873583584 0 0.008579196815527634 0.23953031834541311 0 0.01115565641706814 0.2303537873583584 0 0.0010433620948100131 0.23240638127880581 0 0.01115565641706814 0.2303537873583584 0 0.0010433620948100131 0.23240638127880581 0 0.0091084557899102862 0.2202403998025296 0 0.0010433620948100131 0.23240638127880581 0 0.0001093474821353509 0.22215689039817851 0 0.0091084557899102862 0.2202403998025296 0 0.01115565641706814 0.2303537873583584 0 0.0091084557899102862 0.2202403998025296 0 0.016496999093422449 0.223541986747673 0 0.0091084557899102862 0.2202403998025296 0 0.016496999093422449 0.223541986747673 0 0.01612020317490017 0.2152275371535412 0 0.016496999093422449 0.223541986747673 0 0.02147394042148347 0.23028557103733549 0 0.024626739663750161 0.22160263838659999 0 0.016496999093422449 0.223541986747673 0 0.024626739663750161 0.22160263838659999 0 0.01612020317490017 0.2152275371535412 0 0.01115565641706814 0.2303537873583584 0 0.016496999093422449 0.223541986747673 0 0.02147394042148347 0.23028557103733549 0 0.02117589590128718 0.2395927914801684 0 0.01115565641706814 0.2303537873583584 0 0.02147394042148347 0.23028557103733549 0 0.02147394042148347 0.23028557103733549 0 0.030323397599499081 0.22959965211839081 0 0.024626739663750161 0.22160263838659999 0 0.02117589590128718 0.2395927914801684 0 0.02147394042148347 0.23028557103733549 0 0.030323397599499081 0.22959965211839081 0 0.024626739663750161 0.22160263838659999 0 0.027508903383077599 0.21474836631904051 0 0.034268755792753257 0.2207932912834846 0 0.030323397599499081 0.22959965211839081 0 0.024626739663750161 0.22160263838659999 0 0.034268755792753257 0.2207932912834846 0 0.027508903383077599 0.21474836631904051 0 0.023943201944243639 0.1999111919537408 0 0.034268755792753257 0.2207932912834846 0 0.023943201944243639 0.1999111919537408 0 0.034268755792753257 0.2207932912834846 0 0.027508903383077599 0.21474836631904051 0 0.023922045305692211 0.20684028787671799 0 0.022699459496289199 0.2141990688659105 0 0.024626739663750161 0.22160263838659999 0 0.027508903383077599 0.21474836631904051 0 0.022699459496289199 0.2141990688659105 0 0.027508903383077599 0.21474836631904051 0 0.023922045305692211 0.20684028787671799 0 0.023943201944243639 0.1999111919537408 0 0.01896544066016782 0.20973745132843891 0 0.01612020317490017 0.2152275371535412 0 0.013247665380499421 0.20734461508933349 0 0.023922045305692211 0.20684028787671799 0 0.01896544066016782 0.20973745132843891 0 0.022699459496289199 0.2141990688659105 0 0.023922045305692211 0.20684028787671799 0 0.021734838082019509 0.20302577286306159 0 0.023943201944243639 0.1999111919537408 0 0.023922045305692211 0.20684028787671799 0 0.018650848458870179 0.20436341187488569 0 0.021734838082019509 0.20302577286306159 0 0.023922045305692211 0.20684028787671799 0 0.018650848458870179 0.20436341187488569 0 0.01896544066016782 0.20973745132843891 0 0.018650848458870179 0.20436341187488569 0 0.01896544066016782 0.20973745132843891 0 0.013247665380499421 0.20734461508933349 0 0.024626739663750161 0.22160263838659999 0 0.022699459496289199 0.2141990688659105 0 0.01612020317490017 0.2152275371535412 0 0.01896544066016782 0.20973745132843891 0 0.022699459496289199 0.2141990688659105 0 0.01612020317490017 0.2152275371535412 0 0.01612020317490017 0.2152275371535412 0 0.0085100262700745465 0.21094865931476009 0 0.013247665380499421 0.20734461508933349 0 0.0091084557899102862 0.2202403998025296 0 0.01612020317490017 0.2152275371535412 0 0.0085100262700745465 0.21094865931476009 0 0.0001093474821353509 0.22215689039817851 0 0.0091084557899102862 0.2202403998025296 0 0.00083142932333707279 0.21381627434491049 0 0.0091084557899102862 0.2202403998025296 0 0.0085100262700745465 0.21094865931476009 0 0.00083142932333707279 0.21381627434491049 0 0.0085100262700745465 0.21094865931476009 0 0.00083142932333707279 0.21381627434491049 0 0.0029581381265264858 0.20519393183106241 0 0.0085100262700745465 0.21094865931476009 0 0.0029581381265264858 0.20519393183106241 0 0.0087942658252738396 0.20386919766718339 0 0.0029581381265264858 0.20519393183106241 0 0.0087942658252738396 0.20386919766718339 0 0.0056326315351633537 0.2004899601979887 0 0.0085100262700745465 0.21094865931476009 0 0.0087942658252738396 0.20386919766718339 0 0.013247665380499421 0.20734461508933349 0 0.0087942658252738396 0.20386919766718339 0 0.013247665380499421 0.20734461508933349 0 0.013927284278231049 0.2027684573698135 0 0.018650848458870179 0.20436341187488569 0 0.013247665380499421 0.20734461508933349 0 0.013927284278231049 0.2027684573698135 0 0.013927284278231049 0.2027684573698135 0 0.010260103200158849 0.1991700010832006 0 0.016231602148303749 0.1987520895161983 0 0.010260103200158849 0.1991700010832006 0 0.01183675088797494 0.19419665586736051 0 0.016231602148303749 0.1987520895161983 0 0.010260103200158849 0.1991700010832006 0 0.0061740732670114221 0.19541611365695169 0 0.01183675088797494 0.19419665586736051 0 0.0087942658252738396 0.20386919766718339 0 0.010260103200158849 0.1991700010832006 0 0.0056326315351633537 0.2004899601979887 0 0.0087942658252738396 0.20386919766718339 0 0.013927284278231049 0.2027684573698135 0 0.010260103200158849 0.1991700010832006 0 0.010260103200158849 0.1991700010832006 0 0.0056326315351633537 0.2004899601979887 0 0.0061740732670114221 0.19541611365695169 0 -2.3422743153838069e-05 0.1988005567515452 0 0.0056326315351633537 0.2004899601979887 0 0.0061740732670114221 0.19541611365695169 0 -2.3422743153838069e-05 0.1988005567515452 0 0.0029581381265264858 0.20519393183106241 0 0.0056326315351633537 0.2004899601979887 0 -0.003081975793268537 0.18782002811878001 0 0.003085550936940849 0.18695469644268639 0 0.0015327128313205251 0.1915709431207247 0 -2.3422743153838069e-05 0.1988005567515452 0 0.0061740732670114221 0.19541611365695169 0 0.0015327128313205251 0.1915709431207247 0 0.0061740732670114221 0.19541611365695169 0 0.0015327128313205251 0.1915709431207247 0 0.007927604969267173 0.18944813828794729 0 0.003085550936940849 0.18695469644268639 0 0.0015327128313205251 0.1915709431207247 0 0.007927604969267173 0.18944813828794729 0 0.007927604969267173 0.18944813828794729 0 0.01183675088797494 0.19419665586736051 0 0.012456110925155389 0.1902446129755902 0 0.0115175493401282 0.18523262863701309 0 0.007927604969267173 0.18944813828794729 0 0.012456110925155389 0.1902446129755902 0 0.0061740732670114221 0.19541611365695169 0 0.007927604969267173 0.18944813828794729 0 0.01183675088797494 0.19419665586736051 0 0.01183675088797494 0.19419665586736051 0 0.012456110925155389 0.1902446129755902 0 0.016985704636488509 0.19275209946522329 0 0.01183675088797494 0.19419665586736051 0 0.016985704636488509 0.19275209946522329 0 0.016231602148303749 0.1987520895161983 0 0.0115175493401282 0.18523262863701309 0 0.012456110925155389 0.1902446129755902 0 0.016985704636488509 0.19275209946522329 0 0.021389494149062459 0.18037885708243739 0 0.02230428843080948 0.19662630733770359 0 0.036772518206031037 0.18954494233072339 0 0.013543000689093809 0.1790660034635034 0 0.02230428843080948 0.19662630733770359 0 0.013543000689093809 0.1790660034635034 0 0.016985704636488509 0.19275209946522329 0 0.02230428843080948 0.19662630733770359 0 0.016985704636488509 0.19275209946522329 0 0.019428477636303031 0.19812266709439569 0 0.016231602148303749 0.1987520895161983 0 0.019428477636303031 0.19812266709439569 0 0.016231602148303749 0.1987520895161983 0 0.020423256619271999 0.20098819974690199 0 0.018650848458870179 0.20436341187488569 0 0.016231602148303749 0.1987520895161983 0 0.020423256619271999 0.20098819974690199 0 0.018650848458870179 0.20436341187488569 0 0.013927284278231049 0.2027684573698135 0 0.016231602148303749 0.1987520895161983 0 0.019428477636303031 0.19812266709439569 0 0.020423256619271999 0.20098819974690199 0 0.023943201944243639 0.1999111919537408 0 0.018650848458870179 0.20436341187488569 0 0.020423256619271999 0.20098819974690199 0 0.021734838082019509 0.20302577286306159 0 0.020423256619271999 0.20098819974690199 0 0.021734838082019509 0.20302577286306159 0 0.023943201944243639 0.1999111919537408 0 0.016985704636488509 0.19275209946522329 0 0.02230428843080948 0.19662630733770359 0 0.023943201944243639 0.1999111919537408 0 0.016985704636488509 0.19275209946522329 0 0.019428477636303031 0.19812266709439569 0 0.023943201944243639 0.1999111919537408 0 0.02230428843080948 0.19662630733770359 0 0.023943201944243639 0.1999111919537408 0 0.02230428843080948 0.19662630733770359 0 0.023943201944243639 0.1999111919537408 0 0.035957366435008513 0.20647473970990701 0 0.02230428843080948 0.19662630733770359 0 0.050897121833006063 0.20159486356051531 0 0.035957366435008513 0.20647473970990701 0 0.02230428843080948 0.19662630733770359 0 0.036772518206031037 0.18954494233072339 0 0.050897121833006063 0.20159486356051531 0 0.02230428843080948 0.19662630733770359 0 0.050897121833006063 0.20159486356051531 0 0.036772518206031037 0.18954494233072339 0 0.050897121833006063 0.20159486356051531 0 0.052155542262999663 0.1987110275790093 0 0.036772518206031037 0.18954494233072339 0 0.052155542262999663 0.1987110275790093 0 0.036772518206031037 0.18954494233072339 0 0.046621016020550923 0.1898787739154234 0 0.052155542262999663 0.1987110275790093 0 0.039453436217199322 0.18340126598870379 0 0.036772518206031037 0.18954494233072339 0 0.046621016020550923 0.1898787739154234 0 0.057517378285335978 0.18642367489497111 0 0.046621016020550923 0.1898787739154234 0 0.052155542262999663 0.1987110275790093 0 0.057517378285335978 0.18642367489497111 0 0.052155542262999663 0.1987110275790093 0 0.057517378285335978 0.18642367489497111 0 0.057090951257530269 0.197109929087698 0 0.052155542262999663 0.1987110275790093 0 0.057517378285335978 0.18642367489497111 0 0.060667890749981898 0.1933513013873914 0 0.057090951257530269 0.197109929087698 0 0.060667890749981898 0.1933513013873914 0 0.057090951257530269 0.197109929087698 0 0.058031923789004708 0.2022125116707813 0 0.060667890749981898 0.1933513013873914 0 0.058031923789004708 0.2022125116707813 0 0.060667890749981898 0.1933513013873914 0 0.058031923789004708 0.2022125116707813 0 0.059673977213942478 0.20319094098477611 0 0.058031923789004708 0.2022125116707813 0 0.059673977213942478 0.20319094098477611 0 0.057090951257530269 0.197109929087698 0 0.058031923789004708 0.2022125116707813 0 0.052155542262999663 0.1987110275790093 0 0.058031923789004708 0.2022125116707813 0 0.052155542262999663 0.1987110275790093 0 0.058031923789004708 0.2022125116707813 0 0.050897121833006063 0.20159486356051531 0 0.052155542262999663 0.1987110275790093 0 0.058031923789004708 0.2022125116707813 0 0.050897121833006063 0.20159486356051531 0 0.050897121833006063 0.20159486356051531 0 0.052155542262999663 0.1987110275790093 0 0.050897121833006063 0.20159486356051531 0 0.042542699632676838 0.22074012119599501 0 0.053005439111290922 0.21910981667301421 0 0.058031923789004708 0.2022125116707813 0 0.050897121833006063 0.20159486356051531 0 0.053005439111290922 0.21910981667301421 0 0.058031923789004708 0.2022125116707813 0 0.053005439111290922 0.21910981667301421 0 0.058031923789004708 0.2022125116707813 0 0.061718375040706958 0.21244198365854619 0 0.053005439111290922 0.21910981667301421 0 0.058031923789004708 0.2022125116707813 0 0.059673977213942478 0.20319094098477611 0 0.061718375040706958 0.21244198365854619 0 0.061718375040706958 0.21244198365854619 0 0.053005439111290922 0.21910981667301421 0 0.062081063031912492 0.22413796841031719 0 0.050897121833006063 0.20159486356051531 0 0.042542699632676838 0.22074012119599501 0 0.023943201944243639 0.1999111919537408 0 0.035957366435008513 0.20647473970990701 0 0.034268755792753257 0.2207932912834846 0 0.050897121833006063 0.20159486356051531 0 0.038363073609551428 0.21412918370060571 0 0.042542699632676838 0.22074012119599501 0 0.050897121833006063 0.20159486356051531 0 0.035957366435008513 0.20647473970990701 0 0.038363073609551428 0.21412918370060571 0 0.038363073609551428 0.21412918370060571 0 0.034268755792753257 0.2207932912834846 0 0.042542699632676838 0.22074012119599501 0 0.035957366435008513 0.20647473970990701 0 0.038363073609551428 0.21412918370060571 0 0.034268755792753257 0.2207932912834846 0 0.042542699632676838 0.22074012119599501 0 0.034188277432347557 0.23988537883147459 0 0.042542699632676838 0.22074012119599501 0 0.04817080422001134 0.23536218897101929 0 0.044937254539659167 0.2379713478153713 0 0.030323397599499081 0.22959965211839081 0 0.042542699632676838 0.22074012119599501 0 0.034188277432347557 0.23988537883147459 0 0.042542699632676838 0.22074012119599501 0 0.044937254539659167 0.2379713478153713 0 0.034188277432347557 0.23988537883147459 0 0.030323397599499081 0.22959965211839081 0 0.034268755792753257 0.2207932912834846 0 0.042542699632676838 0.22074012119599501 0 0.053005439111290922 0.21910981667301421 0 0.04817080422001134 0.23536218897101929 0 0.053005439111290922 0.21910981667301421 0 0.062081063031912492 0.22413796841031719 0 0.04817080422001134 0.23536218897101929 0 0.062081063031912492 0.22413796841031719 0 0.04817080422001134 0.23536218897101929 0 0.059531729096570118 0.24099028160929839 0 0.042542699632676838 0.22074012119599501 0 0.053005439111290922 0.21910981667301421 0 0.04817080422001134 0.23536218897101929 0 0.062081063031912492 0.22413796841031719 0 0.04817080422001134 0.23536218897101929 0 0.04817080422001134 0.23536218897101929 0 0.052294646587479003 0.2493466198794505 0 0.04073495957405681 0.26035892983227987 0 0.04817080422001134 0.23536218897101929 0 0.059531729096570118 0.24099028160929839 0 0.052294646587479003 0.2493466198794505 0 0.059531729096570118 0.24099028160929839 0 0.067445722382230539 0.24771064348785149 0 0.06034442261467237 0.25120339486286308 0 0.059531729096570118 0.24099028160929839 0 0.052294646587479003 0.2493466198794505 0 0.06034442261467237 0.25120339486286308 0 0.04817080422001134 0.23536218897101929 0 0.04073495957405681 0.26035892983227987 0 0.04817080422001134 0.23536218897101929 0 0.044937254539659167 0.2379713478153713 0 0.04073495957405681 0.26035892983227987 0 0.04817080422001134 0.23536218897101929 0 0.044937254539659167 0.2379713478153713 0 0.044937254539659167 0.2379713478153713 0 0.034188277432347557 0.23988537883147459 0 0.030652172791378579 0.25229956247347313 0 0.085975255819246227 0.24304742420893821 0 0.091760355399887042 0.24149966876957779 0 0.085886262968569133 0.25948379364412733 0 0.091760355399887042 0.24149966876957779 0 0.10166443252893551 0.23659000017624271 0 0.085886262968569133 0.25948379364412733 0 0.085975255819246227 0.24304742420893821 0 0.091760355399887042 0.24149966876957779 0 0.090327239942362525 0.2312920649275291 0 0.085975255819246227 0.24304742420893821 0 0.075396639696560977 0.24390878816167419 0 0.077103558767455421 0.230534611802553 0 0.085975255819246227 0.24304742420893821 0 0.077103558767455421 0.230534611802553 0 0.090327239942362525 0.2312920649275291 0 0.085975255819246227 0.24304742420893821 0 0.075396639696560977 0.24390878816167419 0 0.080478695998155714 0.25165019938018113 0 0.075396639696560977 0.24390878816167419 0 0.074707437689247702 0.25389633834412328 0 0.080478695998155714 0.25165019938018113 0 0.075396639696560977 0.24390878816167419 0 0.067445722382230539 0.24771064348785149 0 0.068934414955804643 0.23628801399858909 0 0.075396639696560977 0.24390878816167419 0 0.067445722382230539 0.24771064348785149 0 0.074707437689247702 0.25389633834412328 0 0.059531729096570118 0.24099028160929839 0 0.067445722382230539 0.24771064348785149 0 0.068934414955804643 0.23628801399858909 0 0.075396639696560977 0.24390878816167419 0 0.068934414955804643 0.23628801399858909 0 0.077103558767455421 0.230534611802553 0 0.062081063031912492 0.22413796841031719 0 0.059531729096570118 0.24099028160929839 0 0.068934414955804643 0.23628801399858909 0 0.062081063031912492 0.22413796841031719 0 0.077103558767455421 0.230534611802553 0 0.077696208689423979 0.21392961690810641 0 0.077103558767455421 0.230534611802553 0 0.077696208689423979 0.21392961690810641 0 0.062081063031912492 0.22413796841031719 0 0.068934414955804643 0.23628801399858909 0 0.077103558767455421 0.230534611802553 0 0.077103558767455421 0.230534611802553 0 0.086723057100410644 0.21930832929599969 0 0.077696208689423979 0.21392961690810641 0 0.077103558767455421 0.230534611802553 0 0.090327239942362525 0.2312920649275291 0 0.086723057100410644 0.21930832929599969 0 0.090327239942362525 0.2312920649275291 0 0.086723057100410644 0.21930832929599969 0 0.099258091607832458 0.22228701345730209 0 0.08282365066700062 0.20740072564839451 0 0.1001331263781514 0.21054846617837791 0 0.08282365066700062 0.20740072564839451 0 0.0830920941513177 0.21288940176841251 0 0.1001331263781514 0.21054846617837791 0 0.086723057100410644 0.21930832929599969 0 0.0830920941513177 0.21288940176841251 0 0.1001331263781514 0.21054846617837791 0 0.08282365066700062 0.20740072564839451 0 0.077960793866212394 0.2065164116634538 0 0.08282365066700062 0.20740072564839451 0 0.07778409662064556 0.21146715366449201 0 0.077960793866212394 0.2065164116634538 0 0.08282365066700062 0.20740072564839451 0 0.0830920941513177 0.21288940176841251 0 0.07778409662064556 0.21146715366449201 0 0.08282365066700062 0.20740072564839451 0 0.07778409662064556 0.21146715366449201 0 0.086723057100410644 0.21930832929599969 0 0.077696208689423979 0.21392961690810641 0 0.086723057100410644 0.21930832929599969 0 0.0830920941513177 0.21288940176841251 0 0.077696208689423979 0.21392961690810641 0 0.0830920941513177 0.21288940176841251 0 0.07778409662064556 0.21146715366449201 0 0.077696208689423979 0.21392961690810641 0 0.059673977213942478 0.20319094098477611 0 0.077960793866212394 0.2065164116634538 0 0.062081063031912492 0.22413796841031719 0 0.077696208689423979 0.21392961690810641 0 0.075991321843812007 0.21291374784961289 0 0.059673977213942478 0.20319094098477611 0 0.075991321843812007 0.21291374784961289 0 0.059673977213942478 0.20319094098477611 0 0.061718375040706958 0.21244198365854619 0 0.075991321843812007 0.21291374784961289 0 0.059673977213942478 0.20319094098477611 0 0.075991321843812007 0.21291374784961289 0 0.077960793866212394 0.2065164116634538 0 0.07778409662064556 0.21146715366449201 0 0.077696208689423979 0.21392961690810641 0 0.075991321843812007 0.21291374784961289 0 0.07778409662064556 0.21146715366449201 0 0.077696208689423979 0.21392961690810641 0 0.07778409662064556 0.21146715366449201 0 0.075991321843812007 0.21291374784961289 0 0.077696208689423979 0.21392961690810641 0 0.075991321843812007 0.21291374784961289 0 0.062081063031912492 0.22413796841031719 0 0.075991321843812007 0.21291374784961289 0 0.061718375040706958 0.21244198365854619 0 0.062081063031912492 0.22413796841031719 0 0.075991321843812007 0.21291374784961289 0 0.07778409662064556 0.21146715366449201 0 0.075991321843812007 0.21291374784961289 0 0.077960793866212394 0.2065164116634538 0 0.07778409662064556 0.21146715366449201 0 0.077960793866212394 0.2065164116634538 0 0.060667890749981898 0.1933513013873914 0 0.069391780603767286 0.1985353247034998 0 0.078552310067739675 0.1899431815963343 0 0.059673977213942478 0.20319094098477611 0 0.077960793866212394 0.2065164116634538 0 0.069391780603767286 0.1985353247034998 0 0.057517378285335978 0.18642367489497111 0 0.060667890749981898 0.1933513013873914 0 0.078552310067739675 0.1899431815963343 0 0.077960793866212394 0.2065164116634538 0 0.069391780603767286 0.1985353247034998 0 0.078552310067739675 0.1899431815963343 0 0.057517378285335978 0.18642367489497111 0 0.078552310067739675 0.1899431815963343 0 0.060667890749981898 0.1933513013873914 0 0.059673977213942478 0.20319094098477611 0 0.069391780603767286 0.1985353247034998 0 0.077960793866212394 0.2065164116634538 0 0.078552310067739675 0.1899431815963343 0 0.08282365066700062 0.20740072564839451 0 0.078552310067739675 0.1899431815963343 0 0.1000095862482286 0.19353335379614581 0 0.08282365066700062 0.20740072564839451 0 0.077960793866212394 0.2065164116634538 0 0.078552310067739675 0.1899431815963343 0 0.08282365066700062 0.20740072564839451 0 0.1000095862482286 0.19353335379614581 0 0.078552310067739675 0.1899431815963343 0 0.1000095862482286 0.19353335379614581 0 0.1000095862482286 0.19353335379614581 0 0.1119621855324581 0.18388877331391679 0 0.1119621855324581 0.18388877331391679 0 0.12809949413598259 0.1982332796183166 0 0.12623709760602039 0.18867627876683751 0 0.1000095862482286 0.19353335379614581 0 0.12809949413598259 0.1982332796183166 0 0.1000095862482286 0.19353335379614581 0 0.1174426020893027 0.21369620670835879 0 0.12809949413598259 0.1982332796183166 0 0.1000095862482286 0.19353335379614581 0 0.1119621855324581 0.18388877331391679 0 0.12809949413598259 0.1982332796183166 0 0.1174426020893027 0.21369620670835879 0 0.12809949413598259 0.1982332796183166 0 0.1174426020893027 0.21369620670835879 0 0.13079881134157489 0.21612504290720769 0 0.1174426020893027 0.21369620670835879 0 0.1001331263781514 0.21054846617837791 0 0.1000095862482286 0.19353335379614581 0 0.1174426020893027 0.21369620670835879 0 0.1001331263781514 0.21054846617837791 0 0.08282365066700062 0.20740072564839451 0 0.1000095862482286 0.19353335379614581 0 0.1001331263781514 0.21054846617837791 0 0.1174426020893027 0.21369620670835879 0 0.1001331263781514 0.21054846617837791 0 0.099258091607832458 0.22228701345730209 0 0.086723057100410644 0.21930832929599969 0 0.1001331263781514 0.21054846617837791 0 0.099258091607832458 0.22228701345730209 0 0.1174426020893027 0.21369620670835879 0 0.099258091607832458 0.22228701345730209 0 0.10166443252893551 0.23659000017624271 0 0.090327239942362525 0.2312920649275291 0 0.099258091607832458 0.22228701345730209 0 0.10166443252893551 0.23659000017624271 0 0.11193009187841341 0.23778907333103991 0 0.1233060832280653 0.2372070654073864 0 0.13079881134157489 0.21612504290720769 0 0.1174426020893027 0.21369620670835879 0 0.11193009187841341 0.23778907333103991 0 0.10166443252893551 0.23659000017624271 0 0.1174426020893027 0.21369620670835879 0 0.11193009187841341 0.23778907333103991 0 0.13079881134157489 0.21612504290720769 0 0.11193009187841341 0.23778907333103991 0 0.13079881134157489 0.21612504290720769 0 0.1174426020893027 0.21369620670835879 0 0.10166443252893551 0.23659000017624271 0 0.11193009187841341 0.23778907333103991 0 0.1233060832280653 0.2372070654073864 0 0.1152979079485152 0.2467056018988516 0 0.1233060832280653 0.2372070654073864 0 0.1152979079485152 0.2467056018988516 0 0.1250676346401875 0.24796443701554319 0 0.11193009187841341 0.23778907333103991 0 0.1152979079485152 0.2467056018988516 0 0.10650461767427161 0.25132517155921902 0 0.11193009187841341 0.23778907333103991 0 0.10166443252893551 0.23659000017624271 0 0.093061372415253377 0.25945310375487363 0 0.10166443252893551 0.23659000017624271 0 0.085886262968569133 0.25948379364412733 0 0.11193009187841341 0.23778907333103991 0 0.093061372415253377 0.25945310375487363 0 0.11193009187841341 0.23778907333103991 0 0.093061372415253377 0.25945310375487363 0 0.10650461767427161 0.25132517155921902 0 0.091760355399887042 0.24149966876957779 0 0.090327239942362525 0.2312920649275291 0 0.10166443252893551 0.23659000017624271 0 0.08022281403025916 0.14313863688857029 0 0.093167312330706492 0.16073073013935579 0 0.097579150219516186 0.1459852772673329 0 0.08022281403025916 0.14313863688857029 0 0.079387562048995053 0.16654090924245221 0 0.08022281403025916 0.14313863688857029 0 0.097579150219516186 0.1459852772673329 0 0.098136173783193614 0.12855261503670501 0 0.081058066011519173 0.11973636453468819 0 0.08022281403025916 0.14313863688857029 0 0.081058066011519173 0.11973636453468819 0 0.08022281403025916 0.14313863688857029 0 0.098136173783193614 0.12855261503670501 0 0.054704645729867107 0.1303951701743557 0 0.068402942841081005 0.12865021266463919 0 0.06445510108496709 0.14831583671703669 0 0.081058066011519173 0.11973636453468819 0 0.08022281403025916 0.14313863688857029 0 0.068402942841081005 0.12865021266463919 0 0.08022281403025916 0.14313863688857029 0 0.068402942841081005 0.12865021266463919 0 0.06445510108496709 0.14831583671703669 0 0.08022281403025916 0.14313863688857029 0 0.06445510108496709 0.14831583671703669 0 0.079387562048995053 0.16654090924245221 0 0.06445510108496709 0.14831583671703669 0 0.06670876632053821 0.16536039993208129 0 0.079387562048995053 0.16654090924245221 0 0.056759789081437029 0.15816783404816359 0 0.06445510108496709 0.14831583671703669 0 0.06670876632053821 0.16536039993208129 0 0.06670876632053821 0.16536039993208129 0 0.071220178094475839 0.177519435916074 0 0.079387562048995053 0.16654090924245221 0 0.078552310067739675 0.1899431815963343 0 0.071220178094475839 0.177519435916074 0 0.079387562048995053 0.16654090924245221 0 0.057517378285335978 0.18642367489497111 0 0.078552310067739675 0.1899431815963343 0 0.071220178094475839 0.177519435916074 0 0.057517378285335978 0.18642367489497111 0 0.06670876632053821 0.16536039993208129 0 0.071220178094475839 0.177519435916074 0 0.078552310067739675 0.1899431815963343 0 0.079387562048995053 0.16654090924245221 0 0.078552310067739675 0.1899431815963343 0 0.079387562048995053 0.16654090924245221 0 0.094656188726405799 0.1772984468475671 0 0.078552310067739675 0.1899431815963343 0 0.1000095862482286 0.19353335379614581 0 0.094656188726405799 0.1772984468475671 0 0.079387562048995053 0.16654090924245221 0 0.093167312330706492 0.16073073013935579 0 0.094656188726405799 0.1772984468475671 0 0.08022281403025916 0.14313863688857029 0 0.079387562048995053 0.16654090924245221 0 0.093167312330706492 0.16073073013935579 0 0.093167312330706492 0.16073073013935579 0 0.1051682117550992 0.16863341283049499 0 0.094656188726405799 0.1772984468475671 0 0.093167312330706492 0.16073073013935579 0 0.1051682117550992 0.16863341283049499 0 0.10738037989590581 0.15691718048007991 0 0.1051682117550992 0.16863341283049499 0 0.094656188726405799 0.1772984468475671 0 0.1119621855324581 0.18388877331391679 0 0.1000095862482286 0.19353335379614581 0 0.094656188726405799 0.1772984468475671 0 0.1119621855324581 0.18388877331391679 0 0.1051682117550992 0.16863341283049499 0 0.1119621855324581 0.18388877331391679 0 0.1176573055604207 0.16965843036111 0 0.1119621855324581 0.18388877331391679 0 0.1176573055604207 0.16965843036111 0 0.12502668500631101 0.18003223183350331 0 0.1119621855324581 0.18388877331391679 0 0.12502668500631101 0.18003223183350331 0 0.12623709760602039 0.18867627876683751 0 0.10738037989590581 0.15691718048007991 0 0.1176573055604207 0.16965843036111 0 0.1263510041100718 0.15412713222648239 0 0.1051682117550992 0.16863341283049499 0 0.10738037989590581 0.15691718048007991 0 0.1176573055604207 0.16965843036111 0 0.10738037989590581 0.15691718048007991 0 0.1089890710575158 0.14058722379195329 0 0.1263510041100718 0.15412713222648239 0 0.1089890710575158 0.14058722379195329 0 0.1243116374868449 0.136850619307404 0 0.1263510041100718 0.15412713222648239 0 0.10738037989590581 0.15691718048007991 0 0.097579150219516186 0.1459852772673329 0 0.1089890710575158 0.14058722379195329 0 0.093167312330706492 0.16073073013935579 0 0.10738037989590581 0.15691718048007991 0 0.097579150219516186 0.1459852772673329 0 0.097579150219516186 0.1459852772673329 0 0.1089890710575158 0.14058722379195329 0 0.098136173783193614 0.12855261503670501 0 0.11707998843366239 0.12090166170324231 0 0.1089890710575158 0.14058722379195329 0 0.098136173783193614 0.12855261503670501 0 0.11707998843366239 0.12090166170324231 0 0.1089890710575158 0.14058722379195329 0 0.1243116374868449 0.136850619307404 0 0.11707998843366239 0.12090166170324231 0 0.1243116374868449 0.136850619307404 0 0.14061487869327599 0.12738787364596069 0 0.1243116374868449 0.136850619307404 0 0.14061487869327599 0.12738787364596069 0 0.1450893294801871 0.15084825440961219 0 0.14061487869327599 0.12738787364596069 0 0.1450893294801871 0.15084825440961219 0 0.16208469833826319 0.13464304631642149 0 0.1450893294801871 0.15084825440961219 0 0.16208469833826319 0.13464304631642149 0 0.1243116374868449 0.136850619307404 0 0.1450893294801871 0.15084825440961219 0 0.1263510041100718 0.15412713222648239 0 0.1450893294801871 0.15084825440961219 0 0.1263510041100718 0.15412713222648239 0 0.13434892063135129 0.1709012650253654 0 0.1176573055604207 0.16965843036111 0 0.1263510041100718 0.15412713222648239 0 0.13434892063135129 0.1709012650253654 0 0.1176573055604207 0.16965843036111 0 0.13434892063135129 0.1709012650253654 0 0.12502668500631101 0.18003223183350331 0 0.12502668500631101 0.18003223183350331 0 0.13317066441191511 0.18549658195139779 0 0.12623709760602039 0.18867627876683751 0 0.13434892063135129 0.1709012650253654 0 0.12502668500631101 0.18003223183350331 0 0.13317066441191511 0.18549658195139779 0 0.13434892063135129 0.1709012650253654 0 0.13317066441191511 0.18549658195139779 0 0.14289571148574401 0.18421669799074539 0 0.13434892063135129 0.1709012650253654 0 0.14289571148574401 0.18421669799074539 0 0.15014598838012391 0.16812378435884931 0 0.14289571148574401 0.18421669799074539 0 0.15014598838012391 0.16812378435884931 0 0.16340295837154781 0.17869074671240681 0 0.1450893294801871 0.15084825440961219 0 0.15014598838012391 0.16812378435884931 0 0.17025484901730581 0.156442106610301 0 0.1450893294801871 0.15084825440961219 0 0.13434892063135129 0.1709012650253654 0 0.15014598838012391 0.16812378435884931 0 0.15014598838012391 0.16812378435884931 0 0.17025484901730581 0.156442106610301 0 0.16340295837154781 0.17869074671240681 0 0.17025484901730581 0.156442106610301 0 0.16340295837154781 0.17869074671240681 0 0.18344157371591241 0.18406997535271 0 0.17025484901730581 0.156442106610301 0 0.18344157371591241 0.18406997535271 0 0.1981233639171355 0.16578679509823521 0 0.17025484901730581 0.156442106610301 0 0.1886017155567373 0.14211231666073301 0 0.1981233639171355 0.16578679509823521 0 0.17025484901730581 0.156442106610301 0 0.16208469833826319 0.13464304631642149 0 0.1886017155567373 0.14211231666073301 0 0.1886017155567373 0.14211231666073301 0 0.1790800671963392 0.1184378382232308 0 0.16208469833826319 0.13464304631642149 0 0.1886017155567373 0.14211231666073301 0 0.1790800671963392 0.1184378382232308 0 0.19325819231563421 0.12959887947710741 0 0.1886017155567373 0.14211231666073301 0 0.1790800671963392 0.1184378382232308 0 0.16208469833826319 0.13464304631642149 0 0.1790800671963392 0.1184378382232308 0 0.1450893294801871 0.15084825440961219 0 0.17025484901730581 0.156442106610301 0 0.16208469833826319 0.13464304631642149 0 0.1514273965657848 0.24085309905483679 0 0.13478444466321229 0.23767678351231611 0 0.14386495534927929 0.22895205141331151 0 0.1514273965657848 0.24085309905483679 0 0.13478444466321229 0.23767678351231611 0 0.1384713120865835 0.25773302092121009 0 0.1250676346401875 0.24796443701554319 0 0.13478444466321229 0.23767678351231611 0 0.1384713120865835 0.25773302092121009 0 0.1233060832280653 0.2372070654073864 0 0.1250676346401875 0.24796443701554319 0 0.13478444466321229 0.23767678351231611 0 0.1233060832280653 0.2372070654073864 0 0.13478444466321229 0.23767678351231611 0 0.13079881134157489 0.21612504290720769 0 0.13478444466321229 0.23767678351231611 0 0.14386495534927929 0.22895205141331151 0 0.13079881134157489 0.21612504290720769 0 0.14386495534927929 0.22895205141331151 0 0.13079881134157489 0.21612504290720769 0 0.15844916882654519 0.22115328017888419 0 0.1514273965657848 0.24085309905483679 0 0.14386495534927929 0.22895205141331151 0 0.15844916882654519 0.22115328017888419 0 0.13079881134157489 0.21612504290720769 0 0.15844916882654519 0.22115328017888419 0 0.13079881134157489 0.21612504290720769 0 0.14405659807402271 0.2009031781863346 0 0.15844916882654519 0.22115328017888419 0 0.13079881134157489 0.21612504290720769 0 0.12809949413598259 0.1982332796183166 0 0.14405659807402271 0.2009031781863346 0 0.1174426020893027 0.21369620670835879 0 0.13079881134157489 0.21612504290720769 0 0.12809949413598259 0.1982332796183166 0 0.13079881134157489 0.21612504290720769 0 0.14405659807402271 0.2009031781863346 0 0.12809949413598259 0.1982332796183166 0 0.14405659807402271 0.2009031781863346 0 0.12809949413598259 0.1982332796183166 0 0.1377541084679488 0.19338203871321119 0 0.14405659807402271 0.2009031781863346 0 0.12809949413598259 0.1982332796183166 0 0.13022991801334199 0.19514207920620891 0 0.1377541084679488 0.19338203871321119 0 0.12809949413598259 0.1982332796183166 0 0.13022991801334199 0.19514207920620891 0 0.12809949413598259 0.1982332796183166 0 0.12623709760602039 0.18867627876683751 0 0.13022991801334199 0.19514207920620891 0 0.13317066441191511 0.18549658195139779 0 0.12623709760602039 0.18867627876683751 0 0.13022991801334199 0.19514207920620891 0 0.13317066441191511 0.18549658195139779 0 0.14289571148574401 0.18421669799074539 0 0.1377541084679488 0.19338203871321119 0 0.13317066441191511 0.18549658195139779 0 0.13022991801334199 0.19514207920620891 0 0.1377541084679488 0.19338203871321119 0 0.14289571148574401 0.18421669799074539 0 0.1377541084679488 0.19338203871321119 0 0.14405659807402271 0.2009031781863346 0 0.14405659807402271 0.2009031781863346 0 0.1684266189286579 0.20498070278197239 0 0.14289571148574401 0.18421669799074539 0 0.16340295837154781 0.17869074671240681 0 0.14405659807402271 0.2009031781863346 0 0.16340295837154781 0.17869074671240681 0 0.14405659807402271 0.2009031781863346 0 0.16340295837154781 0.17869074671240681 0 0.18344157371591241 0.18406997535271 0 0.1684266189286579 0.20498070278197239 0 0.16340295837154781 0.17869074671240681 0 0.14405659807402271 0.2009031781863346 0 0.1684266189286579 0.20498070278197239 0 0.18344157371591241 0.18406997535271 0 0.1684266189286579 0.20498070278197239 0 0.19279663978329381 0.20905822737760699 0 0.1684266189286579 0.20498070278197239 0 0.19279663978329381 0.20905822737760699 0 0.17869659642439559 0.21414630976549021 0 0.1684266189286579 0.20498070278197239 0 0.19279663978329381 0.20905822737760699 0 0.17869659642439559 0.21414630976549021 0 0.18609952631151591 0.22618151745055959 0 0.19279663978329381 0.20905822737760699 0 0.14405659807402271 0.2009031781863346 0 0.1684266189286579 0.20498070278197239 0 0.15844916882654519 0.22115328017888419 0 0.17869659642439559 0.21414630976549021 0 0.1684266189286579 0.20498070278197239 0 0.15844916882654519 0.22115328017888419 0 0.1514273965657848 0.24085309905483679 0 0.15844916882654519 0.22115328017888419 0 0.1691493644934341 0.23606856512045299 0 0.15844916882654519 0.22115328017888419 0 0.18609952631151591 0.22618151745055959 0 0.1691493644934341 0.23606856512045299 0 0.17869659642439559 0.21414630976549021 0 0.15844916882654519 0.22115328017888419 0 0.18609952631151591 0.22618151745055959 0 0.15844916882654519 0.22115328017888419 0 0.18609952631151591 0.22618151745055959 0 0.18609952631151591 0.22618151745055959 0 0.1971008006350988 0.24422433182354611 0 0.17660728565697029 0.25284173787090108 0 0.18609952631151591 0.22618151745055959 0 0.1691493644934341 0.23606856512045299 0 0.17660728565697029 0.25284173787090108 0 0.1514273965657848 0.24085309905483679 0 0.17660728565697029 0.25284173787090108 0 0.1514273965657848 0.24085309905483679 0 0.1691493644934341 0.23606856512045299 0 0.17660728565697029 0.25284173787090108 0 0.1971008006350988 0.24422433182354611 0 0.21374988379648621 0.2312097547222359 0 0.2257125065402284 0.25431107802280528 0 0.18609952631151591 0.22618151745055959 0 0.19919001424274069 0.21902366269476331 0 0.2102140220753515 0.22438156273492879 0 0.18609952631151591 0.22618151745055959 0 0.1971008006350988 0.24422433182354611 0 0.21374988379648621 0.2312097547222359 0 0.18609952631151591 0.22618151745055959 0 0.21374988379648621 0.2312097547222359 0 0.18609952631151591 0.22618151745055959 0 0.2102140220753515 0.22438156273492879 0 0.21374988379648621 0.2312097547222359 0 0.19919001424274069 0.21902366269476331 0 0.2102140220753515 0.22438156273492879 0 0.22326984787173351 0.22831062181695069 0 0.19919001424274069 0.21902366269476331 0 0.21716666063792969 0.21313575197324039 0 0.22326984787173351 0.22831062181695069 0 0.19919001424274069 0.21902366269476331 0 0.22326984787173351 0.22831062181695069 0 0.2102140220753515 0.22438156273492879 0 0.21374988379648621 0.2312097547222359 0 0.2102140220753515 0.22438156273492879 0 0.21374988379648621 0.2312097547222359 0 0.22326984787173351 0.22831062181695069 0 0.21716666063792969 0.21313575197324039 0 0.19279663978329381 0.20905822737760699 0 0.20764501227753371 0.18946127353573741 0 0.21716666063792969 0.21313575197324039 0 0.19279663978329381 0.20905822737760699 0 0.19919001424274069 0.21902366269476331 0 0.21716666063792969 0.21313575197324039 0 0.19279663978329381 0.20905822737760699 0 0.18609952631151591 0.22618151745055959 0 0.19919001424274069 0.21902366269476331 0 0.19279663978329381 0.20905822737760699 0 0.18344157371591241 0.18406997535271 0 0.19279663978329381 0.20905822737760699 0 0.20764501227753371 0.18946127353573741 0 0.21716666063792969 0.21313575197324039 0 0.20764501227753371 0.18946127353573741 0 0.21716666063792969 0.21313575197324039 0 0.20764501227753371 0.18946127353573741 0 0.22349524510262589 0.1882929917077163 0 0.21716666063792969 0.21313575197324039 0 0.22349524510262589 0.1882929917077163 0 0.23482300448504159 0.1984970970255906 0 0.22349524510262589 0.1882929917077163 0 0.23482300448504159 0.1984970970255906 0 0.23800281531175979 0.18073324988006281 0 0.23482300448504159 0.1984970970255906 0 0.24828008483854189 0.20295934428596721 0 0.25113643024109478 0.19094495075723769 0 0.23482300448504159 0.1984970970255906 0 0.23800281531175979 0.18073324988006281 0 0.25113643024109478 0.19094495075723769 0 0.23482300448504159 0.1984970970255906 0 0.24828008483854189 0.20295934428596721 0 0.24332195560292991 0.2175119837032847 0 0.21716666063792969 0.21313575197324039 0 0.23482300448504159 0.1984970970255906 0 0.24332195560292991 0.2175119837032847 0 0.21716666063792969 0.21313575197324039 0 0.24332195560292991 0.2175119837032847 0 0.22527908084694109 0.23330634744632109 0 0.22326984787173351 0.22831062181695069 0 0.2459873280094696 0.23707215699401071 0 0.21716666063792969 0.21313575197324039 0 0.24332195560292991 0.2175119837032847 0 0.22326984787173351 0.22831062181695069 0 0.21716666063792969 0.21313575197324039 0 0.22326984787173351 0.22831062181695069 0 0.21374988379648621 0.2312097547222359 0 0.22527908084694109 0.23330634744632109 0 0.22326984787173351 0.22831062181695069 0 0.21374988379648621 0.2312097547222359 0 0.22527908084694109 0.23330634744632109 0 0.22527908084694109 0.23330634744632109 0 0.22326984787173351 0.22831062181695069 0 0.22326984787173351 0.22831062181695069 0 0.2459873280094696 0.23707215699401071 0 0.24332195560292991 0.2175119837032847 0 0.22326984787173351 0.22831062181695069 0 0.2459873280094696 0.23707215699401071 0 0.22527908084694109 0.23330634744632109 0 0.2459873280094696 0.23707215699401071 0 0.22527908084694109 0.23330634744632109 0 0.2459873280094696 0.23707215699401071 0 0.23435940432808119 0.2558835225658645 0 0.22527908084694109 0.23330634744632109 0 0.23435940432808119 0.2558835225658645 0 0.21374988379648621 0.2312097547222359 0 0.2257125065402284 0.25431107802280528 0 0.21374988379648621 0.2312097547222359 0 0.22527908084694109 0.23330634744632109 0 0.2257125065402284 0.25431107802280528 0 0.22527908084694109 0.23330634744632109 0 0.2257125065402284 0.25431107802280528 0 0.23435940432808119 0.2558835225658645 0 0.207677409848747 0.15265436726913009 0 0.20799191400454739 0.1375227668896451 0 0.22134903716669199 0.14708536363501609 0 0.20799191400454739 0.1375227668896451 0 0.22703691245497479 0.13189098412415109 0 0.21251029914637609 0.1192952894197942 0 0.20799191400454739 0.1375227668896451 0 0.19325819231563421 0.12959887947710741 0 0.21251029914637609 0.1192952894197942 0 0.20799191400454739 0.1375227668896451 0 0.19325819231563421 0.12959887947710741 0 0.1886017155567373 0.14211231666073301 0 0.1886017155567373 0.14211231666073301 0 0.1981233639171355 0.16578679509823521 0 0.207677409848747 0.15265436726913009 0 0.20799191400454739 0.1375227668896451 0 0.1886017155567373 0.14211231666073301 0 0.207677409848747 0.15265436726913009 0 0.1886017155567373 0.14211231666073301 0 0.1981233639171355 0.16578679509823521 0 0.20764501227753371 0.18946127353573741 0 0.1981233639171355 0.16578679509823521 0 0.18344157371591241 0.18406997535271 0 0.20764501227753371 0.18946127353573741 0 0.1981233639171355 0.16578679509823521 0 0.20764501227753371 0.18946127353573741 0 0.1981233639171355 0.16578679509823521 0 0.22193333897365611 0.16940236618161161 0 0.20764501227753371 0.18946127353573741 0 0.22349524510262589 0.1882929917077163 0 0.22193333897365611 0.16940236618161161 0 0.207677409848747 0.15265436726913009 0 0.1981233639171355 0.16578679509823521 0 0.22193333897365611 0.16940236618161161 0 0.207677409848747 0.15265436726913009 0 0.22193333897365611 0.16940236618161161 0 0.22134903716669199 0.14708536363501609 0 0.22349524510262589 0.1882929917077163 0 0.22193333897365611 0.16940236618161161 0 0.23800281531175979 0.18073324988006281 0 0.23800281531175979 0.18073324988006281 0 0.24342118736862761 0.16410875332904781 0 0.25421457754785548 0.17528354573505059 0 0.23800281531175979 0.18073324988006281 0 0.25421457754785548 0.17528354573505059 0 0.25113643024109478 0.19094495075723769 0 0.22193333897365611 0.16940236618161161 0 0.23800281531175979 0.18073324988006281 0 0.24342118736862761 0.16410875332904781 0 0.22193333897365611 0.16940236618161161 0 0.24342118736862761 0.16410875332904781 0 0.2381959797174126 0.14809141417820801 0 0.2381959797174126 0.14809141417820801 0 0.2471064899150823 0.133463067737116 0 0.25227113898158787 0.14916335431643429 0 0.24342118736862761 0.16410875332904781 0 0.2381959797174126 0.14809141417820801 0 0.25227113898158787 0.14916335431643429 0 0.2381959797174126 0.14809141417820801 0 0.22134903716669199 0.14708536363501609 0 0.22703691245497479 0.13189098412415109 0 0.22193333897365611 0.16940236618161161 0 0.2381959797174126 0.14809141417820801 0 0.22134903716669199 0.14708536363501609 0 0.20799191400454739 0.1375227668896451 0 0.22134903716669199 0.14708536363501609 0 0.22703691245497479 0.13189098412415109 0 0.22703691245497479 0.13189098412415109 0 0.2471064899150823 0.133463067737116 0 0.2348532799323845 0.1126728752525727 0 0.2381959797174126 0.14809141417820801 0 0.22703691245497479 0.13189098412415109 0 0.2471064899150823 0.133463067737116 0 0.2471064899150823 0.133463067737116 0 0.2496952397761337 0.1160329650041991 0 0.2348532799323845 0.1126728752525727 0 0.2348532799323845 0.1126728752525727 0 0.23238347446995899 0.09878858498409393 0 0.25089272908716931 0.092982859712809007 0 0.2496952397761337 0.1160329650041991 0 0.2348532799323845 0.1126728752525727 0 0.25089272908716931 0.092982859712809007 0 0.23238347446995899 0.09878858498409393 0 0.21965336389696419 0.1029970115124081 0 0.22413452496331809 0.086501593458585962 0 0.2348532799323845 0.1126728752525727 0 0.23238347446995899 0.09878858498409393 0 0.21965336389696419 0.1029970115124081 0 0.2348532799323845 0.1126728752525727 0 0.21965336389696419 0.1029970115124081 0 0.21251029914637609 0.1192952894197942 0 0.22703691245497479 0.13189098412415109 0 0.2348532799323845 0.1126728752525727 0 0.21251029914637609 0.1192952894197942 0 0.21965336389696419 0.1029970115124081 0 0.21251029914637609 0.1192952894197942 0 0.20714728240524249 0.10617251279081751 0 0.21251029914637609 0.1192952894197942 0 0.20714728240524249 0.10617251279081751 0 0.2007454095485067 0.1153730887768626 0 0.21965336389696419 0.1029970115124081 0 0.21155544327336909 0.093494818701204518 0 0.22413452496331809 0.086501593458585962 0 0.21965336389696419 0.1029970115124081 0 0.20714728240524249 0.10617251279081751 0 0.21155544327336909 0.093494818701204518 0 0.20029711589946361 0.098207227624031723 0 0.20055037116402991 0.091606906531847498 0 0.21155544327336909 0.093494818701204518 0 0.20714728240524249 0.10617251279081751 0 0.20029711589946361 0.098207227624031723 0 0.21155544327336909 0.093494818701204518 0 0.19812206266677551 0.107667640710604 0 0.20029711589946361 0.098207227624031723 0 0.1885688884481975 0.1093901779912298 0 0.20714728240524249 0.10617251279081751 0 0.19812206266677551 0.107667640710604 0 0.20029711589946361 0.098207227624031723 0 0.20029711589946361 0.098207227624031723 0 0.1929726046438287 0.094705252597794665 0 0.20055037116402991 0.091606906531847498 0 0.1929726046438287 0.094705252597794665 0 0.1885688884481975 0.1093901779912298 0 0.1832996600419958 0.1003897382564244 0 0.20029711589946361 0.098207227624031723 0 0.1929726046438287 0.094705252597794665 0 0.1885688884481975 0.1093901779912298 0 0.20029711589946361 0.098207227624031723 0 0.1885688884481975 0.1093901779912298 0 0.1929726046438287 0.094705252597794665 0 0.1885688884481975 0.1093901779912298 0 0.19812206266677551 0.107667640710604 0 0.19247123508700151 0.1156451737142033 0 0.1885688884481975 0.1093901779912298 0 0.19247123508700151 0.1156451737142033 0 0.1885688884481975 0.1093901779912298 0 0.1858372065203453 0.1184994265274882 0 0.19325819231563421 0.12959887947710741 0 0.21251029914637609 0.1192952894197942 0 0.2007454095485067 0.1153730887768626 0 0.19325819231563421 0.12959887947710741 0 0.19247123508700151 0.1156451737142033 0 0.1858372065203453 0.1184994265274882 0 0.19325819231563421 0.12959887947710741 0 0.19247123508700151 0.1156451737142033 0 0.2007454095485067 0.1153730887768626 0 0.20714728240524249 0.10617251279081751 0 0.19812206266677551 0.107667640710604 0 0.2007454095485067 0.1153730887768626 0 0.19812206266677551 0.107667640710604 0 0.19247123508700151 0.1156451737142033 0 0.2007454095485067 0.1153730887768626 0 0.20238686903042469 0.063311819413239129 0 0.1973763208394673 0.08002032720436178 0 0.18079222374313991 0.066157073385880324 0 0.20238686903042469 0.063311819413239129 0 0.18079222374313991 0.066157073385880324 0 0.1973763208394673 0.08002032720436178 0 0.17868141559437861 0.075492121278057239 0 0.20238686903042469 0.063311819413239129 0 0.1973763208394673 0.08002032720436178 0 0.1929726046438287 0.094705252597794665 0 0.1973763208394673 0.08002032720436178 0 0.1929726046438287 0.094705252597794665 0 0.1973763208394673 0.08002032720436178 0 0.18493574174144031 0.087819629641268118 0 0.1929726046438287 0.094705252597794665 0 0.20055037116402991 0.091606906531847498 0 0.1973763208394673 0.08002032720436178 0 0.1973763208394673 0.08002032720436178 0 0.22413452496331809 0.086501593458585962 0 0.1973763208394673 0.08002032720436178 0 0.21155544327336909 0.093494818701204518 0 0.22413452496331809 0.086501593458585962 0 0.1973763208394673 0.08002032720436178 0 0.21581045027983861 0.072515516379325212 0 0.22413452496331809 0.086501593458585962 0 0.20055037116402991 0.091606906531847498 0 0.1973763208394673 0.08002032720436178 0 0.21155544327336909 0.093494818701204518 0 0.20238686903042469 0.063311819413239129 0 0.21581045027983861 0.072515516379325212 0 0.22639199231908241 0.060148967164815811 0 0.20238686903042469 0.063311819413239129 0 0.1973763208394673 0.08002032720436178 0 0.21581045027983861 0.072515516379325212 0 0.21581045027983861 0.072515516379325212 0 0.22413452496331809 0.086501593458585962 0 0.23571274181676019 0.070187616308315881 0 0.21581045027983861 0.072515516379325212 0 0.23571274181676019 0.070187616308315881 0 0.22639199231908241 0.060148967164815811 0 0.23571274181676019 0.070187616308315881 0 0.23935269316475091 0.05797056278501677 0 0.22639199231908241 0.060148967164815811 0 0.22413452496331809 0.086501593458585962 0 0.25089272908716931 0.092982859712809007 0 0.22413452496331809 0.086501593458585962 0 0.23571274181676019 0.070187616308315881 0 0.25089272908716931 0.092982859712809007 0 0.23238347446995899 0.09878858498409393 0 0.22413452496331809 0.086501593458585962 0 0.25089272908716931 0.092982859712809007 0 0.23571274181676019 0.070187616308315881 0 0.25089272908716931 0.092982859712809007 0 0.23571274181676019 0.070187616308315881 0 0.25282536794073712 0.073272794188635415 0 0.25089272908716931 0.092982859712809007 0 0.23935269316475091 0.05797056278501677 0 0.25425538404847059 0.057624927133231481 0 0.25282536794073712 0.073272794188635415 0 0.23571274181676019 0.070187616308315881 0 0.23935269316475091 0.05797056278501677 0 0.25282536794073712 0.073272794188635415 0 0.2368345322212535 0.044434942105003657 0 0.25425538404847059 0.057624927133231481 0 0.23935269316475091 0.05797056278501677 0 0.2368345322212535 0.044434942105003657 0 0.25425538404847059 0.057624927133231481 0 0.23935269316475091 0.05797056278501677 0 0.2368345322212535 0.044434942105003657 0 0.23127016951469481 0.052559852354376588 0 0.2368345322212535 0.044434942105003657 0 0.25291178968964928 0.037547667281027097 0 0.25425538404847059 0.057624927133231481 0 0.2368345322212535 0.044434942105003657 0 0.24190969492169709 0.024768393557462999 0 0.25291178968964928 0.037547667281027097 0 0.2368345322212535 0.044434942105003657 0 0.21941368039403211 0.031244957076781411 0 0.2368345322212535 0.044434942105003657 0 0.22121604545690071 0.040326540279582428 0 0.22250146035369231 0.047684937362670127 0 0.2368345322212535 0.044434942105003657 0 0.22121604545690071 0.040326540279582428 0 0.21941368039403211 0.031244957076781411 0 0.2368345322212535 0.044434942105003657 0 0.24190969492169709 0.024768393557462999 0 0.21941368039403211 0.031244957076781411 0 0.22121604545690071 0.040326540279582428 0 0.22250146035369231 0.047684937362670127 0 0.2151241054634794 0.043140718643033253 0 0.22250146035369231 0.047684937362670127 0 0.22639199231908241 0.060148967164815811 0 0.21464985550632831 0.05254647609126252 0 0.23935269316475091 0.05797056278501677 0 0.22639199231908241 0.060148967164815811 0 0.23127016951469481 0.052559852354376588 0 0.2368345322212535 0.044434942105003657 0 0.22250146035369231 0.047684937362670127 0 0.23127016951469481 0.052559852354376588 0 0.22250146035369231 0.047684937362670127 0 0.22639199231908241 0.060148967164815811 0 0.23127016951469481 0.052559852354376588 0 0.23517440673197429 0.0051848507458196356 0 0.24190969492169709 0.024768393557462999 0 0.22860778246280219 0.01441509204728152 0 0.23517440673197429 0.0051848507458196356 0 0.2485551203034157 0.0102848256948572 0 0.24190969492169709 0.024768393557462999 0 0.23517440673197429 0.0051848507458196356 0 0.2429424487767215 0.0026164120279975069 0 0.24005113852307369 -0.0027355710512556022 0 0.23517440673197429 0.0051848507458196356 0 0.2429424487767215 0.0026164120279975069 0 0.2485551203034157 0.0102848256948572 0 0.2429424487767215 0.0026164120279975069 0 0.2485551203034157 0.0102848256948572 0 0.2479891295484222 -0.0022684572774312019 0 0.2237082671027216 0.020648212041472009 0 0.22100796739575951 0.001216664300799794 0 0.21337432104441539 0.026672329963493752 0 0.24190969492169709 0.024768393557462999 0 0.21941368039403211 0.031244957076781411 0 0.24190969492169709 0.024768393557462999 0 0.21941368039403211 0.031244957076781411 0 0.2237082671027216 0.020648212041472009 0 0.24190969492169709 0.024768393557462999 0 0.2237082671027216 0.020648212041472009 0 0.22860778246280219 0.01441509204728152 0 0.21941368039403211 0.031244957076781411 0 0.2237082671027216 0.020648212041472009 0 0.21337432104441539 0.026672329963493752 0 0.2237082671027216 0.020648212041472009 0 0.22860778246280219 0.01441509204728152 0 0.22100796739575951 0.001216664300799794 0 0.23517440673197429 0.0051848507458196356 0 0.22860778246280219 0.01441509204728152 0 0.22100796739575951 0.001216664300799794 0 0.22100796739575951 0.001216664300799794 0 0.21337432104441539 0.026672329963493752 0 0.22100796739575951 0.001216664300799794 0 0.21213365429295861 0.01041237886839381 0 0.21337432104441539 0.026672329963493752 0 0.20938161325362409 0.0025060029461209908 0 0.21213365429295861 0.01041237886839381 0 0.19981118715584381 0.0070254328827108366 0 0.20938161325362409 0.0025060029461209908 0 0.19981118715584381 0.0070254328827108366 0 0.20239897911060981 -0.0049616950454924097 0 0.22100796739575951 0.001216664300799794 0 0.21476518088515931 0.0026345493870347861 0 0.21213365429295861 0.01041237886839381 0 0.20938161325362409 0.0025060029461209908 0 0.21476518088515931 0.0026345493870347861 0 0.21653748859829491 -0.0035968485671754561 0 0.20938161325362409 0.0025060029461209908 0 0.21476518088515931 0.0026345493870347861 0 0.21213365429295861 0.01041237886839381 0 0.22100796739575951 0.001216664300799794 0 0.21476518088515931 0.0026345493870347861 0 0.21653748859829491 -0.0035968485671754561 0 0.21213365429295861 0.01041237886839381 0 0.20775643638324501 0.022418817258943329 0 0.19981118715584381 0.0070254328827108366 0 0.20775643638324501 0.022418817258943329 0 0.19981118715584381 0.0070254328827108366 0 0.21213365429295861 0.01041237886839381 0 0.20775643638324501 0.022418817258943329 0 0.21337432104441539 0.026672329963493752 0 0.20775643638324501 0.022418817258943329 0 0.21337432104441539 0.026672329963493752 0 0.21211661331991941 0.030866365927793071 0 0.21941368039403211 0.031244957076781411 0 0.21337432104441539 0.026672329963493752 0 0.21211661331991941 0.030866365927793071 0 0.21941368039403211 0.031244957076781411 0 0.21337432104441539 0.026672329963493752 0 0.21337432104441539 0.026672329963493752 0 0.21211661331991941 0.030866365927793071 0 0.20775643638324501 0.022418817258943329 0 0.21211661331991941 0.030866365927793071 0 0.2008624239423544 0.027751844864101351 0 0.21211661331991941 0.030866365927793071 0 0.2008624239423544 0.027751844864101351 0 0.21130283169949521 0.033580056331867662 0 0.20775643638324501 0.022418817258943329 0 0.21211661331991941 0.030866365927793071 0 0.20775643638324501 0.022418817258943329 0 0.21337432104441539 0.026672329963493752 0 0.2008624239423544 0.027751844864101351 0 0.1914807756371078 0.039286791852227318 0 0.1874867753674215 0.0231110496262097 0 0.2008624239423544 0.027751844864101351 0 0.19503111124693581 0.017247988187571551 0 0.1874867753674215 0.0231110496262097 0 0.19503111124693581 0.017247988187571551 0 0.18734518720319909 0.015281891910368059 0 0.1874867753674215 0.0231110496262097 0 0.20775643638324501 0.022418817258943329 0 0.2008624239423544 0.027751844864101351 0 0.19503111124693581 0.017247988187571551 0 0.20775643638324501 0.022418817258943329 0 0.19503111124693581 0.017247988187571551 0 0.18660242445042999 0.0064023156866817926 0 0.20775643638324501 0.022418817258943329 0 0.18660242445042999 0.0064023156866817926 0 0.20775643638324501 0.022418817258943329 0 0.1894192936343001 0.0060385698470956234 0 0.19981118715584381 0.0070254328827108366 0 0.20775643638324501 0.022418817258943329 0 0.1894192936343001 0.0060385698470956234 0 0.18660242445042999 0.0064023156866817926 0 0.19503111124693581 0.017247988187571551 0 0.18832376542685261 0.012450231659139751 0 0.18660242445042999 0.0064023156866817926 0 0.19503111124693581 0.017247988187571551 0 0.18832376542685261 0.012450231659139751 0 0.18734518720319909 0.015281891910368059 0 0.1894192936343001 0.0060385698470956234 0 0.19981118715584381 0.0070254328827108366 0 0.1918659379284415 -0.0083679514935210662 0 0.20238686903042469 0.063311819413239129 0 0.22639199231908241 0.060148967164815811 0 0.21464985550632831 0.05254647609126252 0 0.20238686903042469 0.063311819413239129 0 0.22639199231908241 0.060148967164815811 0 0.20238686903042469 0.063311819413239129 0 0.20684485036496281 0.04844593787255428 0 0.21464985550632831 0.05254647609126252 0 0.20238686903042469 0.063311819413239129 0 0.20684485036496281 0.04844593787255428 0 0.20684485036496281 0.04844593787255428 0 0.21464985550632831 0.05254647609126252 0 0.2151241054634794 0.043140718643033253 0 0.22250146035369231 0.047684937362670127 0 0.21464985550632831 0.05254647609126252 0 0.2151241054634794 0.043140718643033253 0 0.20684485036496281 0.04844593787255428 0 0.2151241054634794 0.043140718643033253 0 0.21130283169949521 0.033580056331867662 0 0.20684485036496281 0.04844593787255428 0 0.21130283169949521 0.033580056331867662 0 0.1914807756371078 0.039286791852227318 0 0.2151241054634794 0.043140718643033253 0 0.21130283169949521 0.033580056331867662 0 0.21323078658658201 0.03302500146766809 0 0.22121604545690071 0.040326540279582428 0 0.2151241054634794 0.043140718643033253 0 0.21323078658658201 0.03302500146766809 0 0.22121604545690071 0.040326540279582428 0 0.21941368039403211 0.031244957076781411 0 0.21323078658658201 0.03302500146766809 0 0.21941368039403211 0.031244957076781411 0 0.21211661331991941 0.030866365927793071 0 0.21323078658658201 0.03302500146766809 0 0.21941368039403211 0.031244957076781411 0 0.21323078658658201 0.03302500146766809 0 0.21130283169949521 0.033580056331867662 0 0.21323078658658201 0.03302500146766809 0 0.21211661331991941 0.030866365927793071 0 0.21130283169949521 0.033580056331867662 0 0.21323078658658201 0.03302500146766809 0 0.21211661331991941 0.030866365927793071 0 0.21130283169949521 0.033580056331867662 0 0.21211661331991941 0.030866365927793071 0 0.21323078658658201 0.03302500146766809 0 0.20684485036496281 0.04844593787255428 0 0.21130283169949521 0.033580056331867662 0 0.20684485036496281 0.04844593787255428 0 0.1914807756371078 0.039286791852227318 0 0.1906326876700713 0.052439029979298252 0 0.21130283169949521 0.033580056331867662 0 0.1914807756371078 0.039286791852227318 0 0.2008624239423544 0.027751844864101351 0 0.21130283169949521 0.033580056331867662 0 0.1914807756371078 0.039286791852227318 0 0.20238686903042469 0.063311819413239129 0 0.20684485036496281 0.04844593787255428 0 0.1906326876700713 0.052439029979298252 0 0.20238686903042469 0.063311819413239129 0 0.1906326876700713 0.052439029979298252 0 0.18079222374313991 0.066157073385880324 0 0.1906326876700713 0.052439029979298252 0 0.1716587195747214 0.044993527372590117 0 0.18079222374313991 0.066157073385880324 0 0.1914807756371078 0.039286791852227318 0 0.17895959729017549 0.03270519686463521 0 0.1874867753674215 0.0231110496262097 0 0.1914807756371078 0.039286791852227318 0 0.1906326876700713 0.052439029979298252 0 0.1716587195747214 0.044993527372590117 0 0.1914807756371078 0.039286791852227318 0 0.1716587195747214 0.044993527372590117 0 0.1914807756371078 0.039286791852227318 0 0.17895959729017549 0.03270519686463521 0 0.1716587195747214 0.044993527372590117 0 0.17895959729017549 0.03270519686463521 0 0.1716587195747214 0.044993527372590117 0 0.1692336025848987 0.033942773786365128 0 0.1716587195747214 0.044993527372590117 0 0.1692336025848987 0.033942773786365128 0 0.1566962317421734 0.039838803654011962 0 0.1716587195747214 0.044993527372590117 0 0.1566962317421734 0.039838803654011962 0 0.15183666351233449 0.050700262892952028 0 0.1692336025848987 0.033942773786365128 0 0.1566962317421734 0.039838803654011962 0 0.158601754226253 0.030081739901262169 0 0.1716587195747214 0.044993527372590117 0 0.15183666351233449 0.050700262892952028 0 0.15919757845585511 0.069002327358520896 0 0.1716587195747214 0.044993527372590117 0 0.18079222374313991 0.066157073385880324 0 0.15919757845585511 0.069002327358520896 0 0.1716587195747214 0.044993527372590117 0 0.15183666351233449 0.050700262892952028 0 0.17227434920368959 0.00081991249798677823 0 0.17658810010716819 0.0040568459827444014 0 0.17786282304025339 -0.001583287003114023 0 0.17227434920368959 0.00081991249798677823 0 0.17658810010716819 0.0040568459827444014 0 0.17233771352019589 0.0083561011481188656 0 0.17658810010716819 0.0040568459827444014 0 0.18177514670000741 0.0039010391453388991 0 0.17943453638861959 0.0091511058078182841 0 0.17658810010716819 0.0040568459827444014 0 0.17943453638861959 0.0091511058078182841 0 0.17233771352019589 0.0083561011481188656 0 0.17658810010716819 0.0040568459827444014 0 0.18177514670000741 0.0039010391453388991 0 0.17786282304025339 -0.001583287003114023 0 0.18177514670000741 0.0039010391453388991 0 0.18580903226614379 -0.0011502469314075439 0 0.17786282304025339 -0.001583287003114023 0 0.1894192936343001 0.0060385698470956234 0 0.18660242445042999 0.0064023156866817926 0 0.18580903226614379 -0.0011502469314075439 0 0.18177514670000741 0.0039010391453388991 0 0.18660242445042999 0.0064023156866817926 0 0.18580903226614379 -0.0011502469314075439 0 0.18177514670000741 0.0039010391453388991 0 0.18660242445042999 0.0064023156866817926 0 0.18303211158647559 0.0075807978729441382 0 0.18177514670000741 0.0039010391453388991 0 0.18303211158647559 0.0075807978729441382 0 0.17943453638861959 0.0091511058078182841 0 0.18303211158647559 0.0075807978729441382 0 0.18431633880684531 0.01086873085193758 0 0.17943453638861959 0.0091511058078182841 0 0.18660242445042999 0.0064023156866817926 0 0.18303211158647559 0.0075807978729441382 0 0.18431633880684531 0.01086873085193758 0 0.18832376542685261 0.012450231659139751 0 0.18660242445042999 0.0064023156866817926 0 0.18431633880684531 0.01086873085193758 0 0.18431633880684531 0.01086873085193758 0 0.18734518720319909 0.015281891910368059 0 0.18195036267736389 0.015275800378046231 0 0.18832376542685261 0.012450231659139751 0 0.18431633880684531 0.01086873085193758 0 0.18734518720319909 0.015281891910368059 0 0.18431633880684531 0.01086873085193758 0 0.18195036267736389 0.015275800378046231 0 0.17943453638861959 0.0091511058078182841 0 0.18195036267736389 0.015275800378046231 0 0.1761571917665653 0.013806221612761949 0 0.17943453638861959 0.0091511058078182841 0 0.1761571917665653 0.013806221612761949 0 0.17943453638861959 0.0091511058078182841 0 0.17233771352019589 0.0083561011481188656 0 0.1761571917665653 0.013806221612761949 0 0.17233771352019589 0.0083561011481188656 0 0.1709247624247007 0.01466984692398882 0 0.1761571917665653 0.013806221612761949 0 0.17493811328672779 0.022191841685783802 0 0.1709247624247007 0.01466984692398882 0 0.18195036267736389 0.015275800378046231 0 0.1761571917665653 0.013806221612761949 0 0.17493811328672779 0.022191841685783802 0 0.18734518720319909 0.015281891910368059 0 0.18195036267736389 0.015275800378046231 0 0.1874867753674215 0.0231110496262097 0 0.18195036267736389 0.015275800378046231 0 0.17493811328672779 0.022191841685783802 0 0.1874867753674215 0.0231110496262097 0 0.17895959729017549 0.03270519686463521 0 0.17493811328672779 0.022191841685783802 0 0.1874867753674215 0.0231110496262097 0 0.17895959729017549 0.03270519686463521 0 0.1692336025848987 0.033942773786365128 0 0.17493811328672779 0.022191841685783802 0 0.1692336025848987 0.033942773786365128 0 0.1660519956958274 0.025200646889517071 0 0.158601754226253 0.030081739901262169 0 0.1692336025848987 0.033942773786365128 0 0.17493811328672779 0.022191841685783802 0 0.1660519956958274 0.025200646889517071 0 0.1660519956958274 0.025200646889517071 0 0.158601754226253 0.030081739901262169 0 0.15656323758401319 0.020842958383828041 0 0.15656323758401319 0.020842958383828041 0 0.1655425680131333 0.017645951334422452 0 0.15799820797772829 0.01069464001977203 0 0.1660519956958274 0.025200646889517071 0 0.15656323758401319 0.020842958383828041 0 0.1655425680131333 0.017645951334422452 0 0.17493811328672779 0.022191841685783802 0 0.1660519956958274 0.025200646889517071 0 0.1655425680131333 0.017645951334422452 0 0.17493811328672779 0.022191841685783802 0 0.1655425680131333 0.017645951334422452 0 0.1709247624247007 0.01466984692398882 0 0.17233771352019589 0.0083561011481188656 0 0.1709247624247007 0.01466984692398882 0 0.16528784937855559 0.0099045707114697821 0 0.1655425680131333 0.017645951334422452 0 0.1709247624247007 0.01466984692398882 0 0.16528784937855559 0.0099045707114697821 0 0.1655425680131333 0.017645951334422452 0 0.16528784937855559 0.0099045707114697821 0 0.15799820797772829 0.01069464001977203 0 0.16528784937855559 0.0099045707114697821 0 0.15830422717032419 0.0026668804518291322 0 0.16550177429739321 0.001625335581948511 0 0.16528784937855559 0.0099045707114697821 0 0.15799820797772829 0.01069464001977203 0 0.15830422717032419 0.0026668804518291322 0 0.17233771352019589 0.0083561011481188656 0 0.16528784937855559 0.0099045707114697821 0 0.16550177429739321 0.001625335581948511 0 0.17227434920368959 0.00081991249798677823 0 0.17233771352019589 0.0083561011481188656 0 0.16550177429739321 0.001625335581948511 0 0.14127976741107601 0.00215554095495248 0 0.15230472087545879 0.0045339035350271751 0 0.14873370341600839 0.01190124285016711 0 0.15799820797772829 0.01069464001977203 0 0.15830422717032419 0.0026668804518291322 0 0.15230472087545879 0.0045339035350271751 0 0.14127976741107601 0.00215554095495248 0 0.15230472087545879 0.0045339035350271751 0 0.1552076984021574 -0.0047487866015848753 0 0.15830422717032419 0.0026668804518291322 0 0.15230472087545879 0.0045339035350271751 0 0.1552076984021574 -0.0047487866015848753 0 0.15656323758401319 0.020842958383828041 0 0.15799820797772829 0.01069464001977203 0 0.14873370341600839 0.01190124285016711 0 0.15799820797772829 0.01069464001977203 0 0.15230472087545879 0.0045339035350271751 0 0.14873370341600839 0.01190124285016711 0 0.14873370341600839 0.01190124285016711 0 0.1458857290053831 0.021389540043380069 0 0.13967636330765321 0.013174792475989121 0 0.14127976741107601 0.00215554095495248 0 0.14873370341600839 0.01190124285016711 0 0.13967636330765321 0.013174792475989121 0 0.1458857290053831 0.021389540043380069 0 0.13916191736165201 0.019633136795163032 0 0.13967636330765321 0.013174792475989121 0 0.1458857290053831 0.021389540043380069 0 0.14010063181871271 0.02585166497444577 0 0.13916191736165201 0.019633136795163032 0 0.15656323758401319 0.020842958383828041 0 0.1458857290053831 0.021389540043380069 0 0.15175299049851881 0.02729842449465077 0 0.15656323758401319 0.020842958383828041 0 0.14873370341600839 0.01190124285016711 0 0.1458857290053831 0.021389540043380069 0 0.158601754226253 0.030081739901262169 0 0.15656323758401319 0.020842958383828041 0 0.15175299049851881 0.02729842449465077 0 0.158601754226253 0.030081739901262169 0 0.15175299049851881 0.02729842449465077 0 0.15159127196488009 0.032471007951428398 0 0.15175299049851881 0.02729842449465077 0 0.14523576613563741 0.02976945682372012 0 0.15159127196488009 0.032471007951428398 0 0.1458857290053831 0.021389540043380069 0 0.14523576613563741 0.02976945682372012 0 0.14010063181871271 0.02585166497444577 0 0.14523576613563741 0.02976945682372012 0 0.14010063181871271 0.02585166497444577 0 0.1391322595465444 0.03699933077486834 0 0.1458857290053831 0.021389540043380069 0 0.15175299049851881 0.02729842449465077 0 0.14523576613563741 0.02976945682372012 0 0.1309849453148588 0.01811654968683717 0 0.1391322595465444 0.03699933077486834 0 0.14010063181871271 0.02585166497444577 0 0.1309849453148588 0.01811654968683717 0 0.1391322595465444 0.03699933077486834 0 0.11917198148314 0.002581966002757949 0 0.13034027439662041 0.028127834929059549 0 0.1309849453148588 0.01811654968683717 0 0.13034027439662041 0.028127834929059549 0 0.1309849453148588 0.01811654968683717 0 0.1391322595465444 0.03699933077486834 0 0.1309849453148588 0.01811654968683717 0 0.13916191736165201 0.019633136795163032 0 0.13967636330765321 0.013174792475989121 0 0.14010063181871271 0.02585166497444577 0 0.1309849453148588 0.01811654968683717 0 0.13916191736165201 0.019633136795163032 0 0.14127976741107601 0.00215554095495248 0 0.13362755423293271 0.0080562160832345926 0 0.1228376310831711 -0.00076623140119310329 0 0.1309849453148588 0.01811654968683717 0 0.13362755423293271 0.0080562160832345926 0 0.1228376310831711 -0.00076623140119310329 0 0.1309849453148588 0.01811654968683717 0 0.1228376310831711 -0.00076623140119310329 0 0.1309849453148588 0.01811654968683717 0 0.13362755423293271 0.0080562160832345926 0 0.13967636330765321 0.013174792475989121 0 0.14127976741107601 0.00215554095495248 0 0.13362755423293271 0.0080562160832345926 0 0.13967636330765321 0.013174792475989121 0 0.15183666351233449 0.050700262892952028 0 0.15919757845585511 0.069002327358520896 0 0.15048711395973299 0.060532750562707877 0 0.15183666351233449 0.050700262892952028 0 0.15919757845585511 0.069002327358520896 0 0.14215194880052681 0.055145346777992182 0 0.15048711395973299 0.060532750562707877 0 0.13253998066004699 0.064315925604492674 0 0.1415085673101022 0.053673703855360522 0 0.14215194880052681 0.055145346777992182 0 0.15183666351233449 0.050700262892952028 0 0.1415085673101022 0.053673703855360522 0 0.15183666351233449 0.050700262892952028 0 0.1415085673101022 0.053673703855360522 0 0.15183666351233449 0.050700262892952028 0 0.14453550543306221 0.044729731242042367 0 0.1415085673101022 0.053673703855360522 0 0.14215194880052681 0.055145346777992182 0 0.14215194880052681 0.055145346777992182 0 0.15048711395973299 0.060532750562707877 0 0.15183666351233449 0.050700262892952028 0 0.1415085673101022 0.053673703855360522 0 0.14453550543306221 0.044729731242042367 0 0.1391322595465444 0.03699933077486834 0 0.15183666351233449 0.050700262892952028 0 0.14566961722181801 0.035366614883496988 0 0.1566962317421734 0.039838803654011962 0 0.15183666351233449 0.050700262892952028 0 0.14566961722181801 0.035366614883496988 0 0.1566962317421734 0.039838803654011962 0 0.15159127196488009 0.032471007951428398 0 0.14566961722181801 0.035366614883496988 0 0.1566962317421734 0.039838803654011962 0 0.158601754226253 0.030081739901262169 0 0.15159127196488009 0.032471007951428398 0 0.14566961722181801 0.035366614883496988 0 0.14453550543306221 0.044729731242042367 0 0.1391322595465444 0.03699933077486834 0 0.14523576613563741 0.02976945682372012 0 0.15159127196488009 0.032471007951428398 0 0.14566961722181801 0.035366614883496988 0 0.14523576613563741 0.02976945682372012 0 0.14566961722181801 0.035366614883496988 0 0.1391322595465444 0.03699933077486834 0 0.15183666351233449 0.050700262892952028 0 0.14566961722181801 0.035366614883496988 0 0.14453550543306221 0.044729731242042367 0 0.13034027439662041 0.028127834929059549 0 0.1415085673101022 0.053673703855360522 0 0.13034027439662041 0.028127834929059549 0 0.1415085673101022 0.053673703855360522 0 0.1391322595465444 0.03699933077486834 0 0.12367169586596689 0.04413069599522032 0 0.13034027439662041 0.028127834929059549 0 0.1415085673101022 0.053673703855360522 0 0.11892469151436 0.060175562481194378 0 0.12367169586596689 0.04413069599522032 0 0.1415085673101022 0.053673703855360522 0 0.11892469151436 0.060175562481194378 0 0.1415085673101022 0.053673703855360522 0 0.11892469151436 0.060175562481194378 0 0.1415085673101022 0.053673703855360522 0 0.13253998066004699 0.064315925604492674 0 0.1415085673101022 0.053673703855360522 0 0.14215194880052681 0.055145346777992182 0 0.13253998066004699 0.064315925604492674 0 0.13253998066004699 0.064315925604492674 0 0.13121537104960351 0.072689189806444385 0 0.15446329543616341 0.069626104104570485 0 0.1243405792371938 0.066503547411893488 0 0.13253998066004699 0.064315925604492674 0 0.13121537104960351 0.072689189806444385 0 0.11892469151436 0.060175562481194378 0 0.1243405792371938 0.066503547411893488 0 0.13253998066004699 0.064315925604492674 0 0.13121537104960351 0.072689189806444385 0 0.14336397744542301 0.076431171561807093 0 0.13288821721910599 0.083857800247139097 0 0.15048711395973299 0.060532750562707877 0 0.13253998066004699 0.064315925604492674 0 0.15446329543616341 0.069626104104570485 0 0.13121537104960351 0.072689189806444385 0 0.15446329543616341 0.069626104104570485 0 0.13121537104960351 0.072689189806444385 0 0.14336397744542301 0.076431171561807093 0 0.15446329543616341 0.069626104104570485 0 0.13253998066004699 0.064315925604492674 0 0.15446329543616341 0.069626104104570485 0 0.14336397744542301 0.076431171561807093 0 0.15145508435945571 0.07730097997971673 0 0.15446329543616341 0.069626104104570485 0 0.15145508435945571 0.07730097997971673 0 0.15998651034928929 0.070963915351755544 0 0.15635019231632599 0.084708360937410687 0 0.15145508435945571 0.07730097997971673 0 0.15446329543616341 0.069626104104570485 0 0.15998651034928929 0.070963915351755544 0 0.15048711395973299 0.060532750562707877 0 0.15446329543616341 0.069626104104570485 0 0.15919757845585511 0.069002327358520896 0 0.1449478564828334 0.088262465871273704 0 0.15304430801011831 0.09759233646353245 0 0.15635019231632599 0.084708360937410687 0 0.15145508435945571 0.07730097997971673 0 0.1449478564828334 0.088262465871273704 0 0.15635019231632599 0.084708360937410687 0 0.14336397744542301 0.076431171561807093 0 0.15145508435945571 0.07730097997971673 0 0.1449478564828334 0.088262465871273704 0 0.1449478564828334 0.088262465871273704 0 0.13288821721910599 0.083857800247139097 0 0.1333435253298102 0.095432768439741328 0 0.14336397744542301 0.076431171561807093 0 0.1449478564828334 0.088262465871273704 0 0.13288821721910599 0.083857800247139097 0 0.1225478872688979 0.090713611373926736 0 0.1210037722340596 0.082520495593825793 0 0.13288821721910599 0.083857800247139097 0 0.1210037722340596 0.082520495593825793 0 0.13121537104960351 0.072689189806444385 0 0.13288821721910599 0.083857800247139097 0 0.1225478872688979 0.090713611373926736 0 0.13288821721910599 0.083857800247139097 0 0.1333435253298102 0.095432768439741328 0 0.1449478564828334 0.088262465871273704 0 0.1368974078767736 0.107501873099266 0 0.1333435253298102 0.095432768439741328 0 0.12018819637303869 0.10164151191590461 0 0.1368974078767736 0.107501873099266 0 0.1333435253298102 0.095432768439741328 0 0.12018819637303869 0.10164151191590461 0 0.1225478872688979 0.090713611373926736 0 0.1333435253298102 0.095432768439741328 0 0.11707998843366239 0.12090166170324231 0 0.14061487869327599 0.12738787364596069 0 0.1368974078767736 0.107501873099266 0 0.14061487869327599 0.12738787364596069 0 0.1368974078767736 0.107501873099266 0 0.1574927946018469 0.1127881056222175 0 0.14061487869327599 0.12738787364596069 0 0.16208469833826319 0.13464304631642149 0 0.1574927946018469 0.1127881056222175 0 0.1368974078767736 0.107501873099266 0 0.15304430801011831 0.09759233646353245 0 0.1574927946018469 0.1127881056222175 0 0.1449478564828334 0.088262465871273704 0 0.1368974078767736 0.107501873099266 0 0.15304430801011831 0.09759233646353245 0 0.15304430801011831 0.09759233646353245 0 0.1695332887728116 0.094700876787494351 0 0.1574927946018469 0.1127881056222175 0 0.1695332887728116 0.094700876787494351 0 0.1574927946018469 0.1127881056222175 0 0.1790800671963392 0.1184378382232308 0 0.16208469833826319 0.13464304631642149 0 0.1574927946018469 0.1127881056222175 0 0.1790800671963392 0.1184378382232308 0 0.1885688884481975 0.1093901779912298 0 0.1790800671963392 0.1184378382232308 0 0.1832996600419958 0.1003897382564244 0 0.1885688884481975 0.1093901779912298 0 0.1790800671963392 0.1184378382232308 0 0.1858372065203453 0.1184994265274882 0 0.1885688884481975 0.1093901779912298 0 0.1858372065203453 0.1184994265274882 0 0.1885688884481975 0.1093901779912298 0 0.1790800671963392 0.1184378382232308 0 0.19325819231563421 0.12959887947710741 0 0.1790800671963392 0.1184378382232308 0 0.1858372065203453 0.1184994265274882 0 0.1695332887728116 0.094700876787494351 0 0.1790800671963392 0.1184378382232308 0 0.1695332887728116 0.094700876787494351 0 0.1790800671963392 0.1184378382232308 0 0.1832996600419958 0.1003897382564244 0 0.1695332887728116 0.094700876787494351 0 0.1832996600419958 0.1003897382564244 0 0.18493574174144031 0.087819629641268118 0 0.1929726046438287 0.094705252597794665 0 0.1832996600419958 0.1003897382564244 0 0.18493574174144031 0.087819629641268118 0 0.1973763208394673 0.08002032720436178 0 0.18493574174144031 0.087819629641268118 0 0.17868141559437861 0.075492121278057239 0 0.1695332887728116 0.094700876787494351 0 0.18493574174144031 0.087819629641268118 0 0.17868141559437861 0.075492121278057239 0 0.1973763208394673 0.08002032720436178 0 0.17868141559437861 0.075492121278057239 0 0.18079222374313991 0.066157073385880324 0 0.17868141559437861 0.075492121278057239 0 0.18079222374313991 0.066157073385880324 0 0.15998651034928929 0.070963915351755544 0 0.18079222374313991 0.066157073385880324 0 0.15919757845585511 0.069002327358520896 0 0.18079222374313991 0.066157073385880324 0 0.15919757845585511 0.069002327358520896 0 0.15998651034928929 0.070963915351755544 0 0.17868141559437861 0.075492121278057239 0 0.15998651034928929 0.070963915351755544 0 0.15446329543616341 0.069626104104570485 0 0.15919757845585511 0.069002327358520896 0 0.15998651034928929 0.070963915351755544 0 0.15446329543616341 0.069626104104570485 0 0.15919757845585511 0.069002327358520896 0 0.15446329543616341 0.069626104104570485 0 0.15998651034928929 0.070963915351755544 0 0.15919757845585511 0.069002327358520896 0 0.15998651034928929 0.070963915351755544 0 0.1695332887728116 0.094700876787494351 0 0.17868141559437861 0.075492121278057239 0 0.15998651034928929 0.070963915351755544 0 0.15304430801011831 0.09759233646353245 0 0.1695332887728116 0.094700876787494351 0 0.15635019231632599 0.084708360937410687 0 0.1695332887728116 0.094700876787494351 0 0.15998651034928929 0.070963915351755544 0 0.1695332887728116 0.094700876787494351 0 0.15998651034928929 0.070963915351755544 0 0.15635019231632599 0.084708360937410687 0 0.097740131103692757 0.47211576306312553 0 0.10228396963995549 0.48764264937867408 0 0.092199203719590395 0.48872928857719472 0 0.097740131103692757 0.47211576306312553 0 0.1146358595090817 0.48605788153156299 0 0.097740131103692757 0.47211576306312553 0 0.10228396963995549 0.48764264937867408 0 0.1146358595090817 0.48605788153156299 0 0.1038255785689283 0.5 0 0.10228396963995549 0.48764264937867408 0 0.092199203719590395 0.48872928857719472 0 0.1038255785689283 0.5 0 0.10228396963995549 0.48764264937867408 0 0.1146358595090817 0.48605788153156299 0 0.1146358595090817 0.48605788153156299 0 0.13153158791447089 0.50000000000000033 0 0.1038255785689283 0.5 0 0.1146358595090817 0.48605788153156299 0 0.13153158791447089 0.50000000000000033 0 0.097740131103692757 0.47211576306312553 0 0.1146358595090817 0.48605788153156299 0 0.1160915578241386 0.4641835533930308 0 0.1146358595090817 0.48605788153156299 0 0.1160915578241386 0.4641835533930308 0 0.13792901651589951 0.46760966493884959 0 0.1160915578241386 0.4641835533930308 0 0.1237280261196836 0.44463014715047522 0 0.10202961426548091 0.45002724093957291 0 0.1237280261196836 0.44463014715047522 0 0.1057649319772677 0.43759517983083812 0 0.10202961426548091 0.45002724093957291 0 0.1057649319772677 0.43759517983083812 0 0.10202961426548091 0.45002724093957291 0 0.08764391112498858 0.43163178618934439 0 0.097740131103692757 0.47211576306312553 0 0.1160915578241386 0.4641835533930308 0 0.10202961426548091 0.45002724093957291 0 0.080844402698305312 0.45817364459468618 0 0.076730675362011974 0.47423156549521001 0 0.097740131103692757 0.47211576306312553 0 0.080844402698305312 0.45817364459468618 0 0.097740131103692757 0.47211576306312553 0 0.10202961426548091 0.45002724093957291 0 0.080844402698305312 0.45817364459468618 0 0.097740131103692757 0.47211576306312553 0 0.080844402698305312 0.45817364459468618 0 0.076730675362011974 0.47423156549521001 0 0.080844402698305312 0.45817364459468618 0 0.08764391112498858 0.43163178618934439 0 0.10202961426548091 0.45002724093957291 0 0.080844402698305312 0.45817364459468618 0 0.08764391112498858 0.43163178618934439 0 0.080844402698305312 0.45817364459468618 0 0.07540768018483697 0.44030754071393319 0 0.08764391112498858 0.43163178618934439 0 0.080844402698305312 0.45817364459468618 0 0.07540768018483697 0.44030754071393319 0 0.061556592319121653 0.44225761358074578 0 0.080844402698305312 0.45817364459468618 0 0.061556592319121653 0.44225761358074578 0 0.080844402698305312 0.45817364459468618 0 0.067859653170709522 0.45426422462270638 0 0.061556592319121653 0.44225761358074578 0 0.080844402698305312 0.45817364459468618 0 0.064346854003363874 0.46736183993319841 0 0.076730675362011974 0.47423156549521001 0 0.064346854003363874 0.46736183993319841 0 0.067859653170709522 0.45426422462270638 0 0.056076759981020123 0.44443419347066321 0 0.080844402698305312 0.45817364459468618 0 0.064346854003363874 0.46736183993319841 0 0.067859653170709522 0.45426422462270638 0 0.076730675362011974 0.47423156549521001 0 0.072616948025712127 0.490289486395732 0 0.064346854003363874 0.46736183993319841 0 0.072616948025712127 0.490289486395732 0 0.058055043786226751 0.49051055052906067 0 0.064346854003363874 0.46736183993319841 0 0.072616948025712127 0.490289486395732 0 0.064346854003363874 0.46736183993319841 0 0.076730675362011974 0.47423156549521001 0 0.072616948025712127 0.490289486395732 0 0.076730675362011974 0.47423156549521001 0 0.082075002421626492 0.48449271935339733 0 0.072616948025712127 0.490289486395732 0 0.097740131103692757 0.47211576306312553 0 0.076730675362011974 0.47423156549521001 0 0.082075002421626492 0.48449271935339733 0 0.097740131103692757 0.47211576306312553 0 0.092199203719590395 0.48872928857719472 0 0.082075002421626492 0.48449271935339733 0 0.1038255785689283 0.5 0 0.092199203719590395 0.48872928857719472 0 0.076119569223385697 0.50000000000000089 0 0.092199203719590395 0.48872928857719472 0 0.082075002421626492 0.48449271935339733 0 0.076119569223385697 0.50000000000000089 0 0.072616948025712127 0.490289486395732 0 0.07012930311136284 0.49999999999999661 0 0.076119569223385697 0.50000000000000089 0 0.072616948025712127 0.490289486395732 0 0.07012930311136284 0.49999999999999661 0 0.076119569223385697 0.50000000000000089 0 0.072616948025712127 0.490289486395732 0 0.082075002421626492 0.48449271935339733 0 0.076119569223385697 0.50000000000000089 0 0.072616948025712127 0.490289486395732 0 0.072616948025712127 0.490289486395732 0 0.07012930311136284 0.49999999999999661 0 0.058055043786226751 0.49051055052906067 0 0.058055043786226751 0.49051055052906067 0 0.046280597366186747 0.47957307303049429 0 0.044860440428939378 0.4999999999999995 0 0.07012930311136284 0.49999999999999661 0 0.058055043786226751 0.49051055052906067 0 0.044860440428939378 0.4999999999999995 0 0.064346854003363874 0.46736183993319841 0 0.058055043786226751 0.49051055052906067 0 0.046280597366186747 0.47957307303049429 0 0.046280597366186747 0.47957307303049429 0 0.047700754303434179 0.45914614606098908 0 0.046280597366186747 0.47957307303049429 0 0.029897162037545319 0.4839753813588808 0 0.03521852719449324 0.46736449501777538 0 0.044860440428939378 0.4999999999999995 0 0.01907995414838232 0.5 0 0.029897162037545319 0.4839753813588808 0 0.046280597366186747 0.47957307303049429 0 0.044860440428939378 0.4999999999999995 0 0.046280597366186747 0.47957307303049429 0 0.044860440428939378 0.4999999999999995 0 0.029897162037545319 0.4839753813588808 0 0.01907995414838232 0.5 0 0.029897162037545319 0.4839753813588808 0 0.01223017135109394 0.48399563131022733 0 0.029897162037545319 0.4839753813588808 0 0.02313076419329519 0.4718947066398041 0 0.01223017135109394 0.48399563131022733 0 0.029897162037545319 0.4839753813588808 0 0.02313076419329519 0.4718947066398041 0 0.03521852719449324 0.46736449501777538 0 0.02313076419329519 0.4718947066398041 0 0.01223017135109394 0.48399563131022733 0 0.01319884020628341 0.47022233111689332 0 -0.003880604538310756 0.48346324919380129 0 0.01223017135109394 0.48399563131022733 0 0.0050866533922729329 0.47701524235381432 0 0.01223017135109394 0.48399563131022733 0 0.01319884020628341 0.47022233111689332 0 0.0050866533922729329 0.47701524235381432 0 0.01319884020628341 0.47022233111689332 0 0.0053167838454733218 0.46943384557929257 0 0.0050866533922729329 0.47701524235381432 0 -0.001026908195020756 0.47486914558720472 0 0.0053167838454733218 0.46943384557929257 0 0.0050866533922729329 0.47701524235381432 0 -0.003880604538310756 0.48346324919380129 0 -0.001026908195020756 0.47486914558720472 0 0.0050866533922729329 0.47701524235381432 0 -0.0067005321321746969 0.5 0 0.01907995414838232 0.5 0 0.01223017135109394 0.48399563131022733 0 -0.0067005321321746969 0.5 0 -0.003880604538310756 0.48346324919380129 0 0.01223017135109394 0.48399563131022733 0 0.0094816941431487278 0.45086042579757712 0 0.01399183751309625 0.44462120914047132 0 0.0048617880261327502 0.44584476697033082 0 0.0094816941431487278 0.45086042579757712 0 0.01399183751309625 0.44462120914047132 0 0.016302396861864351 0.45114502888407948 0 0.01049598620797234 0.43767394788706171 0 0.01399183751309625 0.44462120914047132 0 0.0048617880261327502 0.44584476697033082 0 0.01049598620797234 0.43767394788706171 0 0.01399183751309625 0.44462120914047132 0 0.020379531913139331 0.43685778481219928 0 0.01049598620797234 0.43767394788706171 0 0.0048617880261327502 0.44584476697033082 0 0.01049598620797234 0.43767394788706171 0 0.0048617880261327502 0.44584476697033082 0 0.0065189226172944724 0.43188650626448272 0 0.0094816941431487278 0.45086042579757712 0 0.0048617880261327502 0.44584476697033082 0 0.0015605482097463411 0.45063228640423969 0 0.0048617880261327502 0.44584476697033082 0 0.0015605482097463411 0.45063228640423969 0 0.0094816941431487278 0.45086042579757712 0 0.0048617880261327502 0.44584476697033082 0 0.0015605482097463411 0.45063228640423969 0 0.0080738590363113663 0.46132998490476868 0 0.01222090350615627 0.45893997922115709 0 0.0015605482097463411 0.45063228640423969 0 0.01222090350615627 0.45893997922115709 0 -0.0094095992007081283 0.46654139838691122 0 0.0053167838454733218 0.46943384557929257 0 0.0080738590363113663 0.46132998490476868 0 0.0094816941431487278 0.45086042579757712 0 0.0015605482097463411 0.45063228640423969 0 0.01222090350615627 0.45893997922115709 0 -0.0094095992007081283 0.46654139838691122 0 0.0015605482097463411 0.45063228640423969 0 0.0080738590363113663 0.46132998490476868 0 0.0080738590363113663 0.46132998490476868 0 0.01222090350615627 0.45893997922115709 0 0.025557317273330941 0.45611857142262657 0 0.01319884020628341 0.47022233111689332 0 0.0080738590363113663 0.46132998490476868 0 0.025557317273330941 0.45611857142262657 0 0.01319884020628341 0.47022233111689332 0 0.0053167838454733218 0.46943384557929257 0 0.0080738590363113663 0.46132998490476868 0 0.0094816941431487278 0.45086042579757712 0 0.01222090350615627 0.45893997922115709 0 0.016302396861864351 0.45114502888407948 0 0.01222090350615627 0.45893997922115709 0 0.025557317273330941 0.45611857142262657 0 0.016302396861864351 0.45114502888407948 0 0.0080738590363113663 0.46132998490476868 0 0.025557317273330941 0.45611857142262657 0 0.02313076419329519 0.4718947066398041 0 0.01319884020628341 0.47022233111689332 0 0.025557317273330941 0.45611857142262657 0 0.02313076419329519 0.4718947066398041 0 0.025557317273330941 0.45611857142262657 0 0.03521852719449324 0.46736449501777538 0 0.025557317273330941 0.45611857142262657 0 0.029497972404799989 0.4465970104894148 0 0.021231693005787571 0.44530579808828252 0 0.025557317273330941 0.45611857142262657 0 0.016302396861864351 0.45114502888407948 0 0.021231693005787571 0.44530579808828252 0 0.01399183751309625 0.44462120914047132 0 0.016302396861864351 0.45114502888407948 0 0.021231693005787571 0.44530579808828252 0 0.01399183751309625 0.44462120914047132 0 0.021231693005787571 0.44530579808828252 0 0.020379531913139331 0.43685778481219928 0 0.029497972404799989 0.4465970104894148 0 0.021231693005787571 0.44530579808828252 0 0.030311313049230751 0.43763339856834432 0 0.021231693005787571 0.44530579808828252 0 0.030311313049230751 0.43763339856834432 0 0.020379531913139331 0.43685778481219928 0 0.038697605999956301 0.44825738244890739 0 0.047700754303434179 0.45914614606098908 0 0.049120911240681603 0.43871921909148398 0 0.029497972404799989 0.4465970104894148 0 0.038697605999956301 0.44825738244890739 0 0.040333793699140981 0.43958103258297831 0 0.029497972404799989 0.4465970104894148 0 0.030311313049230751 0.43763339856834432 0 0.040333793699140981 0.43958103258297831 0 0.025557317273330941 0.45611857142262657 0 0.029497972404799989 0.4465970104894148 0 0.038697605999956301 0.44825738244890739 0 0.038697605999956301 0.44825738244890739 0 0.040333793699140981 0.43958103258297831 0 0.049120911240681603 0.43871921909148398 0 0.046280597366186747 0.47957307303049429 0 0.03521852719449324 0.46736449501777538 0 0.047700754303434179 0.45914614606098908 0 0.025557317273330941 0.45611857142262657 0 0.038697605999956301 0.44825738244890739 0 0.03521852719449324 0.46736449501777538 0 0.038697605999956301 0.44825738244890739 0 0.03521852719449324 0.46736449501777538 0 0.047700754303434179 0.45914614606098908 0 0.064346854003363874 0.46736183993319841 0 0.056076759981020123 0.44443419347066321 0 0.064346854003363874 0.46736183993319841 0 0.046280597366186747 0.47957307303049429 0 0.047700754303434179 0.45914614606098908 0 0.064346854003363874 0.46736183993319841 0 0.047700754303434179 0.45914614606098908 0 0.056076759981020123 0.44443419347066321 0 0.047700754303434179 0.45914614606098908 0 0.049120911240681603 0.43871921909148398 0 0.056076759981020123 0.44443419347066321 0 0.047700754303434179 0.45914614606098908 0 0.049120911240681603 0.43871921909148398 0 0.067859653170709522 0.45426422462270638 0 0.056076759981020123 0.44443419347066321 0 0.061556592319121653 0.44225761358074578 0 0.056076759981020123 0.44443419347066321 0 0.061556592319121653 0.44225761358074578 0 0.059201111644200437 0.43099696977894508 0 0.056076759981020123 0.44443419347066321 0 0.047806665958676359 0.42150654700812801 0 0.049120911240681603 0.43871921909148398 0 0.056076759981020123 0.44443419347066321 0 0.047806665958676359 0.42150654700812801 0 0.056076759981020123 0.44443419347066321 0 0.059201111644200437 0.43099696977894508 0 0.047806665958676359 0.42150654700812801 0 0.059201111644200437 0.43099696977894508 0 0.058979725365252707 0.4176193763442323 0 0.047806665958676359 0.42150654700812801 0 0.058979725365252707 0.4176193763442323 0 0.039536571936328653 0.39857890054559408 0 0.063240005814886313 0.40658319209587829 0 0.058979725365252707 0.4176193763442323 0 0.047806665958676359 0.42150654700812801 0 0.039536571936328653 0.39857890054559408 0 0.035113551011259521 0.41687403621696922 0 0.02872917033170445 0.40503675834663061 0 0.039536571936328653 0.39857890054559408 0 0.047806665958676359 0.42150654700812801 0 0.039536571936328653 0.39857890054559408 0 0.047806665958676359 0.42150654700812801 0 0.035113551011259521 0.41687403621696922 0 0.039536571936328653 0.39857890054559408 0 0.049120911240681603 0.43871921909148398 0 0.047806665958676359 0.42150654700812801 0 0.039708047704291503 0.4306454839277386 0 0.040333793699140981 0.43958103258297831 0 0.049120911240681603 0.43871921909148398 0 0.039708047704291503 0.4306454839277386 0 0.047806665958676359 0.42150654700812801 0 0.035113551011259521 0.41687403621696922 0 0.039708047704291503 0.4306454839277386 0 0.035113551011259521 0.41687403621696922 0 0.039708047704291503 0.4306454839277386 0 0.028741688689164512 0.42811504149697438 0 0.030311313049230751 0.43763339856834432 0 0.039708047704291503 0.4306454839277386 0 0.028741688689164512 0.42811504149697438 0 0.030311313049230751 0.43763339856834432 0 0.040333793699140981 0.43958103258297831 0 0.039708047704291503 0.4306454839277386 0 0.030311313049230751 0.43763339856834432 0 0.020379531913139331 0.43685778481219928 0 0.028741688689164512 0.42811504149697438 0 0.01049598620797234 0.43767394788706171 0 0.020379531913139331 0.43685778481219928 0 0.01750467301358458 0.42779731369206181 0 0.020379531913139331 0.43685778481219928 0 0.01750467301358458 0.42779731369206181 0 0.028741688689164512 0.42811504149697438 0 0.01750467301358458 0.42779731369206181 0 0.028741688689164512 0.42811504149697438 0 0.02615916144738779 0.41736148597675132 0 0.035113551011259521 0.41687403621696922 0 0.028741688689164512 0.42811504149697438 0 0.02615916144738779 0.41736148597675132 0 0.02615916144738779 0.41736148597675132 0 0.010437450069317761 0.40463061763750507 0 0.02872917033170445 0.40503675834663061 0 0.02615916144738779 0.41736148597675132 0 0.01517065216307991 0.41806138940930709 0 0.010437450069317761 0.40463061763750507 0 0.035113551011259521 0.41687403621696922 0 0.02615916144738779 0.41736148597675132 0 0.02872917033170445 0.40503675834663061 0 0.01750467301358458 0.42779731369206181 0 0.02615916144738779 0.41736148597675132 0 0.01517065216307991 0.41806138940930709 0 -0.003174347114314008 0.41591217031924949 0 0.0065813241220295041 0.42245614033091039 0 0.010437450069317761 0.40463061763750507 0 -0.0064316016559190746 0.3999483233353413 0 -0.003174347114314008 0.41591217031924949 0 0.010437450069317761 0.40463061763750507 0 0.01517065216307991 0.41806138940930709 0 0.0065813241220295041 0.42245614033091039 0 0.010437450069317761 0.40463061763750507 0 -0.003174347114314008 0.41591217031924949 0 0.010437450069317761 0.40463061763750507 0 -0.003174347114314008 0.41591217031924949 0 0.0065813241220295041 0.42245614033091039 0 -0.0026301228576318379 0.42717885202372191 0 -0.003174347114314008 0.41591217031924949 0 0.0065813241220295041 0.42245614033091039 0 -0.0026301228576318379 0.42717885202372191 0 0.0065813241220295041 0.42245614033091039 0 0.0065189226172944724 0.43188650626448272 0 -0.0026301228576318379 0.42717885202372191 0 0.0048617880261327502 0.44584476697033082 0 0.0065189226172944724 0.43188650626448272 0 0.01049598620797234 0.43767394788706171 0 0.01750467301358458 0.42779731369206181 0 0.0065189226172944724 0.43188650626448272 0 0.01750467301358458 0.42779731369206181 0 0.0065813241220295041 0.42245614033091039 0 0.0065189226172944724 0.43188650626448272 0 0.01750467301358458 0.42779731369206181 0 0.01517065216307991 0.41806138940930709 0 0.0065813241220295041 0.42245614033091039 0 -0.0042030409966118051 0.38380869400061962 0 0.01009735409817194 0.38238429504652488 0 0.02404924725294803 0.393349064955759 0 -0.0042030409966118051 0.38380869400061962 0 0.02404924725294803 0.393349064955759 0 0.01009735409817194 0.38238429504652488 0 0.0197357255374827 0.37571737083264412 0 0.011110712074150059 0.37343232972227269 0 -0.001064505034491721 0.37161458349227261 0 0.01009735409817194 0.38238429504652488 0 0.011110712074150059 0.37343232972227269 0 -0.001064505034491721 0.37161458349227261 0 -0.0042030409966118051 0.38380869400061962 0 0.01009735409817194 0.38238429504652488 0 -0.0042030409966118051 0.38380869400061962 0 0.01009735409817194 0.38238429504652488 0 -0.0042030409966118051 0.38380869400061962 0 0.010437450069317761 0.40463061763750507 0 0.02404924725294803 0.393349064955759 0 0.010437450069317761 0.40463061763750507 0 0.02872917033170445 0.40503675834663061 0 0.02404924725294803 0.393349064955759 0 0.010437450069317761 0.40463061763750507 0 0.02404924725294803 0.393349064955759 0 0.02872917033170445 0.40503675834663061 0 0.02404924725294803 0.393349064955759 0 0.039536571936328653 0.39857890054559408 0 0.02404924725294803 0.393349064955759 0 0.034519904376963118 0.38467091111880503 0 0.02404924725294803 0.393349064955759 0 0.0197357255374827 0.37571737083264412 0 0.034519904376963118 0.38467091111880503 0 0.01009735409817194 0.38238429504652488 0 0.02404924725294803 0.393349064955759 0 0.0197357255374827 0.37571737083264412 0 0.034519904376963118 0.38467091111880503 0 0.050307067216076778 0.37158640017128619 0 0.034519904376963118 0.38467091111880503 0 0.039536571936328653 0.39857890054559408 0 0.056773536515482913 0.38908479613358171 0 0.02404924725294803 0.393349064955759 0 0.039536571936328653 0.39857890054559408 0 0.034519904376963118 0.38467091111880503 0 0.039536571936328653 0.39857890054559408 0 0.02404924725294803 0.393349064955759 0 0.034519904376963118 0.38467091111880503 0 0.039536571936328653 0.39857890054559408 0 0.039536571936328653 0.39857890054559408 0 0.063240005814886313 0.40658319209587829 0 0.039536571936328653 0.39857890054559408 0 0.056773536515482913 0.38908479613358171 0 0.063240005814886313 0.40658319209587829 0 0.056773536515482913 0.38908479613358171 0 0.063240005814886313 0.40658319209587829 0 0.056773536515482913 0.38908479613358171 0 0.059721524030669819 0.37431687333309788 0 0.050307067216076778 0.37158640017128619 0 0.056773536515482913 0.38908479613358171 0 0.050307067216076778 0.37158640017128619 0 0.034519904376963118 0.38467091111880503 0 0.056773536515482913 0.38908479613358171 0 0.050307067216076778 0.37158640017128619 0 0.056773536515482913 0.38908479613358171 0 0.069041936002645535 0.37820082441249081 0 0.059721524030669819 0.37431687333309788 0 0.056773536515482913 0.38908479613358171 0 0.069041936002645535 0.37820082441249081 0 0.068225210254675303 0.39186969982647402 0 0.069041936002645535 0.37820082441249081 0 0.078928226936330073 0.3918395352538776 0 0.068225210254675303 0.39186969982647402 0 0.069041936002645535 0.37820082441249081 0 0.087739402474845588 0.37833299208434412 0 0.078928226936330073 0.3918395352538776 0 0.087739402474845588 0.37833299208434412 0 0.078928226936330073 0.3918395352538776 0 0.094443419551670932 0.40508992778400232 0 0.078928226936330073 0.3918395352538776 0 0.080832552055978585 0.40498983155533402 0 0.094443419551670932 0.40508992778400232 0 0.080832552055978585 0.40498983155533402 0 0.073695702888484968 0.40005040040525608 0 0.075088081656536507 0.41058410832735293 0 0.078928226936330073 0.3918395352538776 0 0.080832552055978585 0.40498983155533402 0 0.073695702888484968 0.40005040040525608 0 0.056773536515482913 0.38908479613358171 0 0.068225210254675303 0.39186969982647402 0 0.063240005814886313 0.40658319209587829 0 0.073695702888484968 0.40005040040525608 0 0.063240005814886313 0.40658319209587829 0 0.075088081656536507 0.41058410832735293 0 0.078928226936330073 0.3918395352538776 0 0.073695702888484968 0.40005040040525608 0 0.068225210254675303 0.39186969982647402 0 0.073695702888484968 0.40005040040525608 0 0.068225210254675303 0.39186969982647402 0 0.063240005814886313 0.40658319209587829 0 0.058979725365252707 0.4176193763442323 0 0.063240005814886313 0.40658319209587829 0 0.071585814596931419 0.42916711849095618 0 0.063240005814886313 0.40658319209587829 0 0.075088081656536507 0.41058410832735293 0 0.071585814596931419 0.42916711849095618 0 0.063240005814886313 0.40658319209587829 0 0.071585814596931419 0.42916711849095618 0 0.063240005814886313 0.40658319209587829 0 0.075088081656536507 0.41058410832735293 0 0.075088081656536507 0.41058410832735293 0 0.071585814596931419 0.42916711849095618 0 0.082007329246870417 0.41738518600618091 0 0.061556592319121653 0.44225761358074578 0 0.059201111644200437 0.43099696977894508 0 0.071585814596931419 0.42916711849095618 0 0.07540768018483697 0.44030754071393319 0 0.061556592319121653 0.44225761358074578 0 0.071585814596931419 0.42916711849095618 0 0.059201111644200437 0.43099696977894508 0 0.058979725365252707 0.4176193763442323 0 0.071585814596931419 0.42916711849095618 0 0.07540768018483697 0.44030754071393319 0 0.071585814596931419 0.42916711849095618 0 0.08764391112498858 0.43163178618934439 0 0.071585814596931419 0.42916711849095618 0 0.08764391112498858 0.43163178618934439 0 0.082007329246870417 0.41738518600618091 0 0.08764391112498858 0.43163178618934439 0 0.082007329246870417 0.41738518600618091 0 0.094443419551670932 0.40508992778400232 0 0.08764391112498858 0.43163178618934439 0 0.094443419551670932 0.40508992778400232 0 0.080832552055978585 0.40498983155533402 0 0.075088081656536507 0.41058410832735293 0 0.082007329246870417 0.41738518600618091 0 0.080832552055978585 0.40498983155533402 0 0.082007329246870417 0.41738518600618091 0 0.094443419551670932 0.40508992778400232 0 0.08764391112498858 0.43163178618934439 0 0.1096581763989177 0.42409154504396013 0 0.094443419551670932 0.40508992778400232 0 0.1096581763989177 0.42409154504396013 0 0.11163148259572971 0.40863234267508453 0 0.094443419551670932 0.40508992778400232 0 0.1057649319772677 0.43759517983083812 0 0.08764391112498858 0.43163178618934439 0 0.1096581763989177 0.42409154504396013 0 0.1237280261196836 0.44463014715047522 0 0.1096581763989177 0.42409154504396013 0 0.13502200614688589 0.42010390008240672 0 0.1237280261196836 0.44463014715047522 0 0.1057649319772677 0.43759517983083812 0 0.1096581763989177 0.42409154504396013 0 0.11163148259572971 0.40863234267508453 0 0.1236499924648251 0.3984302041169589 0 0.13502200614688589 0.42010390008240672 0 0.1096581763989177 0.42409154504396013 0 0.11163148259572971 0.40863234267508453 0 0.13502200614688589 0.42010390008240672 0 0.11163148259572971 0.40863234267508453 0 0.1236499924648251 0.3984302041169589 0 0.10863659533572551 0.39290197353284961 0 0.10863659533572551 0.39290197353284961 0 0.114060711710889 0.37342974127053702 0 0.12550685613774351 0.37951055496914998 0 0.1236499924648251 0.3984302041169589 0 0.10863659533572551 0.39290197353284961 0 0.12550685613774351 0.37951055496914998 0 0.1012429279783533 0.37854806937866009 0 0.10863659533572551 0.39290197353284961 0 0.114060711710889 0.37342974127053702 0 0.087739402474845588 0.37833299208434412 0 0.1012429279783533 0.37854806937866009 0 0.094443419551670932 0.40508992778400232 0 0.11163148259572971 0.40863234267508453 0 0.10863659533572551 0.39290197353284961 0 0.094443419551670932 0.40508992778400232 0 0.1012429279783533 0.37854806937866009 0 0.094443419551670932 0.40508992778400232 0 0.1012429279783533 0.37854806937866009 0 0.10863659533572551 0.39290197353284961 0 0.094443419551670932 0.40508992778400232 0 0.10055213054656729 0.36013865237867942 0 0.1100489009895301 0.33374314175173209 0 0.10055213054656729 0.36013865237867942 0 0.1100489009895301 0.33374314175173209 0 0.08625589277749264 0.346999797836966 0 0.1069344999541316 0.36147573913557879 0 0.10055213054656729 0.36013865237867942 0 0.1165634558871128 0.3492406052842485 0 0.10055213054656729 0.36013865237867942 0 0.1165634558871128 0.3492406052842485 0 0.1100489009895301 0.33374314175173209 0 0.087739402474845588 0.37833299208434412 0 0.1012429279783533 0.37854806937866009 0 0.1069344999541316 0.36147573913557879 0 0.1012429279783533 0.37854806937866009 0 0.1069344999541316 0.36147573913557879 0 0.114060711710889 0.37342974127053702 0 0.1069344999541316 0.36147573913557879 0 0.10055213054656729 0.36013865237867942 0 0.081229983254247365 0.36650003300062722 0 0.1069344999541316 0.36147573913557879 0 0.081229983254247365 0.36650003300062722 0 0.114060711710889 0.37342974127053702 0 0.1326390166540157 0.35645144527053041 0 0.12550685613774351 0.37951055496914998 0 0.1069344999541316 0.36147573913557879 0 0.114060711710889 0.37342974127053702 0 0.1326390166540157 0.35645144527053041 0 0.1069344999541316 0.36147573913557879 0 0.1165634558871128 0.3492406052842485 0 0.1326390166540157 0.35645144527053041 0 0.1069344999541316 0.36147573913557879 0 0.1326390166540157 0.35645144527053041 0 0.1165634558871128 0.3492406052842485 0 0.1100489009895301 0.33374314175173209 0 0.13264273129131951 0.33439404788472138 0 0.1100489009895301 0.33374314175173209 0 0.099713977183769634 0.31807175575135088 0 0.11954567143249289 0.30734763112478491 0 0.1100489009895301 0.33374314175173209 0 0.11954567143249289 0.30734763112478491 0 0.13264273129131951 0.33439404788472138 0 0.1100489009895301 0.33374314175173209 0 0.11954567143249289 0.30734763112478491 0 0.1100489009895301 0.33374314175173209 0 0.099713977183769634 0.31807175575135088 0 0.083894735805945045 0.32735700357097808 0 0.1100489009895301 0.33374314175173209 0 0.083894735805945045 0.32735700357097808 0 0.08625589277749264 0.346999797836966 0 0.083894735805945045 0.32735700357097808 0 0.068148884279383815 0.34110740296781622 0 0.08625589277749264 0.346999797836966 0 0.099713977183769634 0.31807175575135088 0 0.083894735805945045 0.32735700357097808 0 0.079241751540062577 0.3091409184095229 0 0.083894735805945045 0.32735700357097808 0 0.067542665246266162 0.32227296773822012 0 0.079241751540062577 0.3091409184095229 0 0.067542665246266162 0.32227296773822012 0 0.068148884279383815 0.34110740296781622 0 0.052098030758102709 0.32848813316288678 0 0.083894735805945045 0.32735700357097808 0 0.067542665246266162 0.32227296773822012 0 0.068148884279383815 0.34110740296781622 0 0.068148884279383815 0.34110740296781622 0 0.072981575438615956 0.35429511825148829 0 0.08625589277749264 0.346999797836966 0 0.068148884279383815 0.34110740296781622 0 0.072981575438615956 0.35429511825148829 0 0.059971533893319953 0.35265308331869138 0 0.072981575438615956 0.35429511825148829 0 0.066555082361941326 0.36578627017444021 0 0.059971533893319953 0.35265308331869138 0 0.10055213054656729 0.36013865237867942 0 0.08625589277749264 0.346999797836966 0 0.081229983254247365 0.36650003300062722 0 0.072981575438615956 0.35429511825148829 0 0.08625589277749264 0.346999797836966 0 0.081229983254247365 0.36650003300062722 0 0.087739402474845588 0.37833299208434412 0 0.1069344999541316 0.36147573913557879 0 0.081229983254247365 0.36650003300062722 0 0.069041936002645535 0.37820082441249081 0 0.087739402474845588 0.37833299208434412 0 0.081229983254247365 0.36650003300062722 0 0.069041936002645535 0.37820082441249081 0 0.081229983254247365 0.36650003300062722 0 0.066555082361941326 0.36578627017444021 0 0.072981575438615956 0.35429511825148829 0 0.081229983254247365 0.36650003300062722 0 0.066555082361941326 0.36578627017444021 0 0.069041936002645535 0.37820082441249081 0 0.066555082361941326 0.36578627017444021 0 0.059721524030669819 0.37431687333309788 0 0.055929998057201551 0.36692607577369102 0 0.050307067216076778 0.37158640017128619 0 0.041108453413194898 0.34669476624024848 0 0.066555082361941326 0.36578627017444021 0 0.059721524030669819 0.37431687333309788 0 0.055929998057201551 0.36692607577369102 0 0.059721524030669819 0.37431687333309788 0 0.055929998057201551 0.36692607577369102 0 0.050307067216076778 0.37158640017128619 0 0.066555082361941326 0.36578627017444021 0 0.055929998057201551 0.36692607577369102 0 0.059971533893319953 0.35265308331869138 0 0.055929998057201551 0.36692607577369102 0 0.050307067216076778 0.37158640017128619 0 0.055929998057201551 0.36692607577369102 0 0.059971533893319953 0.35265308331869138 0 0.041108453413194898 0.34669476624024848 0 0.059971533893319953 0.35265308331869138 0 0.041108453413194898 0.34669476624024848 0 0.053731959496234848 0.34189436452501393 0 0.068148884279383815 0.34110740296781622 0 0.059971533893319953 0.35265308331869138 0 0.053731959496234848 0.34189436452501393 0 0.050307067216076778 0.37158640017128619 0 0.041108453413194898 0.34669476624024848 0 0.036325720293778493 0.35734230210966361 0 0.050307067216076778 0.37158640017128619 0 0.041108453413194898 0.34669476624024848 0 0.041108453413194898 0.34669476624024848 0 0.036325720293778493 0.35734230210966361 0 0.028822601092593811 0.34272768621728472 0 0.034519904376963118 0.38467091111880503 0 0.036565816098641138 0.36791040757449411 0 0.02482466364838485 0.35779225034500489 0 0.034519904376963118 0.38467091111880503 0 0.050307067216076778 0.37158640017128619 0 0.036565816098641138 0.36791040757449411 0 0.050307067216076778 0.37158640017128619 0 0.036325720293778493 0.35734230210966361 0 0.036565816098641138 0.36791040757449411 0 0.036325720293778493 0.35734230210966361 0 0.036565816098641138 0.36791040757449411 0 0.02482466364838485 0.35779225034500489 0 0.034519904376963118 0.38467091111880503 0 0.02482466364838485 0.35779225034500489 0 0.0197357255374827 0.37571737083264412 0 0.034519904376963118 0.38467091111880503 0 0.02482466364838485 0.35779225034500489 0 0.0197357255374827 0.37571737083264412 0 0.015674273695437339 0.36401306951764911 0 0.02482466364838485 0.35779225034500489 0 0.015674273695437339 0.36401306951764911 0 0.02482466364838485 0.35779225034500489 0 0.015768167676543349 0.35713923686247862 0 0.02482466364838485 0.35779225034500489 0 0.01512942291980679 0.33091358957120492 0 0.02482466364838485 0.35779225034500489 0 0.01512942291980679 0.33091358957120492 0 0.028822601092593811 0.34272768621728472 0 0.036325720293778493 0.35734230210966361 0 0.02482466364838485 0.35779225034500489 0 0.028822601092593811 0.34272768621728472 0 0.02482466364838485 0.35779225034500489 0 0.012196298529549159 0.34905700984651278 0 0.01512942291980679 0.33091358957120492 0 0.02482466364838485 0.35779225034500489 0 0.015768167676543349 0.35713923686247862 0 0.012196298529549159 0.34905700984651278 0 0.01037743483280206 0.35769461774074762 0 0.012196298529549159 0.34905700984651278 0 0.0032447233134405931 0.35422125060834359 0 0.015768167676543349 0.35713923686247862 0 0.01037743483280206 0.35769461774074762 0 0.012196298529549159 0.34905700984651278 0 -0.002583240235104544 0.34489224502179239 0 0.012196298529549159 0.34905700984651278 0 0.0065182143906638264 0.33911035096943482 0 -0.002583240235104544 0.34489224502179239 0 0.012196298529549159 0.34905700984651278 0 0.0032447233134405931 0.35422125060834359 0 0.01037743483280206 0.35769461774074762 0 0.0032447233134405931 0.35422125060834359 0 0.0039428335920915006 0.36531030276633031 0 -0.0064988099748367559 0.35299106404641623 0 0.0032447233134405931 0.35422125060834359 0 0.0039428335920915006 0.36531030276633031 0 -0.001064505034491721 0.37161458349227261 0 0.015674273695437339 0.36401306951764911 0 0.0039428335920915006 0.36531030276633031 0 -0.001064505034491721 0.37161458349227261 0 0.015674273695437339 0.36401306951764911 0 0.011110712074150059 0.37343232972227269 0 -0.001064505034491721 0.37161458349227261 0 0.015674273695437339 0.36401306951764911 0 0.0197357255374827 0.37571737083264412 0 0.015674273695437339 0.36401306951764911 0 0.011110712074150059 0.37343232972227269 0 0.015674273695437339 0.36401306951764911 0 0.01037743483280206 0.35769461774074762 0 0.0039428335920915006 0.36531030276633031 0 0.015674273695437339 0.36401306951764911 0 0.015768167676543349 0.35713923686247862 0 0.01037743483280206 0.35769461774074762 0 -0.00058836015198596755 0.32088344941533808 0 0.01512942291980679 0.33091358957120492 0 0.0054341821912287152 0.30403492879740468 0 0.01512942291980679 0.33091358957120492 0 0.0054341821912287152 0.30403492879740468 0 0.01512942291980679 0.33091358957120492 0 0.018796167632194181 0.3134157872639986 0 0.0054341821912287152 0.30403492879740468 0 0.012196298529549159 0.34905700984651278 0 0.01512942291980679 0.33091358957120492 0 0.0065182143906638264 0.33911035096943482 0 -0.0025616559074486049 0.3329031852911295 0 -0.00058836015198596755 0.32088344941533808 0 0.01512942291980679 0.33091358957120492 0 -0.0025616559074486049 0.3329031852911295 0 0.01512942291980679 0.33091358957120492 0 0.0065182143906638264 0.33911035096943482 0 -0.0025616559074486049 0.3329031852911295 0 -0.002583240235104544 0.34489224502179239 0 0.0065182143906638264 0.33911035096943482 0 0.01512942291980679 0.33091358957120492 0 0.028822601092593811 0.34272768621728472 0 0.031909839610312053 0.3218031323092112 0 0.01512942291980679 0.33091358957120492 0 0.018796167632194181 0.3134157872639986 0 0.031909839610312053 0.3218031323092112 0 0.031909839610312053 0.3218031323092112 0 0.052098030758102709 0.32848813316288678 0 0.054329923847836643 0.30527138057989611 0 0.041108453413194898 0.34669476624024848 0 0.031909839610312053 0.3218031323092112 0 0.041108453413194898 0.34669476624024848 0 0.028822601092593811 0.34272768621728472 0 0.031909839610312053 0.3218031323092112 0 0.041108453413194898 0.34669476624024848 0 0.031909839610312053 0.3218031323092112 0 0.052098030758102709 0.32848813316288678 0 0.041108453413194898 0.34669476624024848 0 0.052098030758102709 0.32848813316288678 0 0.053731959496234848 0.34189436452501393 0 0.068148884279383815 0.34110740296781622 0 0.052098030758102709 0.32848813316288678 0 0.053731959496234848 0.34189436452501393 0 0.067542665246266162 0.32227296773822012 0 0.052098030758102709 0.32848813316288678 0 0.054329923847836643 0.30527138057989611 0 0.054329923847836643 0.30527138057989611 0 0.058643640903709077 0.2841886380467647 0 0.070108093408202884 0.28237758711201172 0 0.054329923847836643 0.30527138057989611 0 0.058643640903709077 0.2841886380467647 0 0.046708945964444748 0.28470371633566799 0 0.054329923847836643 0.30527138057989611 0 0.070108093408202884 0.28237758711201172 0 0.033299114928103571 0.2853556706935409 0 0.038381760441483573 0.30030485014671859 0 0.022711225807429191 0.29691149837817382 0 0.054329923847836643 0.30527138057989611 0 0.046708945964444748 0.28470371633566799 0 0.038381760441483573 0.30030485014671859 0 0.046708945964444748 0.28470371633566799 0 0.033299114928103571 0.2853556706935409 0 0.038381760441483573 0.30030485014671859 0 0.031909839610312053 0.3218031323092112 0 0.054329923847836643 0.30527138057989611 0 0.038381760441483573 0.30030485014671859 0 0.031909839610312053 0.3218031323092112 0 0.022711225807429191 0.29691149837817382 0 0.018796167632194181 0.3134157872639986 0 0.031909839610312053 0.3218031323092112 0 0.022711225807429191 0.29691149837817382 0 0.018796167632194181 0.3134157872639986 0 0.022711225807429191 0.29691149837817382 0 0.0054341821912287152 0.30403492879740468 0 0.031909839610312053 0.3218031323092112 0 0.038381760441483573 0.30030485014671859 0 0.022711225807429191 0.29691149837817382 0 0.022711225807429191 0.29691149837817382 0 0.0097135815956244098 0.28932323485025419 0 0.01496997692118909 0.27919024420183391 0 0.033299114928103571 0.2853556706935409 0 0.022711225807429191 0.29691149837817382 0 0.01496997692118909 0.27919024420183391 0 -0.0042610585373493576 0.2771562680236046 0 0.0097135815956244098 0.28932323485025419 0 0.01496997692118909 0.27919024420183391 0 -0.0042610585373493576 0.2771562680236046 0 0.0097135815956244098 0.28932323485025419 0 0.0054341821912287152 0.30403492879740468 0 0.022711225807429191 0.29691149837817382 0 0.0097135815956244098 0.28932323485025419 0 0.0054341821912287152 0.30403492879740468 0 -0.0042610585373493576 0.2771562680236046 0 0.0054341821912287152 0.30403492879740468 0 0.012156823249103331 0.25259817100369902 0 0.0071094060709509964 0.26564087220093879 0 0.023079021189564172 0.26593697868694532 0 -0.0082457657602449386 0.25246627485226031 0 0.012156823249103331 0.25259817100369902 0 0.0071094060709509964 0.26564087220093879 0 0.0071094060709509964 0.26564087220093879 0 0.01496997692118909 0.27919024420183391 0 0.023079021189564172 0.26593697868694532 0 -0.0042610585373493576 0.2771562680236046 0 0.0071094060709509964 0.26564087220093879 0 0.01496997692118909 0.27919024420183391 0 0.033299114928103571 0.2853556706935409 0 0.01496997692118909 0.27919024420183391 0 0.023079021189564172 0.26593697868694532 0 0.012156823249103331 0.25259817100369902 0 0.023079021189564172 0.26593697868694532 0 0.030652172791378579 0.25229956247347313 0 0.023079021189564172 0.26593697868694532 0 0.030652172791378579 0.25229956247347313 0 0.04073495957405681 0.26035892983227987 0 0.044937254539659167 0.2379713478153713 0 0.030652172791378579 0.25229956247347313 0 0.04073495957405681 0.26035892983227987 0 0.033299114928103571 0.2853556706935409 0 0.023079021189564172 0.26593697868694532 0 0.04073495957405681 0.26035892983227987 0 0.033299114928103571 0.2853556706935409 0 0.04073495957405681 0.26035892983227987 0 0.046708945964444748 0.28470371633566799 0 0.033299114928103571 0.2853556706935409 0 0.04073495957405681 0.26035892983227987 0 0.046708945964444748 0.28470371633566799 0 0.04073495957405681 0.26035892983227987 0 0.054656664038459993 0.27221644551962948 0 0.058643640903709077 0.2841886380467647 0 0.046708945964444748 0.28470371633566799 0 0.054656664038459993 0.27221644551962948 0 0.054656664038459993 0.27221644551962948 0 0.05595459183600883 0.25980758553240452 0 0.063151913248908592 0.26702092668087168 0 0.054656664038459993 0.27221644551962948 0 0.063151913248908592 0.26702092668087168 0 0.062868354845155253 0.27542318723842002 0 0.058643640903709077 0.2841886380467647 0 0.054656664038459993 0.27221644551962948 0 0.062868354845155253 0.27542318723842002 0 0.058643640903709077 0.2841886380467647 0 0.062868354845155253 0.27542318723842002 0 0.06481936793225318 0.27971168374165578 0 0.052294646587479003 0.2493466198794505 0 0.04073495957405681 0.26035892983227987 0 0.05595459183600883 0.25980758553240452 0 0.04073495957405681 0.26035892983227987 0 0.054656664038459993 0.27221644551962948 0 0.05595459183600883 0.25980758553240452 0 0.05595459183600883 0.25980758553240452 0 0.066495423171073403 0.25816184380531082 0 0.063151913248908592 0.26702092668087168 0 0.052294646587479003 0.2493466198794505 0 0.05595459183600883 0.25980758553240452 0 0.06034442261467237 0.25120339486286308 0 0.05595459183600883 0.25980758553240452 0 0.06034442261467237 0.25120339486286308 0 0.066495423171073403 0.25816184380531082 0 0.067445722382230539 0.24771064348785149 0 0.066495423171073403 0.25816184380531082 0 0.074707437689247702 0.25389633834412328 0 0.067445722382230539 0.24771064348785149 0 0.06034442261467237 0.25120339486286308 0 0.066495423171073403 0.25816184380531082 0 0.066495423171073403 0.25816184380531082 0 0.070468357435777063 0.2657419037057816 0 0.063151913248908592 0.26702092668087168 0 0.066495423171073403 0.25816184380531082 0 0.074357597956477339 0.26064435546358339 0 0.070468357435777063 0.2657419037057816 0 0.074357597956477339 0.26064435546358339 0 0.075194191089397802 0.26640127341757941 0 0.070468357435777063 0.2657419037057816 0 0.074357597956477339 0.26064435546358339 0 0.080427883817154544 0.25791465254204288 0 0.078852294536213494 0.26175012096666261 0 0.074357597956477339 0.26064435546358339 0 0.078852294536213494 0.26175012096666261 0 0.075194191089397802 0.26640127341757941 0 0.066495423171073403 0.25816184380531082 0 0.074357597956477339 0.26064435546358339 0 0.074707437689247702 0.25389633834412328 0 0.074357597956477339 0.26064435546358339 0 0.074707437689247702 0.25389633834412328 0 0.080427883817154544 0.25791465254204288 0 0.085975255819246227 0.24304742420893821 0 0.080478695998155714 0.25165019938018113 0 0.085886262968569133 0.25948379364412733 0 0.080478695998155714 0.25165019938018113 0 0.080427883817154544 0.25791465254204288 0 0.085886262968569133 0.25948379364412733 0 0.10166443252893551 0.23659000017624271 0 0.085886262968569133 0.25948379364412733 0 0.093061372415253377 0.25945310375487363 0 0.074707437689247702 0.25389633834412328 0 0.080478695998155714 0.25165019938018113 0 0.080427883817154544 0.25791465254204288 0 0.078852294536213494 0.26175012096666261 0 0.085886262968569133 0.25948379364412733 0 0.075194191089397802 0.26640127341757941 0 0.080427883817154544 0.25791465254204288 0 0.078852294536213494 0.26175012096666261 0 0.085886262968569133 0.25948379364412733 0 0.093061372415253377 0.25945310375487363 0 0.088669334409182038 0.27365465257629329 0 0.074192652952093263 0.28111713417870732 0 0.093061372415253377 0.25945310375487363 0 0.074192652952093263 0.28111713417870732 0 0.085886262968569133 0.25948379364412733 0 0.093061372415253377 0.25945310375487363 0 0.074192652952093263 0.28111713417870732 0 0.088669334409182038 0.27365465257629329 0 0.090629520296699906 0.27989165378522829 0 0.096617072050330918 0.27420358010706619 0 0.088669334409182038 0.27365465257629329 0 0.090629520296699906 0.27989165378522829 0 0.083300485689734874 0.28178689503457671 0 0.093061372415253377 0.25945310375487363 0 0.088669334409182038 0.27365465257629329 0 0.097208854645582696 0.26674380090640232 0 0.088669334409182038 0.27365465257629329 0 0.074192652952093263 0.28111713417870732 0 0.083300485689734874 0.28178689503457671 0 0.085886262968569133 0.25948379364412733 0 0.072732619288592745 0.27411268144752271 0 0.070108093408202884 0.28237758711201172 0 0.085886262968569133 0.25948379364412733 0 0.074192652952093263 0.28111713417870732 0 0.070108093408202884 0.28237758711201172 0 0.085886262968569133 0.25948379364412733 0 0.070108093408202884 0.28237758711201172 0 0.085886262968569133 0.25948379364412733 0 0.072732619288592745 0.27411268144752271 0 0.075194191089397802 0.26640127341757941 0 0.072732619288592745 0.27411268144752271 0 0.075194191089397802 0.26640127341757941 0 0.068678803079962825 0.27092621584326698 0 0.075194191089397802 0.26640127341757941 0 0.070468357435777063 0.2657419037057816 0 0.068678803079962825 0.27092621584326698 0 0.068678803079962825 0.27092621584326698 0 0.063151913248908592 0.26702092668087168 0 0.062868354845155253 0.27542318723842002 0 0.070468357435777063 0.2657419037057816 0 0.068678803079962825 0.27092621584326698 0 0.063151913248908592 0.26702092668087168 0 0.072732619288592745 0.27411268144752271 0 0.067657382571945521 0.27685732256942691 0 0.070108093408202884 0.28237758711201172 0 0.067657382571945521 0.27685732256942691 0 0.06481936793225318 0.27971168374165578 0 0.070108093408202884 0.28237758711201172 0 0.072732619288592745 0.27411268144752271 0 0.068678803079962825 0.27092621584326698 0 0.067657382571945521 0.27685732256942691 0 0.067657382571945521 0.27685732256942691 0 0.062868354845155253 0.27542318723842002 0 0.06481936793225318 0.27971168374165578 0 0.068678803079962825 0.27092621584326698 0 0.067657382571945521 0.27685732256942691 0 0.062868354845155253 0.27542318723842002 0 0.058643640903709077 0.2841886380467647 0 0.06481936793225318 0.27971168374165578 0 0.070108093408202884 0.28237758711201172 0 0.054329923847836643 0.30527138057989611 0 0.070108093408202884 0.28237758711201172 0 0.07616196246918229 0.29401120062856562 0 0.070108093408202884 0.28237758711201172 0 0.07616196246918229 0.29401120062856562 0 0.077305327314718786 0.28670206069564769 0 0.074192652952093263 0.28111713417870732 0 0.070108093408202884 0.28237758711201172 0 0.077305327314718786 0.28670206069564769 0 0.054329923847836643 0.30527138057989611 0 0.07616196246918229 0.29401120062856562 0 0.079241751540062577 0.3091409184095229 0 0.067542665246266162 0.32227296773822012 0 0.054329923847836643 0.30527138057989611 0 0.079241751540062577 0.3091409184095229 0 0.07616196246918229 0.29401120062856562 0 0.079241751540062577 0.3091409184095229 0 0.093760017070794913 0.30048783451418309 0 0.099713977183769634 0.31807175575135088 0 0.079241751540062577 0.3091409184095229 0 0.093760017070794913 0.30048783451418309 0 0.07616196246918229 0.29401120062856562 0 0.086675975183887061 0.28808357667035972 0 0.093760017070794913 0.30048783451418309 0 0.074192652952093263 0.28111713417870732 0 0.077305327314718786 0.28670206069564769 0 0.083300485689734874 0.28178689503457671 0 0.077305327314718786 0.28670206069564769 0 0.083300485689734874 0.28178689503457671 0 0.086675975183887061 0.28808357667035972 0 0.07616196246918229 0.29401120062856562 0 0.077305327314718786 0.28670206069564769 0 0.086675975183887061 0.28808357667035972 0 0.090629520296699906 0.27989165378522829 0 0.083300485689734874 0.28178689503457671 0 0.086675975183887061 0.28808357667035972 0 0.090629520296699906 0.27989165378522829 0 0.086675975183887061 0.28808357667035972 0 0.1012207646153751 0.28627192450051492 0 0.086675975183887061 0.28808357667035972 0 0.1012207646153751 0.28627192450051492 0 0.093760017070794913 0.30048783451418309 0 0.099713977183769634 0.31807175575135088 0 0.093760017070794913 0.30048783451418309 0 0.11954567143249289 0.30734763112478491 0 0.1012207646153751 0.28627192450051492 0 0.093760017070794913 0.30048783451418309 0 0.11954567143249289 0.30734763112478491 0 0.11954567143249289 0.30734763112478491 0 0.1141818460752707 0.27714397317686529 0 0.12904244187545569 0.2809521204978378 0 0.1012207646153751 0.28627192450051492 0 0.11954567143249289 0.30734763112478491 0 0.1141818460752707 0.27714397317686529 0 0.11954567143249289 0.30734763112478491 0 0.12904244187545569 0.2809521204978378 0 0.1141818460752707 0.27714397317686529 0 0.11615378911320511 0.26032519799560372 0 0.1048644735931679 0.26655228778042589 0 0.1141818460752707 0.27714397317686529 0 0.11615378911320511 0.26032519799560372 0 0.12904244187545569 0.2809521204978378 0 0.1152979079485152 0.2467056018988516 0 0.1250676346401875 0.24796443701554319 0 0.11615378911320511 0.26032519799560372 0 0.1152979079485152 0.2467056018988516 0 0.11615378911320511 0.26032519799560372 0 0.10650461767427161 0.25132517155921902 0 0.11615378911320511 0.26032519799560372 0 0.1028320207599793 0.25985538031335248 0 0.1048644735931679 0.26655228778042589 0 0.1028320207599793 0.25985538031335248 0 0.097208854645582696 0.26674380090640232 0 0.1048644735931679 0.26655228778042589 0 0.11615378911320511 0.26032519799560372 0 0.1028320207599793 0.25985538031335248 0 0.10650461767427161 0.25132517155921902 0 0.093061372415253377 0.25945310375487363 0 0.1028320207599793 0.25985538031335248 0 0.10650461767427161 0.25132517155921902 0 0.093061372415253377 0.25945310375487363 0 0.1028320207599793 0.25985538031335248 0 0.097208854645582696 0.26674380090640232 0 0.088669334409182038 0.27365465257629329 0 0.097208854645582696 0.26674380090640232 0 0.096617072050330918 0.27420358010706619 0 0.097208854645582696 0.26674380090640232 0 0.096617072050330918 0.27420358010706619 0 0.1048644735931679 0.26655228778042589 0 0.1141818460752707 0.27714397317686529 0 0.096617072050330918 0.27420358010706619 0 0.1048644735931679 0.26655228778042589 0 0.1012207646153751 0.28627192450051492 0 0.1141818460752707 0.27714397317686529 0 0.096617072050330918 0.27420358010706619 0 0.090629520296699906 0.27989165378522829 0 0.1012207646153751 0.28627192450051492 0 0.096617072050330918 0.27420358010706619 0 0.1384713120865835 0.25773302092121009 0 0.12904244187545569 0.2809521204978378 0 0.15915390062653459 0.27760612704708998 0 0.1514273965657848 0.24085309905483679 0 0.1384713120865835 0.25773302092121009 0 0.156278998070083 0.25778272565978 0 0.1384713120865835 0.25773302092121009 0 0.15915390062653459 0.27760612704708998 0 0.156278998070083 0.25778272565978 0 0.1250676346401875 0.24796443701554319 0 0.11615378911320511 0.26032519799560372 0 0.1384713120865835 0.25773302092121009 0 0.11615378911320511 0.26032519799560372 0 0.1384713120865835 0.25773302092121009 0 0.12904244187545569 0.2809521204978378 0 0.11954567143249289 0.30734763112478491 0 0.12904244187545569 0.2809521204978378 0 0.14488164426314301 0.29594920495010729 0 0.11954567143249289 0.30734763112478491 0 0.14488164426314301 0.29594920495010729 0 0.15139514334923471 0.31791608062108467 0 0.14488164426314301 0.29594920495010729 0 0.16637322996135739 0.30016678813796199 0 0.15139514334923471 0.31791608062108467 0 0.12904244187545569 0.2809521204978378 0 0.14488164426314301 0.29594920495010729 0 0.15915390062653459 0.27760612704708998 0 0.14488164426314301 0.29594920495010729 0 0.16637322996135739 0.30016678813796199 0 0.15915390062653459 0.27760612704708998 0 0.16637322996135739 0.30016678813796199 0 0.18265278236186541 0.28020603593405619 0 0.15915390062653459 0.27760612704708998 0 0.16637322996135739 0.30016678813796199 0 0.18588027836364171 0.30417070427619303 0 0.17427563080372541 0.32515257599924119 0 0.16637322996135739 0.30016678813796199 0 0.18588027836364171 0.30417070427619303 0 0.18265278236186541 0.28020603593405619 0 0.18265278236186541 0.28020603593405619 0 0.15915390062653459 0.27760612704708998 0 0.17660728565697029 0.25284173787090108 0 0.18265278236186541 0.28020603593405619 0 0.17660728565697029 0.25284173787090108 0 0.20178717474815569 0.26483037668696541 0 0.1514273965657848 0.24085309905483679 0 0.156278998070083 0.25778272565978 0 0.17660728565697029 0.25284173787090108 0 0.15915390062653459 0.27760612704708998 0 0.156278998070083 0.25778272565978 0 0.17660728565697029 0.25284173787090108 0 0.1971008006350988 0.24422433182354611 0 0.17660728565697029 0.25284173787090108 0 0.20178717474815569 0.26483037668696541 0 0.17660728565697029 0.25284173787090108 0 0.20178717474815569 0.26483037668696541 0 0.18265278236186541 0.28020603593405619 0 0.20178717474815569 0.26483037668696541 0 0.20721699074389299 0.28586320426344869 0 0.20178717474815569 0.26483037668696541 0 0.22696706383934109 0.27681901550302962 0 0.20721699074389299 0.28586320426344869 0 0.20178717474815569 0.26483037668696541 0 0.22696706383934109 0.27681901550302962 0 0.1971008006350988 0.24422433182354611 0 0.20178717474815569 0.26483037668696541 0 0.2257125065402284 0.25431107802280528 0 0.20178717474815569 0.26483037668696541 0 0.2257125065402284 0.25431107802280528 0 0.22696706383934109 0.27681901550302962 0 0.2257125065402284 0.25431107802280528 0 0.23435940432808119 0.2558835225658645 0 0.2376751292839718 0.27741240132337408 0 0.2257125065402284 0.25431107802280528 0 0.22696706383934109 0.27681901550302962 0 0.2376751292839718 0.27741240132337408 0 0.2257125065402284 0.25431107802280528 0 0.2376751292839718 0.27741240132337408 0 0.22696706383934109 0.27681901550302962 0 0.2376751292839718 0.27741240132337408 0 0.2318681827461313 0.28775992326468519 0 0.23435940432808119 0.2558835225658645 0 0.2434397278092077 0.27846069768541332 0 0.2376751292839718 0.27741240132337408 0 0.23435940432808119 0.2558835225658645 0 0.2434397278092077 0.27846069768541332 0 0.23435940432808119 0.2558835225658645 0 0.2434397278092077 0.27846069768541332 0 0.24763005152173001 0.25910176257370959 0 0.2459873280094696 0.23707215699401071 0 0.23435940432808119 0.2558835225658645 0 0.24763005152173001 0.25910176257370959 0 0.24963775202771521 0.30051372462394288 0 0.22557231514573739 0.29747977878921561 0 0.2305146992996441 0.31691702429977642 0 0.2376751292839718 0.27741240132337408 0 0.24963775202771521 0.30051372462394288 0 0.2318681827461313 0.28775992326468519 0 0.2434397278092077 0.27846069768541332 0 0.25252005129033422 0.30103787280496203 0 0.2434397278092077 0.27846069768541332 0 0.2376751292839718 0.27741240132337408 0 0.24963775202771521 0.30051372462394288 0 0.2434397278092077 0.27846069768541332 0 0.24963775202771521 0.30051372462394288 0 0.25252005129033422 0.30103787280496203 0 0.24963775202771521 0.30051372462394288 0 0.2318681827461313 0.28775992326468519 0 0.22557231514573739 0.29747977878921561 0 0.2376751292839718 0.27741240132337408 0 0.24963775202771521 0.30051372462394288 0 0.22696706383934109 0.27681901550302962 0 0.2318681827461313 0.28775992326468519 0 0.22192971392309441 0.28686454206331458 0 0.2318681827461313 0.28775992326468519 0 0.22192971392309441 0.28686454206331458 0 0.22557231514573739 0.29747977878921561 0 0.22557231514573739 0.29747977878921561 0 0.21067009246602381 0.31050760251916348 0 0.2305146992996441 0.31691702429977642 0 0.22557231514573739 0.29747977878921561 0 0.2305146992996441 0.31691702429977642 0 0.22557231514573739 0.29747977878921561 0 0.21067009246602381 0.31050760251916348 0 0.20721699074389299 0.28586320426344869 0 0.22192971392309441 0.28686454206331458 0 0.22557231514573739 0.29747977878921561 0 0.20721699074389299 0.28586320426344869 0 0.22696706383934109 0.27681901550302962 0 0.22192971392309441 0.28686454206331458 0 0.20721699074389299 0.28586320426344869 0 0.18588027836364171 0.30417070427619303 0 0.18265278236186541 0.28020603593405619 0 0.20721699074389299 0.28586320426344869 0 0.18588027836364171 0.30417070427619303 0 0.21067009246602381 0.31050760251916348 0 0.20721699074389299 0.28586320426344869 0 0.18588027836364171 0.30417070427619303 0 0.21067009246602381 0.31050760251916348 0 0.1975742485098208 0.32622361772240582 0 0.1975742485098208 0.32622361772240582 0 0.2097525667536678 0.34137856367538538 0 0.18404805005378369 0.34640285754043382 0 0.1975742485098208 0.32622361772240582 0 0.2097525667536678 0.34137856367538538 0 0.2167937380965417 0.3262762156054137 0 0.21067009246602381 0.31050760251916348 0 0.1975742485098208 0.32622361772240582 0 0.2167937380965417 0.3262762156054137 0 0.21067009246602381 0.31050760251916348 0 0.2167937380965417 0.3262762156054137 0 0.2305146992996441 0.31691702429977642 0 0.2305146992996441 0.31691702429977642 0 0.2354570834535519 0.33635426981033711 0 0.2167937380965417 0.3262762156054137 0 0.2305146992996441 0.31691702429977642 0 0.2354570834535519 0.33635426981033711 0 0.2097525667536678 0.34137856367538538 0 0.2167937380965417 0.3262762156054137 0 0.2354570834535519 0.33635426981033711 0 0.2097525667536678 0.34137856367538538 0 0.2354570834535519 0.33635426981033711 0 0.2097525667536678 0.34137856367538538 0 0.2354570834535519 0.33635426981033711 0 0.22572342153310379 0.35183723080414581 0 0.2354570834535519 0.33635426981033711 0 0.24833100513142109 0.32161764704062729 0 0.26518788721623437 0.33054298393043219 0 0.24963775202771521 0.30051372462394288 0 0.2305146992996441 0.31691702429977642 0 0.24833100513142109 0.32161764704062729 0 0.2305146992996441 0.31691702429977642 0 0.2354570834535519 0.33635426981033711 0 0.24833100513142109 0.32161764704062729 0 0.2354570834535519 0.33635426981033711 0 0.24217950803475169 0.36279199964721098 0 0.25397109136889212 0.34953950795812871 0 0.2354570834535519 0.33635426981033711 0 0.24217950803475169 0.36279199964721098 0 0.22572342153310379 0.35183723080414581 0 0.2354570834535519 0.33635426981033711 0 0.24217950803475169 0.36279199964721098 0 0.24217950803475169 0.36279199964721098 0 0.22572342153310379 0.35183723080414581 0 0.21637712922286109 0.36651385017664678 0 0.24217950803475169 0.36279199964721098 0 0.21637712922286109 0.36651385017664678 0 0.22693728272114971 0.38251641872149622 0 0.2097525667536678 0.34137856367538538 0 0.22572342153310379 0.35183723080414581 0 0.21637712922286109 0.36651385017664678 0 0.2097525667536678 0.34137856367538538 0 0.21637712922286109 0.36651385017664678 0 0.19198276408895759 0.36846918068195189 0 0.2097525667536678 0.34137856367538538 0 0.19198276408895759 0.36846918068195189 0 0.18404805005378369 0.34640285754043382 0 0.2097525667536678 0.34137856367538538 0 0.18404805005378369 0.34640285754043382 0 0.21637712922286109 0.36651385017664678 0 0.19198276408895759 0.36846918068195189 0 0.2008438189570996 0.38963870543367402 0 0.1583435333538997 0.35142715140548209 0 0.18404805005378369 0.34640285754043382 0 0.17157629822801171 0.38002160271682978 0 0.19198276408895759 0.36846918068195189 0 0.18404805005378369 0.34640285754043382 0 0.17157629822801171 0.38002160271682978 0 0.1583435333538997 0.35142715140548209 0 0.14756927440754089 0.37573381366887992 0 0.17157629822801171 0.38002160271682978 0 0.1583435333538997 0.35142715140548209 0 0.18404805005378369 0.34640285754043382 0 0.1583435333538997 0.35142715140548209 0 0.17427563080372541 0.32515257599924119 0 0.15139514334923471 0.31791608062108467 0 0.1975742485098208 0.32622361772240582 0 0.18404805005378369 0.34640285754043382 0 0.17427563080372541 0.32515257599924119 0 0.1583435333538997 0.35142715140548209 0 0.18404805005378369 0.34640285754043382 0 0.17427563080372541 0.32515257599924119 0 0.18588027836364171 0.30417070427619303 0 0.1975742485098208 0.32622361772240582 0 0.17427563080372541 0.32515257599924119 0 0.16637322996135739 0.30016678813796199 0 0.17427563080372541 0.32515257599924119 0 0.15139514334923471 0.31791608062108467 0 0.1583435333538997 0.35142715140548209 0 0.15139514334923471 0.31791608062108467 0 0.13264273129131951 0.33439404788472138 0 0.11954567143249289 0.30734763112478491 0 0.15139514334923471 0.31791608062108467 0 0.13264273129131951 0.33439404788472138 0 0.1165634558871128 0.3492406052842485 0 0.13264273129131951 0.33439404788472138 0 0.1326390166540157 0.35645144527053041 0 0.1326390166540157 0.35645144527053041 0 0.14756927440754089 0.37573381366887992 0 0.12550685613774351 0.37951055496914998 0 0.1583435333538997 0.35142715140548209 0 0.1326390166540157 0.35645144527053041 0 0.14756927440754089 0.37573381366887992 0 0.1583435333538997 0.35142715140548209 0 0.1326390166540157 0.35645144527053041 0 0.1583435333538997 0.35142715140548209 0 0.13264273129131951 0.33439404788472138 0 0.1326390166540157 0.35645144527053041 0 0.1528019220027558 0.40532518960412911 0 0.14756927440754089 0.37573381366887992 0 0.13567422075440499 0.38715007620423969 0 0.14756927440754089 0.37573381366887992 0 0.12550685613774351 0.37951055496914998 0 0.13567422075440499 0.38715007620423969 0 0.1236499924648251 0.3984302041169589 0 0.12550685613774351 0.37951055496914998 0 0.13567422075440499 0.38715007620423969 0 0.1236499924648251 0.3984302041169589 0 0.1528019220027558 0.40532518960412911 0 0.13567422075440499 0.38715007620423969 0 0.1528019220027558 0.40532518960412911 0 0.13502200614688589 0.42010390008240672 0 0.17098438647877001 0.42850314348833868 0 0.13502200614688589 0.42010390008240672 0 0.17098438647877001 0.42850314348833868 0 0.1532788809183856 0.44756588495706878 0 0.1236499924648251 0.3984302041169589 0 0.1528019220027558 0.40532518960412911 0 0.13502200614688589 0.42010390008240672 0 0.1237280261196836 0.44463014715047522 0 0.13502200614688589 0.42010390008240672 0 0.1532788809183856 0.44756588495706878 0 0.1528019220027558 0.40532518960412911 0 0.17098438647877001 0.42850314348833868 0 0.1528019220027558 0.40532518960412911 0 0.17098438647877001 0.42850314348833868 0 0.17902253221663289 0.40492788695933207 0 0.17098438647877001 0.42850314348833868 0 0.19890623541652749 0.42115079355368912 0 0.18916685095478419 0.4516810973725483 0 0.17098438647877001 0.42850314348833868 0 0.17902253221663289 0.40492788695933207 0 0.19890623541652749 0.42115079355368912 0 0.17902253221663289 0.40492788695933207 0 0.17157629822801171 0.38002160271682978 0 0.2008438189570996 0.38963870543367402 0 0.1528019220027558 0.40532518960412911 0 0.17902253221663289 0.40492788695933207 0 0.17157629822801171 0.38002160271682978 0 0.1528019220027558 0.40532518960412911 0 0.14756927440754089 0.37573381366887992 0 0.17157629822801171 0.38002160271682978 0 0.17902253221663289 0.40492788695933207 0 0.2008438189570996 0.38963870543367402 0 0.19890623541652749 0.42115079355368912 0 0.19198276408895759 0.36846918068195189 0 0.17157629822801171 0.38002160271682978 0 0.2008438189570996 0.38963870543367402 0 0.2008438189570996 0.38963870543367402 0 0.22638402477508329 0.40440780886586492 0 0.19890623541652749 0.42115079355368912 0 0.2008438189570996 0.38963870543367402 0 0.22693728272114971 0.38251641872149622 0 0.22638402477508329 0.40440780886586492 0 0.21637712922286109 0.36651385017664678 0 0.2008438189570996 0.38963870543367402 0 0.22693728272114971 0.38251641872149622 0 0.22693728272114971 0.38251641872149622 0 0.22638402477508329 0.40440780886586492 0 0.24890193261595259 0.38922972948408457 0 0.22638402477508329 0.40440780886586492 0 0.24890193261595259 0.38922972948408457 0 0.25562435719715348 0.41566745932095828 0 0.24217950803475169 0.36279199964721098 0 0.24890193261595259 0.38922972948408457 0 0.24217950803475169 0.36279199964721098 0 0.22693728272114971 0.38251641872149622 0 0.24890193261595259 0.38922972948408457 0 0.22638402477508329 0.40440780886586492 0 0.23929670148200641 0.42651558303428039 0 0.25562435719715348 0.41566745932095828 0 0.22638402477508329 0.40440780886586492 0 0.23929670148200641 0.42651558303428039 0 0.21947817947708001 0.42577831055793047 0 0.23929670148200641 0.42651558303428039 0 0.21947817947708001 0.42577831055793047 0 0.23265016418236131 0.44461914726881641 0 0.21947817947708001 0.42577831055793047 0 0.19890623541652749 0.42115079355368912 0 0.21144352365240529 0.44700262568134053 0 0.22638402477508329 0.40440780886586492 0 0.21947817947708001 0.42577831055793047 0 0.19890623541652749 0.42115079355368912 0 0.19890623541652749 0.42115079355368912 0 0.18916685095478419 0.4516810973725483 0 0.21144352365240529 0.44700262568134053 0 0.18916685095478419 0.4516810973725483 0 0.20734931543079829 0.47485905125675792 0 0.18916685095478419 0.4516810973725483 0 0.21144352365240529 0.44700262568134053 0 0.20734931543079829 0.47485905125675792 0 0.21144352365240529 0.44700262568134053 0 0.22111039645288069 0.46392735407830132 0 0.20734931543079829 0.47485905125675792 0 0.21144352365240529 0.44700262568134053 0 0.23265016418236131 0.44461914726881641 0 0.22111039645288069 0.46392735407830132 0 0.21947817947708001 0.42577831055793047 0 0.21144352365240529 0.44700262568134053 0 0.23265016418236131 0.44461914726881641 0 0.23265016418236131 0.44461914726881641 0 0.22111039645288069 0.46392735407830132 0 0.24508980140621781 0.46623513653650361 0 0.22111039645288069 0.46392735407830132 0 0.24508980140621781 0.46623513653650361 0 0.23265016418236131 0.44461914726881641 0 0.24508980140621781 0.46623513653650361 0 0.26234678177835441 0.44210518915783192 0 0.23929670148200641 0.42651558303428039 0 0.23265016418236131 0.44461914726881641 0 0.26234678177835441 0.44210518915783192 0 0.2479606543192433 0.5 0 0.23772208332050199 0.48786840683281429 0 0.2255317799068125 0.49803700514096738 0 0.2479606543192433 0.5 0 0.23772208332050199 0.48786840683281429 0 0.25513941322049821 0.48355515434954122 0 0.24508980140621781 0.46623513653650361 0 0.23688712964706901 0.4763018139788181 0 0.25513941322049821 0.48355515434954122 0 0.23772208332050199 0.48786840683281429 0 0.23688712964706901 0.4763018139788181 0 0.25513941322049821 0.48355515434954122 0 0.22111039645288069 0.46392735407830132 0 0.23688712964706901 0.4763018139788181 0 0.22537395383524639 0.47992301809693011 0 0.22537395383524639 0.47992301809693011 0 0.2255317799068125 0.49803700514096738 0 0.20734931543079829 0.47485905125675792 0 0.23772208332050199 0.48786840683281429 0 0.23688712964706901 0.4763018139788181 0 0.22537395383524639 0.47992301809693011 0 0.22111039645288069 0.46392735407830132 0 0.24508980140621781 0.46623513653650361 0 0.23688712964706901 0.4763018139788181 0 0.23772208332050199 0.48786840683281429 0 0.22537395383524639 0.47992301809693011 0 0.2255317799068125 0.49803700514096738 0 0.2479606543192433 0.5 0 0.21885338771805021 0.5 0 0.2255317799068125 0.49803700514096738 0 0.21885338771805021 0.5 0 0.2255317799068125 0.49803700514096738 0 0.20734931543079829 0.47485905125675792 0 0.21885338771805021 0.5 0 0.20734931543079829 0.47485905125675792 0 0.1897461211168571 0.5 0 0.2255317799068125 0.49803700514096738 0 0.20734931543079829 0.47485905125675792 0 0.22111039645288069 0.46392735407830132 0 0.22537395383524639 0.47992301809693011 0 0.20734931543079829 0.47485905125675792 0 0.18916685095478419 0.4516810973725483 0 0.20734931543079829 0.47485905125675792 0 0.18375498264642379 0.4799820804674747 0 0.20734931543079829 0.47485905125675792 0 0.1897461211168571 0.5 0 0.18375498264642379 0.4799820804674747 0 0.1897461211168571 0.5 0 0.1606388545156639 0.5 0 0.18375498264642379 0.4799820804674747 0 0.1606388545156639 0.5 0 0.16284299929429041 0.47286735670979418 0 0.18375498264642379 0.4799820804674747 0 0.17098438647877001 0.42850314348833868 0 0.18916685095478419 0.4516810973725483 0 0.1532788809183856 0.44756588495706878 0 0.18916685095478419 0.4516810973725483 0 0.16284299929429041 0.47286735670979418 0 0.18375498264642379 0.4799820804674747 0 0.18916685095478419 0.4516810973725483 0 0.16284299929429041 0.47286735670979418 0 0.1532788809183856 0.44756588495706878 0 0.17098438647877001 0.42850314348833868 0 0.18916685095478419 0.4516810973725483 0 0.16284299929429041 0.47286735670979418 0 0.1532788809183856 0.44756588495706878 0 0.13792901651589951 0.46760966493884959 0 0.1160915578241386 0.4641835533930308 0 0.1237280261196836 0.44463014715047522 0 0.13792901651589951 0.46760966493884959 0 0.1237280261196836 0.44463014715047522 0 0.1532788809183856 0.44756588495706878 0 0.13792901651589951 0.46760966493884959 0 0.1146358595090817 0.48605788153156299 0 0.13792901651589951 0.46760966493884959 0 0.14375381424303349 0.48699105670781317 0 0.1146358595090817 0.48605788153156299 0 0.13153158791447089 0.50000000000000033 0 0.14375381424303349 0.48699105670781317 0 0.1606388545156639 0.5 0 0.13153158791447089 0.50000000000000033 0 0.14375381424303349 0.48699105670781317 0 0.1606388545156639 0.5 0 0.16284299929429041 0.47286735670979418 0 0.14375381424303349 0.48699105670781317 0 0.16284299929429041 0.47286735670979418 0 0.13792901651589951 0.46760966493884959 0 0.14375381424303349 0.48699105670781317 0 0.35818797179075601 0.47458138126870081 0 0.34642182508771258 0.48585203466637861 0 0.33573625410597768 0.47071191077640329 0 0.35818797179075601 0.47458138126870081 0 0.34642182508771258 0.48585203466637861 0 0.35839011049240282 0.5 0 0.34642182508771258 0.48585203466637861 0 0.35839011049240282 0.5 0 0.33128271396841408 0.5 0 0.35818797179075601 0.47458138126870081 0 0.35839011049240282 0.5 0 0.37951078222479251 0.47868038482078018 0 0.35839011049240282 0.5 0 0.37951078222479251 0.47868038482078018 0 0.38549750701639152 0.5 0 0.35818797179075601 0.47458138126870081 0 0.37565915938479377 0.45849116020829678 0 0.37951078222479251 0.47868038482078018 0 0.35818797179075601 0.47458138126870081 0 0.35384759317055892 0.4558722467826386 0 0.37565915938479377 0.45849116020829678 0 0.3672128213662551 0.44140310366938379 0 0.35384759317055892 0.4558722467826386 0 0.37565915938479377 0.45849116020829678 0 0.35041805056504127 0.44039830756831011 0 0.35384759317055892 0.4558722467826386 0 0.33587130181052999 0.44964761720473639 0 0.3672128213662551 0.44140310366938379 0 0.35041805056504127 0.44039830756831011 0 0.35384759317055892 0.4558722467826386 0 0.35818797179075601 0.47458138126870081 0 0.35384759317055892 0.4558722467826386 0 0.33573625410597768 0.47071191077640329 0 0.33587130181052999 0.44964761720473639 0 0.32245641590876828 0.45710047073305682 0 0.33573625410597768 0.47071191077640329 0 0.35384759317055892 0.4558722467826386 0 0.33587130181052999 0.44964761720473639 0 0.33573625410597768 0.47071191077640329 0 0.35041805056504127 0.44039830756831011 0 0.33587130181052999 0.44964761720473639 0 0.34011375395909899 0.42827966665244982 0 0.33587130181052999 0.44964761720473639 0 0.32313042491148092 0.43915640659962429 0 0.34011375395909899 0.42827966665244982 0 0.33587130181052999 0.44964761720473639 0 0.32313042491148092 0.43915640659962429 0 0.32245641590876828 0.45710047073305682 0 0.32313042491148092 0.43915640659962429 0 0.32245641590876828 0.45710047073305682 0 0.3069723578181176 0.44921026163567479 0 0.32313042491148092 0.43915640659962429 0 0.3069723578181176 0.44921026163567479 0 0.30967478190587899 0.43248339293908478 0 0.32245641590876828 0.45710047073305682 0 0.31479002533830769 0.47294309924184441 0 0.33573625410597768 0.47071191077640329 0 0.32245641590876828 0.45710047073305682 0 0.31479002533830769 0.47294309924184441 0 0.3069723578181176 0.44921026163567479 0 0.31479002533830769 0.47294309924184441 0 0.33573625410597768 0.47071191077640329 0 0.33128271396841408 0.5 0 0.34642182508771258 0.48585203466637861 0 0.33573625410597768 0.47071191077640329 0 0.33128271396841408 0.5 0 0.31479002533830769 0.47294309924184441 0 0.33128271396841408 0.5 0 0.30417531744442527 0.5 0 0.31479002533830769 0.47294309924184441 0 0.30417531744442527 0.5 0 0.29074220063683293 0.48758109823480927 0 0.31479002533830769 0.47294309924184441 0 0.29192961584893129 0.47074300911827521 0 0.29074220063683293 0.48758109823480927 0 0.31479002533830769 0.47294309924184441 0 0.29192961584893129 0.47074300911827521 0 0.29192961584893129 0.47074300911827521 0 0.29074220063683293 0.48758109823480927 0 0.27306856363999571 0.4842714594973539 0 0.30417531744442527 0.5 0 0.29074220063683293 0.48758109823480927 0 0.27706792092043642 0.500000000000002 0 0.27706792092043642 0.500000000000002 0 0.27306856363999571 0.4842714594973539 0 0.25513941322049821 0.48355515434954122 0 0.29074220063683293 0.48758109823480927 0 0.27706792092043642 0.500000000000002 0 0.27306856363999571 0.4842714594973539 0 0.27706792092043642 0.500000000000002 0 0.27306856363999571 0.4842714594973539 0 0.29192961584893129 0.47074300911827521 0 0.26906920635955489 0.46854291899470579 0 0.27306856363999571 0.4842714594973539 0 0.25513941322049821 0.48355515434954122 0 0.26906920635955489 0.46854291899470579 0 0.29192961584893129 0.47074300911827521 0 0.27306856363999571 0.4842714594973539 0 0.26906920635955489 0.46854291899470579 0 0.27306856363999571 0.4842714594973539 0 0.26906920635955489 0.46854291899470579 0 0.24508980140621781 0.46623513653650361 0 0.25513941322049821 0.48355515434954122 0 0.26906920635955489 0.46854291899470579 0 0.2479606543192433 0.5 0 0.27706792092043642 0.500000000000002 0 0.25513941322049821 0.48355515434954122 0 0.24508980140621781 0.46623513653650361 0 0.26906920635955489 0.46854291899470579 0 0.24508980140621781 0.46623513653650361 0 0.26234678177835441 0.44210518915783192 0 0.26906920635955489 0.46854291899470579 0 0.29192961584893129 0.47074300911827521 0 0.26906920635955489 0.46854291899470579 0 0.2825318911539082 0.44937975844880462 0 0.26234678177835441 0.44210518915783192 0 0.26906920635955489 0.46854291899470579 0 0.26234678177835441 0.44210518915783192 0 0.26906920635955489 0.46854291899470579 0 0.2825318911539082 0.44937975844880462 0 0.26234678177835441 0.44210518915783192 0 0.2825318911539082 0.44937975844880462 0 0.2735489225425754 0.42398780939214897 0 0.2825318911539082 0.44937975844880462 0 0.3069723578181176 0.44921026163567479 0 0.29424437368670248 0.43173942196487358 0 0.29192961584893129 0.47074300911827521 0 0.2825318911539082 0.44937975844880462 0 0.3069723578181176 0.44921026163567479 0 0.31479002533830769 0.47294309924184441 0 0.29192961584893129 0.47074300911827521 0 0.3069723578181176 0.44921026163567479 0 0.3069723578181176 0.44921026163567479 0 0.30967478190587899 0.43248339293908478 0 0.29424437368670248 0.43173942196487358 0 0.30967478190587899 0.43248339293908478 0 0.3045281829251868 0.41996349248923659 0 0.31949857018790712 0.42234738200601463 0 0.30967478190587899 0.43248339293908478 0 0.3045281829251868 0.41996349248923659 0 0.29424437368670248 0.43173942196487358 0 0.31221380766262308 0.41141105291454111 0 0.3045281829251868 0.41996349248923659 0 0.30175255758949709 0.40539483602959481 0 0.31221380766262308 0.41141105291454111 0 0.3045281829251868 0.41996349248923659 0 0.31949857018790712 0.42234738200601463 0 0.3045281829251868 0.41996349248923659 0 0.29116822628179151 0.41527777958226658 0 0.30175255758949709 0.40539483602959481 0 0.29116822628179151 0.41527777958226658 0 0.2735489225425754 0.42398780939214897 0 0.28009549588900451 0.40671294327225221 0 0.29116822628179151 0.41527777958226658 0 0.29046685710439091 0.40365495696152731 0 0.30175255758949709 0.40539483602959481 0 0.29116822628179151 0.41527777958226658 0 0.28009549588900451 0.40671294327225221 0 0.29046685710439091 0.40365495696152731 0 0.29116822628179151 0.41527777958226658 0 0.29424437368670248 0.43173942196487358 0 0.2735489225425754 0.42398780939214897 0 0.3045281829251868 0.41996349248923659 0 0.29116822628179151 0.41527777958226658 0 0.29424437368670248 0.43173942196487358 0 0.2825318911539082 0.44937975844880462 0 0.29424437368670248 0.43173942196487358 0 0.2735489225425754 0.42398780939214897 0 0.2735489225425754 0.42398780939214897 0 0.28009549588900451 0.40671294327225221 0 0.26594594197715632 0.40587542564026857 0 0.2735489225425754 0.42398780939214897 0 0.25562435719715348 0.41566745932095828 0 0.26594594197715632 0.40587542564026857 0 0.26234678177835441 0.44210518915783192 0 0.25562435719715348 0.41566745932095828 0 0.23929670148200641 0.42651558303428039 0 0.26234678177835441 0.44210518915783192 0 0.25562435719715348 0.41566745932095828 0 0.26234678177835441 0.44210518915783192 0 0.2735489225425754 0.42398780939214897 0 0.25562435719715348 0.41566745932095828 0 0.24890193261595259 0.38922972948408457 0 0.27155900164109531 0.39377918673189899 0 0.26817635423288699 0.37969346344739391 0 0.24890193261595259 0.38922972948408457 0 0.26817635423288699 0.37969346344739391 0 0.26082178769032438 0.36496323128775521 0 0.24890193261595259 0.38922972948408457 0 0.25562435719715348 0.41566745932095828 0 0.24890193261595259 0.38922972948408457 0 0.27155900164109531 0.39377918673189899 0 0.26594594197715632 0.40587542564026857 0 0.24890193261595259 0.38922972948408457 0 0.25562435719715348 0.41566745932095828 0 0.26594594197715632 0.40587542564026857 0 0.28009549588900451 0.40671294327225221 0 0.27155900164109531 0.39377918673189899 0 0.26594594197715632 0.40587542564026857 0 0.28009549588900451 0.40671294327225221 0 0.27155900164109531 0.39377918673189899 0 0.2841626669368148 0.39603484022980262 0 0.27155900164109531 0.39377918673189899 0 0.27917556467927279 0.38707504911542251 0 0.2841626669368148 0.39603484022980262 0 0.27917556467927279 0.38707504911542251 0 0.27737653217987568 0.3763299637903077 0 0.28641533258273322 0.38531457319514678 0 0.27155900164109531 0.39377918673189899 0 0.27917556467927279 0.38707504911542251 0 0.26817635423288699 0.37969346344739391 0 0.26817635423288699 0.37969346344739391 0 0.27737653217987568 0.3763299637903077 0 0.26995518240551242 0.36922466410125959 0 0.27917556467927279 0.38707504911542251 0 0.26817635423288699 0.37969346344739391 0 0.27737653217987568 0.3763299637903077 0 0.27917556467927279 0.38707504911542251 0 0.28749669470930389 0.39059918652862902 0 0.28641533258273322 0.38531457319514678 0 0.28749669470930389 0.39059918652862902 0 0.28641533258273322 0.38531457319514678 0 0.29321390271680048 0.38636149671614523 0 0.28641533258273322 0.38531457319514678 0 0.29321390271680048 0.38636149671614523 0 0.29155132770994241 0.38145409056705559 0 0.28749669470930389 0.39059918652862902 0 0.29321390271680048 0.38636149671614523 0 0.2951553388248469 0.39485438569372039 0 0.29321390271680048 0.38636149671614523 0 0.2951553388248469 0.39485438569372039 0 0.30172663999730548 0.38411556817588999 0 0.2951337916801352 0.37545299726164849 0 0.29155132770994241 0.38145409056705559 0 0.29028041611347422 0.37131190521640561 0 0.29650911823343812 0.38027524721939082 0 0.2951337916801352 0.37545299726164849 0 0.29155132770994241 0.38145409056705559 0 0.29321390271680048 0.38636149671614523 0 0.29650911823343812 0.38027524721939082 0 0.29155132770994241 0.38145409056705559 0 0.28009549588900451 0.40671294327225221 0 0.2841626669368148 0.39603484022980262 0 0.29046685710439091 0.40365495696152731 0 0.27917556467927279 0.38707504911542251 0 0.28749669470930389 0.39059918652862902 0 0.2841626669368148 0.39603484022980262 0 0.28749669470930389 0.39059918652862902 0 0.2841626669368148 0.39603484022980262 0 0.2951553388248469 0.39485438569372039 0 0.2841626669368148 0.39603484022980262 0 0.2951553388248469 0.39485438569372039 0 0.29046685710439091 0.40365495696152731 0 0.2951553388248469 0.39485438569372039 0 0.29046685710439091 0.40365495696152731 0 0.30175255758949709 0.40539483602959481 0 0.2951553388248469 0.39485438569372039 0 0.30416997859767031 0.39496190780794832 0 0.30172663999730548 0.38411556817588999 0 0.2951553388248469 0.39485438569372039 0 0.30175255758949709 0.40539483602959481 0 0.30416997859767031 0.39496190780794832 0 0.30416997859767031 0.39496190780794832 0 0.31194754139156228 0.39992908639018659 0 0.31058504665001713 0.38993607806902841 0 0.31221380766262308 0.41141105291454111 0 0.30175255758949709 0.40539483602959481 0 0.31194754139156228 0.39992908639018659 0 0.30175255758949709 0.40539483602959481 0 0.30416997859767031 0.39496190780794832 0 0.31194754139156228 0.39992908639018659 0 0.29650911823343812 0.38027524721939082 0 0.30172663999730548 0.38411556817588999 0 0.30091992906300691 0.3739920833762147 0 0.30172663999730548 0.38411556817588999 0 0.31077839752677883 0.37658419253607489 0 0.30091992906300691 0.3739920833762147 0 0.29650911823343812 0.38027524721939082 0 0.2951337916801352 0.37545299726164849 0 0.30091992906300691 0.3739920833762147 0 0.29321390271680048 0.38636149671614523 0 0.29650911823343812 0.38027524721939082 0 0.30172663999730548 0.38411556817588999 0 0.30416997859767031 0.39496190780794832 0 0.30172663999730548 0.38411556817588999 0 0.31058504665001713 0.38993607806902841 0 0.30172663999730548 0.38411556817588999 0 0.31058504665001713 0.38993607806902841 0 0.31077839752677883 0.37658419253607489 0 0.31077839752677883 0.37658419253607489 0 0.31867525833463911 0.38494833593070971 0 0.32306703930603953 0.37623237809600169 0 0.31058504665001713 0.38993607806902841 0 0.31867525833463911 0.38494833593070971 0 0.31878199461777879 0.39362573130725731 0 0.31058504665001713 0.38993607806902841 0 0.31077839752677883 0.37658419253607489 0 0.31867525833463911 0.38494833593070971 0 0.31867525833463911 0.38494833593070971 0 0.32306703930603953 0.37623237809600169 0 0.32934203852673438 0.38871677178939867 0 0.31867525833463911 0.38494833593070971 0 0.32934203852673438 0.38871677178939867 0 0.31878199461777879 0.39362573130725731 0 0.32306703930603953 0.37623237809600169 0 0.33555471090824662 0.37714848622012531 0 0.32934203852673438 0.38871677178939867 0 0.33555471090824662 0.37714848622012531 0 0.32934203852673438 0.38871677178939867 0 0.34865402358820241 0.38746960960344728 0 0.32934203852673438 0.38871677178939867 0 0.33838050486014071 0.40132571833470809 0 0.34865402358820241 0.38746960960344728 0 0.32934203852673438 0.38871677178939867 0 0.33838050486014071 0.40132571833470809 0 0.32336008818594092 0.40459838435696299 0 0.32934203852673438 0.38871677178939867 0 0.32336008818594092 0.40459838435696299 0 0.31878199461777879 0.39362573130725731 0 0.31194754139156228 0.39992908639018659 0 0.31058504665001713 0.38993607806902841 0 0.31878199461777879 0.39362573130725731 0 0.31221380766262308 0.41141105291454111 0 0.31194754139156228 0.39992908639018659 0 0.32336008818594092 0.40459838435696299 0 0.31194754139156228 0.39992908639018659 0 0.32336008818594092 0.40459838435696299 0 0.31878199461777879 0.39362573130725731 0 0.31221380766262308 0.41141105291454111 0 0.32336008818594092 0.40459838435696299 0 0.31949857018790712 0.42234738200601463 0 0.32336008818594092 0.40459838435696299 0 0.31949857018790712 0.42234738200601463 0 0.33335541567677851 0.41413927737501682 0 0.32313042491148092 0.43915640659962429 0 0.31949857018790712 0.42234738200601463 0 0.34011375395909899 0.42827966665244982 0 0.32313042491148092 0.43915640659962429 0 0.30967478190587899 0.43248339293908478 0 0.31949857018790712 0.42234738200601463 0 0.31949857018790712 0.42234738200601463 0 0.34011375395909899 0.42827966665244982 0 0.33335541567677851 0.41413927737501682 0 0.34011375395909899 0.42827966665244982 0 0.33335541567677851 0.41413927737501682 0 0.35251535500997389 0.4097633894025835 0 0.33838050486014071 0.40132571833470809 0 0.33335541567677851 0.41413927737501682 0 0.35251535500997389 0.4097633894025835 0 0.33838050486014071 0.40132571833470809 0 0.32336008818594092 0.40459838435696299 0 0.33335541567677851 0.41413927737501682 0 0.34011375395909899 0.42827966665244982 0 0.35251535500997389 0.4097633894025835 0 0.3591301267131588 0.42602683944016839 0 0.3672128213662551 0.44140310366938379 0 0.35041805056504127 0.44039830756831011 0 0.3591301267131588 0.42602683944016839 0 0.35041805056504127 0.44039830756831011 0 0.34011375395909899 0.42827966665244982 0 0.3591301267131588 0.42602683944016839 0 0.3672128213662551 0.44140310366938379 0 0.3591301267131588 0.42602683944016839 0 0.37786999239799629 0.42201923841731348 0 0.3591301267131588 0.42602683944016839 0 0.36674031876838431 0.41287021939491358 0 0.37786999239799629 0.42201923841731348 0 0.35251535500997389 0.4097633894025835 0 0.36674031876838431 0.41287021939491358 0 0.36672310374365391 0.3972274770167053 0 0.36674031876838431 0.41287021939491358 0 0.37714557779446961 0.40580011292323048 0 0.37786999239799629 0.42201923841731348 0 0.35251535500997389 0.4097633894025835 0 0.3591301267131588 0.42602683944016839 0 0.36674031876838431 0.41287021939491358 0 0.36674031876838431 0.41287021939491358 0 0.36672310374365391 0.3972274770167053 0 0.37714557779446961 0.40580011292323048 0 0.36672310374365391 0.3972274770167053 0 0.34865402358820241 0.38746960960344728 0 0.36927583114563117 0.37168826674887129 0 0.36672310374365391 0.3972274770167053 0 0.36927583114563117 0.37168826674887129 0 0.38594138320053972 0.39504117240748449 0 0.34865402358820241 0.38746960960344728 0 0.34769055634412588 0.36745966958429022 0 0.36927583114563117 0.37168826674887129 0 0.33555471090824662 0.37714848622012531 0 0.34865402358820241 0.38746960960344728 0 0.34769055634412588 0.36745966958429022 0 0.35251535500997389 0.4097633894025835 0 0.36672310374365391 0.3972274770167053 0 0.34865402358820241 0.38746960960344728 0 0.33838050486014071 0.40132571833470809 0 0.35251535500997389 0.4097633894025835 0 0.34865402358820241 0.38746960960344728 0 0.35261027909072251 0.34833536109025781 0 0.34769055634412588 0.36745966958429022 0 0.33944519881702218 0.35670643516570921 0 0.35261027909072251 0.34833536109025781 0 0.34769055634412588 0.36745966958429022 0 0.36927583114563117 0.37168826674887129 0 0.35261027909072251 0.34833536109025781 0 0.36927583114563117 0.37168826674887129 0 0.35261027909072251 0.34833536109025781 0 0.36927583114563117 0.37168826674887129 0 0.38014707859742553 0.358601566133181 0 0.35261027909072251 0.34833536109025781 0 0.37418757138316661 0.34003979241565702 0 0.38014707859742553 0.358601566133181 0 0.37418757138316661 0.34003979241565702 0 0.36114413796306788 0.32433110896381118 0 0.38634354889032002 0.32367976249598251 0 0.35261027909072251 0.34833536109025781 0 0.37418757138316661 0.34003979241565702 0 0.36114413796306788 0.32433110896381118 0 0.36114413796306788 0.32433110896381118 0 0.38634354889032002 0.32367976249598251 0 0.36114413796306788 0.32433110896381118 0 0.36246687595182442 0.30494518477727961 0 0.38634354889032002 0.32367976249598251 0 0.36114413796306788 0.32433110896381118 0 0.33594472703581602 0.32498245543164278 0 0.36114413796306788 0.32433110896381118 0 0.33594472703581602 0.32498245543164278 0 0.34448717235649018 0.30756264321984922 0 0.35261027909072251 0.34833536109025781 0 0.36114413796306788 0.32433110896381118 0 0.33594472703581602 0.32498245543164278 0 0.35261027909072251 0.34833536109025781 0 0.33594472703581602 0.32498245543164278 0 0.35261027909072251 0.34833536109025781 0 0.33361265820108371 0.33601463685995558 0 0.33594472703581602 0.32498245543164278 0 0.35261027909072251 0.34833536109025781 0 0.33361265820108371 0.33601463685995558 0 0.33117650937159632 0.34590223044488833 0 0.33361265820108371 0.33601463685995558 0 0.33594472703581602 0.32498245543164278 0 0.32592845192929348 0.32524135296818618 0 0.33361265820108371 0.33601463685995558 0 0.32240332357799001 0.33561178436480271 0 0.33117650937159632 0.34590223044488833 0 0.33594472703581602 0.32498245543164278 0 0.32420479997372442 0.30853167071016102 0 0.33594472703581602 0.32498245543164278 0 0.32592845192929348 0.32524135296818618 0 0.32420479997372442 0.30853167071016102 0 0.33594472703581602 0.32498245543164278 0 0.32420479997372442 0.30853167071016102 0 0.34448717235649018 0.30756264321984922 0 0.33594472703581602 0.32498245543164278 0 0.32592845192929348 0.32524135296818618 0 0.32592845192929348 0.32524135296818618 0 0.31778971146991503 0.31788997842391498 0 0.32420479997372442 0.30853167071016102 0 0.32592845192929348 0.32524135296818618 0 0.31591730865868939 0.32743152395768732 0 0.31778971146991503 0.31788997842391498 0 0.31591730865868939 0.32743152395768732 0 0.31778971146991503 0.31788997842391498 0 0.30920411140212778 0.3196886032463338 0 0.32240332357799001 0.33561178436480271 0 0.31863003654071292 0.34601962911411782 0 0.33117650937159632 0.34590223044488833 0 0.33361265820108371 0.33601463685995558 0 0.32592845192929348 0.32524135296818618 0 0.32240332357799001 0.33561178436480271 0 0.32592845192929348 0.32524135296818618 0 0.31591730865868939 0.32743152395768732 0 0.32240332357799001 0.33561178436480271 0 0.31591730865868939 0.32743152395768732 0 0.32240332357799001 0.33561178436480271 0 0.31164832743931292 0.33689503642828789 0 0.32240332357799001 0.33561178436480271 0 0.31863003654071292 0.34601962911411782 0 0.31164832743931292 0.33689503642828789 0 0.31863003654071292 0.34601962911411782 0 0.30992842843050988 0.3457112388019602 0 0.31164832743931292 0.33689503642828789 0 0.31863003654071292 0.34601962911411782 0 0.30992842843050988 0.3457112388019602 0 0.31160887743439081 0.35478490180041172 0 0.32445766980723489 0.35579424438156659 0 0.31686549990355672 0.36548826773678422 0 0.31160887743439081 0.35478490180041172 0 0.31863003654071292 0.34601962911411782 0 0.32445766980723489 0.35579424438156659 0 0.31160887743439081 0.35478490180041172 0 0.31863003654071292 0.34601962911411782 0 0.32445766980723489 0.35579424438156659 0 0.33117650937159632 0.34590223044488833 0 0.35261027909072251 0.34833536109025781 0 0.33117650937159632 0.34590223044488833 0 0.33944519881702218 0.35670643516570921 0 0.32445766980723489 0.35579424438156659 0 0.33117650937159632 0.34590223044488833 0 0.33944519881702218 0.35670643516570921 0 0.33555471090824662 0.37714848622012531 0 0.34769055634412588 0.36745966958429022 0 0.3290198967761308 0.36586400202748842 0 0.34769055634412588 0.36745966958429022 0 0.33944519881702218 0.35670643516570921 0 0.3290198967761308 0.36586400202748842 0 0.32445766980723489 0.35579424438156659 0 0.33944519881702218 0.35670643516570921 0 0.3290198967761308 0.36586400202748842 0 0.32306703930603953 0.37623237809600169 0 0.33555471090824662 0.37714848622012531 0 0.3290198967761308 0.36586400202748842 0 0.32306703930603953 0.37623237809600169 0 0.3290198967761308 0.36586400202748842 0 0.31686549990355672 0.36548826773678422 0 0.32445766980723489 0.35579424438156659 0 0.3290198967761308 0.36586400202748842 0 0.31686549990355672 0.36548826773678422 0 0.31077839752677883 0.37658419253607489 0 0.32306703930603953 0.37623237809600169 0 0.31686549990355672 0.36548826773678422 0 0.31077839752677883 0.37658419253607489 0 0.30653952356419251 0.36486132392814918 0 0.30091992906300691 0.3739920833762147 0 0.31077839752677883 0.37658419253607489 0 0.31686549990355672 0.36548826773678422 0 0.30653952356419251 0.36486132392814918 0 0.31686549990355672 0.36548826773678422 0 0.30653952356419251 0.36486132392814918 0 0.31160887743439081 0.35478490180041172 0 0.30653952356419251 0.36486132392814918 0 0.29956039950038399 0.36055845947794762 0 0.29968882481084308 0.36620473963642819 0 0.30653952356419251 0.36486132392814918 0 0.29956039950038399 0.36055845947794762 0 0.30450437459886343 0.35739179545954242 0 0.29956039950038399 0.36055845947794762 0 0.29968882481084308 0.36620473963642819 0 0.2946843591870788 0.36349444767638139 0 0.29968882481084308 0.36620473963642819 0 0.30091992906300691 0.3739920833762147 0 0.29515321138997108 0.36891281366618561 0 0.30653952356419251 0.36486132392814918 0 0.29968882481084308 0.36620473963642819 0 0.30091992906300691 0.3739920833762147 0 0.2951337916801352 0.37545299726164849 0 0.30091992906300691 0.3739920833762147 0 0.29515321138997108 0.36891281366618561 0 0.30992842843050988 0.3457112388019602 0 0.31160887743439081 0.35478490180041172 0 0.30300584901730271 0.34938636887413438 0 0.30992842843050988 0.3457112388019602 0 0.30300584901730271 0.34938636887413438 0 0.30284961949963451 0.34180688944884569 0 0.31160887743439081 0.35478490180041172 0 0.30450437459886343 0.35739179545954242 0 0.30300584901730271 0.34938636887413438 0 0.30653952356419251 0.36486132392814918 0 0.31160887743439081 0.35478490180041172 0 0.30450437459886343 0.35739179545954242 0 0.30450437459886343 0.35739179545954242 0 0.29772286606791931 0.35422336501427332 0 0.30300584901730271 0.34938636887413438 0 0.29956039950038399 0.36055845947794762 0 0.30450437459886343 0.35739179545954242 0 0.29772286606791931 0.35422336501427332 0 0.29772286606791931 0.35422336501427332 0 0.30300584901730271 0.34938636887413438 0 0.29508057650716829 0.34607515835053693 0 0.30300584901730271 0.34938636887413438 0 0.29508057650716829 0.34607515835053693 0 0.30284961949963451 0.34180688944884569 0 0.29508057650716829 0.34607515835053693 0 0.29128433478161492 0.3514692197730912 0 0.28696318970460172 0.34507386829548542 0 0.29772286606791931 0.35422336501427332 0 0.29508057650716829 0.34607515835053693 0 0.29128433478161492 0.3514692197730912 0 0.29128433478161492 0.3514692197730912 0 0.29260686737414288 0.35803349489433017 0 0.28831593146678952 0.35482697607295582 0 0.29772286606791931 0.35422336501427332 0 0.29128433478161492 0.3514692197730912 0 0.29260686737414288 0.35803349489433017 0 0.29956039950038399 0.36055845947794762 0 0.29772286606791931 0.35422336501427332 0 0.29260686737414288 0.35803349489433017 0 0.29260686737414288 0.35803349489433017 0 0.28714468874269172 0.35854684035017659 0 0.29097547274489571 0.36086700820637557 0 0.29260686737414288 0.35803349489433017 0 0.28714468874269172 0.35854684035017659 0 0.28831593146678952 0.35482697607295582 0 0.28714468874269172 0.35854684035017659 0 0.28946597567566928 0.3633932499046143 0 0.27836960746308909 0.35599853724874359 0 0.28714468874269172 0.35854684035017659 0 0.28392422607346179 0.35383006020545288 0 0.27836960746308909 0.35599853724874359 0 0.28714468874269172 0.35854684035017659 0 0.28392422607346179 0.35383006020545288 0 0.28831593146678952 0.35482697607295582 0 0.28392422607346179 0.35383006020545288 0 0.28273558166129192 0.34922596943765521 0 0.28101653893848899 0.35208327708388421 0 0.28392422607346179 0.35383006020545288 0 0.28831593146678952 0.35482697607295582 0 0.2863539578433606 0.35136140079780598 0 0.29128433478161492 0.3514692197730912 0 0.28831593146678952 0.35482697607295582 0 0.2863539578433606 0.35136140079780598 0 0.29128433478161492 0.3514692197730912 0 0.2863539578433606 0.35136140079780598 0 0.28696318970460172 0.34507386829548542 0 0.2863539578433606 0.35136140079780598 0 0.28273558166129192 0.34922596943765521 0 0.28696318970460172 0.34507386829548542 0 0.28392422607346179 0.35383006020545288 0 0.2863539578433606 0.35136140079780598 0 0.28273558166129192 0.34922596943765521 0 0.28696318970460172 0.34507386829548542 0 0.28013569367420871 0.34584772387197749 0 0.28119375649751349 0.3415044430455576 0 0.28273558166129192 0.34922596943765521 0 0.28696318970460172 0.34507386829548542 0 0.28013569367420871 0.34584772387197749 0 0.29155132770994241 0.38145409056705559 0 0.29028041611347422 0.37131190521640561 0 0.27836960746308909 0.35599853724874359 0 0.28641533258273322 0.38531457319514678 0 0.29155132770994241 0.38145409056705559 0 0.2754302243437341 0.35800137086985789 0 0.29155132770994241 0.38145409056705559 0 0.2754302243437341 0.35800137086985789 0 0.27836960746308909 0.35599853724874359 0 0.29155132770994241 0.38145409056705559 0 0.27836960746308909 0.35599853724874359 0 0.29028041611347422 0.37131190521640561 0 0.29515321138997108 0.36891281366618561 0 0.28946597567566928 0.3633932499046143 0 0.2951337916801352 0.37545299726164849 0 0.29028041611347422 0.37131190521640561 0 0.29515321138997108 0.36891281366618561 0 0.29968882481084308 0.36620473963642819 0 0.29515321138997108 0.36891281366618561 0 0.2946843591870788 0.36349444767638139 0 0.29515321138997108 0.36891281366618561 0 0.2946843591870788 0.36349444767638139 0 0.28946597567566928 0.3633932499046143 0 0.29956039950038399 0.36055845947794762 0 0.29260686737414288 0.35803349489433017 0 0.2946843591870788 0.36349444767638139 0 0.28714468874269172 0.35854684035017659 0 0.29097547274489571 0.36086700820637557 0 0.28946597567566928 0.3633932499046143 0 0.2946843591870788 0.36349444767638139 0 0.29097547274489571 0.36086700820637557 0 0.28946597567566928 0.3633932499046143 0 0.29260686737414288 0.35803349489433017 0 0.2946843591870788 0.36349444767638139 0 0.29097547274489571 0.36086700820637557 0 0.29028041611347422 0.37131190521640561 0 0.28946597567566928 0.3633932499046143 0 0.27836960746308909 0.35599853724874359 0 0.28641533258273322 0.38531457319514678 0 0.2754302243437341 0.35800137086985789 0 0.27737653217987568 0.3763299637903077 0 0.28641533258273322 0.38531457319514678 0 0.2754302243437341 0.35800137086985789 0 0.27737653217987568 0.3763299637903077 0 0.27292546410526491 0.36629585246079138 0 0.2754302243437341 0.35800137086985789 0 0.27737653217987568 0.3763299637903077 0 0.26995518240551242 0.36922466410125959 0 0.27292546410526491 0.36629585246079138 0 0.26817635423288699 0.37969346344739391 0 0.26995518240551242 0.36922466410125959 0 0.26082178769032438 0.36496323128775521 0 0.26995518240551242 0.36922466410125959 0 0.26893991749193752 0.36162741108174062 0 0.26082178769032438 0.36496323128775521 0 0.26893991749193752 0.36162741108174062 0 0.27292546410526491 0.36629585246079138 0 0.2754302243437341 0.35800137086985789 0 0.26995518240551242 0.36922466410125959 0 0.26893991749193752 0.36162741108174062 0 0.27292546410526491 0.36629585246079138 0 0.2754302243437341 0.35800137086985789 0 0.26518788721623437 0.33054298393043219 0 0.2754302243437341 0.35800137086985789 0 0.27836960746308909 0.35599853724874359 0 0.26518788721623437 0.33054298393043219 0 0.2754302243437341 0.35800137086985789 0 0.26469999689944002 0.35285812485780471 0 0.26518788721623437 0.33054298393043219 0 0.27836960746308909 0.35599853724874359 0 0.28101653893848899 0.35208327708388421 0 0.2797945401242129 0.34946851842389731 0 0.28392422607346179 0.35383006020545288 0 0.27836960746308909 0.35599853724874359 0 0.28101653893848899 0.35208327708388421 0 0.27836960746308909 0.35599853724874359 0 0.2797945401242129 0.34946851842389731 0 0.27671527888398562 0.3441870844772259 0 0.28013569367420871 0.34584772387197749 0 0.2797945401242129 0.34946851842389731 0 0.27671527888398562 0.3441870844772259 0 0.28013569367420871 0.34584772387197749 0 0.27671527888398562 0.3441870844772259 0 0.28119375649751349 0.3415044430455576 0 0.28273558166129192 0.34922596943765521 0 0.28013569367420871 0.34584772387197749 0 0.2797945401242129 0.34946851842389731 0 0.28273558166129192 0.34922596943765521 0 0.28101653893848899 0.35208327708388421 0 0.2797945401242129 0.34946851842389731 0 0.26893991749193752 0.36162741108174062 0 0.2754302243437341 0.35800137086985789 0 0.26469999689944002 0.35285812485780471 0 0.26469999689944002 0.35285812485780471 0 0.25397109136889212 0.34953950795812871 0 0.26518788721623437 0.33054298393043219 0 0.26469999689944002 0.35285812485780471 0 0.25397109136889212 0.34953950795812871 0 0.26082178769032438 0.36496323128775521 0 0.24217950803475169 0.36279199964721098 0 0.25397109136889212 0.34953950795812871 0 0.26082178769032438 0.36496323128775521 0 0.24217950803475169 0.36279199964721098 0 0.24890193261595259 0.38922972948408457 0 0.26082178769032438 0.36496323128775521 0 0.26893991749193752 0.36162741108174062 0 0.26469999689944002 0.35285812485780471 0 0.26082178769032438 0.36496323128775521 0 0.26160037477145948 0.32361504792451118 0 0.26961523156275707 0.31863310602586059 0 0.25252005129033422 0.30103787280496203 0 0.24833100513142109 0.32161764704062729 0 0.26160037477145948 0.32361504792451118 0 0.26518788721623437 0.33054298393043219 0 0.24963775202771521 0.30051372462394288 0 0.24833100513142109 0.32161764704062729 0 0.26160037477145948 0.32361504792451118 0 0.26160037477145948 0.32361504792451118 0 0.26518788721623437 0.33054298393043219 0 0.26731122343739822 0.32545953491366858 0 0.26160037477145948 0.32361504792451118 0 0.26518788721623437 0.33054298393043219 0 0.2354570834535519 0.33635426981033711 0 0.26518788721623437 0.33054298393043219 0 0.2354570834535519 0.33635426981033711 0 0.25397109136889212 0.34953950795812871 0 0.26518788721623437 0.33054298393043219 0 0.27836960746308909 0.35599853724874359 0 0.27671527888398562 0.3441870844772259 0 0.26518788721623437 0.33054298393043219 0 0.26518788721623437 0.33054298393043219 0 0.2728414001991406 0.32904700177387047 0 0.26518788721623437 0.33054298393043219 0 0.2728414001991406 0.32904700177387047 0 0.26731122343739822 0.32545953491366858 0 0.27836960746308909 0.35599853724874359 0 0.26518788721623437 0.33054298393043219 0 0.26518788721623437 0.33054298393043219 0 0.2728414001991406 0.32904700177387047 0 0.27786043041236869 0.33471626715991409 0 0.27671527888398562 0.3441870844772259 0 0.26518788721623437 0.33054298393043219 0 0.27786043041236869 0.33471626715991409 0 0.27671527888398562 0.3441870844772259 0 0.28119375649751349 0.3415044430455576 0 0.27786043041236869 0.33471626715991409 0 0.2728414001991406 0.32904700177387047 0 0.27786043041236869 0.33471626715991409 0 0.27936204924768121 0.32498307102898349 0 0.27786043041236869 0.33471626715991409 0 0.27936204924768121 0.32498307102898349 0 0.28525590824973168 0.33019860290154568 0 0.2728414001991406 0.32904700177387047 0 0.27936204924768121 0.32498307102898349 0 0.26961523156275707 0.31863310602586059 0 0.2728414001991406 0.32904700177387047 0 0.26731122343739822 0.32545953491366858 0 0.26961523156275707 0.31863310602586059 0 0.26160037477145948 0.32361504792451118 0 0.26731122343739822 0.32545953491366858 0 0.26961523156275707 0.31863310602586059 0 0.27936204924768121 0.32498307102898349 0 0.26961523156275707 0.31863310602586059 0 0.28133089707177739 0.31565660162935461 0 0.26961523156275707 0.31863310602586059 0 0.28133089707177739 0.31565660162935461 0 0.27162220014601168 0.30819847959926649 0 0.28133089707177739 0.31565660162935461 0 0.28926842799031183 0.32164684668335553 0 0.29289622389348391 0.31173450207074938 0 0.27936204924768121 0.32498307102898349 0 0.28926842799031183 0.32164684668335553 0 0.28525590824973168 0.33019860290154568 0 0.27936204924768121 0.32498307102898349 0 0.28133089707177739 0.31565660162935461 0 0.28926842799031183 0.32164684668335553 0 0.28926842799031183 0.32164684668335553 0 0.29270679870612148 0.33133919612790758 0 0.29864702146159328 0.32643954785611667 0 0.28926842799031183 0.32164684668335553 0 0.28525590824973168 0.33019860290154568 0 0.29270679870612148 0.33133919612790758 0 0.28926842799031183 0.32164684668335553 0 0.30057412006284873 0.3182848580649148 0 0.29864702146159328 0.32643954785611667 0 0.28926842799031183 0.32164684668335553 0 0.30057412006284873 0.3182848580649148 0 0.29289622389348391 0.31173450207074938 0 0.28696318970460172 0.34507386829548542 0 0.28119375649751349 0.3415044430455576 0 0.28563489893157912 0.33697664508827291 0 0.28696318970460172 0.34507386829548542 0 0.28563489893157912 0.33697664508827291 0 0.29440715639490739 0.33866623850310912 0 0.28119375649751349 0.3415044430455576 0 0.27786043041236869 0.33471626715991409 0 0.28563489893157912 0.33697664508827291 0 0.28563489893157912 0.33697664508827291 0 0.28525590824973168 0.33019860290154568 0 0.29270679870612148 0.33133919612790758 0 0.27786043041236869 0.33471626715991409 0 0.28563489893157912 0.33697664508827291 0 0.28525590824973168 0.33019860290154568 0 0.29270679870612148 0.33133919612790758 0 0.29440715639490739 0.33866623850310912 0 0.30302737920860612 0.33410729573504611 0 0.28563489893157912 0.33697664508827291 0 0.29270679870612148 0.33133919612790758 0 0.29440715639490739 0.33866623850310912 0 0.29508057650716829 0.34607515835053693 0 0.28696318970460172 0.34507386829548542 0 0.29440715639490739 0.33866623850310912 0 0.29508057650716829 0.34607515835053693 0 0.29440715639490739 0.33866623850310912 0 0.30284961949963451 0.34180688944884569 0 0.29440715639490739 0.33866623850310912 0 0.30284961949963451 0.34180688944884569 0 0.30302737920860612 0.33410729573504611 0 0.29270679870612148 0.33133919612790758 0 0.30302737920860612 0.33410729573504611 0 0.29864702146159328 0.32643954785611667 0 0.30302737920860612 0.33410729573504611 0 0.29864702146159328 0.32643954785611667 0 0.30648676239126638 0.32698903389663531 0 0.30302737920860612 0.33410729573504611 0 0.31164832743931292 0.33689503642828789 0 0.30648676239126638 0.32698903389663531 0 0.31591730865868939 0.32743152395768732 0 0.31164832743931292 0.33689503642828789 0 0.30648676239126638 0.32698903389663531 0 0.30284961949963451 0.34180688944884569 0 0.30302737920860612 0.33410729573504611 0 0.31164832743931292 0.33689503642828789 0 0.30992842843050988 0.3457112388019602 0 0.30284961949963451 0.34180688944884569 0 0.31164832743931292 0.33689503642828789 0 0.30057412006284873 0.3182848580649148 0 0.3075048900192453 0.30846754722968978 0 0.29289622389348391 0.31173450207074938 0 0.30057412006284873 0.3182848580649148 0 0.29864702146159328 0.32643954785611667 0 0.30648676239126638 0.32698903389663531 0 0.30057412006284873 0.3182848580649148 0 0.30648676239126638 0.32698903389663531 0 0.30920411140212778 0.3196886032463338 0 0.31591730865868939 0.32743152395768732 0 0.30648676239126638 0.32698903389663531 0 0.30920411140212778 0.3196886032463338 0 0.30057412006284873 0.3182848580649148 0 0.30920411140212778 0.3196886032463338 0 0.3075048900192453 0.30846754722968978 0 0.31778971146991503 0.31788997842391498 0 0.30920411140212778 0.3196886032463338 0 0.3075048900192453 0.30846754722968978 0 0.3075048900192453 0.30846754722968978 0 0.29694347339530303 0.29848366127231912 0 0.31246487291163488 0.29208088598867771 0 0.3075048900192453 0.30846754722968978 0 0.29694347339530303 0.29848366127231912 0 0.29289622389348391 0.31173450207074938 0 0.31246487291163488 0.29208088598867771 0 0.29888580149873889 0.28140566667868477 0 0.31966717048778492 0.28020807462702291 0 0.29694347339530303 0.29848366127231912 0 0.31246487291163488 0.29208088598867771 0 0.29888580149873889 0.28140566667868477 0 0.29694347339530303 0.29848366127231912 0 0.29888580149873889 0.28140566667868477 0 0.28532215262680061 0.29218967158653381 0 0.29888580149873889 0.28140566667868477 0 0.28532215262680061 0.29218967158653381 0 0.27597263544757811 0.27926985653850322 0 0.29694347339530303 0.29848366127231912 0 0.29289622389348391 0.31173450207074938 0 0.28421062956037713 0.3046253325656294 0 0.29694347339530303 0.29848366127231912 0 0.28532215262680061 0.29218967158653381 0 0.28421062956037713 0.3046253325656294 0 0.28133089707177739 0.31565660162935461 0 0.29289622389348391 0.31173450207074938 0 0.28421062956037713 0.3046253325656294 0 0.28133089707177739 0.31565660162935461 0 0.28421062956037713 0.3046253325656294 0 0.27162220014601168 0.30819847959926649 0 0.28421062956037713 0.3046253325656294 0 0.27162220014601168 0.30819847959926649 0 0.27073357959762612 0.29469717476731772 0 0.28532215262680061 0.29218967158653381 0 0.28421062956037713 0.3046253325656294 0 0.27073357959762612 0.29469717476731772 0 0.27073357959762612 0.29469717476731772 0 0.25964825064670849 0.2811944406245902 0 0.27597263544757811 0.27926985653850322 0 0.28532215262680061 0.29218967158653381 0 0.27073357959762612 0.29469717476731772 0 0.27597263544757811 0.27926985653850322 0 0.2434397278092077 0.27846069768541332 0 0.25252005129033422 0.30103787280496203 0 0.25964825064670849 0.2811944406245902 0 0.27073357959762612 0.29469717476731772 0 0.25252005129033422 0.30103787280496203 0 0.25964825064670849 0.2811944406245902 0 0.24963775202771521 0.30051372462394288 0 0.26160037477145948 0.32361504792451118 0 0.26160037477145948 0.32361504792451118 0 0.25252005129033422 0.30103787280496203 0 0.24963775202771521 0.30051372462394288 0 0.26160037477145948 0.32361504792451118 0 0.25252005129033422 0.30103787280496203 0 0.27162220014601168 0.30819847959926649 0 0.27073357959762612 0.29469717476731772 0 0.25252005129033422 0.30103787280496203 0 0.26961523156275707 0.31863310602586059 0 0.27162220014601168 0.30819847959926649 0 0.25252005129033422 0.30103787280496203 0 0.26005695654466249 0.26476207857526007 0 0.25877170878786238 0.25302463852503437 0 0.26784118605052742 0.25766384122118591 0 0.26005695654466249 0.26476207857526007 0 0.26877199542094288 0.271185286046489 0 0.26784118605052742 0.25766384122118591 0 0.24763005152173001 0.25910176257370959 0 0.26005695654466249 0.26476207857526007 0 0.25877170878786238 0.25302463852503437 0 0.26005695654466249 0.26476207857526007 0 0.25964825064670849 0.2811944406245902 0 0.26877199542094288 0.271185286046489 0 0.2434397278092077 0.27846069768541332 0 0.26005695654466249 0.26476207857526007 0 0.25964825064670849 0.2811944406245902 0 0.2434397278092077 0.27846069768541332 0 0.24763005152173001 0.25910176257370959 0 0.26005695654466249 0.26476207857526007 0 0.25964825064670849 0.2811944406245902 0 0.26877199542094288 0.271185286046489 0 0.27597263544757811 0.27926985653850322 0 0.26877199542094288 0.271185286046489 0 0.27597263544757811 0.27926985653850322 0 0.27647749418933931 0.26389562134405542 0 0.27597263544757811 0.27926985653850322 0 0.27647749418933931 0.26389562134405542 0 0.28921799240021828 0.26815650339571012 0 0.27647749418933931 0.26389562134405542 0 0.27542464597538868 0.25681776053554017 0 0.28272693040926428 0.25881526167589219 0 0.27647749418933931 0.26389562134405542 0 0.26784118605052742 0.25766384122118591 0 0.27542464597538868 0.25681776053554017 0 0.26877199542094288 0.271185286046489 0 0.27647749418933931 0.26389562134405542 0 0.26784118605052742 0.25766384122118591 0 0.26784118605052742 0.25766384122118591 0 0.27542464597538868 0.25681776053554017 0 0.27283394916361492 0.24742619336605559 0 0.25877170878786238 0.25302463852503437 0 0.26784118605052742 0.25766384122118591 0 0.27283394916361492 0.24742619336605559 0 0.27542464597538868 0.25681776053554017 0 0.28272693040926428 0.25881526167589219 0 0.27283394916361492 0.24742619336605559 0 0.28272693040926428 0.25881526167589219 0 0.29968057031776052 0.25778022973809978 0 0.27283394916361492 0.24742619336605559 0 0.28272693040926428 0.25881526167589219 0 0.28921799240021828 0.26815650339571012 0 0.29968057031776052 0.25778022973809978 0 0.29968057031776052 0.25778022973809978 0 0.27283394916361492 0.24742619336605559 0 0.29968057031776052 0.25778022973809978 0 0.27283394916361492 0.24742619336605559 0 0.3016365876598241 0.24719201463661561 0 0.27647749418933931 0.26389562134405542 0 0.28272693040926428 0.25881526167589219 0 0.28921799240021828 0.26815650339571012 0 0.28921799240021828 0.26815650339571012 0 0.29917140266547992 0.2696271248040239 0 0.29968057031776052 0.25778022973809978 0 0.29888580149873889 0.28140566667868477 0 0.27597263544757811 0.27926985653850322 0 0.28921799240021828 0.26815650339571012 0 0.29888580149873889 0.28140566667868477 0 0.28921799240021828 0.26815650339571012 0 0.29917140266547992 0.2696271248040239 0 0.30890124644520212 0.27116609940360098 0 0.29968057031776052 0.25778022973809978 0 0.32652719147190618 0.26813426611014402 0 0.29888580149873889 0.28140566667868477 0 0.30890124644520212 0.27116609940360098 0 0.31966717048778492 0.28020807462702291 0 0.29888580149873889 0.28140566667868477 0 0.29917140266547992 0.2696271248040239 0 0.30890124644520212 0.27116609940360098 0 0.29917140266547992 0.2696271248040239 0 0.30890124644520212 0.27116609940360098 0 0.29968057031776052 0.25778022973809978 0 0.29968057031776052 0.25778022973809978 0 0.31432639173362298 0.2563396134856944 0 0.3016365876598241 0.24719201463661561 0 0.29968057031776052 0.25778022973809978 0 0.32652719147190618 0.26813426611014402 0 0.29968057031776052 0.25778022973809978 0 0.31432639173362298 0.2563396134856944 0 0.32652719147190618 0.26813426611014402 0 0.31432639173362298 0.2563396134856944 0 0.32946121748500129 0.25225194345791829 0 0.3016365876598241 0.24719201463661561 0 0.31432639173362298 0.2563396134856944 0 0.32946121748500129 0.25225194345791829 0 0.32652719147190618 0.26813426611014402 0 0.32946121748500129 0.25225194345791829 0 0.35728584731017871 0.25731187227922109 0 0.32946121748500129 0.25225194345791829 0 0.33854302537622011 0.27351786473126699 0 0.35728584731017871 0.25731187227922109 0 0.32946121748500129 0.25225194345791829 0 0.33854302537622011 0.27351786473126699 0 0.32652719147190618 0.26813426611014402 0 0.33854302537622011 0.27351786473126699 0 0.32652719147190618 0.26813426611014402 0 0.31966717048778492 0.28020807462702291 0 0.30890124644520212 0.27116609940360098 0 0.32652719147190618 0.26813426611014402 0 0.31966717048778492 0.28020807462702291 0 0.31246487291163488 0.29208088598867771 0 0.31966717048778492 0.28020807462702291 0 0.33172871425663403 0.29269405324557379 0 0.31778971146991503 0.31788997842391498 0 0.3075048900192453 0.30846754722968978 0 0.32420479997372442 0.30853167071016102 0 0.31246487291163488 0.29208088598867771 0 0.32420479997372442 0.30853167071016102 0 0.31246487291163488 0.29208088598867771 0 0.32420479997372442 0.30853167071016102 0 0.33172871425663403 0.29269405324557379 0 0.3075048900192453 0.30846754722968978 0 0.31246487291163488 0.29208088598867771 0 0.32420479997372442 0.30853167071016102 0 0.32420479997372442 0.30853167071016102 0 0.33172871425663403 0.29269405324557379 0 0.34448717235649018 0.30756264321984922 0 0.33854302537622011 0.27351786473126699 0 0.31966717048778492 0.28020807462702291 0 0.33172871425663403 0.29269405324557379 0 0.33172871425663403 0.29269405324557379 0 0.3503635169770366 0.28966006865463678 0 0.34448717235649018 0.30756264321984922 0 0.33854302537622011 0.27351786473126699 0 0.33172871425663403 0.29269405324557379 0 0.3503635169770366 0.28966006865463678 0 0.3503635169770366 0.28966006865463678 0 0.34448717235649018 0.30756264321984922 0 0.36246687595182442 0.30494518477727961 0 0.36114413796306788 0.32433110896381118 0 0.34448717235649018 0.30756264321984922 0 0.36246687595182442 0.30494518477727961 0 0.36246687595182442 0.30494518477727961 0 0.37008896088821891 0.27907488192658342 0 0.38127772340545701 0.29855436992749679 0 0.3503635169770366 0.28966006865463678 0 0.36246687595182442 0.30494518477727961 0 0.37008896088821891 0.27907488192658342 0 0.37008896088821891 0.27907488192658342 0 0.35728584731017871 0.25731187227922109 0 0.35441181453934328 0.27463334472066592 0 0.37008896088821891 0.27907488192658342 0 0.35728584731017871 0.25731187227922109 0 0.38511047713535562 0.2623718011005241 0 0.35728584731017871 0.25731187227922109 0 0.38511047713535562 0.2623718011005241 0 0.37293454716760283 0.2396311516560117 0 0.35728584731017871 0.25731187227922109 0 0.38511047713535562 0.2623718011005241 0 0.33854302537622011 0.27351786473126699 0 0.3503635169770366 0.28966006865463678 0 0.35441181453934328 0.27463334472066592 0 0.33854302537622011 0.27351786473126699 0 0.35728584731017871 0.25731187227922109 0 0.35441181453934328 0.27463334472066592 0 0.3503635169770366 0.28966006865463678 0 0.37008896088821891 0.27907488192658342 0 0.35441181453934328 0.27463334472066592 0 0.4059739891301799 0.26616584566893298 0 0.38511047713535562 0.2623718011005241 0 0.39575362435311728 0.2822497143692822 0 0.4059739891301799 0.26616584566893298 0 0.39575362435311728 0.2822497143692822 0 0.41466985898722469 0.28617745239982811 0 0.4059739891301799 0.26616584566893298 0 0.38511047713535562 0.2623718011005241 0 0.39933451681408499 0.24222051247515669 0 0.4059739891301799 0.26616584566893298 0 0.38511047713535562 0.2623718011005241 0 0.38511047713535562 0.2623718011005241 0 0.37293454716760283 0.2396311516560117 0 0.37008896088821891 0.27907488192658342 0 0.38511047713535562 0.2623718011005241 0 0.39575362435311728 0.2822497143692822 0 0.38511047713535562 0.2623718011005241 0 0.39575362435311728 0.2822497143692822 0 0.37008896088821891 0.27907488192658342 0 0.38127772340545701 0.29855436992749679 0 0.39575362435311728 0.2822497143692822 0 0.38127772340545701 0.29855436992749679 0 0.39341545683502421 0.31015448597301559 0 0.38634354889032002 0.32367976249598251 0 0.38127772340545701 0.29855436992749679 0 0.38634354889032002 0.32367976249598251 0 0.36246687595182442 0.30494518477727961 0 0.38127772340545701 0.29855436992749679 0 0.38634354889032002 0.32367976249598251 0 0.38127772340545701 0.29855436992749679 0 0.39341545683502421 0.31015448597301559 0 0.40639677157087911 0.30212762763804019 0 0.39341545683502421 0.31015448597301559 0 0.40639677157087911 0.30212762763804019 0 0.4081981699382346 0.3139513768470385 0 0.39575362435311728 0.2822497143692822 0 0.40639677157087911 0.30212762763804019 0 0.38127772340545701 0.29855436992749679 0 0.39575362435311728 0.2822497143692822 0 0.40639677157087911 0.30212762763804019 0 0.39575362435311728 0.2822497143692822 0 0.41466985898722469 0.28617745239982811 0 0.40639677157087911 0.30212762763804019 0 0.41466985898722469 0.28617745239982811 0 0.40639677157087911 0.30212762763804019 0 0.42063747895650733 0.30228076741981708 0 0.40639677157087911 0.30212762763804019 0 0.417039918788641 0.32200554090679828 0 0.40639677157087911 0.30212762763804019 0 0.42063747895650733 0.30228076741981708 0 0.41590325438833858 0.31571238371771643 0 0.42063747895650733 0.30228076741981708 0 0.43554340190627211 0.31006971119553528 0 0.43241978878766019 0.29428086906555412 0 0.42063747895650733 0.30228076741981708 0 0.43554340190627211 0.31006971119553528 0 0.41590325438833858 0.31571238371771643 0 0.43241978878766019 0.29428086906555412 0 0.42683750112500368 0.26995989023734401 0 0.43795337608323548 0.28151673092589807 0 0.41466985898722469 0.28617745239982811 0 0.43241978878766019 0.29428086906555412 0 0.42683750112500368 0.26995989023734401 0 0.43241978878766019 0.29428086906555412 0 0.42683750112500368 0.26995989023734401 0 0.41466985898722469 0.28617745239982811 0 0.42063747895650733 0.30228076741981708 0 0.43241978878766019 0.29428086906555412 0 0.4059739891301799 0.26616584566893298 0 0.42683750112500368 0.26995989023734401 0 0.4059739891301799 0.26616584566893298 0 0.41466985898722469 0.28617745239982811 0 0.42683750112500368 0.26995989023734401 0 0.4059739891301799 0.26616584566893298 0 0.42683750112500368 0.26995989023734401 0 0.42092918023873821 0.24421844589255121 0 0.4059739891301799 0.26616584566893298 0 0.39933451681408499 0.24222051247515669 0 0.42092918023873821 0.24421844589255121 0 0.42683750112500368 0.26995989023734401 0 0.44089414042045799 0.25771217685885472 0 0.42092918023873821 0.24421844589255121 0 0.42683750112500368 0.26995989023734401 0 0.42092918023873821 0.24421844589255121 0 0.44089414042045799 0.25771217685885472 0 0.45301423403414209 0.26007999789895508 0 0.4569230610569987 0.24819013429900669 0 0.44089414042045799 0.25771217685885472 0 0.45301423403414209 0.26007999789895508 0 0.44973892600361531 0.27412453072026172 0 0.42683750112500368 0.26995989023734401 0 0.44089414042045799 0.25771217685885472 0 0.44973892600361531 0.27412453072026172 0 0.42683750112500368 0.26995989023734401 0 0.44973892600361531 0.27412453072026172 0 0.43795337608323548 0.28151673092589807 0 0.42683750112500368 0.26995989023734401 0 0.44973892600361531 0.27412453072026172 0 0.44973892600361531 0.27412453072026172 0 0.46478170596961249 0.26323965275109401 0 0.47264035088222628 0.27828917120318131 0 0.44973892600361531 0.27412453072026172 0 0.47264035088222628 0.27828917120318131 0 0.44973892600361531 0.27412453072026172 0 0.47264035088222628 0.27828917120318131 0 0.46226850420995219 0.28814127863090738 0 0.45301423403414209 0.26007999789895508 0 0.44973892600361531 0.27412453072026172 0 0.46478170596961249 0.26323965275109401 0 0.46478170596961249 0.26323965275109401 0 0.47264035088222628 0.27828917120318131 0 0.46478170596961249 0.26323965275109401 0 0.4569230610569987 0.24819013429900669 0 0.45301423403414209 0.26007999789895508 0 0.46478170596961249 0.26323965275109401 0 0.4569230610569987 0.24819013429900669 0 0.46478170596961249 0.26323965275109401 0 0.46750550623703407 0.25349570762290419 0 0.47341939214644252 0.26170481890296848 0 0.46478170596961249 0.26323965275109401 0 0.46750550623703407 0.25349570762290419 0 0.4569230610569987 0.24819013429900669 0 0.47341939214644252 0.26170481890296848 0 0.48489893488970792 0.25686202981026901 0 0.47278153852907701 0.24486280325581439 0 0.46750550623703407 0.25349570762290419 0 0.47341939214644252 0.26170481890296848 0 0.47278153852907701 0.24486280325581439 0 0.47341939214644252 0.26170481890296848 0 0.47278153852907701 0.24486280325581439 0 0.47341939214644252 0.26170481890296848 0 0.48000757765913032 0.26759533659828072 0 0.48489893488970792 0.25686202981026901 0 0.47341939214644252 0.26170481890296848 0 0.47405724576380859 0.27854683455012252 0 0.48000757765913032 0.26759533659828072 0 0.47341939214644252 0.26170481890296848 0 0.47264035088222628 0.27828917120318131 0 0.47405724576380859 0.27854683455012252 0 0.46478170596961249 0.26323965275109401 0 0.47341939214644252 0.26170481890296848 0 0.47264035088222628 0.27828917120318131 0 0.47405724576380859 0.27854683455012252 0 0.47415752390174082 0.28119459874267072 0 0.50000000000001354 0.28326454295050368 0 0.47341939214644252 0.26170481890296848 0 0.47405724576380859 0.27854683455012252 0 0.47264035088222628 0.27828917120318131 0 0.47405724576380859 0.27854683455012252 0 0.47405724576380859 0.27854683455012252 0 0.47415752390174082 0.28119459874267072 0 0.47264035088222628 0.27828917120318131 0 0.47405724576380859 0.27854683455012252 0 0.47415752390174082 0.28119459874267072 0 0.47264035088222628 0.27828917120318131 0 0.47415752390174082 0.28119459874267072 0 0.47405724576380859 0.27854683455012252 0 0.48000757765913032 0.26759533659828072 0 0.48909471086131839 0.26954423778064313 0 0.47405724576380859 0.27854683455012252 0 0.50000000000001354 0.28326454295050368 0 0.47405724576380859 0.27854683455012252 0 0.48909471086131839 0.26954423778064313 0 0.50000000000001354 0.28326454295050368 0 0.48909471086131839 0.26954423778064313 0 0.5 0.25553121794514477 0 0.50000000000001354 0.28326454295050368 0 0.5 0.25553121794514477 0 0.48489893488970792 0.25686202981026901 0 0.48903365503734891 0.24299047468837701 0 0.48909471086131839 0.26954423778064313 0 0.5 0.25553121794514477 0 0.48489893488970792 0.25686202981026901 0 0.48000757765913032 0.26759533659828072 0 0.48909471086131839 0.26954423778064313 0 0.48489893488970792 0.25686202981026901 0 0.48223131843763373 0.29665613456690521 0 0.49274985611107969 0.31679941989990179 0 0.48223131843763373 0.29665613456690521 0 0.49274985611107969 0.31679941989990179 0 0.48532411314893581 0.31403081790115361 0 0.49298554246438231 0.30475618362627349 0 0.48223131843763373 0.29665613456690521 0 0.49274985611107969 0.31679941989990179 0 0.49298554246438231 0.30475618362627349 0 0.4969609953088156 0.2924242547978898 0 0.5 0.31314492524039728 0 0.49298554246438231 0.30475618362627349 0 0.4969609953088156 0.2924242547978898 0 0.48223131843763373 0.29665613456690521 0 0.49298554246438231 0.30475618362627349 0 0.49274985611107969 0.31679941989990179 0 0.5 0.31314492524039728 0 0.4969609953088156 0.2924242547978898 0 0.50000000000001354 0.28326454295050368 0 0.5 0.31314492524039728 0 0.47415752390174082 0.28119459874267072 0 0.4969609953088156 0.2924242547978898 0 0.50000000000001354 0.28326454295050368 0 0.47415752390174082 0.28119459874267072 0 0.4969609953088156 0.2924242547978898 0 0.48223131843763373 0.29665613456690521 0 0.4969609953088156 0.2924242547978898 0 0.48223131843763373 0.29665613456690521 0 0.47415752390174082 0.28119459874267072 0 0.47482369694213911 0.29878436615117387 0 0.47415752390174082 0.28119459874267072 0 0.47482369694213911 0.29878436615117387 0 0.46226850420995219 0.28814127863090738 0 0.47415752390174082 0.28119459874267072 0 0.48223131843763373 0.29665613456690521 0 0.47482369694213911 0.29878436615117387 0 0.47415752390174082 0.28119459874267072 0 0.48223131843763373 0.29665613456690521 0 0.47264035088222628 0.27828917120318131 0 0.47415752390174082 0.28119459874267072 0 0.46226850420995219 0.28814127863090738 0 0.48223131843763373 0.29665613456690521 0 0.48022688714188239 0.30485617861310249 0 0.48532411314893581 0.31403081790115361 0 0.47482369694213911 0.29878436615117387 0 0.4785284200388214 0.30995339583317788 0 0.47567910166728178 0.32137064515506791 0 0.47482369694213911 0.29878436615117387 0 0.46683928615616721 0.31034493157342358 0 0.47567910166728178 0.32137064515506791 0 0.47482369694213911 0.29878436615117387 0 0.47567910166728178 0.32137064515506791 0 0.47482369694213911 0.29878436615117387 0 0.48022688714188239 0.30485617861310249 0 0.4785284200388214 0.30995339583317788 0 0.48223131843763373 0.29665613456690521 0 0.47482369694213911 0.29878436615117387 0 0.48022688714188239 0.30485617861310249 0 0.48223131843763373 0.29665613456690521 0 0.47482369694213911 0.29878436615117387 0 0.48022688714188239 0.30485617861310249 0 0.4785284200388214 0.30995339583317788 0 0.48532411314893581 0.31403081790115361 0 0.47482369694213911 0.29878436615117387 0 0.46683928615616721 0.31034493157342358 0 0.45518354942420552 0.3044270386733543 0 0.47482369694213911 0.29878436615117387 0 0.45518354942420552 0.3044270386733543 0 0.46683928615616721 0.31034493157342358 0 0.45518354942420552 0.3044270386733543 0 0.46090063033065398 0.31457074158430443 0 0.47482369694213911 0.29878436615117387 0 0.45518354942420552 0.3044270386733543 0 0.46226850420995219 0.28814127863090738 0 0.45518354942420552 0.3044270386733543 0 0.46226850420995219 0.28814127863090738 0 0.44650245416143669 0.29205179777212908 0 0.44973892600361531 0.27412453072026172 0 0.46226850420995219 0.28814127863090738 0 0.44650245416143669 0.29205179777212908 0 0.44973892600361531 0.27412453072026172 0 0.44650245416143669 0.29205179777212908 0 0.43795337608323548 0.28151673092589807 0 0.43241978878766019 0.29428086906555412 0 0.44650245416143669 0.29205179777212908 0 0.43795337608323548 0.28151673092589807 0 0.43554340190627211 0.31006971119553528 0 0.45518354942420552 0.3044270386733543 0 0.44650245416143669 0.29205179777212908 0 0.43554340190627211 0.31006971119553528 0 0.43241978878766019 0.29428086906555412 0 0.44650245416143669 0.29205179777212908 0 0.43554340190627211 0.31006971119553528 0 0.45518354942420552 0.3044270386733543 0 0.44590058407496119 0.32214035093537202 0 0.43554340190627211 0.31006971119553528 0 0.45518354942420552 0.3044270386733543 0 0.44438162939182968 0.33527616080122319 0 0.43941431748234389 0.34697694962204328 0 0.43138153093963261 0.33684778794266318 0 0.44438162939182968 0.33527616080122319 0 0.43138153093963261 0.33684778794266318 0 0.43736796180383269 0.33070162376080392 0 0.44590058407496119 0.32214035093537202 0 0.44438162939182968 0.33527616080122319 0 0.43736796180383269 0.33070162376080392 0 0.44590058407496119 0.32214035093537202 0 0.44438162939182968 0.33527616080122319 0 0.45938090137280319 0.33331169935871768 0 0.44438162939182968 0.33527616080122319 0 0.45466128638888681 0.34537342559846479 0 0.43941431748234389 0.34697694962204328 0 0.44438162939182968 0.33527616080122319 0 0.45938090137280319 0.33331169935871768 0 0.45466128638888681 0.34537342559846479 0 0.45938090137280319 0.33331169935871768 0 0.47648750655815691 0.34271593104932652 0 0.45466128638888681 0.34537342559846479 0 0.45518354942420552 0.3044270386733543 0 0.44590058407496119 0.32214035093537202 0 0.46090063033065398 0.31457074158430443 0 0.44590058407496119 0.32214035093537202 0 0.47567910166728178 0.32137064515506791 0 0.44590058407496119 0.32214035093537202 0 0.45938090137280319 0.33331169935871768 0 0.47567910166728178 0.32137064515506791 0 0.44590058407496119 0.32214035093537202 0 0.46090063033065398 0.31457074158430443 0 0.47567910166728178 0.32137064515506791 0 0.46683928615616721 0.31034493157342358 0 0.46090063033065398 0.31457074158430443 0 0.47567910166728178 0.32137064515506791 0 0.4785284200388214 0.30995339583317788 0 0.48037384835626529 0.31664076505113292 0 0.47567910166728178 0.32137064515506791 0 0.48037384835626529 0.31664076505113292 0 0.48196375857002199 0.32120820131513239 0 0.47567910166728178 0.32137064515506791 0 0.48037384835626529 0.31664076505113292 0 0.48196375857002199 0.32120820131513239 0 0.48532411314893581 0.31403081790115361 0 0.4785284200388214 0.30995339583317788 0 0.48037384835626529 0.31664076505113292 0 0.48532411314893581 0.31403081790115361 0 0.48196375857002199 0.32120820131513239 0 0.48271443300740718 0.32966898805558448 0 0.48700966075600671 0.32276244140519528 0 0.48196375857002199 0.32120820131513239 0 0.47567910166728178 0.32137064515506791 0 0.48271443300740718 0.32966898805558448 0 0.48196375857002199 0.32120820131513239 0 0.47567910166728178 0.32137064515506791 0 0.47567910166728178 0.32137064515506791 0 0.47648750655815691 0.34271593104932652 0 0.47567910166728178 0.32137064515506791 0 0.47648750655815691 0.34271593104932652 0 0.48271443300740718 0.32966898805558448 0 0.45938090137280319 0.33331169935871768 0 0.47567910166728178 0.32137064515506791 0 0.47648750655815691 0.34271593104932652 0 0.47648750655815691 0.34271593104932652 0 0.48271443300740718 0.32966898805558448 0 0.49227852706914571 0.3310448133387906 0 0.47648750655815691 0.34271593104932652 0 0.5 0.34302530753029081 0 0.49227852706914571 0.3310448133387906 0 0.5 0.34302530753029081 0 0.49227852706914571 0.3310448133387906 0 0.5 0.31314492524039728 0 0.49227852706914571 0.3310448133387906 0 0.49274985611107969 0.31679941989990179 0 0.5 0.31314492524039728 0 0.48196375857002199 0.32120820131513239 0 0.48532411314893581 0.31403081790115361 0 0.48700966075600671 0.32276244140519528 0 0.49274985611107969 0.31679941989990179 0 0.48532411314893581 0.31403081790115361 0 0.48700966075600671 0.32276244140519528 0 0.48271443300740718 0.32966898805558448 0 0.49227852706914571 0.3310448133387906 0 0.48700966075600671 0.32276244140519528 0 0.49227852706914571 0.3310448133387906 0 0.49274985611107969 0.31679941989990179 0 0.48700966075600671 0.32276244140519528 0 0.5 0.37290568982018429 0 0.48906820236105919 0.3579654986752378 0 0.48477613844387402 0.38021688004838439 0 0.47648750655815691 0.34271593104932652 0 0.5 0.34302530753029081 0 0.48906820236105919 0.3579654986752378 0 0.5 0.34302530753029081 0 0.5 0.37290568982018429 0 0.48906820236105919 0.3579654986752378 0 0.47648750655815691 0.34271593104932652 0 0.4736556537454587 0.3678330253399309 0 0.4628011452372443 0.35721885356897543 0 0.47648750655815691 0.34271593104932652 0 0.48906820236105919 0.3579654986752378 0 0.4736556537454587 0.3678330253399309 0 0.48906820236105919 0.3579654986752378 0 0.4736556537454587 0.3678330253399309 0 0.48477613844387402 0.38021688004838439 0 0.4736556537454587 0.3678330253399309 0 0.45151374504626951 0.36758660991241321 0 0.46980882541715813 0.38208294099771128 0 0.4736556537454587 0.3678330253399309 0 0.4628011452372443 0.35721885356897543 0 0.45151374504626951 0.36758660991241321 0 0.47648750655815691 0.34271593104932652 0 0.4628011452372443 0.35721885356897543 0 0.45466128638888681 0.34537342559846479 0 0.4628011452372443 0.35721885356897543 0 0.45466128638888681 0.34537342559846479 0 0.45151374504626951 0.36758660991241321 0 0.43941431748234389 0.34697694962204328 0 0.45151374504626951 0.36758660991241321 0 0.43248649325656402 0.35912170041613489 0 0.45466128638888681 0.34537342559846479 0 0.43941431748234389 0.34697694962204328 0 0.45151374504626951 0.36758660991241321 0 0.45151374504626951 0.36758660991241321 0 0.4343808670510142 0.37207818795490849 0 0.43248649325656402 0.35912170041613489 0 0.4343808670510142 0.37207818795490849 0 0.41565945607251759 0.36236511110304392 0 0.42235721568131929 0.38220686924127689 0 0.4343808670510142 0.37207818795490849 0 0.41565945607251759 0.36236511110304392 0 0.43248649325656402 0.35912170041613489 0 0.41565945607251759 0.36236511110304392 0 0.40683499004542412 0.37566900985645529 0 0.42235721568131929 0.38220686924127689 0 0.41565945607251759 0.36236511110304392 0 0.42423344021441339 0.3469403641650044 0 0.40881868850316022 0.34319093436892228 0 0.41565945607251759 0.36236511110304392 0 0.40881868850316022 0.34319093436892228 0 0.40255325820206211 0.35440744329028528 0 0.41565945607251759 0.36236511110304392 0 0.42423344021441339 0.3469403641650044 0 0.43248649325656402 0.35912170041613489 0 0.43941431748234389 0.34697694962204328 0 0.42423344021441339 0.3469403641650044 0 0.43248649325656402 0.35912170041613489 0 0.43941431748234389 0.34697694962204328 0 0.42423344021441339 0.3469403641650044 0 0.43138153093963261 0.33684778794266318 0 0.43138153093963261 0.33684778794266318 0 0.43736796180383269 0.33070162376080392 0 0.42780810280890752 0.32854219536395729 0 0.43138153093963261 0.33684778794266318 0 0.42780810280890752 0.32854219536395729 0 0.41974391964010321 0.33544292333485398 0 0.42780810280890752 0.32854219536395729 0 0.41816216709540432 0.32913892271221878 0 0.41974391964010321 0.33544292333485398 0 0.42423344021441339 0.3469403641650044 0 0.43138153093963261 0.33684778794266318 0 0.41974391964010321 0.33544292333485398 0 0.44590058407496119 0.32214035093537202 0 0.417039918788641 0.32200554090679828 0 0.43554340190627211 0.31006971119553528 0 0.42610184512817068 0.31856760869421968 0 0.41590325438833858 0.31571238371771643 0 0.44590058407496119 0.32214035093537202 0 0.42610184512817068 0.31856760869421968 0 0.417039918788641 0.32200554090679828 0 0.44590058407496119 0.32214035093537202 0 0.42780810280890752 0.32854219536395729 0 0.417039918788641 0.32200554090679828 0 0.44590058407496119 0.32214035093537202 0 0.43736796180383269 0.33070162376080392 0 0.42780810280890752 0.32854219536395729 0 0.43554340190627211 0.31006971119553528 0 0.41590325438833858 0.31571238371771643 0 0.43554340190627211 0.31006971119553528 0 0.44590058407496119 0.32214035093537202 0 0.42610184512817068 0.31856760869421968 0 0.40639677157087911 0.30212762763804019 0 0.417039918788641 0.32200554090679828 0 0.4081981699382346 0.3139513768470385 0 0.40639677157087911 0.30212762763804019 0 0.41590325438833858 0.31571238371771643 0 0.417039918788641 0.32200554090679828 0 0.42610184512817068 0.31856760869421968 0 0.41590325438833858 0.31571238371771643 0 0.417039918788641 0.32200554090679828 0 0.417039918788641 0.32200554090679828 0 0.41816216709540432 0.32913892271221878 0 0.41176425843116088 0.33156610519561941 0 0.42780810280890752 0.32854219536395729 0 0.417039918788641 0.32200554090679828 0 0.41816216709540432 0.32913892271221878 0 0.42423344021441339 0.3469403641650044 0 0.41974391964010321 0.33544292333485398 0 0.40881868850316022 0.34319093436892228 0 0.41816216709540432 0.32913892271221878 0 0.41974391964010321 0.33544292333485398 0 0.41176425843116088 0.33156610519561941 0 0.417039918788641 0.32200554090679828 0 0.41176425843116088 0.33156610519561941 0 0.40171431040203109 0.33103781916521291 0 0.41176425843116088 0.33156610519561941 0 0.40881868850316022 0.34319093436892228 0 0.40171431040203109 0.33103781916521291 0 0.41974391964010321 0.33544292333485398 0 0.41176425843116088 0.33156610519561941 0 0.40881868850316022 0.34319093436892228 0 0.40171431040203109 0.33103781916521291 0 0.38634354889032002 0.32367976249598251 0 0.39069281237429682 0.34525116339505252 0 0.40881868850316022 0.34319093436892228 0 0.40171431040203109 0.33103781916521291 0 0.39069281237429682 0.34525116339505252 0 0.417039918788641 0.32200554090679828 0 0.40171431040203109 0.33103781916521291 0 0.38634354889032002 0.32367976249598251 0 0.417039918788641 0.32200554090679828 0 0.4081981699382346 0.3139513768470385 0 0.38634354889032002 0.32367976249598251 0 0.39341545683502421 0.31015448597301559 0 0.4081981699382346 0.3139513768470385 0 0.38634354889032002 0.32367976249598251 0 0.417039918788641 0.32200554090679828 0 0.38634354889032002 0.32367976249598251 0 0.38634354889032002 0.32367976249598251 0 0.39069281237429682 0.34525116339505252 0 0.37418757138316661 0.34003979241565702 0 0.38634354889032002 0.32367976249598251 0 0.39069281237429682 0.34525116339505252 0 0.37418757138316661 0.34003979241565702 0 0.38014707859742553 0.358601566133181 0 0.39069281237429682 0.34525116339505252 0 0.38014707859742553 0.358601566133181 0 0.39504207585827378 0.36682256429412252 0 0.39069281237429682 0.34525116339505252 0 0.36927583114563117 0.37168826674887129 0 0.38014707859742553 0.358601566133181 0 0.3861818138235471 0.37714139125663793 0 0.38014707859742553 0.358601566133181 0 0.39504207585827378 0.36682256429412252 0 0.3861818138235471 0.37714139125663793 0 0.41565945607251759 0.36236511110304392 0 0.39504207585827378 0.36682256429412252 0 0.40683499004542412 0.37566900985645529 0 0.41565945607251759 0.36236511110304392 0 0.39504207585827378 0.36682256429412252 0 0.40255325820206211 0.35440744329028528 0 0.39504207585827378 0.36682256429412252 0 0.40255325820206211 0.35440744329028528 0 0.39069281237429682 0.34525116339505252 0 0.40881868850316022 0.34319093436892228 0 0.40255325820206211 0.35440744329028528 0 0.39069281237429682 0.34525116339505252 0 0.39504207585827378 0.36682256429412252 0 0.39069281237429682 0.34525116339505252 0 0.3993913393422508 0.38839396519319253 0 0.39020643165102042 0.40750290438779102 0 0.40342788129008578 0.41136751416027151 0 0.3993913393422508 0.38839396519319253 0 0.40342788129008578 0.41136751416027151 0 0.41247484703898341 0.39668929567888889 0 0.3993913393422508 0.38839396519319253 0 0.38594138320053972 0.39504117240748449 0 0.39020643165102042 0.40750290438779102 0 0.39504207585827378 0.36682256429412252 0 0.3993913393422508 0.38839396519319253 0 0.40683499004542412 0.37566900985645529 0 0.39504207585827378 0.36682256429412252 0 0.3993913393422508 0.38839396519319253 0 0.39504207585827378 0.36682256429412252 0 0.3993913393422508 0.38839396519319253 0 0.3861818138235471 0.37714139125663793 0 0.3993913393422508 0.38839396519319253 0 0.41247484703898341 0.39668929567888889 0 0.40683499004542412 0.37566900985645529 0 0.36927583114563117 0.37168826674887129 0 0.38594138320053972 0.39504117240748449 0 0.3993913393422508 0.38839396519319253 0 0.3861818138235471 0.37714139125663793 0 0.38594138320053972 0.39504117240748449 0 0.36927583114563117 0.37168826674887129 0 0.3861818138235471 0.37714139125663793 0 0.38594138320053972 0.39504117240748449 0 0.36672310374365391 0.3972274770167053 0 0.38594138320053972 0.39504117240748449 0 0.37714557779446961 0.40580011292323048 0 0.38594138320053972 0.39504117240748449 0 0.37714557779446961 0.40580011292323048 0 0.39020643165102042 0.40750290438779102 0 0.37714557779446961 0.40580011292323048 0 0.39020643165102042 0.40750290438779102 0 0.37786999239799629 0.42201923841731348 0 0.39020643165102042 0.40750290438779102 0 0.37786999239799629 0.42201923841731348 0 0.39620875860206523 0.42610388639599522 0 0.3672128213662551 0.44140310366938379 0 0.37786999239799629 0.42201923841731348 0 0.38861509636247821 0.44175005125570632 0 0.37786999239799629 0.42201923841731348 0 0.39620875860206523 0.42610388639599522 0 0.38861509636247821 0.44175005125570632 0 0.39620875860206523 0.42610388639599522 0 0.40342788129008578 0.41136751416027151 0 0.4165515890159211 0.43106581875832262 0 0.39020643165102042 0.40750290438779102 0 0.39620875860206523 0.42610388639599522 0 0.40342788129008578 0.41136751416027151 0 0.40342788129008578 0.41136751416027151 0 0.4194649070479346 0.41075775866906961 0 0.4165515890159211 0.43106581875832262 0 0.40342788129008578 0.41136751416027151 0 0.4194649070479346 0.41075775866906961 0 0.41247484703898341 0.39668929567888889 0 0.39620875860206523 0.42610388639599522 0 0.4165515890159211 0.43106581875832262 0 0.40679533173472487 0.44514780784289609 0 0.4165515890159211 0.43106581875832262 0 0.44107028692003247 0.43153611533185032 0 0.4165515890159211 0.43106581875832262 0 0.43527838440837918 0.41507327228856877 0 0.44107028692003247 0.43153611533185032 0 0.4194649070479346 0.41075775866906961 0 0.4165515890159211 0.43106581875832262 0 0.43527838440837918 0.41507327228856877 0 0.4194649070479346 0.41075775866906961 0 0.43527838440837918 0.41507327228856877 0 0.42844040697821201 0.39890611008127758 0 0.43527838440837918 0.41507327228856877 0 0.42844040697821201 0.39890611008127758 0 0.44356544647064411 0.40084295107477419 0 0.42844040697821201 0.39890611008127758 0 0.43978627658039499 0.38550810048347522 0 0.44356544647064411 0.40084295107477419 0 0.4194649070479346 0.41075775866906961 0 0.42844040697821201 0.39890611008127758 0 0.41247484703898341 0.39668929567888889 0 0.42844040697821201 0.39890611008127758 0 0.41247484703898341 0.39668929567888889 0 0.42235721568131929 0.38220686924127689 0 0.41247484703898341 0.39668929567888889 0 0.40683499004542412 0.37566900985645529 0 0.42235721568131929 0.38220686924127689 0 0.4343808670510142 0.37207818795490849 0 0.42235721568131929 0.38220686924127689 0 0.43978627658039499 0.38550810048347522 0 0.42844040697821201 0.39890611008127758 0 0.42235721568131929 0.38220686924127689 0 0.43978627658039499 0.38550810048347522 0 0.45151374504626951 0.36758660991241321 0 0.4343808670510142 0.37207818795490849 0 0.43978627658039499 0.38550810048347522 0 0.45151374504626951 0.36758660991241321 0 0.43978627658039499 0.38550810048347522 0 0.45722528454721961 0.3906654768237981 0 0.43978627658039499 0.38550810048347522 0 0.44356544647064411 0.40084295107477419 0 0.45722528454721961 0.3906654768237981 0 0.44356544647064411 0.40084295107477419 0 0.45722528454721961 0.3906654768237981 0 0.45594545333092312 0.41337501331873322 0 0.45722528454721961 0.3906654768237981 0 0.47568108772685191 0.39367102650606373 0 0.46881626912638691 0.40427363304328218 0 0.45722528454721961 0.3906654768237981 0 0.46881626912638691 0.40427363304328218 0 0.45594545333092312 0.41337501331873322 0 0.45151374504626951 0.36758660991241321 0 0.45722528454721961 0.3906654768237981 0 0.46980882541715813 0.38208294099771128 0 0.45722528454721961 0.3906654768237981 0 0.46980882541715813 0.38208294099771128 0 0.47568108772685191 0.39367102650606373 0 0.4736556537454587 0.3678330253399309 0 0.46980882541715813 0.38208294099771128 0 0.48477613844387402 0.38021688004838439 0 0.47568108772685191 0.39367102650606373 0 0.48702766555901961 0.39491075051184021 0 0.48477613844387402 0.38021688004838439 0 0.46980882541715813 0.38208294099771128 0 0.47568108772685191 0.39367102650606373 0 0.48477613844387402 0.38021688004838439 0 0.47568108772685191 0.39367102650606373 0 0.46881626912638691 0.40427363304328218 0 0.48151606592710777 0.40452093291302588 0 0.47568108772685191 0.39367102650606373 0 0.48151606592710777 0.40452093291302588 0 0.48702766555901961 0.39491075051184021 0 0.48702766555901961 0.39491075051184021 0 0.49874079622209128 0.38660437256818281 0 0.49442423947517328 0.40954054052354433 0 0.5 0.40278607211007789 0 0.49874079622209128 0.38660437256818281 0 0.49442423947517328 0.40954054052354433 0 0.49874079622209128 0.38660437256818281 0 0.49442423947517328 0.40954054052354433 0 0.48151606592710777 0.40452093291302588 0 0.48702766555901961 0.39491075051184021 0 0.49442423947517328 0.40954054052354433 0 0.5 0.37290568982018429 0 0.5 0.40278607211007789 0 0.49874079622209128 0.38660437256818281 0 0.5 0.37290568982018429 0 0.49874079622209128 0.38660437256818281 0 0.48477613844387402 0.38021688004838439 0 0.48702766555901961 0.39491075051184021 0 0.49874079622209128 0.38660437256818281 0 0.48477613844387402 0.38021688004838439 0 0.49010768272825528 0.43247670847890568 0 0.49999999999999839 0.43266645439997159 0 0.49442423947517328 0.40954054052354433 0 0.49010768272825528 0.43247670847890568 0 0.49999999999999839 0.43266645439997159 0 0.5 0.40278607211007789 0 0.49999999999999839 0.43266645439997159 0 0.49442423947517328 0.40954054052354433 0 0.49010768272825528 0.43247670847890568 0 0.49442423947517328 0.40954054052354433 0 0.47768739680387268 0.41777805257305989 0 0.48151606592710777 0.40452093291302588 0 0.49442423947517328 0.40954054052354433 0 0.47768739680387268 0.41777805257305989 0 0.49010768272825528 0.43247670847890568 0 0.49442423947517328 0.40954054052354433 0 0.46881626912638691 0.40427363304328218 0 0.48151606592710777 0.40452093291302588 0 0.47768739680387268 0.41777805257305989 0 0.49010768272825528 0.43247670847890568 0 0.47768739680387268 0.41777805257305989 0 0.4655889848241439 0.43200641190537797 0 0.49010768272825528 0.43247670847890568 0 0.4655889848241439 0.43200641190537797 0 0.47536631759922843 0.44556886167195853 0 0.49010768272825528 0.43247670847890568 0 0.4655889848241439 0.43200641190537797 0 0.4655889848241439 0.43200641190537797 0 0.44107028692003247 0.43153611533185032 0 0.4655889848241439 0.43200641190537797 0 0.45594545333092312 0.41337501331873322 0 0.44107028692003247 0.43153611533185032 0 0.4655889848241439 0.43200641190537797 0 0.44107028692003247 0.43153611533185032 0 0.4606865760628292 0.44801704672434101 0 0.47768739680387268 0.41777805257305989 0 0.4655889848241439 0.43200641190537797 0 0.45594545333092312 0.41337501331873322 0 0.46881626912638691 0.40427363304328218 0 0.47768739680387268 0.41777805257305989 0 0.45594545333092312 0.41337501331873322 0 0.43527838440837918 0.41507327228856877 0 0.45594545333092312 0.41337501331873322 0 0.44107028692003247 0.43153611533185032 0 0.43527838440837918 0.41507327228856877 0 0.44356544647064411 0.40084295107477419 0 0.45594545333092312 0.41337501331873322 0 0.49999999999999839 0.43266645439997159 0 0.48505572566105232 0.45932045051458531 0 0.5 0.5 0 0.44107028692003247 0.43153611533185032 0 0.44376664188615123 0.45979150936037488 0 0.4606865760628292 0.44801704672434101 0 0.44376664188615123 0.45979150936037488 0 0.46112241578244989 0.46478661640483648 0 0.45121200239437631 0.4807671998253365 0 0.44376664188615123 0.45979150936037488 0 0.46112241578244989 0.46478661640483648 0 0.4606865760628292 0.44801704672434101 0 0.46112241578244989 0.46478661640483648 0 0.4606865760628292 0.44801704672434101 0 0.47539261871986088 0.45602369073658289 0 0.4655889848241439 0.43200641190537797 0 0.4606865760628292 0.44801704672434101 0 0.47536631759922843 0.44556886167195853 0 0.49010768272825528 0.43247670847890568 0 0.47536631759922843 0.44556886167195853 0 0.48505572566105232 0.45932045051458531 0 0.4606865760628292 0.44801704672434101 0 0.47536631759922843 0.44556886167195853 0 0.47539261871986088 0.45602369073658289 0 0.47539261871986088 0.45602369073658289 0 0.47110615765410929 0.47801184536829172 0 0.47539261871986088 0.45602369073658289 0 0.48505572566105232 0.45932045051458531 0 0.47110615765410929 0.47801184536829172 0 0.46112241578244989 0.46478661640483648 0 0.47539261871986088 0.45602369073658289 0 0.47110615765410929 0.47801184536829172 0 0.47536631759922843 0.44556886167195853 0 0.47539261871986088 0.45602369073658289 0 0.48505572566105232 0.45932045051458531 0 0.49010768272825528 0.43247670847890568 0 0.48505572566105232 0.45932045051458531 0 0.49010768272825528 0.43247670847890568 0 0.49999999999999839 0.43266645439997159 0 0.48505572566105232 0.45932045051458531 0 0.48505572566105232 0.45932045051458531 0 0.5 0.5 0 0.48000376859384941 0.48616419255026477 0 0.5 0.5 0 0.48000376859384941 0.48616419255026477 0 0.46681969658835759 0.50000000000000044 0 0.48505572566105232 0.45932045051458531 0 0.47110615765410929 0.47801184536829172 0 0.48000376859384941 0.48616419255026477 0 0.48505572566105232 0.45932045051458531 0 0.48000376859384941 0.48616419255026477 0 0.47110615765410929 0.47801184536829172 0 0.46681969658835759 0.50000000000000044 0 0.47110615765410929 0.47801184536829172 0 0.48000376859384941 0.48616419255026477 0 0.46681969658835759 0.50000000000000044 0 0.47110615765410929 0.47801184536829172 0 0.46681969658835759 0.50000000000000044 0 0.45121200239437631 0.4807671998253365 0 0.46112241578244989 0.46478661640483648 0 0.47110615765410929 0.47801184536829172 0 0.45121200239437631 0.4807671998253365 0 0.44376664188615123 0.45979150936037488 0 0.45121200239437631 0.4807671998253365 0 0.42408561830569141 0.47732830779616442 0 0.46681969658835759 0.50000000000000044 0 0.45121200239437631 0.4807671998253365 0 0.43971230006436901 0.5 0 0.45121200239437631 0.4807671998253365 0 0.43971230006436901 0.5 0 0.42408561830569141 0.47732830779616442 0 0.43971230006436901 0.5 0 0.41260490354038032 0.5 0 0.42408561830569141 0.47732830779616442 0 0.41260490354038032 0.5 0 0.42408561830569141 0.47732830779616442 0 0.40044085355502113 0.48368683573266119 0 0.42408561830569141 0.47732830779616442 0 0.40050545668784993 0.46242548604636152 0 0.40044085355502113 0.48368683573266119 0 0.44376664188615123 0.45979150936037488 0 0.42408561830569141 0.47732830779616442 0 0.42267709028742451 0.45339185591380432 0 0.44107028692003247 0.43153611533185032 0 0.44376664188615123 0.45979150936037488 0 0.42267709028742451 0.45339185591380432 0 0.4165515890159211 0.43106581875832262 0 0.44107028692003247 0.43153611533185032 0 0.42267709028742451 0.45339185591380432 0 0.4165515890159211 0.43106581875832262 0 0.42267709028742451 0.45339185591380432 0 0.40679533173472487 0.44514780784289609 0 0.42408561830569141 0.47732830779616442 0 0.42267709028742451 0.45339185591380432 0 0.40050545668784993 0.46242548604636152 0 0.42267709028742451 0.45339185591380432 0 0.40679533173472487 0.44514780784289609 0 0.40050545668784993 0.46242548604636152 0 0.40679533173472487 0.44514780784289609 0 0.40050545668784993 0.46242548604636152 0 0.38861509636247821 0.44175005125570632 0 0.39620875860206523 0.42610388639599522 0 0.40679533173472487 0.44514780784289609 0 0.38861509636247821 0.44175005125570632 0 0.3672128213662551 0.44140310366938379 0 0.38861509636247821 0.44175005125570632 0 0.37565915938479377 0.45849116020829678 0 0.40050545668784993 0.46242548604636152 0 0.37565915938479377 0.45849116020829678 0 0.37951078222479251 0.47868038482078018 0 0.40050545668784993 0.46242548604636152 0 0.38861509636247821 0.44175005125570632 0 0.37565915938479377 0.45849116020829678 0 0.37951078222479251 0.47868038482078018 0 0.38549750701639152 0.5 0 0.40044085355502113 0.48368683573266119 0 0.41260490354038032 0.5 0 0.38549750701639152 0.5 0 0.40044085355502113 0.48368683573266119 0 0.40050545668784993 0.46242548604636152 0 0.37951078222479251 0.47868038482078018 0 0.40044085355502113 0.48368683573266119 0 0.3285700774521132 0.069227507684709172 0 0.34376262838779448 0.090160381808613591 0 0.3285700774521132 0.069227507684709172 0 0.34376262838779448 0.090160381808613591 0 0.3570119940846016 0.07655140493877155 0 0.3285700774521132 0.069227507684709172 0 0.31851483003181857 0.089032350953859848 0 0.34376262838779448 0.090160381808613591 0 0.3285700774521132 0.069227507684709172 0 0.31851483003181857 0.089032350953859848 0 0.30262144479489489 0.063472250579192202 0 0.31851483003181857 0.089032350953859848 0 0.32257158209111758 0.11034462767622299 0 0.33741607394213652 0.1036774965936159 0 0.31851483003181857 0.089032350953859848 0 0.32257158209111758 0.11034462767622299 0 0.29867863108980142 0.1045573716884185 0 0.32257158209111758 0.11034462767622299 0 0.32933038512457441 0.1245201253257071 0 0.3207185438207466 0.1263919595033525 0 0.32257158209111758 0.11034462767622299 0 0.31156748461804079 0.12537242366950921 0 0.3207185438207466 0.1263919595033525 0 0.32933038512457441 0.1245201253257071 0 0.34646453309243358 0.11613188366402739 0 0.34441400131097022 0.1288917011053414 0 0.32257158209111758 0.11034462767622299 0 0.33741607394213652 0.1036774965936159 0 0.34646453309243358 0.11613188366402739 0 0.32257158209111758 0.11034462767622299 0 0.34646453309243358 0.11613188366402739 0 0.32257158209111758 0.11034462767622299 0 0.32933038512457441 0.1245201253257071 0 0.34646453309243358 0.11613188366402739 0 0.31851483003181857 0.089032350953859848 0 0.33741607394213652 0.1036774965936159 0 0.34376262838779448 0.090160381808613591 0 0.35895517932347593 0.111093255932518 0 0.36286728541875429 0.096218484345557367 0 0.34376262838779448 0.090160381808613591 0 0.33741607394213652 0.1036774965936159 0 0.35895517932347593 0.111093255932518 0 0.34376262838779448 0.090160381808613591 0 0.35895517932347593 0.111093255932518 0 0.34376262838779448 0.090160381808613591 0 0.34646453309243358 0.11613188366402739 0 0.35895517932347593 0.111093255932518 0 0.37035748409374952 0.12191913965183331 0 0.34646453309243358 0.11613188366402739 0 0.37035748409374952 0.12191913965183331 0 0.33741607394213652 0.1036774965936159 0 0.34646453309243358 0.11613188366402739 0 0.35895517932347593 0.111093255932518 0 0.34646453309243358 0.11613188366402739 0 0.37035748409374952 0.12191913965183331 0 0.34441400131097022 0.1288917011053414 0 0.35895517932347593 0.111093255932518 0 0.36901916600157941 0.1100142775002767 0 0.37035748409374952 0.12191913965183331 0 0.36901916600157941 0.1100142775002767 0 0.37035748409374952 0.12191913965183331 0 0.37815432920295677 0.1109533992790251 0 0.37035748409374952 0.12191913965183331 0 0.37511757494472903 0.123072110010257 0 0.37035748409374952 0.12191913965183331 0 0.37169283910029199 0.12815165521797289 0 0.37511757494472903 0.123072110010257 0 0.36286728541875429 0.096218484345557367 0 0.37455144446510141 0.10193275935197101 0 0.37400882161871279 0.083619613235024759 0 0.35895517932347593 0.111093255932518 0 0.36901916600157941 0.1100142775002767 0 0.36286728541875429 0.096218484345557367 0 0.36901916600157941 0.1100142775002767 0 0.36286728541875429 0.096218484345557367 0 0.37455144446510141 0.10193275935197101 0 0.36901916600157941 0.1100142775002767 0 0.37455144446510141 0.10193275935197101 0 0.37815432920295677 0.1109533992790251 0 0.36286728541875429 0.096218484345557367 0 0.37400882161871279 0.083619613235024759 0 0.3570119940846016 0.07655140493877155 0 0.36286728541875429 0.096218484345557367 0 0.34376262838779448 0.090160381808613591 0 0.3570119940846016 0.07655140493877155 0 0.3285700774521132 0.069227507684709172 0 0.3570119940846016 0.07655140493877155 0 0.3540274811898364 0.057481719132925622 0 0.37400882161871279 0.083619613235024759 0 0.3570119940846016 0.07655140493877155 0 0.37883567044039879 0.062600723425798879 0 0.3570119940846016 0.07655140493877155 0 0.3540274811898364 0.057481719132925622 0 0.37883567044039879 0.062600723425798879 0 0.36884998715724038 0.048654936693666287 0 0.3540274811898364 0.057481719132925622 0 0.37883567044039879 0.062600723425798879 0 0.36884998715724038 0.048654936693666287 0 0.36096242836060388 0.032492650360987897 0 0.3540274811898364 0.057481719132925622 0 0.36884998715724038 0.048654936693666287 0 0.36096242836060388 0.032492650360987897 0 0.38366251926208489 0.041581833616573027 0 0.36096242836060388 0.032492650360987897 0 0.3540274811898364 0.057481719132925622 0 0.33343548863743699 0.044422356914628619 0 0.36096242836060388 0.032492650360987897 0 0.34150772405548108 0.025325389551572871 0 0.33343548863743699 0.044422356914628619 0 0.36096242836060388 0.032492650360987897 0 0.33343548863743699 0.044422356914628619 0 0.36934971840039982 0.01412264887454192 0 0.38120377069012762 0.010554394007073271 0 0.36845156083710567 -0.0060515153414843056 0 0.36934971840039982 0.01412264887454192 0 0.35188933009005469 0.012921367503740049 0 0.36845156083710567 -0.0060515153414843056 0 0.36096242836060388 0.032492650360987897 0 0.38848936808377088 0.020562943807347231 0 0.36096242836060388 0.032492650360987897 0 0.36934971840039982 0.01412264887454192 0 0.35188933009005469 0.012921367503740049 0 0.36096242836060388 0.032492650360987897 0 0.36934971840039982 0.01412264887454192 0 0.38848936808377088 0.020562943807347231 0 0.36096242836060388 0.032492650360987897 0 0.35188933009005469 0.012921367503740049 0 0.34150772405548108 0.025325389551572871 0 0.35188933009005469 0.012921367503740049 0 0.36845156083710567 -0.0060515153414843056 0 0.34114057903213352 -0.00099436838624600288 0 0.32992396985460443 0.01263339996306794 0 0.31382959722716158 0.0040627785689932028 0 0.34114057903213352 -0.00099436838624600288 0 0.35188933009005469 0.012921367503740049 0 0.32992396985460443 0.01263339996306794 0 0.34114057903213352 -0.00099436838624600288 0 0.32992396985460443 0.01263339996306794 0 0.34150772405548108 0.025325389551572871 0 0.32077834005703848 0.02927741351548363 0 0.35188933009005469 0.012921367503740049 0 0.32992396985460443 0.01263339996306794 0 0.34150772405548108 0.025325389551572871 0 0.32992396985460443 0.01263339996306794 0 0.32077834005703848 0.02927741351548363 0 0.31391214704691389 0.015516024244919061 0 0.32992396985460443 0.01263339996306794 0 0.31391214704691389 0.015516024244919061 0 0.31382959722716158 0.0040627785689932028 0 0.31382959722716158 0.0040627785689932028 0 0.34183048761771712 -0.0039986291523161147 0 0.31382959722716158 0.0040627785689932028 0 0.34114057903213352 -0.00099436838624600288 0 0.31382959722716158 0.0040627785689932028 0 0.30752965714041391 0.0058765203804442539 0 0.32194573769061952 -0.0077676308935595512 0 0.3285700774521132 0.069227507684709172 0 0.3540274811898364 0.057481719132925622 0 0.33343548863743699 0.044422356914628619 0 0.34150772405548108 0.025325389551572871 0 0.32077834005703848 0.02927741351548363 0 0.33343548863743699 0.044422356914628619 0 0.32077834005703848 0.02927741351548363 0 0.33343548863743699 0.044422356914628619 0 0.31337752651643169 0.04829463356080467 0 0.3285700774521132 0.069227507684709172 0 0.31337752651643169 0.04829463356080467 0 0.3285700774521132 0.069227507684709172 0 0.33343548863743699 0.044422356914628619 0 0.31337752651643169 0.04829463356080467 0 0.3285700774521132 0.069227507684709172 0 0.31337752651643169 0.04829463356080467 0 0.30262144479489489 0.063472250579192202 0 0.31337752651643169 0.04829463356080467 0 0.29190445549758398 0.041801895735158197 0 0.30262144479489489 0.063472250579192202 0 0.31337752651643169 0.04829463356080467 0 0.29818497558074802 0.027361759436901809 0 0.31337752651643169 0.04829463356080467 0 0.29190445549758398 0.041801895735158197 0 0.29818497558074802 0.027361759436901809 0 0.32077834005703848 0.02927741351548363 0 0.31337752651643169 0.04829463356080467 0 0.29818497558074802 0.027361759436901809 0 0.29190445549758398 0.041801895735158197 0 0.29818497558074802 0.027361759436901809 0 0.28149235485467722 0.028426230672526639 0 0.29190445549758398 0.041801895735158197 0 0.28562393541442521 0.056242032033416753 0 0.26921605588191849 0.040519794607793452 0 0.29190445549758398 0.041801895735158197 0 0.29818497558074802 0.027361759436901809 0 0.29190445549758398 0.041801895735158197 0 0.28562393541442521 0.056242032033416753 0 0.29190445549758398 0.041801895735158197 0 0.28562393541442521 0.056242032033416753 0 0.30262144479489489 0.063472250579192202 0 0.2978295874258669 0.0070254842464454832 0 0.30752965714041391 0.0058765203804442539 0 0.2978295874258669 0.0070254842464454832 0 0.30752965714041391 0.0058765203804442539 0 0.29396858594285019 -0.001032612778502764 0 0.31382959722716158 0.0040627785689932028 0 0.30752965714041391 0.0058765203804442539 0 0.31391214704691389 0.015516024244919061 0 0.30752965714041391 0.0058765203804442539 0 0.30398999522707459 0.014014891057021139 0 0.30752965714041391 0.0058765203804442539 0 0.30398999522707459 0.014014891057021139 0 0.31391214704691389 0.015516024244919061 0 0.31382959722716158 0.0040627785689932028 0 0.30752965714041391 0.0058765203804442539 0 0.2978295874258669 0.0070254842464454832 0 0.30752965714041391 0.0058765203804442539 0 0.30398999522707459 0.014014891057021139 0 0.2978295874258669 0.0070254842464454832 0 0.30398999522707459 0.014014891057021139 0 0.31391214704691389 0.015516024244919061 0 0.30398999522707459 0.014014891057021139 0 0.29818497558074802 0.027361759436901809 0 0.32077834005703848 0.02927741351548363 0 0.31391214704691389 0.015516024244919061 0 0.29818497558074802 0.027361759436901809 0 0.30398999522707459 0.014014891057021139 0 0.29818497558074802 0.027361759436901809 0 0.30398999522707459 0.014014891057021139 0 0.29818497558074802 0.027361759436901809 0 0.28690172397702512 0.011815266518820099 0 0.29818497558074802 0.027361759436901809 0 0.28149235485467722 0.028426230672526639 0 0.28690172397702512 0.011815266518820099 0 0.29818497558074802 0.027361759436901809 0 0.28690172397702512 0.011815266518820099 0 0.28690172397702512 0.011815266518820099 0 0.28687677889875068 0.001725005618485562 0 0.27267603034966698 -0.0077854348569651906 0 0.2978295874258669 0.0070254842464454832 0 0.30398999522707459 0.014014891057021139 0 0.28690172397702512 0.011815266518820099 0 0.2978295874258669 0.0070254842464454832 0 0.28690172397702512 0.011815266518820099 0 0.29376575238797509 0.0077779804816672602 0 0.2978295874258669 0.0070254842464454832 0 0.28690172397702512 0.011815266518820099 0 0.2978295874258669 0.0070254842464454832 0 0.28687677889875068 0.001725005618485562 0 0.29376575238797509 0.0077779804816672602 0 0.28690172397702512 0.011815266518820099 0 0.28687677889875068 0.001725005618485562 0 0.29376575238797509 0.0077779804816672602 0 0.2978295874258669 0.0070254842464454832 0 0.29376575238797509 0.0077779804816672602 0 0.28690172397702512 0.011815266518820099 0 0.26939274767164711 0.0040745279013861191 0 0.27267603034966698 -0.0077854348569651906 0 0.28690172397702512 0.011815266518820099 0 0.26440570944936082 0.018291830038140541 0 0.28690172397702512 0.011815266518820099 0 0.26939274767164711 0.0040745279013861191 0 0.26440570944936082 0.018291830038140541 0 0.28690172397702512 0.011815266518820099 0 0.27267603034966698 -0.0077854348569651906 0 0.28149235485467722 0.028426230672526639 0 0.26440570944936082 0.018291830038140541 0 0.26921605588191849 0.040519794607793452 0 0.28149235485467722 0.028426230672526639 0 0.28690172397702512 0.011815266518820099 0 0.26440570944936082 0.018291830038140541 0 0.24190969492169709 0.024768393557462999 0 0.26440570944936082 0.018291830038140541 0 0.2485551203034157 0.0102848256948572 0 0.24190969492169709 0.024768393557462999 0 0.26440570944936082 0.018291830038140541 0 0.24190969492169709 0.024768393557462999 0 0.26440570944936082 0.018291830038140541 0 0.25291178968964928 0.037547667281027097 0 0.2485551203034157 0.0102848256948572 0 0.26440570944936082 0.018291830038140541 0 0.25894279220913391 0.003459445712386486 0 0.26939274767164711 0.0040745279013861191 0 0.26440570944936082 0.018291830038140541 0 0.25894279220913391 0.003459445712386486 0 0.2485551203034157 0.0102848256948572 0 0.25894279220913391 0.003459445712386486 0 0.2479891295484222 -0.0022684572774312019 0 0.26939274767164711 0.0040745279013861191 0 0.25894279220913391 0.003459445712386486 0 0.26317147738524183 -0.0038637327990410169 0 0.28562393541442521 0.056242032033416753 0 0.27026274557325353 0.056119745337220257 0 0.26921605588191849 0.040519794607793452 0 0.28562393541442521 0.056242032033416753 0 0.27026274557325353 0.056119745337220257 0 0.27167623587568768 0.070814912161459326 0 0.29190445549758398 0.041801895735158197 0 0.28149235485467722 0.028426230672526639 0 0.26921605588191849 0.040519794607793452 0 0.26921605588191849 0.040519794607793452 0 0.25291178968964928 0.037547667281027097 0 0.25425538404847059 0.057624927133231481 0 0.26440570944936082 0.018291830038140541 0 0.26921605588191849 0.040519794607793452 0 0.25291178968964928 0.037547667281027097 0 0.27026274557325353 0.056119745337220257 0 0.26921605588191849 0.040519794607793452 0 0.25425538404847059 0.057624927133231481 0 0.27026274557325353 0.056119745337220257 0 0.25425538404847059 0.057624927133231481 0 0.27167623587568768 0.070814912161459326 0 0.25425538404847059 0.057624927133231481 0 0.27167623587568768 0.070814912161459326 0 0.25282536794073712 0.073272794188635415 0 0.26618138576237349 0.084067315497028519 0 0.27167623587568768 0.070814912161459326 0 0.25425538404847059 0.057624927133231481 0 0.25282536794073712 0.073272794188635415 0 0.27167623587568768 0.070814912161459326 0 0.25089272908716931 0.092982859712809007 0 0.26618138576237349 0.084067315497028519 0 0.27478568008848531 0.098770115700614086 0 0.25282536794073712 0.073272794188635415 0 0.25089272908716931 0.092982859712809007 0 0.26618138576237349 0.084067315497028519 0 0.26618138576237349 0.084067315497028519 0 0.28181267844286689 0.084890460016538952 0 0.27478568008848531 0.098770115700614086 0 0.26618138576237349 0.084067315497028519 0 0.27167623587568768 0.070814912161459326 0 0.28181267844286689 0.084890460016538952 0 0.27167623587568768 0.070814912161459326 0 0.2870451550563029 0.071072764848292863 0 0.28181267844286689 0.084890460016538952 0 0.2870451550563029 0.071072764848292863 0 0.29673814540623761 0.08207029957157172 0 0.30262144479489489 0.063472250579192202 0 0.28562393541442521 0.056242032033416753 0 0.2870451550563029 0.071072764848292863 0 0.30262144479489489 0.063472250579192202 0 0.28562393541442521 0.056242032033416753 0 0.27167623587568768 0.070814912161459326 0 0.2870451550563029 0.071072764848292863 0 0.2870451550563029 0.071072764848292863 0 0.28181267844286689 0.084890460016538952 0 0.29673814540623761 0.08207029957157172 0 0.28181267844286689 0.084890460016538952 0 0.29673814540623761 0.08207029957157172 0 0.29867863108980142 0.1045573716884185 0 0.31851483003181857 0.089032350953859848 0 0.29673814540623761 0.08207029957157172 0 0.30262144479489489 0.063472250579192202 0 0.31851483003181857 0.089032350953859848 0 0.29673814540623761 0.08207029957157172 0 0.29867863108980142 0.1045573716884185 0 0.2991284260398443 0.1226428311133997 0 0.29867863108980142 0.1045573716884185 0 0.31156748461804079 0.12537242366950921 0 0.32257158209111758 0.11034462767622299 0 0.29867863108980142 0.1045573716884185 0 0.31156748461804079 0.12537242366950921 0 0.32257158209111758 0.11034462767622299 0 0.29867863108980142 0.1045573716884185 0 0.29867863108980142 0.1045573716884185 0 0.27478568008848531 0.098770115700614086 0 0.29867863108980142 0.1045573716884185 0 0.27783009132198788 0.1122622341296569 0 0.27478568008848531 0.098770115700614086 0 0.28181267844286689 0.084890460016538952 0 0.29867863108980142 0.1045573716884185 0 0.27478568008848531 0.098770115700614086 0 0.2991284260398443 0.1226428311133997 0 0.29867863108980142 0.1045573716884185 0 0.28707615928971691 0.1208096883177448 0 0.29867863108980142 0.1045573716884185 0 0.28707615928971691 0.1208096883177448 0 0.27783009132198788 0.1122622341296569 0 0.2991284260398443 0.1226428311133997 0 0.28707615928971691 0.1208096883177448 0 0.29671346303214241 0.12961196471325551 0 0.26302281242735981 0.111198171579071 0 0.27515289576754948 0.1294134834453334 0 0.28707615928971691 0.1208096883177448 0 0.27783009132198788 0.1122622341296569 0 0.27515289576754948 0.1294134834453334 0 0.27783009132198788 0.1122622341296569 0 0.26302281242735981 0.111198171579071 0 0.27515289576754948 0.1294134834453334 0 0.26302281242735981 0.111198171579071 0 0.26007351669183237 0.1253037732749688 0 0.27515289576754948 0.1294134834453334 0 0.27783009132198788 0.1122622341296569 0 0.27478568008848531 0.098770115700614086 0 0.26302281242735981 0.111198171579071 0 0.25089272908716931 0.092982859712809007 0 0.26302281242735981 0.111198171579071 0 0.2496952397761337 0.1160329650041991 0 0.25089272908716931 0.092982859712809007 0 0.26302281242735981 0.111198171579071 0 0.25089272908716931 0.092982859712809007 0 0.27478568008848531 0.098770115700614086 0 0.26302281242735981 0.111198171579071 0 0.25089272908716931 0.092982859712809007 0 0.27478568008848531 0.098770115700614086 0 0.2471064899150823 0.133463067737116 0 0.2496952397761337 0.1160329650041991 0 0.26007351669183237 0.1253037732749688 0 0.2496952397761337 0.1160329650041991 0 0.26302281242735981 0.111198171579071 0 0.26007351669183237 0.1253037732749688 0 0.2471064899150823 0.133463067737116 0 0.26212056590251792 0.13860634342131159 0 0.25227113898158787 0.14916335431643429 0 0.2471064899150823 0.133463067737116 0 0.26212056590251792 0.13860634342131159 0 0.26007351669183237 0.1253037732749688 0 0.27515289576754948 0.1294134834453334 0 0.28728297910773942 0.14762879531159581 0 0.27515289576754948 0.1294134834453334 0 0.27408945104382287 0.14431330872834849 0 0.28728297910773942 0.14762879531159581 0 0.26212056590251792 0.13860634342131159 0 0.26007351669183237 0.1253037732749688 0 0.27515289576754948 0.1294134834453334 0 0.26212056590251792 0.13860634342131159 0 0.27515289576754948 0.1294134834453334 0 0.27408945104382287 0.14431330872834849 0 0.27408945104382287 0.14431330872834849 0 0.27716137478162928 0.15889869399298601 0 0.28728297910773942 0.14762879531159581 0 0.26212056590251792 0.13860634342131159 0 0.27408945104382287 0.14431330872834849 0 0.26493391480523859 0.14953421755469451 0 0.27408945104382287 0.14431330872834849 0 0.26493391480523859 0.14953421755469451 0 0.27716137478162928 0.15889869399298601 0 0.26493391480523859 0.14953421755469451 0 0.25227113898158787 0.14916335431643429 0 0.25784869618064837 0.16117632967822779 0 0.26212056590251792 0.13860634342131159 0 0.26493391480523859 0.14953421755469451 0 0.25227113898158787 0.14916335431643429 0 0.24342118736862761 0.16410875332904781 0 0.25227113898158787 0.14916335431643429 0 0.25784869618064837 0.16117632967822779 0 0.24342118736862761 0.16410875332904781 0 0.25784869618064837 0.16117632967822779 0 0.25421457754785548 0.17528354573505059 0 0.25784869618064837 0.16117632967822779 0 0.25421457754785548 0.17528354573505059 0 0.26798999978846311 0.16999528723303189 0 0.25421457754785548 0.17528354573505059 0 0.26688833639653942 0.18474270353269559 0 0.25113643024109478 0.19094495075723769 0 0.25421457754785548 0.17528354573505059 0 0.26688833639653942 0.18474270353269559 0 0.26798999978846311 0.16999528723303189 0 0.26688833639653942 0.18474270353269559 0 0.27899922157627788 0.1740987885831469 0 0.26798999978846311 0.16999528723303189 0 0.26688833639653942 0.18474270353269559 0 0.27899922157627788 0.1740987885831469 0 0.28165513110548479 0.1855437801635878 0 0.25784869618064837 0.16117632967822779 0 0.26798999978846311 0.16999528723303189 0 0.27716137478162928 0.15889869399298601 0 0.26493391480523859 0.14953421755469451 0 0.25784869618064837 0.16117632967822779 0 0.27716137478162928 0.15889869399298601 0 0.27899922157627788 0.1740987885831469 0 0.26798999978846311 0.16999528723303189 0 0.27716137478162928 0.15889869399298601 0 0.27716137478162928 0.15889869399298601 0 0.28838527260411961 0.16768800255462621 0 0.29642958482603432 0.1586868689393966 0 0.27899922157627788 0.1740987885831469 0 0.27716137478162928 0.15889869399298601 0 0.28838527260411961 0.16768800255462621 0 0.28838527260411961 0.16768800255462621 0 0.29642958482603432 0.1586868689393966 0 0.2990812202460017 0.16972771789266669 0 0.28165513110548479 0.1855437801635878 0 0.29057456817046978 0.17841330338653549 0 0.29442149412013968 0.19018242885082931 0 0.27899922157627788 0.1740987885831469 0 0.28165513110548479 0.1855437801635878 0 0.29057456817046978 0.17841330338653549 0 0.27899922157627788 0.1740987885831469 0 0.28838527260411961 0.16768800255462621 0 0.29057456817046978 0.17841330338653549 0 0.28838527260411961 0.16768800255462621 0 0.29057456817046978 0.17841330338653549 0 0.2990812202460017 0.16972771789266669 0 0.29057456817046978 0.17841330338653549 0 0.30085032626191438 0.18018504882584371 0 0.2990812202460017 0.16972771789266669 0 0.29057456817046978 0.17841330338653549 0 0.30085032626191438 0.18018504882584371 0 0.29442149412013968 0.19018242885082931 0 0.30085032626191438 0.18018504882584371 0 0.29442149412013968 0.19018242885082931 0 0.3080553032197017 0.1887293017033026 0 0.30085032626191438 0.18018504882584371 0 0.31056514142368619 0.1744383831500049 0 0.2990812202460017 0.16972771789266669 0 0.30085032626191438 0.18018504882584371 0 0.31056514142368619 0.1744383831500049 0 0.3080553032197017 0.1887293017033026 0 0.29642958482603432 0.1586868689393966 0 0.30747502192119819 0.16230778928688711 0 0.30151933753066762 0.14970454816787401 0 0.29642958482603432 0.1586868689393966 0 0.2990812202460017 0.16972771789266669 0 0.30747502192119819 0.16230778928688711 0 0.31056514142368619 0.1744383831500049 0 0.2990812202460017 0.16972771789266669 0 0.30747502192119819 0.16230778928688711 0 0.30747502192119819 0.16230778928688711 0 0.30151933753066762 0.14970454816787401 0 0.3129765302581462 0.1494710021231663 0 0.30151933753066762 0.14970454816787401 0 0.29882590938581222 0.14264553562683399 0 0.30718649112507979 0.14443915855455869 0 0.30151933753066762 0.14970454816787401 0 0.30718649112507979 0.14443915855455869 0 0.3129765302581462 0.1494710021231663 0 0.29882590938581222 0.14264553562683399 0 0.30718649112507979 0.14443915855455869 0 0.31229822968882548 0.13781435906697939 0 0.30718649112507979 0.14443915855455869 0 0.31229822968882548 0.13781435906697939 0 0.3129765302581462 0.1494710021231663 0 0.31229822968882548 0.13781435906697939 0 0.28502845800881449 0.13413009067030229 0 0.31229822968882548 0.13781435906697939 0 0.29671346303214241 0.12961196471325551 0 0.28502845800881449 0.13413009067030229 0 0.29882590938581222 0.14264553562683399 0 0.31229822968882548 0.13781435906697939 0 0.28502845800881449 0.13413009067030229 0 0.2991284260398443 0.1226428311133997 0 0.31156748461804079 0.12537242366950921 0 0.30438347209902411 0.12928289016934871 0 0.31229822968882548 0.13781435906697939 0 0.31156748461804079 0.12537242366950921 0 0.30438347209902411 0.12928289016934871 0 0.31229822968882548 0.13781435906697939 0 0.30438347209902411 0.12928289016934871 0 0.29671346303214241 0.12961196471325551 0 0.2991284260398443 0.1226428311133997 0 0.30438347209902411 0.12928289016934871 0 0.29671346303214241 0.12961196471325551 0 0.27515289576754948 0.1294134834453334 0 0.28502845800881449 0.13413009067030229 0 0.28728297910773942 0.14762879531159581 0 0.28707615928971691 0.1208096883177448 0 0.29671346303214241 0.12961196471325551 0 0.28502845800881449 0.13413009067030229 0 0.28707615928971691 0.1208096883177448 0 0.27515289576754948 0.1294134834453334 0 0.28502845800881449 0.13413009067030229 0 0.27716137478162928 0.15889869399298601 0 0.29642958482603432 0.1586868689393966 0 0.28728297910773942 0.14762879531159581 0 0.29642958482603432 0.1586868689393966 0 0.30151933753066762 0.14970454816787401 0 0.28728297910773942 0.14762879531159581 0 0.30151933753066762 0.14970454816787401 0 0.29882590938581222 0.14264553562683399 0 0.28728297910773942 0.14762879531159581 0 0.29882590938581222 0.14264553562683399 0 0.28502845800881449 0.13413009067030229 0 0.28728297910773942 0.14762879531159581 0 0.2459873280094696 0.23707215699401071 0 0.27381195783464701 0.24213208581531279 0 0.2459873280094696 0.23707215699401071 0 0.27381195783464701 0.24213208581531279 0 0.27283394916361492 0.24742619336605559 0 0.2459873280094696 0.23707215699401071 0 0.27283394916361492 0.24742619336605559 0 0.2459873280094696 0.23707215699401071 0 0.25877170878786238 0.25302463852503437 0 0.27283394916361492 0.24742619336605559 0 0.2459873280094696 0.23707215699401071 0 0.24763005152173001 0.25910176257370959 0 0.25877170878786238 0.25302463852503437 0 0.24332195560292991 0.2175119837032847 0 0.2459873280094696 0.23707215699401071 0 0.26947725056793032 0.22188821543332771 0 0.2459873280094696 0.23707215699401071 0 0.27381195783464701 0.24213208581531279 0 0.26947725056793032 0.22188821543332771 0 0.24332195560292991 0.2175119837032847 0 0.26947725056793032 0.22188821543332771 0 0.27381195783464701 0.24213208581531279 0 0.26947725056793032 0.22188821543332771 0 0.29563254553293061 0.22626444716337071 0 0.26947725056793032 0.22188821543332771 0 0.26383894902510108 0.20488334565775601 0 0.28252807440433819 0.20448568929014271 0 0.24828008483854189 0.20295934428596721 0 0.24332195560292991 0.2175119837032847 0 0.26383894902510108 0.20488334565775601 0 0.24332195560292991 0.2175119837032847 0 0.26947725056793032 0.22188821543332771 0 0.26383894902510108 0.20488334565775601 0 0.26688833639653942 0.18474270353269559 0 0.26383894902510108 0.20488334565775601 0 0.25113643024109478 0.19094495075723769 0 0.24828008483854189 0.20295934428596721 0 0.26383894902510108 0.20488334565775601 0 0.25113643024109478 0.19094495075723769 0 0.26688833639653942 0.18474270353269559 0 0.26383894902510108 0.20488334565775601 0 0.27369942293731819 0.19569303942008121 0 0.26383894902510108 0.20488334565775601 0 0.27369942293731819 0.19569303942008121 0 0.28252807440433819 0.20448568929014271 0 0.28165513110548479 0.1855437801635878 0 0.27369942293731819 0.19569303942008121 0 0.28252807440433819 0.20448568929014271 0 0.26688833639653942 0.18474270353269559 0 0.28165513110548479 0.1855437801635878 0 0.27369942293731819 0.19569303942008121 0 0.28165513110548479 0.1855437801635878 0 0.29442149412013968 0.19018242885082931 0 0.28252807440433819 0.20448568929014271 0 0.29442149412013968 0.19018242885082931 0 0.30168066081365352 0.2029210297493958 0 0.28252807440433819 0.20448568929014271 0 0.29442149412013968 0.19018242885082931 0 0.3080553032197017 0.1887293017033026 0 0.30168066081365352 0.2029210297493958 0 0.3080553032197017 0.1887293017033026 0 0.30168066081365352 0.2029210297493958 0 0.31674655555173881 0.19902842766084339 0 0.30168066081365352 0.2029210297493958 0 0.29563254553293061 0.22626444716337071 0 0.31377845179643721 0.21458276756770189 0 0.30168066081365352 0.2029210297493958 0 0.31377845179643721 0.21458276756770189 0 0.31674655555173881 0.19902842766084339 0 0.30168066081365352 0.2029210297493958 0 0.28252807440433819 0.20448568929014271 0 0.29563254553293061 0.22626444716337071 0 0.26947725056793032 0.22188821543332771 0 0.28252807440433819 0.20448568929014271 0 0.29563254553293061 0.22626444716337071 0 0.26947725056793032 0.22188821543332771 0 0.29563254553293061 0.22626444716337071 0 0.29563254553293061 0.22626444716337071 0 0.3217878404979308 0.23064067889341369 0 0.31377845179643721 0.21458276756770189 0 0.29563254553293061 0.22626444716337071 0 0.3217878404979308 0.23064067889341369 0 0.29563254553293061 0.22626444716337071 0 0.3016365876598241 0.24719201463661561 0 0.3217878404979308 0.23064067889341369 0 0.27381195783464701 0.24213208581531279 0 0.29563254553293061 0.22626444716337071 0 0.3016365876598241 0.24719201463661561 0 0.27381195783464701 0.24213208581531279 0 0.3016365876598241 0.24719201463661561 0 0.27381195783464701 0.24213208581531279 0 0.27283394916361492 0.24742619336605559 0 0.3016365876598241 0.24719201463661561 0 0.32946121748500129 0.25225194345791829 0 0.3217878404979308 0.23064067889341369 0 0.34556910970536658 0.23921390462248199 0 0.32946121748500129 0.25225194345791829 0 0.3016365876598241 0.24719201463661561 0 0.3217878404979308 0.23064067889341369 0 0.32946121748500129 0.25225194345791829 0 0.3016365876598241 0.24719201463661561 0 0.3217878404979308 0.23064067889341369 0 0.33460182177363001 0.21999966289075409 0 0.31377845179643721 0.21458276756770189 0 0.3217878404979308 0.23064067889341369 0 0.33460182177363001 0.21999966289075409 0 0.34556910970536658 0.23921390462248199 0 0.33460182177363001 0.21999966289075409 0 0.3278776259658665 0.2076214509036243 0 0.34419695055865512 0.20542025302645439 0 0.33460182177363001 0.21999966289075409 0 0.31377845179643721 0.21458276756770189 0 0.3278776259658665 0.2076214509036243 0 0.31377845179643721 0.21458276756770189 0 0.3278776259658665 0.2076214509036243 0 0.31674655555173881 0.19902842766084339 0 0.3278776259658665 0.2076214509036243 0 0.31674655555173881 0.19902842766084339 0 0.32893527636844411 0.194937601908272 0 0.3080553032197017 0.1887293017033026 0 0.31674655555173881 0.19902842766084339 0 0.32122387935841612 0.1836610840160959 0 0.31674655555173881 0.19902842766084339 0 0.32893527636844411 0.194937601908272 0 0.32122387935841612 0.1836610840160959 0 0.32893527636844411 0.194937601908272 0 0.34419695055865512 0.20542025302645439 0 0.33967484433078321 0.18584068278097349 0 0.32893527636844411 0.194937601908272 0 0.32122387935841612 0.1836610840160959 0 0.33967484433078321 0.18584068278097349 0 0.3278776259658665 0.2076214509036243 0 0.32893527636844411 0.194937601908272 0 0.34419695055865512 0.20542025302645439 0 0.35368837148756882 0.19334260062126429 0 0.34419695055865512 0.20542025302645439 0 0.33967484433078321 0.18584068278097349 0 0.35368837148756882 0.19334260062126429 0 0.36735815001373812 0.20351917688449569 0 0.34419695055865512 0.20542025302645439 0 0.36735815001373812 0.20351917688449569 0 0.36699199379966768 0.18628457072029089 0 0.38367398474104891 0.18179268717308689 0 0.35368837148756882 0.19334260062126429 0 0.36735815001373812 0.20351917688449569 0 0.36699199379966768 0.18628457072029089 0 0.36735815001373812 0.20351917688449569 0 0.35440095211752448 0.2225189223308488 0 0.37280151553833601 0.22024831863616021 0 0.36735815001373812 0.20351917688449569 0 0.37280151553833601 0.22024831863616021 0 0.38406378734192298 0.20777210545990279 0 0.36735815001373812 0.20351917688449569 0 0.34419695055865512 0.20542025302645439 0 0.35440095211752448 0.2225189223308488 0 0.33460182177363001 0.21999966289075409 0 0.34419695055865512 0.20542025302645439 0 0.35440095211752448 0.2225189223308488 0 0.35440095211752448 0.2225189223308488 0 0.37293454716760283 0.2396311516560117 0 0.34556910970536658 0.23921390462248199 0 0.33460182177363001 0.21999966289075409 0 0.35440095211752448 0.2225189223308488 0 0.34556910970536658 0.23921390462248199 0 0.35440095211752448 0.2225189223308488 0 0.37280151553833601 0.22024831863616021 0 0.37293454716760283 0.2396311516560117 0 0.32946121748500129 0.25225194345791829 0 0.35728584731017871 0.25731187227922109 0 0.34556910970536658 0.23921390462248199 0 0.35728584731017871 0.25731187227922109 0 0.37293454716760283 0.2396311516560117 0 0.34556910970536658 0.23921390462248199 0 0.33789665254535572 0.15537308983460499 0 0.33956800136883641 0.14149862746365649 0 0.32484504322689201 0.150618498474763 0 0.33789665254535572 0.15537308983460499 0 0.32484504322689201 0.150618498474763 0 0.32925575641373173 0.1625602653078303 0 0.33789665254535572 0.15537308983460499 0 0.33956800136883641 0.14149862746365649 0 0.35085012880757988 0.15547460686614431 0 0.31847051852819058 0.13586426255884801 0 0.34441400131097022 0.1288917011053414 0 0.32933038512457441 0.1245201253257071 0 0.31847051852819058 0.13586426255884801 0 0.34441400131097022 0.1288917011053414 0 0.33956800136883641 0.14149862746365649 0 0.31847051852819058 0.13586426255884801 0 0.34441400131097022 0.1288917011053414 0 0.31229822968882548 0.13781435906697939 0 0.33956800136883641 0.14149862746365649 0 0.31229822968882548 0.13781435906697939 0 0.33956800136883641 0.14149862746365649 0 0.31847051852819058 0.13586426255884801 0 0.32933038512457441 0.1245201253257071 0 0.3207185438207466 0.1263919595033525 0 0.31847051852819058 0.13586426255884801 0 0.31156748461804079 0.12537242366950921 0 0.3207185438207466 0.1263919595033525 0 0.31847051852819058 0.13586426255884801 0 0.31229822968882548 0.13781435906697939 0 0.31156748461804079 0.12537242366950921 0 0.31847051852819058 0.13586426255884801 0 0.31229822968882548 0.13781435906697939 0 0.33956800136883641 0.14149862746365649 0 0.32484504322689201 0.150618498474763 0 0.31229822968882548 0.13781435906697939 0 0.32484504322689201 0.150618498474763 0 0.3129765302581462 0.1494710021231663 0 0.32484504322689201 0.150618498474763 0 0.3129765302581462 0.1494710021231663 0 0.31772009751989111 0.15842714336302041 0 0.30747502192119819 0.16230778928688711 0 0.3129765302581462 0.1494710021231663 0 0.31772009751989111 0.15842714336302041 0 0.30747502192119819 0.16230778928688711 0 0.31772009751989111 0.15842714336302041 0 0.32080742045079952 0.16866520015094741 0 0.31056514142368619 0.1744383831500049 0 0.30747502192119819 0.16230778928688711 0 0.32080742045079952 0.16866520015094741 0 0.32080742045079952 0.16866520015094741 0 0.33131907253280629 0.1738795647946571 0 0.32925575641373173 0.1625602653078303 0 0.32484504322689201 0.150618498474763 0 0.31772009751989111 0.15842714336302041 0 0.32925575641373173 0.1625602653078303 0 0.31772009751989111 0.15842714336302041 0 0.32080742045079952 0.16866520015094741 0 0.32925575641373173 0.1625602653078303 0 0.31056514142368619 0.1744383831500049 0 0.3080553032197017 0.1887293017033026 0 0.32122387935841612 0.1836610840160959 0 0.31056514142368619 0.1744383831500049 0 0.32080742045079952 0.16866520015094741 0 0.32122387935841612 0.1836610840160959 0 0.32080742045079952 0.16866520015094741 0 0.32122387935841612 0.1836610840160959 0 0.33131907253280629 0.1738795647946571 0 0.33131907253280629 0.1738795647946571 0 0.33967484433078321 0.18584068278097349 0 0.34294625220664587 0.1683980952289891 0 0.32122387935841612 0.1836610840160959 0 0.33131907253280629 0.1738795647946571 0 0.33967484433078321 0.18584068278097349 0 0.33131907253280629 0.1738795647946571 0 0.32925575641373173 0.1625602653078303 0 0.34294625220664587 0.1683980952289891 0 0.33789665254535572 0.15537308983460499 0 0.32925575641373173 0.1625602653078303 0 0.34294625220664587 0.1683980952289891 0 0.34294625220664587 0.1683980952289891 0 0.35531914635495271 0.16562513299740311 0 0.35085012880757988 0.15547460686614431 0 0.33789665254535572 0.15537308983460499 0 0.34294625220664587 0.1683980952289891 0 0.35085012880757988 0.15547460686614431 0 0.34294625220664587 0.1683980952289891 0 0.35531914635495271 0.16562513299740311 0 0.35387202203434698 0.17803066266241011 0 0.35531914635495271 0.16562513299740311 0 0.35387202203434698 0.17803066266241011 0 0.36550295271590683 0.1690726970215666 0 0.35531914635495271 0.16562513299740311 0 0.36342437601028388 0.15714960320790561 0 0.35085012880757988 0.15547460686614431 0 0.33967484433078321 0.18584068278097349 0 0.34294625220664587 0.1683980952289891 0 0.35387202203434698 0.17803066266241011 0 0.35368837148756882 0.19334260062126429 0 0.33967484433078321 0.18584068278097349 0 0.35387202203434698 0.17803066266241011 0 0.35368837148756882 0.19334260062126429 0 0.35387202203434698 0.17803066266241011 0 0.36699199379966768 0.18628457072029089 0 0.37486327834919952 0.17324080595030389 0 0.36699199379966768 0.18628457072029089 0 0.36550295271590683 0.1690726970215666 0 0.35387202203434698 0.17803066266241011 0 0.36699199379966768 0.18628457072029089 0 0.36550295271590683 0.1690726970215666 0 0.36342437601028388 0.15714960320790561 0 0.36550295271590683 0.1690726970215666 0 0.38328418214017468 0.15581326888627101 0 0.37486327834919952 0.17324080595030389 0 0.36550295271590683 0.1690726970215666 0 0.38328418214017468 0.15581326888627101 0 0.35531914635495271 0.16562513299740311 0 0.36342437601028388 0.15714960320790561 0 0.36550295271590683 0.1690726970215666 0 0.36342437601028388 0.15714960320790561 0 0.36683777304884752 0.14518289586033359 0 0.38328418214017468 0.15581326888627101 0 0.36342437601028388 0.15714960320790561 0 0.36683777304884752 0.14518289586033359 0 0.35085012880757988 0.15547460686614431 0 0.33956800136883641 0.14149862746365649 0 0.36683777304884752 0.14518289586033359 0 0.33956800136883641 0.14149862746365649 0 0.36683777304884752 0.14518289586033359 0 0.35085012880757988 0.15547460686614431 0 0.37035748409374952 0.12191913965183331 0 0.34441400131097022 0.1288917011053414 0 0.33956800136883641 0.14149862746365649 0 0.34441400131097022 0.1288917011053414 0 0.35985245571789548 0.13256521397634091 0 0.37035748409374952 0.12191913965183331 0 0.34441400131097022 0.1288917011053414 0 0.35985245571789548 0.13256521397634091 0 0.33956800136883641 0.14149862746365649 0 0.36683777304884752 0.14518289586033359 0 0.35985245571789548 0.13256521397634091 0 0.36683777304884752 0.14518289586033359 0 0.37024230120578611 0.13336796185197819 0 0.3828943795393005 0.1298338505994551 0 0.36683777304884752 0.14518289586033359 0 0.35985245571789548 0.13256521397634091 0 0.37024230120578611 0.13336796185197819 0 0.35985245571789548 0.13256521397634091 0 0.37024230120578611 0.13336796185197819 0 0.37169283910029199 0.12815165521797289 0 0.37024230120578611 0.13336796185197819 0 0.37169283910029199 0.12815165521797289 0 0.3828943795393005 0.1298338505994551 0 0.37035748409374952 0.12191913965183331 0 0.35985245571789548 0.13256521397634091 0 0.37169283910029199 0.12815165521797289 0 0.37169283910029199 0.12815165521797289 0 0.3828943795393005 0.1298338505994551 0 0.37511757494472903 0.123072110010257 0 0.3828943795393005 0.1298338505994551 0 0.39816792615439378 0.12760480203569169 0 0.39443703245191569 0.14316330482662179 0 0.39816792615439378 0.12760480203569169 0 0.39443703245191569 0.14316330482662179 0 0.40813897635800228 0.13879757292358971 0 0.40355831469332321 0.14905262061052801 0 0.39443703245191569 0.14316330482662179 0 0.39831584160420508 0.1589856433255693 0 0.39443703245191569 0.14316330482662179 0 0.38328418214017468 0.15581326888627101 0 0.39831584160420508 0.1589856433255693 0 0.40355831469332321 0.14905262061052801 0 0.39831584160420508 0.1589856433255693 0 0.41313230378900101 0.1549252007201132 0 0.40355831469332321 0.14905262061052801 0 0.39443703245191569 0.14316330482662179 0 0.40813897635800228 0.13879757292358971 0 0.3828943795393005 0.1298338505994551 0 0.39443703245191569 0.14316330482662179 0 0.38328418214017468 0.15581326888627101 0 0.36683777304884752 0.14518289586033359 0 0.3828943795393005 0.1298338505994551 0 0.38328418214017468 0.15581326888627101 0 0.3828943795393005 0.1298338505994551 0 0.38328418214017468 0.15581326888627101 0 0.38328418214017468 0.15581326888627101 0 0.38367398474104891 0.18179268717308689 0 0.37486327834919952 0.17324080595030389 0 0.38328418214017468 0.15581326888627101 0 0.38367398474104891 0.18179268717308689 0 0.38328418214017468 0.15581326888627101 0 0.38367398474104891 0.18179268717308689 0 0.39626047774709761 0.17356948839180519 0 0.37486327834919952 0.17324080595030389 0 0.36699199379966768 0.18628457072029089 0 0.38367398474104891 0.18179268717308689 0 0.38367398474104891 0.18179268717308689 0 0.39626047774709761 0.17356948839180519 0 0.39402839101454218 0.18926537882500041 0 0.41201559310989622 0.1717711692121752 0 0.39402839101454218 0.18926537882500041 0 0.40911253846621609 0.1927355572029634 0 0.41201559310989622 0.1717711692121752 0 0.39402839101454218 0.18926537882500041 0 0.39626047774709761 0.17356948839180519 0 0.41201559310989622 0.1717711692121752 0 0.39402839101454218 0.18926537882500041 0 0.38328418214017468 0.15581326888627101 0 0.39626047774709761 0.17356948839180519 0 0.39831584160420508 0.1589856433255693 0 0.39626047774709761 0.17356948839180519 0 0.39831584160420508 0.1589856433255693 0 0.41201559310989622 0.1717711692121752 0 0.39831584160420508 0.1589856433255693 0 0.41201559310989622 0.1717711692121752 0 0.41313230378900101 0.1549252007201132 0 0.41201559310989622 0.1717711692121752 0 0.43000279520525009 0.1542769595993502 0 0.41201559310989622 0.1717711692121752 0 0.43000279520525009 0.1542769595993502 0 0.41313230378900101 0.1549252007201132 0 0.41201559310989622 0.1717711692121752 0 0.42496471626184562 0.18478050847474101 0 0.40911253846621609 0.1927355572029634 0 0.42496471626184562 0.18478050847474101 0 0.42886790669691233 0.1683305758749721 0 0.44390934378202151 0.1869955505783234 0 0.41201559310989622 0.1717711692121752 0 0.42496471626184562 0.18478050847474101 0 0.42886790669691233 0.1683305758749721 0 0.42886790669691233 0.1683305758749721 0 0.44390934378202151 0.1869955505783234 0 0.41201559310989622 0.1717711692121752 0 0.42886790669691233 0.1683305758749721 0 0.43000279520525009 0.1542769595993502 0 0.42886790669691233 0.1683305758749721 0 0.43000279520525009 0.1542769595993502 0 0.44221599041969212 0.16183818438693329 0 0.43000279520525009 0.1542769595993502 0 0.42332430940078591 0.1392784445062823 0 0.4479899973006039 0.1367827499865252 0 0.43000279520525009 0.1542769595993502 0 0.42332430940078591 0.1392784445062823 0 0.41313230378900101 0.1549252007201132 0 0.429848517254516 0.1255917524949702 0 0.42332430940078591 0.1392784445062823 0 0.41384889774502859 0.12525543762671809 0 0.429848517254516 0.1255917524949702 0 0.42332430940078591 0.1392784445062823 0 0.4479899973006039 0.1367827499865252 0 0.39816792615439378 0.12760480203569169 0 0.41384889774502859 0.12525543762671809 0 0.40813897635800228 0.13879757292358971 0 0.42332430940078591 0.1392784445062823 0 0.41384889774502859 0.12525543762671809 0 0.40813897635800228 0.13879757292358971 0 0.40355831469332321 0.14905262061052801 0 0.40813897635800228 0.13879757292358971 0 0.41313230378900101 0.1549252007201132 0 0.42332430940078591 0.1392784445062823 0 0.40813897635800228 0.13879757292358971 0 0.41313230378900101 0.1549252007201132 0 0.38511047713535562 0.2623718011005241 0 0.37293454716760283 0.2396311516560117 0 0.39933451681408499 0.24222051247515669 0 0.37293454716760283 0.2396311516560117 0 0.39933451681408499 0.24222051247515669 0 0.39045396999845727 0.2225958518425987 0 0.37280151553833601 0.22024831863616021 0 0.37293454716760283 0.2396311516560117 0 0.39045396999845727 0.2225958518425987 0 0.39933451681408499 0.24222051247515669 0 0.39045396999845727 0.2225958518425987 0 0.41502085935247712 0.2184770015477572 0 0.39045396999845727 0.2225958518425987 0 0.39965272480706299 0.2061417744041574 0 0.38406378734192298 0.20777210545990279 0 0.39045396999845727 0.2225958518425987 0 0.39965272480706299 0.2061417744041574 0 0.41502085935247712 0.2184770015477572 0 0.37280151553833601 0.22024831863616021 0 0.39045396999845727 0.2225958518425987 0 0.38406378734192298 0.20777210545990279 0 0.36735815001373812 0.20351917688449569 0 0.38367398474104891 0.18179268717308689 0 0.38406378734192298 0.20777210545990279 0 0.38367398474104891 0.18179268717308689 0 0.38406378734192298 0.20777210545990279 0 0.38367398474104891 0.18179268717308689 0 0.38406378734192298 0.20777210545990279 0 0.39402839101454218 0.18926537882500041 0 0.39965272480706299 0.2061417744041574 0 0.38406378734192298 0.20777210545990279 0 0.39402839101454218 0.18926537882500041 0 0.39965272480706299 0.2061417744041574 0 0.39402839101454218 0.18926537882500041 0 0.40911253846621609 0.1927355572029634 0 0.42496471626184562 0.18478050847474101 0 0.40911253846621609 0.1927355572029634 0 0.43133039545531981 0.20312972213906441 0 0.42496471626184562 0.18478050847474101 0 0.43133039545531981 0.20312972213906441 0 0.44390934378202151 0.1869955505783234 0 0.43133039545531981 0.20312972213906441 0 0.41502085935247712 0.2184770015477572 0 0.43839838412078092 0.2247149777195776 0 0.40911253846621609 0.1927355572029634 0 0.41502085935247712 0.2184770015477572 0 0.40911253846621609 0.1927355572029634 0 0.43133039545531981 0.20312972213906441 0 0.41502085935247712 0.2184770015477572 0 0.39965272480706299 0.2061417744041574 0 0.40911253846621609 0.1927355572029634 0 0.41502085935247712 0.2184770015477572 0 0.41502085935247712 0.2184770015477572 0 0.42092918023873821 0.24421844589255121 0 0.41502085935247712 0.2184770015477572 0 0.42092918023873821 0.24421844589255121 0 0.43839838412078092 0.2247149777195776 0 0.42092918023873821 0.24421844589255121 0 0.44272868649399699 0.2414724783298311 0 0.43839838412078092 0.2247149777195776 0 0.44089414042045799 0.25771217685885472 0 0.42092918023873821 0.24421844589255121 0 0.44272868649399699 0.2414724783298311 0 0.39933451681408499 0.24222051247515669 0 0.41502085935247712 0.2184770015477572 0 0.42092918023873821 0.24421844589255121 0 0.46750550623703407 0.25349570762290419 0 0.4569230610569987 0.24819013429900669 0 0.47278153852907701 0.24486280325581439 0 0.4569230610569987 0.24819013429900669 0 0.45723446189795819 0.23161380727854039 0 0.47278153852907701 0.24486280325581439 0 0.4569230610569987 0.24819013429900669 0 0.44272868649399699 0.2414724783298311 0 0.45723446189795819 0.23161380727854039 0 0.44089414042045799 0.25771217685885472 0 0.4569230610569987 0.24819013429900669 0 0.44272868649399699 0.2414724783298311 0 0.43839838412078092 0.2247149777195776 0 0.45723446189795819 0.23161380727854039 0 0.45895078086713059 0.20566052528167461 0 0.44272868649399699 0.2414724783298311 0 0.43839838412078092 0.2247149777195776 0 0.45723446189795819 0.23161380727854039 0 0.45723446189795819 0.23161380727854039 0 0.47399221795223978 0.22432549998502579 0 0.47278153852907701 0.24486280325581439 0 0.45723446189795819 0.23161380727854039 0 0.45895078086713059 0.20566052528167461 0 0.47399221795223978 0.22432549998502579 0 0.45895078086713059 0.20566052528167461 0 0.47399221795223978 0.22432549998502579 0 0.43133039545531981 0.20312972213906441 0 0.43839838412078092 0.2247149777195776 0 0.45895078086713059 0.20566052528167461 0 0.43133039545531981 0.20312972213906441 0 0.45895078086713059 0.20566052528167461 0 0.44390934378202151 0.1869955505783234 0 0.45895078086713059 0.20566052528167461 0 0.44390934378202151 0.1869955505783234 0 0.45895078086713059 0.20566052528167461 0 0.44390934378202151 0.1869955505783234 0 0.47471792995388828 0.18435875067661631 0 0.45895078086713059 0.20566052528167461 0 0.47967819324703809 0.2043502093285503 0 0.47471792995388828 0.18435875067661631 0 0.5 0.20006456793442701 0 0.47967819324703809 0.2043502093285503 0 0.47471792995388828 0.18435875067661631 0 0.5 0.20006456793442701 0 0.48813206750880261 0.21755351138133391 0 0.47967819324703809 0.2043502093285503 0 0.5 0.20006456793442701 0 0.48813206750880261 0.21755351138133391 0 0.5 0.22779789293978581 0 0.45895078086713059 0.20566052528167461 0 0.47967819324703809 0.2043502093285503 0 0.47399221795223978 0.22432549998502579 0 0.48813206750880261 0.21755351138133391 0 0.47967819324703809 0.2043502093285503 0 0.47399221795223978 0.22432549998502579 0 0.48813206750880261 0.21755351138133391 0 0.47399221795223978 0.22432549998502579 0 0.48903365503734891 0.24299047468837701 0 0.47399221795223978 0.22432549998502579 0 0.48903365503734891 0.24299047468837701 0 0.48813206750880261 0.21755351138133391 0 0.5 0.22779789293978581 0 0.48903365503734891 0.24299047468837701 0 0.5 0.25553121794514477 0 0.5 0.22779789293978581 0 0.48903365503734891 0.24299047468837701 0 0.48489893488970792 0.25686202981026901 0 0.48903365503734891 0.24299047468837701 0 0.47278153852907701 0.24486280325581439 0 0.47399221795223978 0.22432549998502579 0 0.48903365503734891 0.24299047468837701 0 0.47278153852907701 0.24486280325581439 0 0.4479899973006039 0.1367827499865252 0 0.46030990911367259 0.16280508589549539 0 0.47332178232586258 0.14483424446409521 0 0.4479899973006039 0.1367827499865252 0 0.47332178232586258 0.14483424446409521 0 0.46597719939595772 0.11928854037370019 0 0.4479899973006039 0.1367827499865252 0 0.46597719939595772 0.11928854037370019 0 0.429848517254516 0.1255917524949702 0 0.4479899973006039 0.1367827499865252 0 0.44441253831551758 0.1138689947079024 0 0.43000279520525009 0.1542769595993502 0 0.4479899973006039 0.1367827499865252 0 0.44221599041969212 0.16183818438693329 0 0.43000279520525009 0.1542769595993502 0 0.4479899973006039 0.1367827499865252 0 0.4479899973006039 0.1367827499865252 0 0.44221599041969212 0.16183818438693329 0 0.46030990911367259 0.16280508589549539 0 0.44221599041969212 0.16183818438693329 0 0.44390934378202151 0.1869955505783234 0 0.46030990911367259 0.16280508589549539 0 0.42886790669691233 0.1683305758749721 0 0.44221599041969212 0.16183818438693329 0 0.44390934378202151 0.1869955505783234 0 0.44390934378202151 0.1869955505783234 0 0.46030990911367259 0.16280508589549539 0 0.47471792995388828 0.18435875067661631 0 0.46030990911367259 0.16280508589549539 0 0.48162298028441808 0.16304382698580119 0 0.47332178232586258 0.14483424446409521 0 0.46030990911367259 0.16280508589549539 0 0.48162298028441808 0.16304382698580119 0 0.47471792995388828 0.18435875067661631 0 0.5 0.20006456793442701 0 0.47471792995388828 0.18435875067661631 0 0.5 0.17233124292906801 0 0.48162298028441808 0.16304382698580119 0 0.47471792995388828 0.18435875067661631 0 0.5 0.17233124292906801 0 0.48162298028441808 0.16304382698580119 0 0.5 0.17233124292906801 0 0.5 0.14459791792370899 0 0.48162298028441808 0.16304382698580119 0 0.5 0.14459791792370899 0 0.47332178232586258 0.14483424446409521 0 0.47332178232586258 0.14483424446409521 0 0.48369720064842647 0.1280225697211729 0 0.46597719939595772 0.11928854037370019 0 0.5 0.14459791792370899 0 0.48369720064842647 0.1280225697211729 0 0.5 0.1168645929183502 0 0.5 0.14459791792370899 0 0.47332178232586258 0.14483424446409521 0 0.48369720064842647 0.1280225697211729 0 0.48369720064842647 0.1280225697211729 0 0.5 0.1168645929183502 0 0.47911227232856668 0.09907818001940101 0 0.5 0.1168645929183502 0 0.47911227232856668 0.09907818001940101 0 0.5 0.089131267912991197 0 0.48369720064842647 0.1280225697211729 0 0.47911227232856668 0.09907818001940101 0 0.46597719939595772 0.11928854037370019 0 0.48592231416185638 0.0752646054103117 0 0.5 0.089131267912991197 0 0.5 0.06139794290763223 0 0.47911227232856668 0.09907818001940101 0 0.48592231416185638 0.0752646054103117 0 0.5 0.089131267912991197 0 0.47911227232856668 0.09907818001940101 0 0.48592231416185638 0.0752646054103117 0 0.46599422920766509 0.071585542922595516 0 0.48592231416185638 0.0752646054103117 0 0.46599422920766509 0.071585542922595516 0 0.47969083044660421 0.050503904472553283 0 0.47911227232856668 0.09907818001940101 0 0.46599422920766509 0.071585542922595516 0 0.45660210543223351 0.096238293732025512 0 0.46599422920766509 0.071585542922595516 0 0.44319262383460789 0.070531660330671375 0 0.45660210543223351 0.096238293732025512 0 0.44319262383460789 0.070531660330671375 0 0.45660210543223351 0.096238293732025512 0 0.43559540491542181 0.095634413362833848 0 0.46597719939595772 0.11928854037370019 0 0.45660210543223351 0.096238293732025512 0 0.44441253831551758 0.1138689947079024 0 0.47911227232856668 0.09907818001940101 0 0.46597719939595772 0.11928854037370019 0 0.45660210543223351 0.096238293732025512 0 0.45660210543223351 0.096238293732025512 0 0.44441253831551758 0.1138689947079024 0 0.43559540491542181 0.095634413362833848 0 0.4479899973006039 0.1367827499865252 0 0.46597719939595772 0.11928854037370019 0 0.44441253831551758 0.1138689947079024 0 0.429848517254516 0.1255917524949702 0 0.44441253831551758 0.1138689947079024 0 0.42416274095453271 0.1101558860989641 0 0.429848517254516 0.1255917524949702 0 0.41384889774502859 0.12525543762671809 0 0.42416274095453271 0.1101558860989641 0 0.41384889774502859 0.12525543762671809 0 0.42416274095453271 0.1101558860989641 0 0.40716605829359193 0.1120264799895512 0 0.39816792615439378 0.12760480203569169 0 0.41384889774502859 0.12525543762671809 0 0.40716605829359193 0.1120264799895512 0 0.40716605829359193 0.1120264799895512 0 0.41525133388600899 0.093407911538609431 0 0.39656535672550852 0.092974877928873267 0 0.42416274095453271 0.1101558860989641 0 0.40716605829359193 0.1120264799895512 0 0.41525133388600899 0.093407911538609431 0 0.42416274095453271 0.1101558860989641 0 0.43559540491542181 0.095634413362833848 0 0.41525133388600899 0.093407911538609431 0 0.44441253831551758 0.1138689947079024 0 0.42416274095453271 0.1101558860989641 0 0.43559540491542181 0.095634413362833848 0 0.43559540491542181 0.095634413362833848 0 0.4195547633014628 0.073570994746074828 0 0.41525133388600899 0.093407911538609431 0 0.43559540491542181 0.095634413362833848 0 0.4195547633014628 0.073570994746074828 0 0.44319262383460789 0.070531660330671375 0 0.43559540491542181 0.095634413362833848 0 0.4195547633014628 0.073570994746074828 0 0.44319262383460789 0.070531660330671375 0 0.4195547633014628 0.073570994746074828 0 0.42728191937221521 0.050914286525162993 0 0.4195547633014628 0.073570994746074828 0 0.39780951386322527 0.071813900777571313 0 0.40351412168750378 0.051507576129315842 0 0.4195547633014628 0.073570994746074828 0 0.40351412168750378 0.051507576129315842 0 0.4195547633014628 0.073570994746074828 0 0.41525133388600899 0.093407911538609431 0 0.39780951386322527 0.071813900777571313 0 0.41525133388600899 0.093407911538609431 0 0.39656535672550852 0.092974877928873267 0 0.39780951386322527 0.071813900777571313 0 0.37400882161871279 0.083619613235024759 0 0.37883567044039879 0.062600723425798879 0 0.39780951386322527 0.071813900777571313 0 0.37883567044039879 0.062600723425798879 0 0.3909554563133032 0.056876008487314757 0 0.37400882161871279 0.083619613235024759 0 0.39780951386322527 0.071813900777571313 0 0.37883567044039879 0.062600723425798879 0 0.37400882161871279 0.083619613235024759 0 0.39656535672550852 0.092974877928873267 0 0.38808178026068268 0.10392801007035141 0 0.37400882161871279 0.083619613235024759 0 0.39656535672550852 0.092974877928873267 0 0.39780951386322527 0.071813900777571313 0 0.37455144446510141 0.10193275935197101 0 0.37400882161871279 0.083619613235024759 0 0.38808178026068268 0.10392801007035141 0 0.37455144446510141 0.10193275935197101 0 0.38808178026068268 0.10392801007035141 0 0.37815432920295677 0.1109533992790251 0 0.37035748409374952 0.12191913965183331 0 0.38876177119367089 0.116972809820693 0 0.37035748409374952 0.12191913965183331 0 0.37511757494472903 0.123072110010257 0 0.38876177119367089 0.116972809820693 0 0.37035748409374952 0.12191913965183331 0 0.37815432920295677 0.1109533992790251 0 0.38876177119367089 0.116972809820693 0 0.3828943795393005 0.1298338505994551 0 0.37511757494472903 0.123072110010257 0 0.38876177119367089 0.116972809820693 0 0.3828943795393005 0.1298338505994551 0 0.39816792615439378 0.12760480203569169 0 0.38876177119367089 0.116972809820693 0 0.38808178026068268 0.10392801007035141 0 0.37815432920295677 0.1109533992790251 0 0.38876177119367089 0.116972809820693 0 0.40716605829359193 0.1120264799895512 0 0.38876177119367089 0.116972809820693 0 0.39816792615439378 0.12760480203569169 0 0.40716605829359193 0.1120264799895512 0 0.38876177119367089 0.116972809820693 0 0.40716605829359193 0.1120264799895512 0 0.38808178026068268 0.10392801007035141 0 0.38876177119367089 0.116972809820693 0 0.40716605829359193 0.1120264799895512 0 0.39656535672550852 0.092974877928873267 0 0.38808178026068268 0.10392801007035141 0 0.39895333728429933 0.027539300906755181 0 0.38848936808377088 0.020562943807347231 0 0.4122691541308795 0.010257189796790951 0 0.39895333728429933 0.027539300906755181 0 0.38848936808377088 0.020562943807347231 0 0.38747348007354487 0.029444157512556919 0 0.39212595536292472 0.0047271407553128551 0 0.4122691541308795 0.010257189796790951 0 0.40542454288086849 -0.004070234290400764 0 0.38848936808377088 0.020562943807347231 0 0.4122691541308795 0.010257189796790951 0 0.39212595536292472 0.0047271407553128551 0 0.38848936808377088 0.020562943807347231 0 0.4122691541308795 0.010257189796790951 0 0.39212595536292472 0.0047271407553128551 0 0.38120377069012762 0.010554394007073271 0 0.36845156083710567 -0.0060515153414843056 0 0.36934971840039982 0.01412264887454192 0 0.38120377069012762 0.010554394007073271 0 0.38848936808377088 0.020562943807347231 0 0.39212595536292472 0.0047271407553128551 0 0.38120377069012762 0.010554394007073271 0 0.38848936808377088 0.020562943807347231 0 0.39212595536292472 0.0047271407553128551 0 0.38848936808377088 0.020562943807347231 0 0.38848936808377088 0.020562943807347231 0 0.38747348007354487 0.029444157512556919 0 0.38366251926208489 0.041581833616573027 0 0.38848936808377088 0.020562943807347231 0 0.38366251926208489 0.041581833616573027 0 0.36096242836060388 0.032492650360987897 0 0.38848936808377088 0.020562943807347231 0 0.38366251926208489 0.041581833616573027 0 0.37883567044039879 0.062600723425798879 0 0.38366251926208489 0.041581833616573027 0 0.3909554563133032 0.056876008487314757 0 0.37883567044039879 0.062600723425798879 0 0.38366251926208489 0.041581833616573027 0 0.36884998715724038 0.048654936693666287 0 0.37883567044039879 0.062600723425798879 0 0.38366251926208489 0.041581833616573027 0 0.38366251926208489 0.041581833616573027 0 0.40351412168750378 0.051507576129315842 0 0.3909554563133032 0.056876008487314757 0 0.39780951386322527 0.071813900777571313 0 0.40351412168750378 0.051507576129315842 0 0.3909554563133032 0.056876008487314757 0 0.38747348007354487 0.029444157512556919 0 0.40351412168750378 0.051507576129315842 0 0.39895333728429933 0.027539300906755181 0 0.40351412168750378 0.051507576129315842 0 0.40867742594100492 0.02913313449165824 0 0.39895333728429933 0.027539300906755181 0 0.38747348007354487 0.029444157512556919 0 0.40351412168750378 0.051507576129315842 0 0.38747348007354487 0.029444157512556919 0 0.38366251926208489 0.041581833616573027 0 0.40351412168750378 0.051507576129315842 0 0.40351412168750378 0.051507576129315842 0 0.41712069737947322 0.039684074088297272 0 0.40867742594100492 0.02913313449165824 0 0.41712069737947322 0.039684074088297272 0 0.42900932251716922 0.027181299207052031 0 0.40867742594100492 0.02913313449165824 0 0.40351412168750378 0.051507576129315842 0 0.41712069737947322 0.039684074088297272 0 0.42728191937221521 0.050914286525162993 0 0.4195547633014628 0.073570994746074828 0 0.40351412168750378 0.051507576129315842 0 0.42728191937221521 0.050914286525162993 0 0.41712069737947322 0.039684074088297272 0 0.42728191937221521 0.050914286525162993 0 0.42900932251716922 0.027181299207052031 0 0.42728191937221521 0.050914286525162993 0 0.42900932251716922 0.027181299207052031 0 0.45357816737839107 0.043281393992262968 0 0.42900932251716922 0.027181299207052031 0 0.40867742594100492 0.02913313449165824 0 0.4122691541308795 0.010257189796790951 0 0.39895333728429933 0.027539300906755181 0 0.40867742594100492 0.02913313449165824 0 0.4122691541308795 0.010257189796790951 0 0.4122691541308795 0.010257189796790951 0 0.42733427856619571 -0.0085863840744332814 0 0.43604894017798812 -4.8564213765240817e-05 0 0.42900932251716922 0.027181299207052031 0 0.4122691541308795 0.010257189796790951 0 0.43604894017798812 -4.8564213765240817e-05 0 0.4122691541308795 0.010257189796790951 0 0.43604894017798812 -4.8564213765240817e-05 0 0.45021491583924189 0.016350560368503721 0 0.45982872622509668 -0.01035431822432146 0 0.43604894017798812 -4.8564213765240817e-05 0 0.42900932251716922 0.027181299207052031 0 0.45021491583924189 0.016350560368503721 0 0.43604894017798812 -4.8564213765240817e-05 0 0.42900932251716922 0.027181299207052031 0 0.45021491583924189 0.016350560368503721 0 0.45357816737839107 0.043281393992262968 0 0.45021491583924189 0.016350560368503721 0 0.45357816737839107 0.043281393992262968 0 0.47265027193171238 0.017829323700243871 0 0.45021491583924189 0.016350560368503721 0 0.47265027193171238 0.017829323700243871 0 0.45982872622509668 -0.01035431822432146 0 0.45357816737839107 0.043281393992262968 0 0.47969083044660421 0.050503904472553283 0 0.47265027193171238 0.017829323700243871 0 0.44319262383460789 0.070531660330671375 0 0.42728191937221521 0.050914286525162993 0 0.45357816737839107 0.043281393992262968 0 0.46599422920766509 0.071585542922595516 0 0.44319262383460789 0.070531660330671375 0 0.45357816737839107 0.043281393992262968 0 0.46599422920766509 0.071585542922595516 0 0.45357816737839107 0.043281393992262968 0 0.47969083044660421 0.050503904472553283 0 0.47969083044660421 0.050503904472553283 0 0.5 0.033664617902273368 0 0.47265027193171238 0.017829323700243871 0 0.48592231416185638 0.0752646054103117 0 0.47969083044660421 0.050503904472553283 0 0.5 0.06139794290763223 0 0.47969083044660421 0.050503904472553283 0 0.5 0.033664617902273368 0 0.5 0.06139794290763223 0 0.5 0.033664617902273368 0 0.47265027193171238 0.017829323700243871 0 0.5 0.0059312928969145204 0 0.47265027193171238 0.017829323700243871 0 0.5 0.0059312928969145204 0 0.48261795830076532 -0.0084137270416950408 0 0.5 0.0059312928969145204 0 0.48261795830076532 -0.0084137270416950408 0 0.5 -0.021802032108444391 0 0.47265027193171238 0.017829323700243871 0 0.48261795830076532 -0.0084137270416950408 0 0.45982872622509668 -0.01035431822432146 0 0.48261795830076532 -0.0084137270416950408 0 0.48385521188952352 -0.03103713942335571 0 0.45982872622509668 -0.01035431822432146 0 0.48385521188952352 -0.03103713942335571 0 0.46768790053651399 -0.040232759786602873 0 0.45982872622509668 -0.01035431822432146 0 0.48261795830076532 -0.0084137270416950408 0 0.48385521188952352 -0.03103713942335571 0 0.5 -0.021802032108444391 0 0.48385521188952352 -0.03103713942335571 0 0.49518245524492172 -0.045789595090724652 0 0.49482530481253351 -0.04804557135493729 0 0.5 -0.021802032108444391 0 0.49518245524492172 -0.045789595090724652 0 0.49999999999998263 -0.049535357113803247 0 0.48385521188952352 -0.03103713942335571 0 0.5 -0.021802032108444391 0 0.49518245524492172 -0.045789595090724652 0 0.49482530481253351 -0.04804557135493729 0 0.47636674367150789 -0.060588545727567042 0 0.49016972248203172 -0.07745302065780417 0 0.49999999999998263 -0.049535357113803247 0 0.49482530481253351 -0.04804557135493729 0 0.49016972248203172 -0.07745302065780417 0 0.49999999999998263 -0.049535357113803247 0 0.49482530481253351 -0.04804557135493729 0 0.49518245524492172 -0.045789595090724652 0 0.49999999999998263 -0.049535357113803247 0 0.49482530481253351 -0.04804557135493729 0 0.49518245524492172 -0.045789595090724652 0 0.49482530481253351 -0.04804557135493729 0 0.49482530481253351 -0.04804557135493729 0 0.47636674367150789 -0.060588545727567042 0 0.46768790053651399 -0.040232759786602873 0 0.49482530481253351 -0.04804557135493729 0 0.46768790053651399 -0.040232759786602873 0 0.48385521188952352 -0.03103713942335571 0 0.49482530481253351 -0.04804557135493729 0 0.46768790053651399 -0.040232759786602873 0 0.46768790053651399 -0.040232759786602873 0 0.44055049626049481 -0.03241994821826754 0 0.47636674367150789 -0.060588545727567042 0 0.46768790053651399 -0.040232759786602873 0 0.44971823816913109 -0.058611894661768998 0 0.46768790053651399 -0.040232759786602873 0 0.44971823816913109 -0.058611894661768998 0 0.44055049626049481 -0.03241994821826754 0 0.44971823816913109 -0.058611894661768998 0 0.44055049626049481 -0.03241994821826754 0 0.42776585910878662 -0.047462582859365887 0 0.44055049626049481 -0.03241994821826754 0 0.43862233638968018 -0.01433991032473066 0 0.45982872622509668 -0.01035431822432146 0 0.45982872622509668 -0.01035431822432146 0 0.43604894017798812 -4.8564213765240817e-05 0 0.43862233638968018 -0.01433991032473066 0 0.45982872622509668 -0.01035431822432146 0 0.43604894017798812 -4.8564213765240817e-05 0 0.46768790053651399 -0.040232759786602873 0 0.44055049626049481 -0.03241994821826754 0 0.45982872622509668 -0.01035431822432146 0 0.47499259514944292 -0.1202547269832886 0 0.48551414015152222 -0.10686046996066979 0 0.48085855782101261 -0.13626791926353529 0 0.47418157221881441 -0.11112465676427991 0 0.47528951870947961 -0.09927779745641295 0 0.46093003486481321 -0.11810563265674839 0 0.48551414015152222 -0.10686046996066979 0 0.48085855782101261 -0.13626791926353529 0 0.47499259514944292 -0.1202547269832886 0 0.46093003486481321 -0.11810563265674839 0 0.47239045088042492 -0.13005034139104371 0 0.47499259514944292 -0.1202547269832886 0 0.47418157221881441 -0.11112465676427991 0 0.46093003486481321 -0.11810563265674839 0 0.47499259514944292 -0.1202547269832886 0 0.47418157221881441 -0.11112465676427991 0 0.48551414015152222 -0.10686046996066979 0 0.48986304781109291 -0.1242692167884092 0 0.49384429699065369 -0.1173080088948287 0 0.48551414015152222 -0.10686046996066979 0 0.48986304781109291 -0.1242692167884092 0 0.48551414015152222 -0.10686046996066979 0 0.48085855782101261 -0.13626791926353529 0 0.49384429699065369 -0.1173080088948287 0 0.5 -0.1051480109548549 0 0.5 -0.13295433787538069 0 0.48986304781109291 -0.1242692167884092 0 0.49384429699065369 -0.1173080088948287 0 0.5 -0.13295433787538069 0 0.49384429699065369 -0.1173080088948287 0 0.48551414015152222 -0.10686046996066979 0 0.5 -0.1051480109548549 0 0.48551414015152222 -0.10686046996066979 0 0.5 -0.1051480109548549 0 0.49016972248203172 -0.07745302065780417 0 0.48551414015152222 -0.10686046996066979 0 0.47528951870947961 -0.09927779745641295 0 0.4786949329242487 -0.090297096352784045 0 0.47418157221881441 -0.11112465676427991 0 0.48551414015152222 -0.10686046996066979 0 0.47528951870947961 -0.09927779745641295 0 0.47494193394216588 -0.078729965701305249 0 0.4786949329242487 -0.090297096352784045 0 0.46755934933604398 -0.089164227987728051 0 0.47528951870947961 -0.09927779745641295 0 0.4786949329242487 -0.090297096352784045 0 0.46755934933604398 -0.089164227987728051 0 0.47494193394216588 -0.078729965701305249 0 0.4786949329242487 -0.090297096352784045 0 0.49016972248203172 -0.07745302065780417 0 0.48551414015152222 -0.10686046996066979 0 0.49016972248203172 -0.07745302065780417 0 0.5 -0.1051480109548549 0 0.49016972248203172 -0.07745302065780417 0 0.5 -0.077341684034329061 0 0.48551414015152222 -0.10686046996066979 0 0.4786949329242487 -0.090297096352784045 0 0.49016972248203172 -0.07745302065780417 0 0.49999999999998263 -0.049535357113803247 0 0.49016972248203172 -0.07745302065780417 0 0.5 -0.077341684034329061 0 0.49482530481253351 -0.04804557135493729 0 0.49016972248203172 -0.07745302065780417 0 0.47636674367150789 -0.060588545727567042 0 0.47494193394216588 -0.078729965701305249 0 0.49016972248203172 -0.07745302065780417 0 0.47636674367150789 -0.060588545727567042 0 0.47494193394216588 -0.078729965701305249 0 0.4592808493329405 -0.078369632624057675 0 0.47636674367150789 -0.060588545727567042 0 0.44971823816913109 -0.058611894661768998 0 0.4592808493329405 -0.078369632624057675 0 0.47636674367150789 -0.060588545727567042 0 0.4592808493329405 -0.078369632624057675 0 0.44971823816913109 -0.058611894661768998 0 0.44126951216661869 -0.079236189142810429 0 0.42731029070553322 -0.068277018127587574 0 0.44971823816913109 -0.058611894661768998 0 0.44126951216661869 -0.079236189142810429 0 0.4592808493329405 -0.078369632624057675 0 0.4592808493329405 -0.078369632624057675 0 0.44219495499437311 -0.096150719520548239 0 0.44126951216661869 -0.079236189142810429 0 0.4592808493329405 -0.078369632624057675 0 0.44219495499437311 -0.096150719520548239 0 0.47494193394216588 -0.078729965701305249 0 0.4592808493329405 -0.078369632624057675 0 0.46755934933604398 -0.089164227987728051 0 0.4592808493329405 -0.078369632624057675 0 0.46755934933604398 -0.089164227987728051 0 0.44219495499437311 -0.096150719520548239 0 0.46755934933604398 -0.089164227987728051 0 0.46093003486481321 -0.11810563265674839 0 0.46755934933604398 -0.089164227987728051 0 0.44219495499437311 -0.096150719520548239 0 0.46093003486481321 -0.11810563265674839 0 0.47528951870947961 -0.09927779745641295 0 0.46755934933604398 -0.089164227987728051 0 0.46093003486481321 -0.11810563265674839 0 0.441730170532879 -0.1159420230490274 0 0.46093003486481321 -0.11810563265674839 0 0.44582693855797939 -0.1311402400572215 0 0.44219495499437311 -0.096150719520548239 0 0.441730170532879 -0.1159420230490274 0 0.46093003486481321 -0.11810563265674839 0 0.42510906065580589 -0.11393180641703871 0 0.40802316631723889 -0.13171289331352951 0 0.40725115801851319 -0.1169919833964142 0 0.42510906065580589 -0.11393180641703871 0 0.40802316631723889 -0.13171289331352951 0 0.40725115801851319 -0.1169919833964142 0 0.42510906065580589 -0.11393180641703871 0 0.4147200547274239 -0.1079547067436207 0 0.40725115801851319 -0.1169919833964142 0 0.4147200547274239 -0.1079547067436207 0 0.40692444267373179 -0.1088204768843429 0 0.441730170532879 -0.1159420230490274 0 0.42510906065580589 -0.11393180641703871 0 0.43087782981676859 -0.131879285754128 0 0.44219495499437311 -0.096150719520548239 0 0.42510906065580589 -0.11393180641703871 0 0.44219495499437311 -0.096150719520548239 0 0.441730170532879 -0.1159420230490274 0 0.42510906065580589 -0.11393180641703871 0 0.44219495499437311 -0.096150719520548239 0 0.42510906065580589 -0.11393180641703871 0 0.4234909377050316 -0.092737982748798881 0 0.42510906065580589 -0.11393180641703871 0 0.4147200547274239 -0.1079547067436207 0 0.4234909377050316 -0.092737982748798881 0 0.4147200547274239 -0.1079547067436207 0 0.40904120664506322 -0.09935874077938342 0 0.4234909377050316 -0.092737982748798881 0 0.4147200547274239 -0.1079547067436207 0 0.40692444267373179 -0.1088204768843429 0 0.40904120664506322 -0.09935874077938342 0 0.40904120664506322 -0.09935874077938342 0 0.4234909377050316 -0.092737982748798881 0 0.40226126486411301 -0.082186696628613137 0 0.4234909377050316 -0.092737982748798881 0 0.42731029070553322 -0.068277018127587574 0 0.40226126486411301 -0.082186696628613137 0 0.44126951216661869 -0.079236189142810429 0 0.4234909377050316 -0.092737982748798881 0 0.42731029070553322 -0.068277018127587574 0 0.44126951216661869 -0.079236189142810429 0 0.44219495499437311 -0.096150719520548239 0 0.4234909377050316 -0.092737982748798881 0 0.42731029070553322 -0.068277018127587574 0 0.40226126486411301 -0.082186696628613137 0 0.40783717842429862 -0.053396916639273179 0 0.40226126486411301 -0.082186696628613137 0 0.40783717842429862 -0.053396916639273179 0 0.38429333219820472 -0.067131704106828338 0 0.40226126486411301 -0.082186696628613137 0 0.40783717842429862 -0.053396916639273179 0 0.38429333219820472 -0.067131704106828338 0 0.38199460798391838 -0.085246791459625215 0 0.40226126486411301 -0.082186696628613137 0 0.38199460798391838 -0.085246791459625215 0 0.40226126486411301 -0.082186696628613137 0 0.39106825526090561 -0.1007030293946076 0 0.40226126486411301 -0.082186696628613137 0 0.39106825526090561 -0.1007030293946076 0 0.39668535130392929 -0.1109764766179535 0 0.40904120664506322 -0.09935874077938342 0 0.40226126486411301 -0.082186696628613137 0 0.39668535130392929 -0.1109764766179535 0 0.40226126486411301 -0.082186696628613137 0 0.39668535130392929 -0.1109764766179535 0 0.40692444267373179 -0.1088204768843429 0 0.40904120664506322 -0.09935874077938342 0 0.39668535130392929 -0.1109764766179535 0 0.39106825526090561 -0.1007030293946076 0 0.39668535130392929 -0.1109764766179535 0 0.39106825526090561 -0.1007030293946076 0 0.3799934613124491 -0.1141351934829782 0 0.39668535130392929 -0.1109764766179535 0 0.38199460798391838 -0.085246791459625215 0 0.39106825526090561 -0.1007030293946076 0 0.37706007999693841 -0.1011775095245466 0 0.39106825526090561 -0.1007030293946076 0 0.37706007999693841 -0.1011775095245466 0 0.3799934613124491 -0.1141351934829782 0 0.3799934613124491 -0.1141351934829782 0 0.39668535130392929 -0.1109764766179535 0 0.3932705088567644 -0.1286081277708763 0 0.3799934613124491 -0.1141351934829782 0 0.37104303648388809 -0.1272612894930944 0 0.3932705088567644 -0.1286081277708763 0 0.40224748518751269 -0.1211494002184121 0 0.3932705088567644 -0.1286081277708763 0 0.39668535130392929 -0.1109764766179535 0 0.3932705088567644 -0.1286081277708763 0 0.39668535130392929 -0.1109764766179535 0 0.40224748518751269 -0.1211494002184121 0 0.3932705088567644 -0.1286081277708763 0 0.40725115801851319 -0.1169919833964142 0 0.39668535130392929 -0.1109764766179535 0 0.40224748518751269 -0.1211494002184121 0 0.39668535130392929 -0.1109764766179535 0 0.40224748518751269 -0.1211494002184121 0 0.40725115801851319 -0.1169919833964142 0 0.40692444267373179 -0.1088204768843429 0 0.39668535130392929 -0.1109764766179535 0 0.40725115801851319 -0.1169919833964142 0 0.40224748518751269 -0.1211494002184121 0 0.40725115801851319 -0.1169919833964142 0 0.40224748518751269 -0.1211494002184121 0 0.40802316631723889 -0.13171289331352951 0 0.42156842614681772 -0.015954947998216139 0 0.41341309198447568 -0.024607136649931451 0 0.42934924071862562 -0.02029033689286578 0 0.41341309198447568 -0.024607136649931451 0 0.41617709331797431 -0.010335934375633319 0 0.42156842614681772 -0.015954947998216139 0 0.41341309198447568 -0.024607136649931451 0 0.41617709331797431 -0.010335934375633319 0 0.41341309198447568 -0.024607136649931451 0 0.40231254689356027 -0.037392070823486202 0 0.40309603266908228 -0.02802239201193971 0 0.41341309198447568 -0.024607136649931451 0 0.41078796895048542 -0.01389090533175278 0 0.39783226839882679 -0.020121444594939791 0 0.41341309198447568 -0.024607136649931451 0 0.41078796895048542 -0.01389090533175278 0 0.41617709331797431 -0.010335934375633319 0 0.41078796895048542 -0.01389090533175278 0 0.41617709331797431 -0.010335934375633319 0 0.40542454288086849 -0.004070234290400764 0 0.4122691541308795 0.010257189796790951 0 0.41617709331797431 -0.010335934375633319 0 0.40542454288086849 -0.004070234290400764 0 0.4122691541308795 0.010257189796790951 0 0.41617709331797431 -0.010335934375633319 0 0.42733427856619571 -0.0085863840744332814 0 0.42156842614681772 -0.015954947998216139 0 0.41617709331797431 -0.010335934375633319 0 0.42733427856619571 -0.0085863840744332814 0 0.42156842614681772 -0.015954947998216139 0 0.42733427856619571 -0.0085863840744332814 0 0.42934924071862562 -0.02029033689286578 0 0.43862233638968018 -0.01433991032473066 0 0.42733427856619571 -0.0085863840744332814 0 0.43604894017798812 -4.8564213765240817e-05 0 0.43862233638968018 -0.01433991032473066 0 0.42733427856619571 -0.0085863840744332814 0 0.42934924071862562 -0.02029033689286578 0 0.44055049626049481 -0.03241994821826754 0 0.43862233638968018 -0.01433991032473066 0 0.42934924071862562 -0.02029033689286578 0 0.44055049626049481 -0.03241994821826754 0 0.41341309198447568 -0.024607136649931451 0 0.42934924071862562 -0.02029033689286578 0 0.44055049626049481 -0.03241994821826754 0 0.41341309198447568 -0.024607136649931451 0 0.44055049626049481 -0.03241994821826754 0 0.41341309198447568 -0.024607136649931451 0 0.42776585910878662 -0.047462582859365887 0 0.44971823816913109 -0.058611894661768998 0 0.42731029070553322 -0.068277018127587574 0 0.42776585910878662 -0.047462582859365887 0 0.42731029070553322 -0.068277018127587574 0 0.42776585910878662 -0.047462582859365887 0 0.40783717842429862 -0.053396916639273179 0 0.41341309198447568 -0.024607136649931451 0 0.42776585910878662 -0.047462582859365887 0 0.40783717842429862 -0.053396916639273179 0 0.41341309198447568 -0.024607136649931451 0 0.40783717842429862 -0.053396916639273179 0 0.40231254689356027 -0.037392070823486202 0 0.41341309198447568 -0.024607136649931451 0 0.40783717842429862 -0.053396916639273179 0 0.40231254689356027 -0.037392070823486202 0 0.3981973431289102 -0.028872790202489229 0 0.40309603266908228 -0.02802239201193971 0 0.40231254689356027 -0.037392070823486202 0 0.38732801778773829 -0.04651698367670077 0 0.38934459454031273 -0.029067224222560958 0 0.40783717842429862 -0.053396916639273179 0 0.40231254689356027 -0.037392070823486202 0 0.38732801778773829 -0.04651698367670077 0 0.40231254689356027 -0.037392070823486202 0 0.38934459454031273 -0.029067224222560958 0 0.3981973431289102 -0.028872790202489229 0 0.38429333219820472 -0.067131704106828338 0 0.40783717842429862 -0.053396916639273179 0 0.38732801778773829 -0.04651698367670077 0 0.38429333219820472 -0.067131704106828338 0 0.38732801778773829 -0.04651698367670077 0 0.37042415964797237 -0.053058901563766692 0 0.38732801778773829 -0.04651698367670077 0 0.37068698927403948 -0.035605583580554698 0 0.37042415964797237 -0.053058901563766692 0 0.38732801778773829 -0.04651698367670077 0 0.38934459454031273 -0.029067224222560958 0 0.37068698927403948 -0.035605583580554698 0 0.38934459454031273 -0.029067224222560958 0 0.36983137800827248 -0.01206003687362641 0 0.37068698927403948 -0.035605583580554698 0 0.38934459454031273 -0.029067224222560958 0 0.39783226839882679 -0.020121444594939791 0 0.36983137800827248 -0.01206003687362641 0 0.39783226839882679 -0.020121444594939791 0 0.36983137800827248 -0.01206003687362641 0 0.38934459454031273 -0.029067224222560958 0 0.3981973431289102 -0.028872790202489229 0 0.39783226839882679 -0.020121444594939791 0 0.41341309198447568 -0.024607136649931451 0 0.39783226839882679 -0.020121444594939791 0 0.41341309198447568 -0.024607136649931451 0 0.39783226839882679 -0.020121444594939791 0 0.40309603266908228 -0.02802239201193971 0 0.3981973431289102 -0.028872790202489229 0 0.39783226839882679 -0.020121444594939791 0 0.40309603266908228 -0.02802239201193971 0 0.39212595536292472 0.0047271407553128551 0 0.39576254264207811 -0.011108662296721609 0 0.39212595536292472 0.0047271407553128551 0 0.40542454288086849 -0.004070234290400764 0 0.39576254264207811 -0.011108662296721609 0 0.41078796895048542 -0.01389090533175278 0 0.39783226839882679 -0.020121444594939791 0 0.39576254264207811 -0.011108662296721609 0 0.41078796895048542 -0.01389090533175278 0 0.39576254264207811 -0.011108662296721609 0 0.41078796895048542 -0.01389090533175278 0 0.40542454288086849 -0.004070234290400764 0 0.39576254264207811 -0.011108662296721609 0 0.39783226839882679 -0.020121444594939791 0 0.39576254264207811 -0.011108662296721609 0 0.39576254264207811 -0.011108662296721609 0 0.36983137800827248 -0.01206003687362641 0 0.36845156083710567 -0.0060515153414843056 0 0.39576254264207811 -0.011108662296721609 0 0.36845156083710567 -0.0060515153414843056 0 0.39212595536292472 0.0047271407553128551 0 0.39576254264207811 -0.011108662296721609 0 0.36845156083710567 -0.0060515153414843056 0 0.39783226839882679 -0.020121444594939791 0 0.39576254264207811 -0.011108662296721609 0 0.36983137800827248 -0.01206003687362641 0 0.36983137800827248 -0.01206003687362641 0 0.36845156083710567 -0.0060515153414843056 0 0.34183048761771712 -0.0039986291523161147 0 0.36983137800827248 -0.01206003687362641 0 0.35223914962217417 -0.02278106829858554 0 0.37068698927403948 -0.035605583580554698 0 0.36983137800827248 -0.01206003687362641 0 0.35223914962217417 -0.02278106829858554 0 0.34183048761771712 -0.0039986291523161147 0 0.36983137800827248 -0.01206003687362641 0 0.34183048761771712 -0.0039986291523161147 0 0.36845156083710567 -0.0060515153414843056 0 0.34114057903213352 -0.00099436838624600288 0 0.36845156083710567 -0.0060515153414843056 0 0.34183048761771712 -0.0039986291523161147 0 0.34114057903213352 -0.00099436838624600288 0 0.35223914962217417 -0.02278106829858554 0 0.34183048761771712 -0.0039986291523161147 0 0.33977780877024261 -0.017668132193127541 0 0.31382959722716158 0.0040627785689932028 0 0.34183048761771712 -0.0039986291523161147 0 0.34114057903213352 -0.00099436838624600288 0 0.34183048761771712 -0.0039986291523161147 0 0.33574973546384762 -0.01167659105592548 0 0.32194573769061952 -0.0077676308935595512 0 0.34183048761771712 -0.0039986291523161147 0 0.33574973546384762 -0.01167659105592548 0 0.33977780877024261 -0.017668132193127541 0 0.35223914962217417 -0.02278106829858554 0 0.33977780877024261 -0.017668132193127541 0 0.33879793226643329 -0.029417681387060649 0 0.33574973546384762 -0.01167659105592548 0 0.3302717388810405 -0.020466691071749941 0 0.3196214637881436 -0.021924893160697439 0 0.33977780877024261 -0.017668132193127541 0 0.33879793226643329 -0.029417681387060649 0 0.3302717388810405 -0.020466691071749941 0 0.33879793226643329 -0.029417681387060649 0 0.32862271298124018 -0.028919582591936679 0 0.3302717388810405 -0.020466691071749941 0 0.33574973546384762 -0.01167659105592548 0 0.33977780877024261 -0.017668132193127541 0 0.3302717388810405 -0.020466691071749941 0 0.3302717388810405 -0.020466691071749941 0 0.32526768976560849 -0.02407540610795475 0 0.3196214637881436 -0.021924893160697439 0 0.33574973546384762 -0.01167659105592548 0 0.3196214637881436 -0.021924893160697439 0 0.32862271298124018 -0.028919582591936679 0 0.3302717388810405 -0.020466691071749941 0 0.32526768976560849 -0.02407540610795475 0 0.32862271298124018 -0.028919582591936679 0 0.32095671603858011 -0.024994897592425049 0 0.3231679364015333 -0.033306441836977792 0 0.32862271298124018 -0.028919582591936679 0 0.32526768976560849 -0.02407540610795475 0 0.32095671603858011 -0.024994897592425049 0 0.32526768976560849 -0.02407540610795475 0 0.32095671603858011 -0.024994897592425049 0 0.3196214637881436 -0.021924893160697439 0 0.32095671603858011 -0.024994897592425049 0 0.3196214637881436 -0.021924893160697439 0 0.31660160940309118 -0.035871797032442469 0 0.32095671603858011 -0.024994897592425049 0 0.3196214637881436 -0.021924893160697439 0 0.33574973546384762 -0.01167659105592548 0 0.3196214637881436 -0.021924893160697439 0 0.32194573769061952 -0.0077676308935595512 0 0.30752965714041391 0.0058765203804442539 0 0.3196214637881436 -0.021924893160697439 0 0.32194573769061952 -0.0077676308935595512 0 0.31382959722716158 0.0040627785689932028 0 0.34183048761771712 -0.0039986291523161147 0 0.32194573769061952 -0.0077676308935595512 0 0.30752965714041391 0.0058765203804442539 0 0.3196214637881436 -0.021924893160697439 0 0.31292981148517318 -0.054457989835630861 0 0.33951515654934239 -0.057829064589421393 0 0.331762206516936 -0.074199649102278678 0 0.31292981148517318 -0.054457989835630861 0 0.32943454752299528 -0.042779626289088678 0 0.31292981148517318 -0.054457989835630861 0 0.32943454752299528 -0.042779626289088678 0 0.33951515654934239 -0.057829064589421393 0 0.31292981148517318 -0.054457989835630861 0 0.31660160940309118 -0.035871797032442469 0 0.32943454752299528 -0.042779626289088678 0 0.32095671603858011 -0.024994897592425049 0 0.31660160940309118 -0.035871797032442469 0 0.3231679364015333 -0.033306441836977792 0 0.32862271298124018 -0.028919582591936679 0 0.3231679364015333 -0.033306441836977792 0 0.32943454752299528 -0.042779626289088678 0 0.31660160940309118 -0.035871797032442469 0 0.3231679364015333 -0.033306441836977792 0 0.32943454752299528 -0.042779626289088678 0 0.33879793226643329 -0.029417681387060649 0 0.32943454752299528 -0.042779626289088678 0 0.35178468962230941 -0.045374559850196158 0 0.33879793226643329 -0.029417681387060649 0 0.32862271298124018 -0.028919582591936679 0 0.32943454752299528 -0.042779626289088678 0 0.32943454752299528 -0.042779626289088678 0 0.33951515654934239 -0.057829064589421393 0 0.35178468962230941 -0.045374559850196158 0 0.33951515654934239 -0.057829064589421393 0 0.35178468962230941 -0.045374559850196158 0 0.35802776935757019 -0.070665676604553529 0 0.35223914962217417 -0.02278106829858554 0 0.35178468962230941 -0.045374559850196158 0 0.37068698927403948 -0.035605583580554698 0 0.35223914962217417 -0.02278106829858554 0 0.33879793226643329 -0.029417681387060649 0 0.35178468962230941 -0.045374559850196158 0 0.35178468962230941 -0.045374559850196158 0 0.37068698927403948 -0.035605583580554698 0 0.37042415964797237 -0.053058901563766692 0 0.35178468962230941 -0.045374559850196158 0 0.37042415964797237 -0.053058901563766692 0 0.35802776935757019 -0.070665676604553529 0 0.38429333219820472 -0.067131704106828338 0 0.38199460798391838 -0.085246791459625215 0 0.35802776935757019 -0.070665676604553529 0 0.38429333219820472 -0.067131704106828338 0 0.37042415964797237 -0.053058901563766692 0 0.35802776935757019 -0.070665676604553529 0 0.38429333219820472 -0.067131704106828338 0 0.35802776935757019 -0.070665676604553529 0 0.38199460798391838 -0.085246791459625215 0 0.36577500316168848 -0.093055365242956031 0 0.35802776935757019 -0.070665676604553529 0 0.38199460798391838 -0.085246791459625215 0 0.37706007999693841 -0.1011775095245466 0 0.36577500316168848 -0.093055365242956031 0 0.35802776935757019 -0.070665676604553529 0 0.34487393367809682 -0.095216741312257352 0 0.331762206516936 -0.074199649102278678 0 0.36577500316168848 -0.093055365242956031 0 0.35802776935757019 -0.070665676604553529 0 0.34487393367809682 -0.095216741312257352 0 0.35802776935757019 -0.070665676604553529 0 0.331762206516936 -0.074199649102278678 0 0.3799934613124491 -0.1141351934829782 0 0.36192545204167298 -0.11208328153174781 0 0.37104303648388809 -0.1272612894930944 0 0.36192545204167298 -0.11208328153174781 0 0.35551888896884759 -0.1297027680154724 0 0.37104303648388809 -0.1272612894930944 0 0.37706007999693841 -0.1011775095245466 0 0.3799934613124491 -0.1141351934829782 0 0.36192545204167298 -0.11208328153174781 0 0.37706007999693841 -0.1011775095245466 0 0.36577500316168848 -0.093055365242956031 0 0.36192545204167298 -0.11208328153174781 0 0.36192545204167298 -0.11208328153174781 0 0.34487393367809682 -0.095216741312257352 0 0.34014121552940491 -0.1203166258242544 0 0.36577500316168848 -0.093055365242956031 0 0.36192545204167298 -0.11208328153174781 0 0.34487393367809682 -0.095216741312257352 0 0.36192545204167298 -0.11208328153174781 0 0.34014121552940491 -0.1203166258242544 0 0.35551888896884759 -0.1297027680154724 0 0.34014121552940491 -0.1203166258242544 0 0.32517348349888747 -0.118580130041643 0 0.32373683991627678 -0.1342707635111336 0 0.34014121552940491 -0.1203166258242544 0 0.32895182275083351 -0.1060869523066566 0 0.32517348349888747 -0.118580130041643 0 0.34487393367809682 -0.095216741312257352 0 0.34014121552940491 -0.1203166258242544 0 0.32895182275083351 -0.1060869523066566 0 0.34487393367809682 -0.095216741312257352 0 0.32895182275083351 -0.1060869523066566 0 0.32681031061177879 -0.089772122834636051 0 0.32895182275083351 -0.1060869523066566 0 0.31743464692623941 -0.099981704590172707 0 0.32681031061177879 -0.089772122834636051 0 0.31743464692623941 -0.099981704590172707 0 0.31638799147784608 -0.1118713826410174 0 0.30885616350321549 -0.1072846913931271 0 0.32895182275083351 -0.1060869523066566 0 0.31743464692623941 -0.099981704590172707 0 0.31638799147784608 -0.1118713826410174 0 0.32895182275083351 -0.1060869523066566 0 0.31638799147784608 -0.1118713826410174 0 0.32517348349888747 -0.118580130041643 0 0.31638799147784608 -0.1118713826410174 0 0.31399575267335023 -0.12250180558336519 0 0.30853123694459123 -0.1170064061326217 0 0.31638799147784608 -0.1118713826410174 0 0.31399575267335023 -0.12250180558336519 0 0.32517348349888747 -0.118580130041643 0 0.33951515654934239 -0.057829064589421393 0 0.35802776935757019 -0.070665676604553529 0 0.331762206516936 -0.074199649102278678 0 0.34487393367809682 -0.095216741312257352 0 0.331762206516936 -0.074199649102278678 0 0.32681031061177879 -0.089772122834636051 0 0.32681031061177879 -0.089772122834636051 0 0.30549664367630158 -0.077733621600003855 0 0.31220284993755582 -0.090742102146006851 0 0.331762206516936 -0.074199649102278678 0 0.32681031061177879 -0.089772122834636051 0 0.30549664367630158 -0.077733621600003855 0 0.31743464692623941 -0.099981704590172707 0 0.32681031061177879 -0.089772122834636051 0 0.31220284993755582 -0.090742102146006851 0 0.31292981148517318 -0.054457989835630861 0 0.331762206516936 -0.074199649102278678 0 0.30549664367630158 -0.077733621600003855 0 0.331762206516936 -0.074199649102278678 0 0.30549664367630158 -0.077733621600003855 0 0.31292981148517318 -0.054457989835630861 0 0.30549664367630158 -0.077733621600003855 0 0.29642507544735103 -0.06613635338217283 0 0.30549664367630158 -0.077733621600003855 0 0.29743178973804058 -0.092817056036521225 0 0.29642507544735103 -0.06613635338217283 0 0.29743178973804058 -0.092817056036521225 0 0.29642507544735103 -0.06613635338217283 0 0.31220284993755582 -0.090742102146006851 0 0.30524841693787119 -0.089877123387424693 0 0.30586238439958702 -0.098215713767166868 0 0.30549664367630158 -0.077733621600003855 0 0.31220284993755582 -0.090742102146006851 0 0.30524841693787119 -0.089877123387424693 0 0.30524841693787119 -0.089877123387424693 0 0.29743178973804058 -0.092817056036521225 0 0.30586238439958702 -0.098215713767166868 0 0.30549664367630158 -0.077733621600003855 0 0.30524841693787119 -0.089877123387424693 0 0.29743178973804058 -0.092817056036521225 0 0.29430385704143641 -0.093334685648855456 0 0.28333646668855839 -0.1038254721913715 0 0.27844545300264117 -0.078858311907156253 0 0.29743178973804058 -0.092817056036521225 0 0.29430385704143641 -0.093334685648855456 0 0.29347904805936648 -0.068220893163732282 0 0.29430385704143641 -0.093334685648855456 0 0.29347904805936648 -0.068220893163732282 0 0.27844545300264117 -0.078858311907156253 0 0.29430385704143641 -0.093334685648855456 0 0.29347904805936648 -0.068220893163732282 0 0.29743178973804058 -0.092817056036521225 0 0.29642507544735103 -0.06613635338217283 0 0.29347904805936648 -0.068220893163732282 0 0.28521560802072671 -0.062721316040594208 0 0.29347904805936648 -0.068220893163732282 0 0.27844545300264117 -0.078858311907156253 0 0.29347904805936648 -0.068220893163732282 0 0.27844545300264117 -0.078858311907156253 0 0.29642507544735103 -0.06613635338217283 0 0.29347904805936648 -0.068220893163732282 0 0.29301224914481439 -0.054007794946804598 0 0.29642507544735103 -0.06613635338217283 0 0.29347904805936648 -0.068220893163732282 0 0.29743178973804058 -0.092817056036521225 0 0.29843850402873079 -0.11949775869086959 0 0.29512866602350563 -0.1184484781339787 0 0.29843850402873079 -0.11949775869086959 0 0.29512866602350563 -0.1184484781339787 0 0.30010147488007238 -0.1276093355582181 0 0.29843850402873079 -0.11949775869086959 0 0.30554459793957989 -0.1238630007756472 0 0.30853123694459123 -0.1170064061326217 0 0.29843850402873079 -0.11949775869086959 0 0.30554459793957989 -0.1238630007756472 0 0.30010147488007238 -0.1276093355582181 0 0.31399575267335023 -0.12250180558336519 0 0.30554459793957989 -0.1238630007756472 0 0.30853123694459123 -0.1170064061326217 0 0.29843850402873079 -0.11949775869086959 0 0.30853123694459123 -0.1170064061326217 0 0.30885616350321549 -0.1072846913931271 0 0.31638799147784608 -0.1118713826410174 0 0.30853123694459123 -0.1170064061326217 0 0.30885616350321549 -0.1072846913931271 0 0.29843850402873079 -0.11949775869086959 0 0.30885616350321549 -0.1072846913931271 0 0.30586238439958702 -0.098215713767166868 0 0.29743178973804058 -0.092817056036521225 0 0.29843850402873079 -0.11949775869086959 0 0.30586238439958702 -0.098215713767166868 0 0.29743178973804058 -0.092817056036521225 0 0.29843850402873079 -0.11949775869086959 0 0.31743464692623941 -0.099981704590172707 0 0.30885616350321549 -0.1072846913931271 0 0.30586238439958702 -0.098215713767166868 0 0.31743464692623941 -0.099981704590172707 0 0.31220284993755582 -0.090742102146006851 0 0.30586238439958702 -0.098215713767166868 0 0.29430385704143641 -0.093334685648855456 0 0.29512866602350563 -0.1184484781339787 0 0.29430385704143641 -0.093334685648855456 0 0.28333646668855839 -0.1038254721913715 0 0.29512866602350563 -0.1184484781339787 0 0.29743178973804058 -0.092817056036521225 0 0.29430385704143641 -0.093334685648855456 0 0.29512866602350563 -0.1184484781339787 0 0.28333646668855839 -0.1038254721913715 0 0.29512866602350563 -0.1184484781339787 0 0.28822748037447399 -0.12879263247558709 0 0.28333646668855839 -0.1038254721913715 0 0.28822748037447399 -0.12879263247558709 0 0.26621118532108262 -0.1119181791838486 0 0.25741251913389712 -0.1305951081492244 0 0.28822748037447399 -0.12879263247558709 0 0.28333646668855839 -0.1038254721913715 0 0.26621118532108262 -0.1119181791838486 0 0.28822748037447399 -0.12879263247558709 0 0.28333646668855839 -0.1038254721913715 0 0.26621118532108262 -0.1119181791838486 0 0.26565518081306061 -0.08790840808238623 0 0.26621118532108262 -0.1119181791838486 0 0.25154255280112903 -0.1006059983499779 0 0.24954668948061209 -0.11284283178631641 0 0.26621118532108262 -0.1119181791838486 0 0.25154255280112903 -0.1006059983499779 0 0.26565518081306061 -0.08790840808238623 0 0.26621118532108262 -0.1119181791838486 0 0.25741251913389712 -0.1305951081492244 0 0.24954668948061209 -0.11284283178631641 0 0.27844545300264117 -0.078858311907156253 0 0.2741393958395883 -0.056877179510702792 0 0.28007443442101287 -0.061799103716356343 0 0.27844545300264117 -0.078858311907156253 0 0.2741393958395883 -0.056877179510702792 0 0.26628957168076178 -0.070692469674316694 0 0.27844545300264117 -0.078858311907156253 0 0.2741393958395883 -0.056877179510702792 0 0.28521560802072671 -0.062721316040594208 0 0.27844545300264117 -0.078858311907156253 0 0.28007443442101287 -0.061799103716356343 0 0.26628957168076178 -0.070692469674316694 0 0.27844545300264117 -0.078858311907156253 0 0.26565518081306061 -0.08790840808238623 0 0.28333646668855839 -0.1038254721913715 0 0.27844545300264117 -0.078858311907156253 0 0.26565518081306061 -0.08790840808238623 0 0.28333646668855839 -0.1038254721913715 0 0.27844545300264117 -0.078858311907156253 0 0.27844545300264117 -0.078858311907156253 0 0.26565518081306061 -0.08790840808238623 0 0.25154255280112903 -0.1006059983499779 0 0.25664035233608162 -0.078361863555500011 0 0.24390890644978661 -0.075150332687283522 0 0.25154255280112903 -0.1006059983499779 0 0.26565518081306061 -0.08790840808238623 0 0.25664035233608162 -0.078361863555500011 0 0.26628957168076178 -0.070692469674316694 0 0.26565518081306061 -0.08790840808238623 0 0.25664035233608162 -0.078361863555500011 0 0.25664035233608162 -0.078361863555500011 0 0.25256726729664603 -0.064532785491330763 0 0.24390890644978661 -0.075150332687283522 0 0.26628957168076178 -0.070692469674316694 0 0.25256726729664603 -0.064532785491330763 0 0.2741393958395883 -0.056877179510702792 0 0.26628957168076178 -0.070692469674316694 0 0.25664035233608162 -0.078361863555500011 0 0.25256726729664603 -0.064532785491330763 0 0.25256726729664603 -0.064532785491330763 0 0.25164978009717781 -0.053061021673298493 0 0.24617004458672351 -0.058202332164817121 0 0.25256726729664603 -0.064532785491330763 0 0.26131371929964131 -0.050907379716302707 0 0.27395317434556299 -0.0509436520349522 0 0.25256726729664603 -0.064532785491330763 0 0.25164978009717781 -0.053061021673298493 0 0.26131371929964131 -0.050907379716302707 0 0.25256726729664603 -0.064532785491330763 0 0.27395317434556299 -0.0509436520349522 0 0.25164978009717781 -0.053061021673298493 0 0.26131371929964131 -0.050907379716302707 0 0.2539732262079259 -0.044675773385505282 0 0.26131371929964131 -0.050907379716302707 0 0.26227784506780882 -0.045421506107560787 0 0.2539732262079259 -0.044675773385505282 0 0.26131371929964131 -0.050907379716302707 0 0.26742863268251632 -0.045985676557136583 0 0.26227784506780882 -0.045421506107560787 0 0.25256726729664603 -0.064532785491330763 0 0.27395317434556299 -0.0509436520349522 0 0.2741393958395883 -0.056877179510702792 0 0.26131371929964131 -0.050907379716302707 0 0.27395317434556299 -0.0509436520349522 0 0.26742863268251632 -0.045985676557136583 0 0.27395317434556299 -0.0509436520349522 0 0.2741393958395883 -0.056877179510702792 0 0.28351618772518777 -0.053458991616202503 0 0.2741393958395883 -0.056877179510702792 0 0.28007443442101287 -0.061799103716356343 0 0.28351618772518777 -0.053458991616202503 0 0.2807394014679111 -0.038000872253349499 0 0.27361436003936901 -0.034999677146069851 0 0.27240238673917438 -0.042113497984529957 0 0.2807394014679111 -0.038000872253349499 0 0.27361436003936901 -0.034999677146069851 0 0.28248009054126683 -0.027824818882371601 0 0.27395317434556299 -0.0509436520349522 0 0.2807394014679111 -0.038000872253349499 0 0.27240238673917438 -0.042113497984529957 0 0.27395317434556299 -0.0509436520349522 0 0.27240238673917438 -0.042113497984529957 0 0.26742863268251632 -0.045985676557136583 0 0.27361436003936901 -0.034999677146069851 0 0.27240238673917438 -0.042113497984529957 0 0.26639580208115188 -0.040117194771298603 0 0.27240238673917438 -0.042113497984529957 0 0.26742863268251632 -0.045985676557136583 0 0.26639580208115188 -0.040117194771298603 0 0.27361436003936901 -0.034999677146069851 0 0.26639580208115188 -0.040117194771298603 0 0.26859201328057281 -0.027442020841521631 0 0.2539732262079259 -0.044675773385505282 0 0.25845033672230949 -0.02738613623275089 0 0.26859201328057281 -0.027442020841521631 0 0.2539732262079259 -0.044675773385505282 0 0.25845033672230949 -0.02738613623275089 0 0.24422464309495209 -0.046986837608536558 0 0.25845033672230949 -0.02738613623275089 0 0.24422464309495209 -0.046986837608536558 0 0.26639580208115188 -0.040117194771298603 0 0.2539732262079259 -0.044675773385505282 0 0.26859201328057281 -0.027442020841521631 0 0.2539732262079259 -0.044675773385505282 0 0.26859201328057281 -0.027442020841521631 0 0.26639580208115188 -0.040117194771298603 0 0.26227784506780882 -0.045421506107560787 0 0.2539732262079259 -0.044675773385505282 0 0.26742863268251632 -0.045985676557136583 0 0.26639580208115188 -0.040117194771298603 0 0.26227784506780882 -0.045421506107560787 0 0.25013504981522988 -0.025019616072594848 0 0.25845033672230949 -0.02738613623275089 0 0.24524507923365879 -0.0330622213940093 0 0.25845033672230949 -0.02738613623275089 0 0.27267603034966698 -0.0077854348569651906 0 0.25845033672230949 -0.02738613623275089 0 0.25886508985187012 -0.013172853544477199 0 0.27267603034966698 -0.0077854348569651906 0 0.25013504981522988 -0.025019616072594848 0 0.25247407830029878 -0.019873092178793648 0 0.25845033672230949 -0.02738613623275089 0 0.25247407830029878 -0.019873092178793648 0 0.25845033672230949 -0.02738613623275089 0 0.25886508985187012 -0.013172853544477199 0 0.25598072684389089 -0.0058943492075353007 0 0.25006914023697918 -0.01208141302270524 0 0.2479891295484222 -0.0022684572774312019 0 0.25894279220913391 0.003459445712386486 0 0.25598072684389089 -0.0058943492075353007 0 0.2479891295484222 -0.0022684572774312019 0 0.25598072684389089 -0.0058943492075353007 0 0.25006914023697918 -0.01208141302270524 0 0.25886508985187012 -0.013172853544477199 0 0.25247407830029878 -0.019873092178793648 0 0.25006914023697918 -0.01208141302270524 0 0.25886508985187012 -0.013172853544477199 0 0.25886508985187012 -0.013172853544477199 0 0.26317147738524183 -0.0038637327990410169 0 0.27267603034966698 -0.0077854348569651906 0 0.25598072684389089 -0.0058943492075353007 0 0.25886508985187012 -0.013172853544477199 0 0.26317147738524183 -0.0038637327990410169 0 0.25894279220913391 0.003459445712386486 0 0.25598072684389089 -0.0058943492075353007 0 0.26317147738524183 -0.0038637327990410169 0 0.27267603034966698 -0.0077854348569651906 0 0.26859201328057281 -0.027442020841521631 0 0.28321080035321983 -0.010208268297538009 0 0.26939274767164711 0.0040745279013861191 0 0.26317147738524183 -0.0038637327990410169 0 0.27267603034966698 -0.0077854348569651906 0 0.28687677889875068 0.001725005618485562 0 0.27267603034966698 -0.0077854348569651906 0 0.28321080035321983 -0.010208268297538009 0 0.26859201328057281 -0.027442020841521631 0 0.28321080035321983 -0.010208268297538009 0 0.25845033672230949 -0.02738613623275089 0 0.27267603034966698 -0.0077854348569651906 0 0.26859201328057281 -0.027442020841521631 0 0.26859201328057281 -0.027442020841521631 0 0.28248009054126683 -0.027824818882371601 0 0.28321080035321983 -0.010208268297538009 0 0.27361436003936901 -0.034999677146069851 0 0.26859201328057281 -0.027442020841521631 0 0.28248009054126683 -0.027824818882371601 0 0.29465383366866438 -0.01919356567853802 0 0.28248009054126683 -0.027824818882371601 0 0.29533908139447967 -0.037354518578573179 0 0.29465383366866438 -0.01919356567853802 0 0.28248009054126683 -0.027824818882371601 0 0.28321080035321983 -0.010208268297538009 0 0.29465383366866438 -0.01919356567853802 0 0.29533908139447967 -0.037354518578573179 0 0.2978295874258669 0.0070254842464454832 0 0.28321080035321983 -0.010208268297538009 0 0.29396858594285019 -0.001032612778502764 0 0.2978295874258669 0.0070254842464454832 0 0.28687677889875068 0.001725005618485562 0 0.28321080035321983 -0.010208268297538009 0 0.29465383366866438 -0.01919356567853802 0 0.28321080035321983 -0.010208268297538009 0 0.29396858594285019 -0.001032612778502764 0 0.2978295874258669 0.0070254842464454832 0 0.28321080035321983 -0.010208268297538009 0 0.29465383366866438 -0.01919356567853802 0 0.29396858594285019 -0.001032612778502764 0 0.30752965714041391 0.0058765203804442539 0 0.29465383366866438 -0.01919356567853802 0 0.29396858594285019 -0.001032612778502764 0 0.30752965714041391 0.0058765203804442539 0 0.3196214637881436 -0.021924893160697439 0 0.29465383366866438 -0.01919356567853802 0 0.3196214637881436 -0.021924893160697439 0 0.29465383366866438 -0.01919356567853802 0 0.29533908139447967 -0.037354518578573179 0 0.3196214637881436 -0.021924893160697439 0 0.29533908139447967 -0.037354518578573179 0 0.3196214637881436 -0.021924893160697439 0 0.31660160940309118 -0.035871797032442469 0 0.29533908139447967 -0.037354518578573179 0 0.31292981148517318 -0.054457989835630861 0 0.31660160940309118 -0.035871797032442469 0 0.29533908139447967 -0.037354518578573179 0 0.31292981148517318 -0.054457989835630861 0 0.29642507544735103 -0.06613635338217283 0 0.31292981148517318 -0.054457989835630861 0 0.29642507544735103 -0.06613635338217283 0 0.29533908139447967 -0.037354518578573179 0 0.29642507544735103 -0.06613635338217283 0 0.29301224914481439 -0.054007794946804598 0 0.29533908139447967 -0.037354518578573179 0 0.27395317434556299 -0.0509436520349522 0 0.28351618772518777 -0.053458991616202503 0 0.29533908139447967 -0.037354518578573179 0 0.29301224914481439 -0.054007794946804598 0 0.28351618772518777 -0.053458991616202503 0 0.29533908139447967 -0.037354518578573179 0 0.29642507544735103 -0.06613635338217283 0 0.29533908139447967 -0.037354518578573179 0 0.29347904805936648 -0.068220893163732282 0 0.29301224914481439 -0.054007794946804598 0 0.28521560802072671 -0.062721316040594208 0 0.29347904805936648 -0.068220893163732282 0 0.29301224914481439 -0.054007794946804598 0 0.28521560802072671 -0.062721316040594208 0 0.29301224914481439 -0.054007794946804598 0 0.28351618772518777 -0.053458991616202503 0 0.28521560802072671 -0.062721316040594208 0 0.28007443442101287 -0.061799103716356343 0 0.28351618772518777 -0.053458991616202503 0 0.27395317434556299 -0.0509436520349522 0 0.29533908139447967 -0.037354518578573179 0 0.27395317434556299 -0.0509436520349522 0 0.2807394014679111 -0.038000872253349499 0 0.29533908139447967 -0.037354518578573179 0 0.2807394014679111 -0.038000872253349499 0 0.28248009054126683 -0.027824818882371601 0 0.29533908139447967 -0.037354518578573179 0 0.30290052143222262 -0.20369411332823331 0 0.28158405213751547 -0.22140539282722879 0 0.30290052143222262 -0.20369411332823331 0 0.28158405213751547 -0.22140539282722879 0 0.27747759048209231 -0.20168759245952969 0 0.28632476970011178 -0.18938030831719929 0 0.30290052143222262 -0.20369411332823331 0 0.2980095077463053 -0.17872695304401809 0 0.28632476970011178 -0.18938030831719929 0 0.30290052143222262 -0.20369411332823331 0 0.27747759048209231 -0.20168759245952969 0 0.30290052143222262 -0.20369411332823331 0 0.2980095077463053 -0.17872695304401809 0 0.32549301828835953 -0.18492261693889581 0 0.30290052143222262 -0.20369411332823331 0 0.2980095077463053 -0.17872695304401809 0 0.30290052143222262 -0.20369411332823331 0 0.30715254712033069 -0.22539943122446929 0 0.28158405213751547 -0.22140539282722879 0 0.30290052143222262 -0.20369411332823331 0 0.30715254712033069 -0.22539943122446929 0 0.30290052143222262 -0.20369411332823331 0 0.30715254712033069 -0.22539943122446929 0 0.32148368101975677 -0.2112815477794289 0 0.31140457280844042 -0.24710474912070499 0 0.29234931722919649 -0.23956849287787771 0 0.29718577407036301 -0.25519814195989071 0 0.30715254712033069 -0.22539943122446929 0 0.31140457280844042 -0.24710474912070499 0 0.29234931722919649 -0.23956849287787771 0 0.30715254712033069 -0.22539943122446929 0 0.31140457280844042 -0.24710474912070499 0 0.29234931722919649 -0.23956849287787771 0 0.27362138757170362 -0.2426007269765893 0 0.28009493911397709 -0.25531812806766069 0 0.29234931722919649 -0.23956849287787771 0 0.28158405213751547 -0.22140539282722879 0 0.27362138757170362 -0.2426007269765893 0 0.30715254712033069 -0.22539943122446929 0 0.29234931722919649 -0.23956849287787771 0 0.28158405213751547 -0.22140539282722879 0 0.28158405213751547 -0.22140539282722879 0 0.26621460642996558 -0.23052855599088379 0 0.27362138757170362 -0.2426007269765893 0 0.28158405213751547 -0.22140539282722879 0 0.26621460642996558 -0.23052855599088379 0 0.26307381511529532 -0.2143756044194241 0 0.26621460642996558 -0.23052855599088379 0 0.27362138757170362 -0.2426007269765893 0 0.26034160768121078 -0.2422716922893062 0 0.27362138757170362 -0.2426007269765893 0 0.26034160768121078 -0.2422716922893062 0 0.26515279713901752 -0.25474276698909742 0 0.26034160768121078 -0.2422716922893062 0 0.26515279713901752 -0.25474276698909742 0 0.25575058308532189 -0.25269357128633052 0 0.26034160768121078 -0.2422716922893062 0 0.25134951441318748 -0.22920843539767929 0 0.2499607574480687 -0.24385609709525671 0 0.25575058308532189 -0.25269357128633052 0 0.2462907050713771 -0.25204034373521428 0 0.2499607574480687 -0.24385609709525671 0 0.26034160768121078 -0.2422716922893062 0 0.25575058308532189 -0.25269357128633052 0 0.2499607574480687 -0.24385609709525671 0 0.26621460642996558 -0.23052855599088379 0 0.25134951441318748 -0.22920843539767929 0 0.26307381511529532 -0.2143756044194241 0 0.26621460642996558 -0.23052855599088379 0 0.26034160768121078 -0.2422716922893062 0 0.25134951441318748 -0.22920843539767929 0 0.25134951441318748 -0.22920843539767929 0 0.26307381511529532 -0.2143756044194241 0 0.24314545538918961 -0.20571013864437751 0 0.26307381511529532 -0.2143756044194241 0 0.2593871514889205 -0.19799184377322379 0 0.24314545538918961 -0.20571013864437751 0 0.26307381511529532 -0.2143756044194241 0 0.27747759048209231 -0.20168759245952969 0 0.2593871514889205 -0.19799184377322379 0 0.28158405213751547 -0.22140539282722879 0 0.26307381511529532 -0.2143756044194241 0 0.27747759048209231 -0.20168759245952969 0 0.27747759048209231 -0.20168759245952969 0 0.2593871514889205 -0.19799184377322379 0 0.269221803856454 -0.185599514949991 0 0.28632476970011178 -0.18938030831719929 0 0.27747759048209231 -0.20168759245952969 0 0.269221803856454 -0.185599514949991 0 0.2593871514889205 -0.19799184377322379 0 0.269221803856454 -0.185599514949991 0 0.2437278363918948 -0.18195096812212239 0 0.260919387449559 -0.16579352929295721 0 0.269221803856454 -0.185599514949991 0 0.2437278363918948 -0.18195096812212239 0 0.260919387449559 -0.16579352929295721 0 0.28401442498348639 -0.17719336780422379 0 0.260919387449559 -0.16579352929295721 0 0.27757308642867828 -0.16101723958663619 0 0.28401442498348639 -0.17719336780422379 0 0.260919387449559 -0.16579352929295721 0 0.27757308642867828 -0.16101723958663619 0 0.27224003922127837 -0.1473222684895614 0 0.260919387449559 -0.16579352929295721 0 0.269221803856454 -0.185599514949991 0 0.28401442498348639 -0.17719336780422379 0 0.28632476970011178 -0.18938030831719929 0 0.269221803856454 -0.185599514949991 0 0.28401442498348639 -0.17719336780422379 0 0.260919387449559 -0.16579352929295721 0 0.25452239946831973 -0.14829655140993131 0 0.27224003922127837 -0.1473222684895614 0 0.260919387449559 -0.16579352929295721 0 0.25452239946831973 -0.14829655140993131 0 0.23782434991563151 -0.15439369078169049 0 0.25741251913389712 -0.1305951081492244 0 0.25452239946831973 -0.14829655140993131 0 0.27224003922127837 -0.1473222684895614 0 0.27757308642867828 -0.16101723958663619 0 0.27224003922127837 -0.1473222684895614 0 0.2931184940603897 -0.15375979275980259 0 0.25741251913389712 -0.1305951081492244 0 0.27224003922127837 -0.1473222684895614 0 0.28822748037447399 -0.12879263247558709 0 0.29512866602350563 -0.1184484781339787 0 0.2959534750055749 -0.1435622706191019 0 0.29512866602350563 -0.1184484781339787 0 0.28822748037447399 -0.12879263247558709 0 0.2959534750055749 -0.1435622706191019 0 0.2959534750055749 -0.1435622706191019 0 0.2931184940603897 -0.15375979275980259 0 0.29606782433269818 -0.16881524064208181 0 0.28822748037447399 -0.12879263247558709 0 0.2959534750055749 -0.1435622706191019 0 0.2931184940603897 -0.15375979275980259 0 0.28822748037447399 -0.12879263247558709 0 0.2931184940603897 -0.15375979275980259 0 0.27224003922127837 -0.1473222684895614 0 0.28822748037447399 -0.12879263247558709 0 0.2931184940603897 -0.15375979275980259 0 0.2959534750055749 -0.1435622706191019 0 0.29606782433269818 -0.16881524064208181 0 0.2959534750055749 -0.1435622706191019 0 0.30786991093933941 -0.1327242262548293 0 0.31334084787329858 -0.14560100496875439 0 0.2959534750055749 -0.1435622706191019 0 0.30589655906226038 -0.156608858018214 0 0.31334084787329858 -0.14560100496875439 0 0.30589655906226038 -0.156608858018214 0 0.31666093946419188 -0.15748088094218049 0 0.31334084787329858 -0.14560100496875439 0 0.29512866602350563 -0.1184484781339787 0 0.2959534750055749 -0.1435622706191019 0 0.30010147488007238 -0.1276093355582181 0 0.2959534750055749 -0.1435622706191019 0 0.30786991093933941 -0.1327242262548293 0 0.30010147488007238 -0.1276093355582181 0 0.31399575267335023 -0.12250180558336519 0 0.30554459793957989 -0.1238630007756472 0 0.30786991093933941 -0.1327242262548293 0 0.30554459793957989 -0.1238630007756472 0 0.30786991093933941 -0.1327242262548293 0 0.30010147488007238 -0.1276093355582181 0 0.28401442498348639 -0.17719336780422379 0 0.29606782433269818 -0.16881524064208181 0 0.2980095077463053 -0.17872695304401809 0 0.28632476970011178 -0.18938030831719929 0 0.28401442498348639 -0.17719336780422379 0 0.2980095077463053 -0.17872695304401809 0 0.27757308642867828 -0.16101723958663619 0 0.2931184940603897 -0.15375979275980259 0 0.28401442498348639 -0.17719336780422379 0 0.2931184940603897 -0.15375979275980259 0 0.28401442498348639 -0.17719336780422379 0 0.29606782433269818 -0.16881524064208181 0 0.2931184940603897 -0.15375979275980259 0 0.29606782433269818 -0.16881524064208181 0 0.29606782433269818 -0.16881524064208181 0 0.30589655906226038 -0.156608858018214 0 0.31145366373618227 -0.1686264437044486 0 0.2959534750055749 -0.1435622706191019 0 0.29606782433269818 -0.16881524064208181 0 0.30589655906226038 -0.156608858018214 0 0.30589655906226038 -0.156608858018214 0 0.31145366373618227 -0.1686264437044486 0 0.31666093946419188 -0.15748088094218049 0 0.31145366373618227 -0.1686264437044486 0 0.2980095077463053 -0.17872695304401809 0 0.32549301828835953 -0.18492261693889581 0 0.29606782433269818 -0.16881524064208181 0 0.31145366373618227 -0.1686264437044486 0 0.2980095077463053 -0.17872695304401809 0 0.29606782433269818 -0.16881524064208181 0 0.2980095077463053 -0.17872695304401809 0 0.31145366373618227 -0.1686264437044486 0 0.32549301828835953 -0.18492261693889581 0 0.32738776678709508 -0.16545123116759969 0 0.31145366373618227 -0.1686264437044486 0 0.32738776678709508 -0.16545123116759969 0 0.31666093946419188 -0.15748088094218049 0 0.32738776678709508 -0.16545123116759969 0 0.31666093946419188 -0.15748088094218049 0 0.32968898845727718 -0.1497650634196834 0 0.32738776678709508 -0.16545123116759969 0 0.32968898845727718 -0.1497650634196834 0 0.34808551514449421 -0.1661511205495555 0 0.32549301828835953 -0.18492261693889581 0 0.32738776678709508 -0.16545123116759969 0 0.34808551514449421 -0.1661511205495555 0 0.32549301828835953 -0.18492261693889581 0 0.34808551514449421 -0.1661511205495555 0 0.32549301828835953 -0.18492261693889581 0 0.34808551514449421 -0.1661511205495555 0 0.34521429895780248 -0.1968392362703156 0 0.30786991093933941 -0.1327242262548293 0 0.32373683991627678 -0.1342707635111336 0 0.31334084787329858 -0.14560100496875439 0 0.31399575267335023 -0.12250180558336519 0 0.32517348349888747 -0.118580130041643 0 0.32373683991627678 -0.1342707635111336 0 0.31399575267335023 -0.12250180558336519 0 0.30786991093933941 -0.1327242262548293 0 0.32373683991627678 -0.1342707635111336 0 0.32373683991627678 -0.1342707635111336 0 0.31334084787329858 -0.14560100496875439 0 0.32968898845727718 -0.1497650634196834 0 0.31666093946419188 -0.15748088094218049 0 0.31334084787329858 -0.14560100496875439 0 0.32968898845727718 -0.1497650634196834 0 0.32373683991627678 -0.1342707635111336 0 0.32968898845727718 -0.1497650634196834 0 0.34485783347551252 -0.1433779188078016 0 0.32968898845727718 -0.1497650634196834 0 0.34485783347551252 -0.1433779188078016 0 0.34808551514449421 -0.1661511205495555 0 0.34014121552940491 -0.1203166258242544 0 0.32373683991627678 -0.1342707635111336 0 0.34485783347551252 -0.1433779188078016 0 0.34014121552940491 -0.1203166258242544 0 0.35551888896884759 -0.1297027680154724 0 0.34485783347551252 -0.1433779188078016 0 0.35551888896884759 -0.1297027680154724 0 0.34485783347551252 -0.1433779188078016 0 0.37067801200062889 -0.1473796241602153 0 0.34485783347551252 -0.1433779188078016 0 0.37067801200062889 -0.1473796241602153 0 0.34808551514449421 -0.1661511205495555 0 0.35551888896884759 -0.1297027680154724 0 0.37067801200062889 -0.1473796241602153 0 0.37104303648388809 -0.1272612894930944 0 0.34808551514449421 -0.1661511205495555 0 0.36752808638216261 -0.17990459429682831 0 0.34521429895780248 -0.1968392362703156 0 0.34808551514449421 -0.1661511205495555 0 0.37072349948513561 -0.1630779710757761 0 0.36752808638216261 -0.17990459429682831 0 0.37067801200062889 -0.1473796241602153 0 0.34808551514449421 -0.1661511205495555 0 0.37072349948513561 -0.1630779710757761 0 0.37067801200062889 -0.1473796241602153 0 0.34808551514449421 -0.1661511205495555 0 0.37072349948513561 -0.1630779710757761 0 0.36752808638216261 -0.17990459429682831 0 0.38565700028273392 -0.16791849986101029 0 0.36752808638216261 -0.17990459429682831 0 0.36890805570422369 -0.19954003101511669 0 0.34521429895780248 -0.1968392362703156 0 0.36752808638216261 -0.17990459429682831 0 0.36890805570422369 -0.19954003101511669 0 0.38551481473406651 -0.18910273675150999 0 0.36890805570422369 -0.19954003101511669 0 0.35851964138810982 -0.2171827375251118 0 0.37645297458065691 -0.21353851220024839 0 0.35851964138810982 -0.2171827375251118 0 0.34521429895780248 -0.1968392362703156 0 0.33865146772119931 -0.2184974665014994 0 0.36890805570422369 -0.19954003101511669 0 0.35851964138810982 -0.2171827375251118 0 0.34521429895780248 -0.1968392362703156 0 0.32549301828835953 -0.18492261693889581 0 0.34521429895780248 -0.1968392362703156 0 0.32148368101975677 -0.2112815477794289 0 0.34521429895780248 -0.1968392362703156 0 0.33865146772119931 -0.2184974665014994 0 0.32148368101975677 -0.2112815477794289 0 0.30290052143222262 -0.20369411332823331 0 0.32549301828835953 -0.18492261693889581 0 0.32148368101975677 -0.2112815477794289 0 0.30290052143222262 -0.20369411332823331 0 0.32549301828835953 -0.18492261693889581 0 0.31140457280844042 -0.24710474912070499 0 0.32841487832378857 -0.23419691532036521 0 0.32909477526671738 -0.25319804842994992 0 0.30715254712033069 -0.22539943122446929 0 0.31140457280844042 -0.24710474912070499 0 0.32841487832378857 -0.23419691532036521 0 0.30715254712033069 -0.22539943122446929 0 0.32148368101975677 -0.2112815477794289 0 0.32841487832378857 -0.23419691532036521 0 0.33865146772119931 -0.2184974665014994 0 0.32841487832378857 -0.23419691532036521 0 0.34678876975393269 -0.23153157971564481 0 0.33865146772119931 -0.2184974665014994 0 0.32148368101975677 -0.2112815477794289 0 0.32841487832378857 -0.23419691532036521 0 0.32841487832378857 -0.23419691532036521 0 0.34542116247921317 -0.24786541093840589 0 0.32909477526671738 -0.25319804842994992 0 0.32841487832378857 -0.23419691532036521 0 0.34542116247921317 -0.24786541093840589 0 0.34678876975393269 -0.23153157971564481 0 0.34542116247921317 -0.24786541093840589 0 0.36282952759798831 -0.23490181410806829 0 0.36211004630048071 -0.25874315800932568 0 0.34542116247921317 -0.24786541093840589 0 0.34678876975393269 -0.23153157971564481 0 0.36282952759798831 -0.23490181410806829 0 0.35851964138810982 -0.2171827375251118 0 0.33865146772119931 -0.2184974665014994 0 0.34678876975393269 -0.23153157971564481 0 0.35851964138810982 -0.2171827375251118 0 0.34678876975393269 -0.23153157971564481 0 0.36282952759798831 -0.23490181410806829 0 0.35851964138810982 -0.2171827375251118 0 0.37179579398026102 -0.22561915142401329 0 0.36282952759798831 -0.23490181410806829 0 0.35851964138810982 -0.2171827375251118 0 0.37179579398026102 -0.22561915142401329 0 0.37645297458065691 -0.21353851220024839 0 0.37179579398026102 -0.22561915142401329 0 0.36282952759798831 -0.23490181410806829 0 0.37754581309809132 -0.23651361028518689 0 0.36282952759798831 -0.23490181410806829 0 0.36876625398544938 -0.24898888889403961 0 0.36211004630048071 -0.25874315800932568 0 0.36282952759798831 -0.23490181410806829 0 0.36211004630048071 -0.25874315800932568 0 0.36282952759798831 -0.23490181410806829 0 0.36876625398544938 -0.24898888889403961 0 0.37754581309809132 -0.23651361028518689 0 0.37754581309809132 -0.23651361028518689 0 0.39300219267510322 -0.23842714914515989 0 0.3871149211879113 -0.25548270742864421 0 0.39300219267510322 -0.23842714914515989 0 0.3871149211879113 -0.25548270742864421 0 0.40207495352916539 -0.25113417058953519 0 0.39300219267510322 -0.23842714914515989 0 0.40723458142941671 -0.23497076085713389 0 0.40207495352916539 -0.25113417058953519 0 0.39851670543712209 -0.2244771902628257 0 0.41039622944065363 -0.2185270516157129 0 0.40723458142941671 -0.23497076085713389 0 0.39300219267510322 -0.23842714914515989 0 0.39851670543712209 -0.2244771902628257 0 0.40723458142941671 -0.23497076085713389 0 0.39300219267510322 -0.23842714914515989 0 0.39851670543712209 -0.2244771902628257 0 0.38505811203634721 -0.22522643630241351 0 0.39851670543712209 -0.2244771902628257 0 0.38505811203634721 -0.22522643630241351 0 0.39303519244684892 -0.21278300449704671 0 0.37754581309809132 -0.23651361028518689 0 0.39300219267510322 -0.23842714914515989 0 0.38505811203634721 -0.22522643630241351 0 0.37179579398026102 -0.22561915142401329 0 0.37754581309809132 -0.23651361028518689 0 0.38505811203634721 -0.22522643630241351 0 0.37179579398026102 -0.22561915142401329 0 0.38505811203634721 -0.22522643630241351 0 0.37645297458065691 -0.21353851220024839 0 0.38505811203634721 -0.22522643630241351 0 0.37645297458065691 -0.21353851220024839 0 0.39303519244684892 -0.21278300449704671 0 0.36890805570422369 -0.19954003101511669 0 0.37645297458065691 -0.21353851220024839 0 0.38544293285627962 -0.20314808770867229 0 0.37645297458065691 -0.21353851220024839 0 0.38544293285627962 -0.20314808770867229 0 0.39303519244684892 -0.21278300449704671 0 0.36890805570422369 -0.19954003101511669 0 0.38544293285627962 -0.20314808770867229 0 0.38551481473406651 -0.18910273675150999 0 0.38544293285627962 -0.20314808770867229 0 0.38551481473406651 -0.18910273675150999 0 0.40330362681560211 -0.20077615407943949 0 0.38551481473406651 -0.18910273675150999 0 0.40330362681560211 -0.20077615407943949 0 0.39995041381356911 -0.1868338584648204 0 0.40330362681560211 -0.20077615407943949 0 0.4125958117473455 -0.19170302267586259 0 0.39995041381356911 -0.1868338584648204 0 0.40330362681560211 -0.20077615407943949 0 0.39303519244684892 -0.21278300449704671 0 0.41039622944065363 -0.2185270516157129 0 0.38544293285627962 -0.20314808770867229 0 0.40330362681560211 -0.20077615407943949 0 0.39303519244684892 -0.21278300449704671 0 0.39851670543712209 -0.2244771902628257 0 0.39303519244684892 -0.21278300449704671 0 0.41039622944065363 -0.2185270516157129 0 0.40330362681560211 -0.20077615407943949 0 0.41039622944065363 -0.2185270516157129 0 0.42189732607146729 -0.20211324892629831 0 0.41039622944065363 -0.2185270516157129 0 0.42189732607146729 -0.20211324892629831 0 0.42790605200351661 -0.22140108800821251 0 0.40330362681560211 -0.20077615407943949 0 0.4125958117473455 -0.19170302267586259 0 0.42189732607146729 -0.20211324892629831 0 0.4125958117473455 -0.19170302267586259 0 0.42189732607146729 -0.20211324892629831 0 0.42233780496578233 -0.18319904235883591 0 0.42189732607146729 -0.20211324892629831 0 0.43389642119060762 -0.191962199940241 0 0.42233780496578233 -0.18319904235883591 0 0.42189732607146729 -0.20211324892629831 0 0.43389642119060762 -0.191962199940241 0 0.43723926749718739 -0.20471492206911249 0 0.43723926749718739 -0.20471492206911249 0 0.42790605200351661 -0.22140108800821251 0 0.44233814121790038 -0.22173902575952509 0 0.42189732607146729 -0.20211324892629831 0 0.43723926749718739 -0.20471492206911249 0 0.42790605200351661 -0.22140108800821251 0 0.43048550082884018 -0.24614270293406881 0 0.44233814121790038 -0.22173902575952509 0 0.42790605200351661 -0.22140108800821251 0 0.43048550082884018 -0.24614270293406881 0 0.44233814121790038 -0.22173902575952509 0 0.42790605200351661 -0.22140108800821251 0 0.43048550082884018 -0.24614270293406881 0 0.42088007225406548 -0.23367140350055049 0 0.43048550082884018 -0.24614270293406881 0 0.44582088554477811 -0.24525862245079941 0 0.43357426810421817 -0.25015303326672972 0 0.43048550082884018 -0.24614270293406881 0 0.42846035594967069 -0.25031232086228522 0 0.43357426810421817 -0.25015303326672972 0 0.43048550082884018 -0.24614270293406881 0 0.43357426810421817 -0.25015303326672972 0 0.43048550082884018 -0.24614270293406881 0 0.418537335240391 -0.2435876000290193 0 0.42846035594967069 -0.25031232086228522 0 0.43048550082884018 -0.24614270293406881 0 0.42846035594967069 -0.25031232086228522 0 0.43048550082884018 -0.24614270293406881 0 0.42088007225406548 -0.23367140350055049 0 0.43048550082884018 -0.24614270293406881 0 0.418537335240391 -0.2435876000290193 0 0.42088007225406548 -0.23367140350055049 0 0.418537335240391 -0.2435876000290193 0 0.40723458142941671 -0.23497076085713389 0 0.42088007225406548 -0.23367140350055049 0 0.418537335240391 -0.2435876000290193 0 0.40723458142941671 -0.23497076085713389 0 0.40207495352916539 -0.25113417058953519 0 0.418537335240391 -0.2435876000290193 0 0.40207495352916539 -0.25113417058953519 0 0.42846035594967069 -0.25031232086228522 0 0.41039622944065363 -0.2185270516157129 0 0.40723458142941671 -0.23497076085713389 0 0.42088007225406548 -0.23367140350055049 0 0.41039622944065363 -0.2185270516157129 0 0.42790605200351661 -0.22140108800821251 0 0.42088007225406548 -0.23367140350055049 0 0.3932705088567644 -0.1286081277708763 0 0.38946375456974969 -0.1482633138159434 0 0.40032650034539519 -0.13972272199131119 0 0.3932705088567644 -0.1286081277708763 0 0.38946375456974969 -0.1482633138159434 0 0.40224748518751269 -0.1211494002184121 0 0.40802316631723889 -0.13171289331352951 0 0.40224748518751269 -0.1211494002184121 0 0.40096691517672778 -0.13029828582353201 0 0.3932705088567644 -0.1286081277708763 0 0.40224748518751269 -0.1211494002184121 0 0.40096691517672778 -0.13029828582353201 0 0.40802316631723889 -0.13171289331352951 0 0.40096691517672778 -0.13029828582353201 0 0.40032650034539519 -0.13972272199131119 0 0.40802316631723889 -0.13171289331352951 0 0.40032650034539519 -0.13972272199131119 0 0.40802316631723889 -0.13171289331352951 0 0.40096691517672778 -0.13029828582353201 0 0.40032650034539519 -0.13972272199131119 0 0.3932705088567644 -0.1286081277708763 0 0.37067801200062889 -0.1473796241602153 0 0.37104303648388809 -0.1272612894930944 0 0.3932705088567644 -0.1286081277708763 0 0.37067801200062889 -0.1473796241602153 0 0.3932705088567644 -0.1286081277708763 0 0.37067801200062889 -0.1473796241602153 0 0.37072349948513561 -0.1630779710757761 0 0.38946375456974969 -0.1482633138159434 0 0.37067801200062889 -0.1473796241602153 0 0.3932705088567644 -0.1286081277708763 0 0.38946375456974969 -0.1482633138159434 0 0.40032650034539519 -0.13972272199131119 0 0.38946375456974969 -0.1482633138159434 0 0.40103769468862932 -0.15735650722112959 0 0.38946375456974969 -0.1482633138159434 0 0.40103769468862932 -0.15735650722112959 0 0.38565700028273392 -0.16791849986101029 0 0.40103769468862932 -0.15735650722112959 0 0.38565700028273392 -0.16791849986101029 0 0.40804365254297231 -0.17415516972609171 0 0.37072349948513561 -0.1630779710757761 0 0.38946375456974969 -0.1482633138159434 0 0.38565700028273392 -0.16791849986101029 0 0.38946375456974969 -0.1482633138159434 0 0.38565700028273392 -0.16791849986101029 0 0.38551481473406651 -0.18910273675150999 0 0.38565700028273392 -0.16791849986101029 0 0.39995041381356911 -0.1868338584648204 0 0.36752808638216261 -0.17990459429682831 0 0.38551481473406651 -0.18910273675150999 0 0.38565700028273392 -0.16791849986101029 0 0.38565700028273392 -0.16791849986101029 0 0.39995041381356911 -0.1868338584648204 0 0.40804365254297231 -0.17415516972609171 0 0.4125958117473455 -0.19170302267586259 0 0.40804365254297231 -0.17415516972609171 0 0.42233780496578233 -0.18319904235883591 0 0.4125958117473455 -0.19170302267586259 0 0.39995041381356911 -0.1868338584648204 0 0.40804365254297231 -0.17415516972609171 0 0.42233780496578233 -0.18319904235883591 0 0.43537196508735049 -0.18173276810905351 0 0.42169756570229522 -0.15672283071129131 0 0.43389642119060762 -0.191962199940241 0 0.42233780496578233 -0.18319904235883591 0 0.43537196508735049 -0.18173276810905351 0 0.43537196508735049 -0.18173276810905351 0 0.42169756570229522 -0.15672283071129131 0 0.43537196508735049 -0.18173276810905351 0 0.42169756570229522 -0.15672283071129131 0 0.44011919579772352 -0.15902857640534751 0 0.40804365254297231 -0.17415516972609171 0 0.42233780496578233 -0.18319904235883591 0 0.42169756570229522 -0.15672283071129131 0 0.40103769468862932 -0.15735650722112959 0 0.40804365254297231 -0.17415516972609171 0 0.42169756570229522 -0.15672283071129131 0 0.40032650034539519 -0.13972272199131119 0 0.40103769468862932 -0.15735650722112959 0 0.42169756570229522 -0.15672283071129131 0 0.42169756570229522 -0.15672283071129131 0 0.40802316631723889 -0.13171289331352951 0 0.40032650034539519 -0.13972272199131119 0 0.42169756570229522 -0.15672283071129131 0 0.40802316631723889 -0.13171289331352951 0 0.42169756570229522 -0.15672283071129131 0 0.43087782981676859 -0.131879285754128 0 0.44052259681213413 -0.14512254840888281 0 0.42169756570229522 -0.15672283071129131 0 0.44052259681213413 -0.14512254840888281 0 0.44011919579772352 -0.15902857640534751 0 0.42510906065580589 -0.11393180641703871 0 0.43087782981676859 -0.131879285754128 0 0.40802316631723889 -0.13171289331352951 0 0.42169756570229522 -0.15672283071129131 0 0.43087782981676859 -0.131879285754128 0 0.40802316631723889 -0.13171289331352951 0 0.46093003486481321 -0.11810563265674839 0 0.46623847963083442 -0.1374076686568538 0 0.47239045088042492 -0.13005034139104371 0 0.46093003486481321 -0.11810563265674839 0 0.45430072039358249 -0.1470470373257684 0 0.46093003486481321 -0.11810563265674839 0 0.46623847963083442 -0.1374076686568538 0 0.45430072039358249 -0.1470470373257684 0 0.46093003486481321 -0.11810563265674839 0 0.44582693855797939 -0.1311402400572215 0 0.45430072039358249 -0.1470470373257684 0 0.441730170532879 -0.1159420230490274 0 0.43087782981676859 -0.131879285754128 0 0.44582693855797939 -0.1311402400572215 0 0.43087782981676859 -0.131879285754128 0 0.44582693855797939 -0.1311402400572215 0 0.44052259681213413 -0.14512254840888281 0 0.44582693855797939 -0.1311402400572215 0 0.44052259681213413 -0.14512254840888281 0 0.45430072039358249 -0.1470470373257684 0 0.44052259681213413 -0.14512254840888281 0 0.45430072039358249 -0.1470470373257684 0 0.44011919579772352 -0.15902857640534751 0 0.46623847963083442 -0.1374076686568538 0 0.45430072039358249 -0.1470470373257684 0 0.46795215833203208 -0.14958538313512479 0 0.45430072039358249 -0.1470470373257684 0 0.46795215833203208 -0.14958538313512479 0 0.46249654728105127 -0.15875526896169859 0 0.46249654728105127 -0.15875526896169859 0 0.44767140592235177 -0.17598844199478861 0 0.4590637049386419 -0.17656280063954849 0 0.46795215833203208 -0.14958538313512479 0 0.46765797362325351 -0.16960743348544691 0 0.46249654728105127 -0.15875526896169859 0 0.46765797362325351 -0.16960743348544691 0 0.46249654728105127 -0.15875526896169859 0 0.4590637049386419 -0.17656280063954849 0 0.45430072039358249 -0.1470470373257684 0 0.46249654728105127 -0.15875526896169859 0 0.44767140592235177 -0.17598844199478861 0 0.46249654728105127 -0.15875526896169859 0 0.4590637049386419 -0.17656280063954849 0 0.45430072039358249 -0.1470470373257684 0 0.44011919579772352 -0.15902857640534751 0 0.44767140592235177 -0.17598844199478861 0 0.45430072039358249 -0.1470470373257684 0 0.44767140592235177 -0.17598844199478861 0 0.44767140592235177 -0.17598844199478861 0 0.45131049953134228 -0.18433764364674099 0 0.4590637049386419 -0.17656280063954849 0 0.43537196508735049 -0.18173276810905351 0 0.44011919579772352 -0.15902857640534751 0 0.44767140592235177 -0.17598844199478861 0 0.43389642119060762 -0.191962199940241 0 0.43537196508735049 -0.18173276810905351 0 0.44405046135624082 -0.18412940313962539 0 0.43537196508735049 -0.18173276810905351 0 0.44767140592235177 -0.17598844199478861 0 0.44405046135624082 -0.18412940313962539 0 0.44405046135624082 -0.18412940313962539 0 0.45131049953134228 -0.18433764364674099 0 0.4501360628432447 -0.19063724014234421 0 0.44767140592235177 -0.17598844199478861 0 0.44405046135624082 -0.18412940313962539 0 0.45131049953134228 -0.18433764364674099 0 0.46765797362325351 -0.16960743348544691 0 0.4590637049386419 -0.17656280063954849 0 0.45563086259623248 -0.19437033231739831 0 0.4590637049386419 -0.17656280063954849 0 0.45563086259623248 -0.19437033231739831 0 0.46765797362325351 -0.16960743348544691 0 0.45563086259623248 -0.19437033231739831 0 0.46765797362325351 -0.16960743348544691 0 0.46817453342310178 -0.17984984725849121 0 0.45563086259623248 -0.19437033231739831 0 0.45131049953134228 -0.18433764364674099 0 0.4590637049386419 -0.17656280063954849 0 0.45563086259623248 -0.19437033231739831 0 0.46817453342310178 -0.17984984725849121 0 0.47868008644015098 -0.18364062408913809 0 0.4864423059537345 -0.17561039486471769 0 0.46817453342310178 -0.17984984725849121 0 0.47868008644015098 -0.18364062408913809 0 0.47427671796452459 -0.19390449174425081 0 0.4864423059537345 -0.17561039486471769 0 0.5 -0.16076066479590659 0 0.5 -0.1885669917164324 0 0.47868008644015098 -0.18364062408913809 0 0.4864423059537345 -0.17561039486471769 0 0.5 -0.1885669917164324 0 0.4864423059537345 -0.17561039486471769 0 0.5 -0.16076066479590659 0 0.4874204893839118 -0.1629257968797283 0 0.5 -0.16076066479590659 0 0.4874204893839118 -0.1629257968797283 0 0.48836632050416018 -0.15319142364385391 0 0.46765797362325351 -0.16960743348544691 0 0.47968508465027437 -0.14484453465349531 0 0.46817453342310178 -0.17984984725849121 0 0.4864423059537345 -0.17561039486471769 0 0.47621222687475862 -0.15989320835224299 0 0.46765797362325351 -0.16960743348544691 0 0.46817453342310178 -0.17984984725849121 0 0.47621222687475862 -0.15989320835224299 0 0.4864423059537345 -0.17561039486471769 0 0.4874204893839118 -0.1629257968797283 0 0.47621222687475862 -0.15989320835224299 0 0.46817453342310178 -0.17984984725849121 0 0.47621222687475862 -0.15989320835224299 0 0.4874204893839118 -0.1629257968797283 0 0.47621222687475862 -0.15989320835224299 0 0.48836632050416018 -0.15319142364385391 0 0.46765797362325351 -0.16960743348544691 0 0.47621222687475862 -0.15989320835224299 0 0.47968508465027437 -0.14484453465349531 0 0.47621222687475862 -0.15989320835224299 0 0.48424992032641551 -0.13993656944599481 0 0.47621222687475862 -0.15989320835224299 0 0.48836632050416018 -0.15319142364385391 0 0.48424992032641551 -0.13993656944599481 0 0.46795215833203208 -0.14958538313512479 0 0.46765797362325351 -0.16960743348544691 0 0.47968508465027437 -0.14484453465349531 0 0.47621222687475862 -0.15989320835224299 0 0.47968508465027437 -0.14484453465349531 0 0.48424992032641551 -0.13993656944599481 0 0.46623847963083442 -0.1374076686568538 0 0.46795215833203208 -0.14958538313512479 0 0.47424994269801352 -0.1397372940967013 0 0.46795215833203208 -0.14958538313512479 0 0.47968508465027437 -0.14484453465349531 0 0.47424994269801352 -0.1397372940967013 0 0.47968508465027437 -0.14484453465349531 0 0.47994759956173211 -0.14051186616834291 0 0.47424994269801352 -0.1397372940967013 0 0.47968508465027437 -0.14484453465349531 0 0.48424992032641551 -0.13993656944599481 0 0.47994759956173211 -0.14051186616834291 0 0.5 -0.16076066479590659 0 0.48836632050416018 -0.15319142364385391 0 0.5 -0.13295433787538069 0 0.48836632050416018 -0.15319142364385391 0 0.5 -0.13295433787538069 0 0.48424992032641551 -0.13993656944599481 0 0.48916266477234061 -0.13224727383335569 0 0.48085855782101261 -0.13626791926353529 0 0.48424992032641551 -0.13993656944599481 0 0.5 -0.13295433787538069 0 0.48916266477234061 -0.13224727383335569 0 0.48424992032641551 -0.13993656944599481 0 0.48986304781109291 -0.1242692167884092 0 0.5 -0.13295433787538069 0 0.48916266477234061 -0.13224727383335569 0 0.48986304781109291 -0.1242692167884092 0 0.48916266477234061 -0.13224727383335569 0 0.48085855782101261 -0.13626791926353529 0 0.47499259514944292 -0.1202547269832886 0 0.48085855782101261 -0.13626791926353529 0 0.47239045088042492 -0.13005034139104371 0 0.48085855782101261 -0.13626791926353529 0 0.48424992032641551 -0.13993656944599481 0 0.47994759956173211 -0.14051186616834291 0 0.48085855782101261 -0.13626791926353529 0 0.47994759956173211 -0.14051186616834291 0 0.47424994269801352 -0.1397372940967013 0 0.48085855782101261 -0.13626791926353529 0 0.47424994269801352 -0.1397372940967013 0 0.47239045088042492 -0.13005034139104371 0 0.46623847963083442 -0.1374076686568538 0 0.47424994269801352 -0.1397372940967013 0 0.47239045088042492 -0.13005034139104371 0 0.45735248248792831 -0.2263504469462593 0 0.45606595353113982 -0.2348942090935259 0 0.45040787416373163 -0.22146407059246401 0 0.4593659812364308 -0.22004368230368379 0 0.45735248248792831 -0.2263504469462593 0 0.45040787416373163 -0.22146407059246401 0 0.4593659812364308 -0.22004368230368379 0 0.45735248248792831 -0.2263504469462593 0 0.47005683011064803 -0.22590290220369119 0 0.4593659812364308 -0.22004368230368379 0 0.46586242272604061 -0.21273545752659301 0 0.47005683011064803 -0.22590290220369119 0 0.45735248248792831 -0.2263504469462593 0 0.45606595353113982 -0.2348942090935259 0 0.47005683011064803 -0.22590290220369119 0 0.46661169077989217 -0.2415165845456661 0 0.45606595353113982 -0.2348942090935259 0 0.47005683011064803 -0.22590290220369119 0 0.46661169077989217 -0.2415165845456661 0 0.45571617873614662 -0.24946335937342859 0 0.47785808936807489 -0.24877368548012899 0 0.45571617873614662 -0.24946335937342859 0 0.47785808936807489 -0.24877368548012899 0 0.46661169077989217 -0.2415165845456661 0 0.45518121600666411 -0.24259067484840299 0 0.45571617873614662 -0.24946335937342859 0 0.46661169077989217 -0.2415165845456661 0 0.45518121600666411 -0.24259067484840299 0 0.45606595353113982 -0.2348942090935259 0 0.45571617873614662 -0.24946335937342859 0 0.43357426810421817 -0.25015303326672972 0 0.43048550082884018 -0.24614270293406881 0 0.44582088554477811 -0.24525862245079941 0 0.44233814121790038 -0.22173902575952509 0 0.45571617873614662 -0.24946335937342859 0 0.44582088554477811 -0.24525862245079941 0 0.43357426810421817 -0.25015303326672972 0 0.45518121600666411 -0.24259067484840299 0 0.45606595353113982 -0.2348942090935259 0 0.44582088554477811 -0.24525862245079941 0 0.45518121600666411 -0.24259067484840299 0 0.45571617873614662 -0.24946335937342859 0 0.44582088554477811 -0.24525862245079941 0 0.44582088554477811 -0.24525862245079941 0 0.44233814121790038 -0.22173902575952509 0 0.45040787416373163 -0.22146407059246401 0 0.44582088554477811 -0.24525862245079941 0 0.45040787416373163 -0.22146407059246401 0 0.45606595353113982 -0.2348942090935259 0 0.44582088554477811 -0.24525862245079941 0 0.45040787416373163 -0.22146407059246401 0 0.43723926749718739 -0.20471492206911249 0 0.44233814121790038 -0.22173902575952509 0 0.45499486278268447 -0.1976695187341285 0 0.45040787416373163 -0.22146407059246401 0 0.45499486278268447 -0.1976695187341285 0 0.44233814121790038 -0.22173902575952509 0 0.45040787416373163 -0.22146407059246401 0 0.45499486278268447 -0.1976695187341285 0 0.44233814121790038 -0.22173902575952509 0 0.45499486278268447 -0.1976695187341285 0 0.43723926749718739 -0.20471492206911249 0 0.44395992212319679 -0.19308347956624619 0 0.45499486278268447 -0.1976695187341285 0 0.43389642119060762 -0.191962199940241 0 0.44405046135624082 -0.18412940313962539 0 0.44395992212319679 -0.19308347956624619 0 0.43389642119060762 -0.191962199940241 0 0.43723926749718739 -0.20471492206911249 0 0.44395992212319679 -0.19308347956624619 0 0.44395992212319679 -0.19308347956624619 0 0.45499486278268447 -0.1976695187341285 0 0.45131049953134228 -0.18433764364674099 0 0.4501360628432447 -0.19063724014234421 0 0.45563086259623248 -0.19437033231739831 0 0.44395992212319679 -0.19308347956624619 0 0.4501360628432447 -0.19063724014234421 0 0.45499486278268447 -0.1976695187341285 0 0.44405046135624082 -0.18412940313962539 0 0.44395992212319679 -0.19308347956624619 0 0.4501360628432447 -0.19063724014234421 0 0.46817453342310178 -0.17984984725849121 0 0.46013683997144489 -0.19980648616473931 0 0.47427671796452459 -0.19390449174425081 0 0.46817453342310178 -0.17984984725849121 0 0.46013683997144489 -0.19980648616473931 0 0.46817453342310178 -0.17984984725849121 0 0.45563086259623248 -0.19437033231739831 0 0.46013683997144489 -0.19980648616473931 0 0.4501360628432447 -0.19063724014234421 0 0.45563086259623248 -0.19437033231739831 0 0.45499486278268447 -0.1976695187341285 0 0.45499486278268447 -0.1976695187341285 0 0.46013683997144489 -0.19980648616473931 0 0.45563086259623248 -0.19437033231739831 0 0.45499486278268447 -0.1976695187341285 0 0.45563086259623248 -0.19437033231739831 0 0.45499486278268447 -0.1976695187341285 0 0.46013683997144489 -0.19980648616473931 0 0.46013683997144489 -0.19980648616473931 0 0.46586242272604061 -0.21273545752659301 0 0.48006841998572208 -0.20808990240084899 0 0.45040787416373163 -0.22146407059246401 0 0.45499486278268447 -0.1976695187341285 0 0.4548395438527213 -0.21295904373074681 0 0.4593659812364308 -0.22004368230368379 0 0.45040787416373163 -0.22146407059246401 0 0.4548395438527213 -0.21295904373074681 0 0.4593659812364308 -0.22004368230368379 0 0.4548395438527213 -0.21295904373074681 0 0.46586242272604061 -0.21273545752659301 0 0.46013683997144489 -0.19980648616473931 0 0.4548395438527213 -0.21295904373074681 0 0.45499486278268447 -0.1976695187341285 0 0.46013683997144489 -0.19980648616473931 0 0.4548395438527213 -0.21295904373074681 0 0.46013683997144489 -0.19980648616473931 0 0.4548395438527213 -0.21295904373074681 0 0.46586242272604061 -0.21273545752659301 0 0.46013683997144489 -0.19980648616473931 0 0.48006841998572208 -0.20808990240084899 0 0.46586242272604061 -0.21273545752659301 0 0.48006841998572208 -0.20808990240084899 0 0.47005683011064803 -0.22590290220369119 0 0.46013683997144489 -0.19980648616473931 0 0.48006841998572208 -0.20808990240084899 0 0.47427671796452459 -0.19390449174425081 0 0.47868008644015098 -0.18364062408913809 0 0.47427671796452459 -0.19390449174425081 0 0.5 -0.1885669917164324 0 0.48006841998572208 -0.20808990240084899 0 0.47427671796452459 -0.19390449174425081 0 0.5 -0.1885669917164324 0 0.48006841998572208 -0.20808990240084899 0 0.5 -0.1885669917164324 0 0.49999999999999961 -0.21637331863695819 0 0.48006841998572208 -0.20808990240084899 0 0.49999999999999961 -0.21637331863695819 0 0.48006841998572208 -0.20808990240084899 0 0.49999999999999961 -0.21637331863695819 0 0.4862545149737133 -0.22430099187442659 0 0.49999999999999961 -0.21637331863695819 0 0.5 -0.2322286651118938 0 0.4862545149737133 -0.22430099187442659 0 0.5 -0.2322286651118938 0 0.4862545149737133 -0.22430099187442659 0 0.48731543898686108 -0.23834171508702701 0 0.4862545149737133 -0.22430099187442659 0 0.47005683011064803 -0.22590290220369119 0 0.48731543898686108 -0.23834171508702701 0 0.48006841998572208 -0.20808990240084899 0 0.4862545149737133 -0.22430099187442659 0 0.47005683011064803 -0.22590290220369119 0 0.46661169077989217 -0.2415165845456661 0 0.47005683011064803 -0.22590290220369119 0 0.48731543898686108 -0.23834171508702701 0 0.46661169077989217 -0.2415165845456661 0 0.47785808936807489 -0.24877368548012899 0 0.48731543898686108 -0.23834171508702701 0 0.47785808936807489 -0.24877368548012899 0 0.50000000000000333 -0.24808401158682941 0 0.48731543898686108 -0.23834171508702701 0 0.5 -0.2322286651118938 0 0.50000000000000333 -0.24808401158682941 0 0.48731543898686108 -0.23834171508702701 0 0.47785808936807489 -0.24877368548012899 0 0.50000000000000333 -0.24808401158682941 0 0.50000000000000333 -0.24808401158682941 0 0.48656724266228879 -0.26126228076250718 0 0.5 -0.26842994380811291 0 0.47785808936807489 -0.24877368548012899 0 0.50000000000000333 -0.24808401158682941 0 0.48656724266228879 -0.26126228076250718 0 0.5 -0.26842994380811291 0 0.48208681399926079 -0.27581357356502773 0 0.50000000000000111 -0.28877587602939642 0 0.48656724266228879 -0.26126228076250718 0 0.5 -0.26842994380811291 0 0.48208681399926079 -0.27581357356502773 0 0.48208681399926079 -0.27581357356502773 0 0.46068671901070851 -0.28535474144655731 0 0.48208681399926079 -0.27581357356502773 0 0.46768981413575761 -0.2649492641288182 0 0.46068671901070851 -0.28535474144655731 0 0.48656724266228879 -0.26126228076250718 0 0.48208681399926079 -0.27581357356502773 0 0.46768981413575761 -0.2649492641288182 0 0.47785808936807489 -0.24877368548012899 0 0.48656724266228879 -0.26126228076250718 0 0.46768981413575761 -0.2649492641288182 0 0.45571617873614662 -0.24946335937342859 0 0.47785808936807489 -0.24877368548012899 0 0.46768981413575761 -0.2649492641288182 0 0.45571617873614662 -0.24946335937342859 0 0.46768981413575761 -0.2649492641288182 0 0.44713049355746243 -0.26775388735664418 0 0.46768981413575761 -0.2649492641288182 0 0.44713049355746243 -0.26775388735664418 0 0.46068671901070851 -0.28535474144655731 0 0.44713049355746243 -0.26775388735664418 0 0.46068671901070851 -0.28535474144655731 0 0.45571617873614662 -0.24946335937342859 0 0.44713049355746243 -0.26775388735664418 0 0.43357426810421817 -0.25015303326672972 0 0.44713049355746243 -0.26775388735664418 0 0.43357426810421817 -0.25015303326672972 0 0.43808872290812301 -0.29542998993102848 0 0.44582747314286902 -0.31276753443956201 0 0.43031487288344161 -0.31703067604683871 0 0.43808872290812301 -0.29542998993102848 0 0.45932525709009708 -0.30194153040829069 0 0.44582747314286902 -0.31276753443956201 0 0.43808872290812301 -0.29542998993102848 0 0.46068671901070851 -0.28535474144655731 0 0.45932525709009708 -0.30194153040829069 0 0.43808872290812301 -0.29542998993102848 0 0.46068671901070851 -0.28535474144655731 0 0.44713049355746243 -0.26775388735664418 0 0.43808872290812301 -0.29542998993102848 0 0.46068671901070851 -0.28535474144655731 0 0.46068671901070851 -0.28535474144655731 0 0.47654280981399377 -0.30594164756046982 0 0.46068671901070851 -0.28535474144655731 0 0.45932525709009708 -0.30194153040829069 0 0.47654280981399377 -0.30594164756046982 0 0.45932525709009708 -0.30194153040829069 0 0.46020140703816609 -0.31790014661013011 0 0.44582747314286902 -0.31276753443956201 0 0.47654280981399377 -0.30594164756046982 0 0.46020140703816609 -0.31790014661013011 0 0.45932525709009708 -0.30194153040829069 0 0.47654280981399377 -0.30594164756046982 0 0.46020140703816609 -0.31790014661013011 0 0.47654280981399377 -0.30594164756046982 0 0.48452590656705868 -0.31630657706248883 0 0.48208681399926079 -0.27581357356502773 0 0.46068671901070851 -0.28535474144655731 0 0.47654280981399377 -0.30594164756046982 0 0.48208681399926079 -0.27581357356502773 0 0.47654280981399377 -0.30594164756046982 0 0.50000000000000111 -0.28877587602939642 0 0.50000000000000111 -0.28877587602939642 0 0.5 -0.31627016595707702 0 0.48452590656705868 -0.31630657706248883 0 0.47654280981399377 -0.30594164756046982 0 0.50000000000000111 -0.28877587602939642 0 0.47654280981399377 -0.30594164756046982 0 0.50000000000000111 -0.28877587602939642 0 0.48452590656705868 -0.31630657706248883 0 0.5 -0.31627016595707702 0 0.48452590656705868 -0.31630657706248883 0 0.4798244965011923 -0.33203805400226027 0 0.5 -0.31627016595707702 0 0.4798244965011923 -0.33203805400226027 0 0.5 -0.34376445588475768 0 0.4798244965011923 -0.33203805400226027 0 0.46847105179670839 -0.34389899480205388 0 0.46020140703816609 -0.31790014661013011 0 0.47654280981399377 -0.30594164756046982 0 0.47527365498010271 -0.31804660630883719 0 0.46020140703816609 -0.31790014661013011 0 0.48452590656705868 -0.31630657706248883 0 0.4798244965011923 -0.33203805400226027 0 0.47527365498010271 -0.31804660630883719 0 0.4798244965011923 -0.33203805400226027 0 0.47527365498010271 -0.31804660630883719 0 0.46020140703816609 -0.31790014661013011 0 0.47654280981399377 -0.30594164756046982 0 0.48452590656705868 -0.31630657706248883 0 0.47527365498010271 -0.31804660630883719 0 0.49999999999999711 -0.37125874581243851 0 0.48806042456369142 -0.35612155968098341 0 0.47674069655525092 -0.3698978429939776 0 0.4798244965011923 -0.33203805400226027 0 0.48806042456369142 -0.35612155968098341 0 0.5 -0.34376445588475768 0 0.49999999999999711 -0.37125874581243851 0 0.48806042456369142 -0.35612155968098341 0 0.5 -0.34376445588475768 0 0.4798244965011923 -0.33203805400226027 0 0.48806042456369142 -0.35612155968098341 0 0.46847105179670839 -0.34389899480205388 0 0.48806042456369142 -0.35612155968098341 0 0.47674069655525092 -0.3698978429939776 0 0.46847105179670839 -0.34389899480205388 0 0.47674069655525092 -0.3698978429939776 0 0.46847105179670839 -0.34389899480205388 0 0.47674069655525092 -0.3698978429939776 0 0.45392603783110008 -0.37108838658624999 0 0.46847105179670839 -0.34389899480205388 0 0.45392603783110008 -0.37108838658624999 0 0.46847105179670839 -0.34389899480205388 0 0.44672977628043381 -0.35017364189741718 0 0.45392603783110008 -0.37108838658624999 0 0.44672977628043381 -0.35017364189741718 0 0.42785183481717409 -0.36595316276467199 0 0.45392603783110008 -0.37108838658624999 0 0.42785183481717409 -0.36595316276467199 0 0.43242581624588322 -0.38730115333965082 0 0.46847105179670839 -0.34389899480205388 0 0.46020140703816609 -0.31790014661013011 0 0.46847105179670839 -0.34389899480205388 0 0.46020140703816609 -0.31790014661013011 0 0.45431986664039198 -0.33607192194780172 0 0.46847105179670839 -0.34389899480205388 0 0.44672977628043381 -0.35017364189741718 0 0.45431986664039198 -0.33607192194780172 0 0.44672977628043381 -0.35017364189741718 0 0.44127539957872802 -0.33175003730325792 0 0.42823689835664952 -0.34636857782623809 0 0.44672977628043381 -0.35017364189741718 0 0.45431986664039198 -0.33607192194780172 0 0.44127539957872802 -0.33175003730325792 0 0.46020140703816609 -0.31790014661013011 0 0.45431986664039198 -0.33607192194780172 0 0.44127539957872802 -0.33175003730325792 0 0.44127539957872802 -0.33175003730325792 0 0.44582747314286902 -0.31276753443956201 0 0.43031487288344161 -0.31703067604683871 0 0.46020140703816609 -0.31790014661013011 0 0.44127539957872802 -0.33175003730325792 0 0.46020140703816609 -0.31790014661013011 0 0.44127539957872802 -0.33175003730325792 0 0.44582747314286902 -0.31276753443956201 0 0.44127539957872802 -0.33175003730325792 0 0.43031487288344161 -0.31703067604683871 0 0.41707429101309201 -0.3297381436533145 0 0.44127539957872802 -0.33175003730325792 0 0.41707429101309201 -0.3297381436533145 0 0.42823689835664952 -0.34636857782623809 0 0.41707429101309201 -0.3297381436533145 0 0.42823689835664952 -0.34636857782623809 0 0.40866613474490449 -0.35252068697126149 0 0.41707429101309201 -0.3297381436533145 0 0.39289273070295128 -0.31558048689996993 0 0.41549072680553711 -0.30550523841549909 0 0.43031487288344161 -0.31703067604683871 0 0.41707429101309201 -0.3297381436533145 0 0.41549072680553711 -0.30550523841549909 0 0.44672977628043381 -0.35017364189741718 0 0.42785183481717409 -0.36595316276467199 0 0.42823689835664952 -0.34636857782623809 0 0.42785183481717409 -0.36595316276467199 0 0.40866613474490449 -0.35252068697126149 0 0.42785183481717409 -0.36595316276467199 0 0.42823689835664952 -0.34636857782623809 0 0.40866613474490449 -0.35252068697126149 0 0.42785183481717409 -0.36595316276467199 0 0.4111933065081313 -0.36805982019164402 0 0.41287057948892703 -0.38518927514730122 0 0.42785183481717409 -0.36595316276467199 0 0.40866613474490449 -0.35252068697126149 0 0.4111933065081313 -0.36805982019164402 0 0.39290052262193498 -0.35565000096393579 0 0.38249634533461108 -0.36797477098799591 0 0.39650622041158878 -0.3765742856902482 0 0.4111933065081313 -0.36805982019164402 0 0.39290052262193498 -0.35565000096393579 0 0.39650622041158878 -0.3765742856902482 0 0.40866613474490449 -0.35252068697126149 0 0.39290052262193498 -0.35565000096393579 0 0.38948043467263488 -0.33908821117785082 0 0.40866613474490449 -0.35252068697126149 0 0.38948043467263488 -0.33908821117785082 0 0.40866613474490449 -0.35252068697126149 0 0.4111933065081313 -0.36805982019164402 0 0.39290052262193498 -0.35565000096393579 0 0.39290052262193498 -0.35565000096393579 0 0.37818146540529818 -0.34934783795600571 0 0.38249634533461108 -0.36797477098799591 0 0.39290052262193498 -0.35565000096393579 0 0.37818146540529818 -0.34934783795600571 0 0.38948043467263488 -0.33908821117785082 0 0.37818146540529818 -0.34934783795600571 0 0.38249634533461108 -0.36797477098799591 0 0.37305712147220338 -0.36102055586376819 0 0.41707429101309201 -0.3297381436533145 0 0.40866613474490449 -0.35252068697126149 0 0.38948043467263488 -0.33908821117785082 0 0.41707429101309201 -0.3297381436533145 0 0.39289273070295128 -0.31558048689996993 0 0.38948043467263488 -0.33908821117785082 0 0.37818146540529818 -0.34934783795600571 0 0.38948043467263488 -0.33908821117785082 0 0.37212478857772979 -0.33864880005647208 0 0.38948043467263488 -0.33908821117785082 0 0.37029473460036533 -0.32565573538444043 0 0.38948043467263488 -0.33908821117785082 0 0.37029473460036533 -0.32565573538444043 0 0.37212478857772979 -0.33864880005647208 0 0.39289273070295128 -0.31558048689996993 0 0.38064079273778262 -0.31288188218018531 0 0.37029473460036533 -0.32565573538444043 0 0.39289273070295128 -0.31558048689996993 0 0.37029473460036533 -0.32565573538444043 0 0.39289273070295128 -0.31558048689996993 0 0.38948043467263488 -0.33908821117785082 0 0.37029473460036533 -0.32565573538444043 0 0.38064079273778262 -0.31288188218018531 0 0.37804720550635529 -0.30651687721429538 0 0.38870969627640167 -0.30439929484627132 0 0.38064079273778262 -0.31288188218018531 0 0.37804720550635529 -0.30651687721429538 0 0.37325959660283969 -0.31225701655594912 0 0.37804720550635529 -0.30651687721429538 0 0.38032829646105881 -0.29636137241382532 0 0.36761344479238373 -0.29508033606196837 0 0.37804720550635529 -0.30651687721429538 0 0.38870969627640167 -0.30439929484627132 0 0.38032829646105881 -0.29636137241382532 0 0.38870969627640167 -0.30439929484627132 0 0.3879772147484597 -0.29176707856862888 0 0.38032829646105881 -0.29636137241382532 0 0.39289273070295128 -0.31558048689996993 0 0.38064079273778262 -0.31288188218018531 0 0.38870969627640167 -0.30439929484627132 0 0.39289273070295128 -0.31558048689996993 0 0.39985527598894161 -0.30920798579428682 0 0.41549072680553711 -0.30550523841549909 0 0.39985527598894161 -0.30920798579428682 0 0.39681295496079538 -0.29611275996065012 0 0.40939030264251791 -0.28957609748361951 0 0.39985527598894161 -0.30920798579428682 0 0.40939030264251791 -0.28957609748361951 0 0.39289273070295128 -0.31558048689996993 0 0.41549072680553711 -0.30550523841549909 0 0.39289273070295128 -0.31558048689996993 0 0.38870969627640167 -0.30439929484627132 0 0.39985527598894161 -0.30920798579428682 0 0.38870969627640167 -0.30439929484627132 0 0.39681295496079538 -0.29611275996065012 0 0.3879772147484597 -0.29176707856862888 0 0.38870969627640167 -0.30439929484627132 0 0.39985527598894161 -0.30920798579428682 0 0.39681295496079538 -0.29611275996065012 0 0.39922652050867191 -0.28295197323892363 0 0.39681295496079538 -0.29611275996065012 0 0.40939030264251791 -0.28957609748361951 0 0.39922652050867191 -0.28295197323892363 0 0.39681295496079538 -0.29611275996065012 0 0.3879772147484597 -0.29176707856862888 0 0.39922652050867191 -0.28295197323892363 0 0.3879772147484597 -0.29176707856862888 0 0.38840358504398731 -0.28029486931936831 0 0.3879772147484597 -0.29176707856862888 0 0.37929392098169401 -0.28404327537796259 0 0.38840358504398731 -0.28029486931936831 0 0.38032829646105881 -0.29636137241382532 0 0.37929392098169401 -0.28404327537796259 0 0.36761344479238373 -0.29508033606196837 0 0.3879772147484597 -0.29176707856862888 0 0.38032829646105881 -0.29636137241382532 0 0.37929392098169401 -0.28404327537796259 0 0.37929392098169401 -0.28404327537796259 0 0.38326599173650672 -0.27147868498013239 0 0.3725796289452375 -0.26579697317357759 0 0.37929392098169401 -0.28404327537796259 0 0.38326599173650672 -0.27147868498013239 0 0.38840358504398731 -0.28029486931936831 0 0.38326599173650672 -0.27147868498013239 0 0.38840358504398731 -0.28029486931936831 0 0.39544519547575041 -0.26880031542545191 0 0.37754581309809132 -0.23651361028518689 0 0.3725796289452375 -0.26579697317357759 0 0.37754581309809132 -0.23651361028518689 0 0.3871149211879113 -0.25548270742864421 0 0.3725796289452375 -0.26579697317357759 0 0.38326599173650672 -0.27147868498013239 0 0.3871149211879113 -0.25548270742864421 0 0.39544519547575041 -0.26880031542545191 0 0.38326599173650672 -0.27147868498013239 0 0.3871149211879113 -0.25548270742864421 0 0.3725796289452375 -0.26579697317357759 0 0.3871149211879113 -0.25548270742864421 0 0.40207495352916539 -0.25113417058953519 0 0.39544519547575041 -0.26880031542545191 0 0.40207495352916539 -0.25113417058953519 0 0.39544519547575041 -0.26880031542545191 0 0.41892532929609411 -0.26994420917295231 0 0.39922652050867191 -0.28295197323892363 0 0.39544519547575041 -0.26880031542545191 0 0.41892532929609411 -0.26994420917295231 0 0.39922652050867191 -0.28295197323892363 0 0.38840358504398731 -0.28029486931936831 0 0.39544519547575041 -0.26880031542545191 0 0.41892532929609411 -0.26994420917295231 0 0.40939030264251791 -0.28957609748361951 0 0.41892532929609411 -0.26994420917295231 0 0.42674472615619141 -0.28201696019190231 0 0.40939030264251791 -0.28957609748361951 0 0.39922652050867191 -0.28295197323892363 0 0.41892532929609411 -0.26994420917295231 0 0.40939030264251791 -0.28957609748361951 0 0.40207495352916539 -0.25113417058953519 0 0.41892532929609411 -0.26994420917295231 0 0.42846035594967069 -0.25031232086228522 0 0.40207495352916539 -0.25113417058953519 0 0.42846035594967069 -0.25031232086228522 0 0.44713049355746243 -0.26775388735664418 0 0.4314427817274139 -0.26389233879167029 0 0.43357426810421817 -0.25015303326672972 0 0.41892532929609411 -0.26994420917295231 0 0.42846035594967069 -0.25031232086228522 0 0.41892532929609411 -0.26994420917295231 0 0.42846035594967069 -0.25031232086228522 0 0.4314427817274139 -0.26389233879167029 0 0.42846035594967069 -0.25031232086228522 0 0.4314427817274139 -0.26389233879167029 0 0.43357426810421817 -0.25015303326672972 0 0.42846035594967069 -0.25031232086228522 0 0.43357426810421817 -0.25015303326672972 0 0.41892532929609411 -0.26994420917295231 0 0.4314427817274139 -0.26389233879167029 0 0.42674472615619141 -0.28201696019190231 0 0.44713049355746243 -0.26775388735664418 0 0.4314427817274139 -0.26389233879167029 0 0.42674472615619141 -0.28201696019190231 0 0.43808872290812301 -0.29542998993102848 0 0.42674472615619141 -0.28201696019190231 0 0.41549072680553711 -0.30550523841549909 0 0.44713049355746243 -0.26775388735664418 0 0.43808872290812301 -0.29542998993102848 0 0.42674472615619141 -0.28201696019190231 0 0.43808872290812301 -0.29542998993102848 0 0.43031487288344161 -0.31703067604683871 0 0.41549072680553711 -0.30550523841549909 0 0.43808872290812301 -0.29542998993102848 0 0.41549072680553711 -0.30550523841549909 0 0.39985527598894161 -0.30920798579428682 0 0.41549072680553711 -0.30550523841549909 0 0.40939030264251791 -0.28957609748361951 0 0.42674472615619141 -0.28201696019190231 0 0.41549072680553711 -0.30550523841549909 0 0.40939030264251791 -0.28957609748361951 0 0.43773802119989941 -0.49999999999999978 0 0.45890943729545802 -0.4823892052391901 0 0.4796611806106722 -0.48718440019654963 0 0.43773802119989941 -0.49999999999999978 0 0.44535189907423273 -0.48425652050154361 0 0.43773802119989941 -0.49999999999999978 0 0.44535189907423273 -0.48425652050154361 0 0.45890943729545802 -0.4823892052391901 0 0.43920548674920379 -0.47249175324936749 0 0.44535189907423273 -0.48425652050154361 0 0.45296577694856682 -0.46851304100308783 0 0.43920548674920379 -0.47249175324936749 0 0.44535189907423273 -0.48425652050154361 0 0.42866409193048188 -0.47676758270227471 0 0.44535189907423273 -0.48425652050154361 0 0.45589009982111051 -0.4775459799915327 0 0.45296577694856682 -0.46851304100308783 0 0.44535189907423273 -0.48425652050154361 0 0.45296577694856682 -0.46851304100308783 0 0.45589009982111051 -0.4775459799915327 0 0.45890943729545802 -0.4823892052391901 0 0.46145872075250199 -0.4714816097570898 0 0.44535189907423273 -0.48425652050154361 0 0.45589009982111051 -0.4775459799915327 0 0.45890943729545802 -0.4823892052391901 0 0.45890943729545802 -0.4823892052391901 0 0.46145872075250199 -0.4714816097570898 0 0.47563876839417468 -0.4748936591889994 0 0.46145872075250199 -0.4714816097570898 0 0.45296577694856682 -0.46851304100308783 0 0.45589009982111051 -0.4775459799915327 0 0.46145872075250199 -0.4714816097570898 0 0.45296577694856682 -0.46851304100308783 0 0.43773802119989941 -0.49999999999999978 0 0.4796611806106722 -0.48718440019654963 0 0.5 -0.5 0 0.4796611806106722 -0.48718440019654963 0 0.5 -0.5 0 0.5 -0.47026069904804169 0 0.5 -0.47026069904804169 0 0.47563876839417468 -0.4748936591889994 0 0.47905351322328699 -0.46315238170412548 0 0.4796611806106722 -0.48718440019654963 0 0.5 -0.47026069904804169 0 0.47563876839417468 -0.4748936591889994 0 0.46145872075250199 -0.4714816097570898 0 0.47563876839417468 -0.4748936591889994 0 0.47905351322328699 -0.46315238170412548 0 0.45890943729545802 -0.4823892052391901 0 0.4796611806106722 -0.48718440019654963 0 0.47563876839417468 -0.4748936591889994 0 0.47905351322328699 -0.46315238170412548 0 0.45899603635761982 -0.45604406436020939 0 0.47905351322328699 -0.46315238170412548 0 0.4788951805990147 -0.44564391983896778 0 0.45899603635761982 -0.45604406436020939 0 0.5 -0.47026069904804169 0 0.47905351322328699 -0.46315238170412548 0 0.5 -0.44373220895607401 0 0.5 -0.47026069904804169 0 0.47905351322328699 -0.46315238170412548 0 0.5 -0.44373220895607401 0 0.4788951805990147 -0.44564391983896778 0 0.48552804520920678 -0.42799216931292611 0 0.47905351322328699 -0.46315238170412548 0 0.5 -0.44373220895607401 0 0.4788951805990147 -0.44564391983896778 0 0.4788951805990147 -0.44564391983896778 0 0.45899603635761982 -0.45604406436020939 0 0.46924702726821282 -0.43484773472326599 0 0.45899603635761982 -0.45604406436020939 0 0.46924702726821282 -0.43484773472326599 0 0.45899603635761982 -0.45604406436020939 0 0.44838303037477362 -0.43447900987216292 0 0.46924702726821282 -0.43484773472326599 0 0.46145872075250199 -0.4714816097570898 0 0.47905351322328699 -0.46315238170412548 0 0.45899603635761982 -0.45604406436020939 0 0.46145872075250199 -0.4714816097570898 0 0.45899603635761982 -0.45604406436020939 0 0.45296577694856682 -0.46851304100308783 0 0.45899603635761982 -0.45604406436020939 0 0.45296577694856682 -0.46851304100308783 0 0.44562172027540892 -0.45801600689332289 0 0.45296577694856682 -0.46851304100308783 0 0.42984017904353489 -0.46042986879056458 0 0.43920548674920379 -0.47249175324936749 0 0.45296577694856682 -0.46851304100308783 0 0.42984017904353489 -0.46042986879056458 0 0.44562172027540892 -0.45801600689332289 0 0.43764883001816302 -0.44847867026387339 0 0.42984017904353489 -0.46042986879056458 0 0.45899603635761982 -0.45604406436020939 0 0.44562172027540892 -0.45801600689332289 0 0.45296577694856682 -0.46851304100308783 0 0.45296577694856682 -0.46851304100308783 0 0.42984017904353489 -0.46042986879056458 0 0.45899603635761982 -0.45604406436020939 0 0.44562172027540892 -0.45801600689332289 0 0.43764883001816302 -0.44847867026387339 0 0.45899603635761982 -0.45604406436020939 0 0.43764883001816302 -0.44847867026387339 0 0.44838303037477362 -0.43447900987216292 0 0.43764883001816302 -0.44847867026387339 0 0.44838303037477362 -0.43447900987216292 0 0.43199803478474752 -0.43480066315574151 0 0.45899603635761982 -0.45604406436020939 0 0.43764883001816302 -0.44847867026387339 0 0.44838303037477362 -0.43447900987216292 0 0.43524810038533429 -0.42324892749070769 0 0.43199803478474752 -0.43480066315574151 0 0.44838303037477362 -0.43447900987216292 0 0.45481320319103757 -0.41743251132042969 0 0.43524810038533429 -0.42324892749070769 0 0.45481320319103757 -0.41743251132042969 0 0.43477646914432833 -0.40550992295969079 0 0.43524810038533429 -0.42324892749070769 0 0.45481320319103757 -0.41743251132042969 0 0.46680969583490778 -0.41274858841526157 0 0.46924702726821282 -0.43484773472326599 0 0.45481320319103757 -0.41743251132042969 0 0.46680969583490778 -0.41274858841526157 0 0.46697148891275431 -0.40002921638500172 0 0.44838303037477362 -0.43447900987216292 0 0.45481320319103757 -0.41743251132042969 0 0.46924702726821282 -0.43484773472326599 0 0.5 -0.44373220895607401 0 0.48552804520920678 -0.42799216931292611 0 0.5 -0.40208557795999961 0 0.46924702726821282 -0.43484773472326599 0 0.48552804520920678 -0.42799216931292611 0 0.47949801817880677 -0.41365140508632309 0 0.4788951805990147 -0.44564391983896778 0 0.46924702726821282 -0.43484773472326599 0 0.48552804520920678 -0.42799216931292611 0 0.46924702726821282 -0.43484773472326599 0 0.47949801817880677 -0.41365140508632309 0 0.48552804520920678 -0.42799216931292611 0 0.47949801817880677 -0.41365140508632309 0 0.5 -0.40208557795999961 0 0.46680969583490778 -0.41274858841526157 0 0.46924702726821282 -0.43484773472326599 0 0.47949801817880677 -0.41365140508632309 0 0.46680969583490778 -0.41274858841526157 0 0.47949801817880677 -0.41365140508632309 0 0.47485796399023311 -0.40328323013715978 0 0.47949801817880677 -0.41365140508632309 0 0.47485796399023311 -0.40328323013715978 0 0.48501034131379339 -0.39589669118590137 0 0.46680969583490778 -0.41274858841526157 0 0.47485796399023311 -0.40328323013715978 0 0.46697148891275431 -0.40002921638500172 0 0.47485796399023311 -0.40328323013715978 0 0.47548297721973709 -0.39513831255209197 0 0.46697148891275431 -0.40002921638500172 0 0.47548297721973709 -0.39513831255209197 0 0.47310568845609052 -0.38536867418522291 0 0.46697148891275431 -0.40002921638500172 0 0.47548297721973709 -0.39513831255209197 0 0.48501034131379339 -0.39589669118590137 0 0.47310568845609052 -0.38536867418522291 0 0.47485796399023311 -0.40328323013715978 0 0.47548297721973709 -0.39513831255209197 0 0.48501034131379339 -0.39589669118590137 0 0.47949801817880677 -0.41365140508632309 0 0.48974900908940078 -0.39245507544938019 0 0.47949801817880677 -0.41365140508632309 0 0.5 -0.40208557795999961 0 0.48974900908940078 -0.39245507544938019 0 0.47949801817880677 -0.41365140508632309 0 0.48974900908940078 -0.39245507544938019 0 0.48501034131379339 -0.39589669118590137 0 0.49999999999999711 -0.37125874581243851 0 0.5 -0.40208557795999961 0 0.48974900908940078 -0.39245507544938019 0 0.49999999999999711 -0.37125874581243851 0 0.47674069655525092 -0.3698978429939776 0 0.48974900908940078 -0.39245507544938019 0 0.49999999999999711 -0.37125874581243851 0 0.48974900908940078 -0.39245507544938019 0 0.47674069655525092 -0.3698978429939776 0 0.48501034131379339 -0.39589669118590137 0 0.47310568845609052 -0.38536867418522291 0 0.47674069655525092 -0.3698978429939776 0 0.48974900908940078 -0.39245507544938019 0 0.48501034131379339 -0.39589669118590137 0 0.47674069655525092 -0.3698978429939776 0 0.48501034131379339 -0.39589669118590137 0 0.45392603783110008 -0.37108838658624999 0 0.47310568845609052 -0.38536867418522291 0 0.45155556879862868 -0.3944603689424081 0 0.47674069655525092 -0.3698978429939776 0 0.45392603783110008 -0.37108838658624999 0 0.47310568845609052 -0.38536867418522291 0 0.45481320319103757 -0.41743251132042969 0 0.46697148891275431 -0.40002921638500172 0 0.45155556879862868 -0.3944603689424081 0 0.47310568845609052 -0.38536867418522291 0 0.46697148891275431 -0.40002921638500172 0 0.45155556879862868 -0.3944603689424081 0 0.45481320319103757 -0.41743251132042969 0 0.45155556879862868 -0.3944603689424081 0 0.43477646914432833 -0.40550992295969079 0 0.45155556879862868 -0.3944603689424081 0 0.43242581624588322 -0.38730115333965082 0 0.43477646914432833 -0.40550992295969079 0 0.45392603783110008 -0.37108838658624999 0 0.45155556879862868 -0.3944603689424081 0 0.43242581624588322 -0.38730115333965082 0 0.42785183481717409 -0.36595316276467199 0 0.43242581624588322 -0.38730115333965082 0 0.41287057948892703 -0.38518927514730122 0 0.43242581624588322 -0.38730115333965082 0 0.43477646914432833 -0.40550992295969079 0 0.41749483707519452 -0.40538692165420498 0 0.43242581624588322 -0.38730115333965082 0 0.41749483707519452 -0.40538692165420498 0 0.41287057948892703 -0.38518927514730122 0 0.41749483707519452 -0.40538692165420498 0 0.41287057948892703 -0.38518927514730122 0 0.40336078828097621 -0.40362515372992341 0 0.4111933065081313 -0.36805982019164402 0 0.41287057948892703 -0.38518927514730122 0 0.39650622041158878 -0.3765742856902482 0 0.41287057948892703 -0.38518927514730122 0 0.39650622041158878 -0.3765742856902482 0 0.39372170841196569 -0.3925803949292499 0 0.38249634533461108 -0.36797477098799591 0 0.39650622041158878 -0.3765742856902482 0 0.37900977316023637 -0.39091548517495972 0 0.39650622041158878 -0.3765742856902482 0 0.37900977316023637 -0.39091548517495972 0 0.39372170841196569 -0.3925803949292499 0 0.38249634533461108 -0.36797477098799591 0 0.37900977316023637 -0.39091548517495972 0 0.36724772315424481 -0.38247146420994571 0 0.37900977316023637 -0.39091548517495972 0 0.39372170841196569 -0.3925803949292499 0 0.37842665921942997 -0.40887405987875969 0 0.37900977316023637 -0.39091548517495972 0 0.37842665921942997 -0.40887405987875969 0 0.36824105802713031 -0.4000969440192842 0 0.39372170841196569 -0.3925803949292499 0 0.39194747191700757 -0.41402513481906722 0 0.37842665921942997 -0.40887405987875969 0 0.41287057948892703 -0.38518927514730122 0 0.39372170841196569 -0.3925803949292499 0 0.40336078828097621 -0.40362515372992341 0 0.39372170841196569 -0.3925803949292499 0 0.40336078828097621 -0.40362515372992341 0 0.39194747191700757 -0.41402513481906722 0 0.40336078828097621 -0.40362515372992341 0 0.39194747191700757 -0.41402513481906722 0 0.41036500379586138 -0.42217021861448573 0 0.39194747191700757 -0.41402513481906722 0 0.37842665921942997 -0.40887405987875969 0 0.3754845505291648 -0.42231636227288599 0 0.39194747191700757 -0.41402513481906722 0 0.38276612650569841 -0.43173139982273478 0 0.39495441733924969 -0.43334788207120151 0 0.39194747191700757 -0.41402513481906722 0 0.3754845505291648 -0.42231636227288599 0 0.38276612650569841 -0.43173139982273478 0 0.38276612650569841 -0.43173139982273478 0 0.39495441733924969 -0.43334788207120151 0 0.38358898323347101 -0.44426352436551808 0 0.39495441733924969 -0.43334788207120151 0 0.41630162367870638 -0.44091327616753739 0 0.39194747191700757 -0.41402513481906722 0 0.39495441733924969 -0.43334788207120151 0 0.41036500379586138 -0.42217021861448573 0 0.41036500379586138 -0.42217021861448573 0 0.42295569064062533 -0.42699492369753778 0 0.41630162367870638 -0.44091327616753739 0 0.39495441733924969 -0.43334788207120151 0 0.41036500379586138 -0.42217021861448573 0 0.41630162367870638 -0.44091327616753739 0 0.41749483707519452 -0.40538692165420498 0 0.40336078828097621 -0.40362515372992341 0 0.41036500379586138 -0.42217021861448573 0 0.41749483707519452 -0.40538692165420498 0 0.41036500379586138 -0.42217021861448573 0 0.42458756094721539 -0.41613405657310448 0 0.41036500379586138 -0.42217021861448573 0 0.42458756094721539 -0.41613405657310448 0 0.42295569064062533 -0.42699492369753778 0 0.43477646914432833 -0.40550992295969079 0 0.41749483707519452 -0.40538692165420498 0 0.42458756094721539 -0.41613405657310448 0 0.43477646914432833 -0.40550992295969079 0 0.42458756094721539 -0.41613405657310448 0 0.43524810038533429 -0.42324892749070769 0 0.43199803478474752 -0.43480066315574151 0 0.42295569064062533 -0.42699492369753778 0 0.41630162367870638 -0.44091327616753739 0 0.43524810038533429 -0.42324892749070769 0 0.43199803478474752 -0.43480066315574151 0 0.42295569064062533 -0.42699492369753778 0 0.42458756094721539 -0.41613405657310448 0 0.43524810038533429 -0.42324892749070769 0 0.42295569064062533 -0.42699492369753778 0 0.43764883001816302 -0.44847867026387339 0 0.41630162367870638 -0.44091327616753739 0 0.43764883001816302 -0.44847867026387339 0 0.42984017904353489 -0.46042986879056458 0 0.41630162367870638 -0.44091327616753739 0 0.43764883001816302 -0.44847867026387339 0 0.43199803478474752 -0.43480066315574151 0 0.41630162367870638 -0.44091327616753739 0 0.42984017904353489 -0.46042986879056458 0 0.41583716859034447 -0.46620520778226737 0 0.42866409193048188 -0.47676758270227471 0 0.42984017904353489 -0.46042986879056458 0 0.4067145811385029 -0.45234669657804139 0 0.42984017904353489 -0.46042986879056458 0 0.41583716859034447 -0.46620520778226737 0 0.4067145811385029 -0.45234669657804139 0 0.41583716859034447 -0.46620520778226737 0 0.4067145811385029 -0.45234669657804139 0 0.40148396946935899 -0.46677367853588281 0 0.42984017904353489 -0.46042986879056458 0 0.4067145811385029 -0.45234669657804139 0 0.41630162367870638 -0.44091327616753739 0 0.4067145811385029 -0.45234669657804139 0 0.38358898323347101 -0.44426352436551808 0 0.39182712026942329 -0.45690385307896481 0 0.39495441733924969 -0.43334788207120151 0 0.4067145811385029 -0.45234669657804139 0 0.41630162367870638 -0.44091327616753739 0 0.39495441733924969 -0.43334788207120151 0 0.4067145811385029 -0.45234669657804139 0 0.38358898323347101 -0.44426352436551808 0 0.4067145811385029 -0.45234669657804139 0 0.38358898323347101 -0.44426352436551808 0 0.38358898323347101 -0.44426352436551808 0 0.37514595674159079 -0.45476526552439389 0 0.39182712026942329 -0.45690385307896481 0 0.38276612650569841 -0.43173139982273478 0 0.38358898323347101 -0.44426352436551808 0 0.36596817218281208 -0.43846752572535042 0 0.37514595674159079 -0.45476526552439389 0 0.38538716437757631 -0.46842775420537441 0 0.39182712026942329 -0.45690385307896481 0 0.37514595674159079 -0.45476526552439389 0 0.38538716437757631 -0.46842775420537441 0 0.37212180294075042 -0.46808428500039262 0 0.38538716437757631 -0.46842775420537441 0 0.39182712026942329 -0.45690385307896481 0 0.40148396946935899 -0.46677367853588281 0 0.4067145811385029 -0.45234669657804139 0 0.39182712026942329 -0.45690385307896481 0 0.40148396946935899 -0.46677367853588281 0 0.39434508200087892 -0.48168095957978257 0 0.4057717135424021 -0.48929931529832937 0 0.41138522724611992 -0.47610642689805982 0 0.38538716437757631 -0.46842775420537441 0 0.40148396946935899 -0.46677367853588281 0 0.39434508200087892 -0.48168095957978257 0 0.40148396946935899 -0.46677367853588281 0 0.39434508200087892 -0.48168095957978257 0 0.41138522724611992 -0.47610642689805982 0 0.38538716437757631 -0.46842775420537441 0 0.39434508200087892 -0.48168095957978257 0 0.37586822855092661 -0.48439202442808083 0 0.38538716437757631 -0.46842775420537441 0 0.37586822855092661 -0.48439202442808083 0 0.37212180294075042 -0.46808428500039262 0 0.39434508200087892 -0.48168095957978257 0 0.37586822855092661 -0.48439202442808083 0 0.39289039342582149 -0.5 0 0.37586822855092661 -0.48439202442808083 0 0.39289039342582149 -0.5 0 0.3704665795387827 -0.49999999999999961 0 0.39434508200087892 -0.48168095957978257 0 0.39289039342582149 -0.5 0 0.4057717135424021 -0.48929931529832937 0 0.39289039342582149 -0.5 0 0.4057717135424021 -0.48929931529832937 0 0.41531420731286051 -0.5 0 0.4057717135424021 -0.48929931529832937 0 0.41138522724611992 -0.47610642689805982 0 0.425256426736628 -0.48969697811313823 0 0.4057717135424021 -0.48929931529832937 0 0.41531420731286051 -0.5 0 0.425256426736628 -0.48969697811313823 0 0.41583716859034447 -0.46620520778226737 0 0.41138522724611992 -0.47610642689805982 0 0.42866409193048188 -0.47676758270227471 0 0.41138522724611992 -0.47610642689805982 0 0.42866409193048188 -0.47676758270227471 0 0.425256426736628 -0.48969697811313823 0 0.41583716859034447 -0.46620520778226737 0 0.40148396946935899 -0.46677367853588281 0 0.41138522724611992 -0.47610642689805982 0 0.44535189907423273 -0.48425652050154361 0 0.42866409193048188 -0.47676758270227471 0 0.425256426736628 -0.48969697811313823 0 0.43920548674920379 -0.47249175324936749 0 0.42984017904353489 -0.46042986879056458 0 0.42866409193048188 -0.47676758270227471 0 0.43773802119989941 -0.49999999999999978 0 0.44535189907423273 -0.48425652050154361 0 0.425256426736628 -0.48969697811313823 0 0.43773802119989941 -0.49999999999999978 0 0.41531420731286051 -0.5 0 0.425256426736628 -0.48969697811313823 0 0.32577547594680167 -0.48549728563522948 0 0.313100747974287 -0.5 0 0.34178366375653479 -0.5 0 0.32577547594680167 -0.48549728563522948 0 0.33309118936964399 -0.46704031311580291 0 0.30810638268294871 -0.47012115952174682 0 0.353331436476917 -0.48488928282810861 0 0.33309118936964399 -0.46704031311580291 0 0.32577547594680167 -0.48549728563522948 0 0.353331436476917 -0.48488928282810861 0 0.33309118936964399 -0.46704031311580291 0 0.32577547594680167 -0.48549728563522948 0 0.353331436476917 -0.48488928282810861 0 0.32577547594680167 -0.48549728563522948 0 0.34178366375653479 -0.5 0 0.353331436476917 -0.48488928282810861 0 0.34178366375653479 -0.5 0 0.353331436476917 -0.48488928282810861 0 0.3704665795387827 -0.49999999999999961 0 0.353331436476917 -0.48488928282810861 0 0.3704665795387827 -0.49999999999999961 0 0.37586822855092661 -0.48439202442808083 0 0.353331436476917 -0.48488928282810861 0 0.37586822855092661 -0.48439202442808083 0 0.353331436476917 -0.48488928282810861 0 0.3704665795387827 -0.49999999999999961 0 0.37586822855092661 -0.48439202442808083 0 0.353331436476917 -0.48488928282810861 0 0.36174609683149922 -0.47333229839911978 0 0.37586822855092661 -0.48439202442808083 0 0.36174609683149922 -0.47333229839911978 0 0.37212180294075042 -0.46808428500039262 0 0.353331436476917 -0.48488928282810861 0 0.3511187368843669 -0.46644655109408317 0 0.33309118936964399 -0.46704031311580291 0 0.353331436476917 -0.48488928282810861 0 0.36174609683149922 -0.47333229839911978 0 0.3511187368843669 -0.46644655109408317 0 0.3511187368843669 -0.46644655109408317 0 0.34821094164401439 -0.44963138573543099 0 0.33309118936964399 -0.46704031311580291 0 0.3511187368843669 -0.46644655109408317 0 0.36000734278227892 -0.4581682973830864 0 0.34821094164401439 -0.44963138573543099 0 0.36174609683149922 -0.47333229839911978 0 0.3511187368843669 -0.46644655109408317 0 0.36000734278227892 -0.4581682973830864 0 0.36174609683149922 -0.47333229839911978 0 0.36000734278227892 -0.4581682973830864 0 0.37212180294075042 -0.46808428500039262 0 0.37514595674159079 -0.45476526552439389 0 0.36000734278227892 -0.4581682973830864 0 0.37212180294075042 -0.46808428500039262 0 0.38358898323347101 -0.44426352436551808 0 0.37514595674159079 -0.45476526552439389 0 0.36596817218281208 -0.43846752572535042 0 0.37514595674159079 -0.45476526552439389 0 0.36000734278227892 -0.4581682973830864 0 0.36596817218281208 -0.43846752572535042 0 0.36596817218281208 -0.43846752572535042 0 0.34821094164401439 -0.44963138573543099 0 0.34622956703096991 -0.43300533851794337 0 0.36000734278227892 -0.4581682973830864 0 0.36596817218281208 -0.43846752572535042 0 0.34821094164401439 -0.44963138573543099 0 0.34821094164401439 -0.44963138573543099 0 0.33295970409203041 -0.44505156475946112 0 0.34622956703096991 -0.43300533851794337 0 0.34821094164401439 -0.44963138573543099 0 0.33295970409203041 -0.44505156475946112 0 0.33309118936964399 -0.46704031311580291 0 0.33295970409203041 -0.44505156475946112 0 0.33309118936964399 -0.46704031311580291 0 0.31285094226236981 -0.44919134340349842 0 0.33309118936964399 -0.46704031311580291 0 0.31285094226236981 -0.44919134340349842 0 0.33309118936964399 -0.46704031311580291 0 0.31285094226236981 -0.44919134340349842 0 0.30810638268294871 -0.47012115952174682 0 0.33295970409203041 -0.44505156475946112 0 0.31285094226236981 -0.44919134340349842 0 0.32443481461114221 -0.42819348402864749 0 0.31285094226236981 -0.44919134340349842 0 0.32443481461114221 -0.42819348402864749 0 0.30716585811758268 -0.42152601893676211 0 0.32443481461114221 -0.42819348402864749 0 0.3377381929345476 -0.41993594981441068 0 0.31826237910007699 -0.40611857650776678 0 0.32443481461114221 -0.42819348402864749 0 0.31826237910007699 -0.40611857650776678 0 0.30716585811758268 -0.42152601893676211 0 0.3377381929345476 -0.41993594981441068 0 0.33955155732169001 -0.40481801647484189 0 0.31826237910007699 -0.40611857650776678 0 0.32443481461114221 -0.42819348402864749 0 0.3377381929345476 -0.41993594981441068 0 0.34622956703096991 -0.43300533851794337 0 0.33295970409203041 -0.44505156475946112 0 0.32443481461114221 -0.42819348402864749 0 0.34622956703096991 -0.43300533851794337 0 0.3377381929345476 -0.41993594981441068 0 0.34622956703096991 -0.43300533851794337 0 0.35818280584871282 -0.41603879828427831 0 0.36596817218281208 -0.43846752572535042 0 0.34622956703096991 -0.43300533851794337 0 0.35818280584871282 -0.41603879828427831 0 0.3754845505291648 -0.42231636227288599 0 0.36596817218281208 -0.43846752572535042 0 0.35818280584871282 -0.41603879828427831 0 0.3754845505291648 -0.42231636227288599 0 0.38276612650569841 -0.43173139982273478 0 0.36596817218281208 -0.43846752572535042 0 0.37842665921942997 -0.40887405987875969 0 0.3754845505291648 -0.42231636227288599 0 0.35818280584871282 -0.41603879828427831 0 0.37842665921942997 -0.40887405987875969 0 0.35818280584871282 -0.41603879828427831 0 0.36824105802713031 -0.4000969440192842 0 0.3377381929345476 -0.41993594981441068 0 0.35818280584871282 -0.41603879828427831 0 0.33955155732169001 -0.40481801647484189 0 0.35818280584871282 -0.41603879828427831 0 0.35120943534252291 -0.3914849644630724 0 0.33955155732169001 -0.40481801647484189 0 0.35818280584871282 -0.41603879828427831 0 0.35120943534252291 -0.3914849644630724 0 0.36824105802713031 -0.4000969440192842 0 0.37900977316023637 -0.39091548517495972 0 0.36824105802713031 -0.4000969440192842 0 0.36724772315424481 -0.38247146420994571 0 0.35120943534252291 -0.3914849644630724 0 0.36824105802713031 -0.4000969440192842 0 0.36724772315424481 -0.38247146420994571 0 0.36724772315424481 -0.38247146420994571 0 0.3553956415560332 -0.375446985373177 0 0.36664078794155069 -0.36853845970684512 0 0.35120943534252291 -0.3914849644630724 0 0.3553956415560332 -0.375446985373177 0 0.34024068493209042 -0.37145909403295352 0 0.35120943534252291 -0.3914849644630724 0 0.36724772315424481 -0.38247146420994571 0 0.3553956415560332 -0.375446985373177 0 0.35120943534252291 -0.3914849644630724 0 0.33045907805143321 -0.38798152631774108 0 0.34024068493209042 -0.37145909403295352 0 0.33045907805143321 -0.38798152631774108 0 0.34024068493209042 -0.37145909403295352 0 0.32473595581008968 -0.36877041147622941 0 0.33045907805143321 -0.38798152631774108 0 0.33955155732169001 -0.40481801647484189 0 0.31826237910007699 -0.40611857650776678 0 0.35120943534252291 -0.3914849644630724 0 0.33045907805143321 -0.38798152631774108 0 0.33955155732169001 -0.40481801647484189 0 0.33045907805143321 -0.38798152631774108 0 0.31826237910007699 -0.40611857650776678 0 0.30852465471842783 -0.38296478278532459 0 0.33045907805143321 -0.38798152631774108 0 0.30852465471842783 -0.38296478278532459 0 0.32473595581008968 -0.36877041147622941 0 0.30852465471842783 -0.38296478278532459 0 0.30157177088572762 -0.39984768184154418 0 0.28524522637625171 -0.38748256695808048 0 0.31826237910007699 -0.40611857650776678 0 0.30852465471842783 -0.38296478278532459 0 0.30157177088572762 -0.39984768184154418 0 0.30157177088572762 -0.39984768184154418 0 0.28524522637625171 -0.38748256695808048 0 0.28909827497095891 -0.41314244090476959 0 0.30852465471842783 -0.38296478278532459 0 0.28524522637625171 -0.38748256695808048 0 0.29576167506738288 -0.36584798696867898 0 0.28524522637625171 -0.38748256695808048 0 0.26194523537769671 -0.38343407302417171 0 0.27628411724202862 -0.36524783617958329 0 0.26194523537769671 -0.38343407302417171 0 0.2677956642119742 -0.40840362680373948 0 0.24730388124056729 -0.40448370284608931 0 0.28524522637625171 -0.38748256695808048 0 0.26194523537769671 -0.38343407302417171 0 0.2677956642119742 -0.40840362680373948 0 0.28524522637625171 -0.38748256695808048 0 0.2677956642119742 -0.40840362680373948 0 0.28909827497095891 -0.41314244090476959 0 0.2677956642119742 -0.40840362680373948 0 0.27472650047210662 -0.43131219108599711 0 0.28909827497095891 -0.41314244090476959 0 0.2677956642119742 -0.40840362680373948 0 0.24845486683426421 -0.43056678600332871 0 0.24730388124056729 -0.40448370284608931 0 0.2677956642119742 -0.40840362680373948 0 0.27472650047210662 -0.43131219108599711 0 0.24845486683426421 -0.43056678600332871 0 0.27472650047210662 -0.43131219108599711 0 0.26710508502781599 -0.44926171113960661 0 0.24845486683426421 -0.43056678600332871 0 0.27472650047210662 -0.43131219108599711 0 0.29418269027227539 -0.43431919247607059 0 0.28909827497095891 -0.41314244090476959 0 0.29418269027227539 -0.43431919247607059 0 0.28909827497095891 -0.41314244090476959 0 0.30716585811758268 -0.42152601893676211 0 0.31826237910007699 -0.40611857650776678 0 0.30157177088572762 -0.39984768184154418 0 0.30716585811758268 -0.42152601893676211 0 0.30157177088572762 -0.39984768184154418 0 0.28909827497095891 -0.41314244090476959 0 0.30716585811758268 -0.42152601893676211 0 0.31285094226236981 -0.44919134340349842 0 0.29418269027227539 -0.43431919247607059 0 0.30716585811758268 -0.42152601893676211 0 0.31285094226236981 -0.44919134340349842 0 0.29418269027227539 -0.43431919247607059 0 0.28597809560131299 -0.4567624239266439 0 0.31285094226236981 -0.44919134340349842 0 0.28597809560131299 -0.4567624239266439 0 0.30810638268294871 -0.47012115952174682 0 0.28597809560131299 -0.4567624239266439 0 0.27356505094757272 -0.46654042127887851 0 0.28658471780149791 -0.47429793876749549 0 0.28597809560131299 -0.4567624239266439 0 0.28658471780149791 -0.47429793876749549 0 0.30810638268294871 -0.47012115952174682 0 0.27472650047210662 -0.43131219108599711 0 0.29418269027227539 -0.43431919247607059 0 0.28597809560131299 -0.4567624239266439 0 0.27472650047210662 -0.43131219108599711 0 0.28597809560131299 -0.4567624239266439 0 0.26710508502781599 -0.44926171113960661 0 0.26710508502781599 -0.44926171113960661 0 0.25055382002994903 -0.45112655962101422 0 0.24845486683426421 -0.43056678600332871 0 0.25055382002994903 -0.45112655962101422 0 0.25749380142066591 -0.46566674131117769 0 0.24452211955108941 -0.47321082899062988 0 0.26710508502781599 -0.44926171113960661 0 0.25055382002994903 -0.45112655962101422 0 0.25749380142066591 -0.46566674131117769 0 0.26710508502781599 -0.44926171113960661 0 0.25749380142066591 -0.46566674131117769 0 0.27356505094757272 -0.46654042127887851 0 0.28597809560131299 -0.4567624239266439 0 0.26710508502781599 -0.44926171113960661 0 0.27356505094757272 -0.46654042127887851 0 0.25749380142066591 -0.46566674131117769 0 0.27356505094757272 -0.46654042127887851 0 0.27066355488657068 -0.48671329124946883 0 0.27356505094757272 -0.46654042127887851 0 0.27066355488657068 -0.48671329124946883 0 0.28658471780149791 -0.47429793876749549 0 0.27066355488657068 -0.48671329124946883 0 0.24310759435645521 -0.48732129405658853 0 0.24452211955108941 -0.47321082899062988 0 0.25749380142066591 -0.46566674131117769 0 0.27066355488657068 -0.48671329124946883 0 0.24452211955108941 -0.47321082899062988 0 0.25573491640979129 -0.5 0 0.27066355488657068 -0.48671329124946883 0 0.24310759435645521 -0.48732129405658853 0 0.27066355488657068 -0.48671329124946883 0 0.24310759435645521 -0.48732129405658853 0 0.25573491640979129 -0.5 0 0.27066355488657068 -0.48671329124946883 0 0.2844178321920392 -0.5 0 0.27066355488657068 -0.48671329124946883 0 0.2844178321920392 -0.5 0 0.29821951541668618 -0.48610528844234918 0 0.27066355488657068 -0.48671329124946883 0 0.29821951541668618 -0.48610528844234918 0 0.27066355488657068 -0.48671329124946883 0 0.28658471780149791 -0.47429793876749549 0 0.29821951541668618 -0.48610528844234918 0 0.28658471780149791 -0.47429793876749549 0 0.30810638268294871 -0.47012115952174682 0 0.29821951541668618 -0.48610528844234918 0 0.32577547594680167 -0.48549728563522948 0 0.30810638268294871 -0.47012115952174682 0 0.29821951541668618 -0.48610528844234918 0 0.313100747974287 -0.5 0 0.2844178321920392 -0.5 0 0.29821951541668618 -0.48610528844234918 0 0.32577547594680167 -0.48549728563522948 0 0.29821951541668618 -0.48610528844234918 0 0.32577547594680167 -0.48549728563522948 0 0.313100747974287 -0.5 0 0.29821951541668618 -0.48610528844234918 0 0.330274064289036 -0.28402767586280209 0 0.34332234684577362 -0.29793808318023329 0 0.34457666422559302 -0.26801309975333321 0 0.330274064289036 -0.28402767586280209 0 0.34332234684577362 -0.29793808318023329 0 0.32977293544345387 -0.30596193421111573 0 0.34332234684577362 -0.29793808318023329 0 0.32977293544345387 -0.30596193421111573 0 0.34206802946595682 -0.32786306660713371 0 0.31744302567780058 -0.29875438106107682 0 0.32081511337912821 -0.31891284763754968 0 0.29956219729229971 -0.30996262866796498 0 0.32977293544345387 -0.30596193421111573 0 0.31744302567780058 -0.29875438106107682 0 0.32081511337912821 -0.31891284763754968 0 0.31744302567780058 -0.29875438106107682 0 0.315203972569992 -0.28599406388836862 0 0.30893165249025939 -0.29458973757352408 0 0.330274064289036 -0.28402767586280209 0 0.32977293544345387 -0.30596193421111573 0 0.31744302567780058 -0.29875438106107682 0 0.330274064289036 -0.28402767586280209 0 0.31744302567780058 -0.29875438106107682 0 0.315203972569992 -0.28599406388836862 0 0.31616400359283131 -0.27140021809428472 0 0.31565659849655159 -0.26881006701694032 0 0.34457666422559302 -0.26801309975333321 0 0.31616400359283131 -0.27140021809428472 0 0.31565659849655159 -0.26881006701694032 0 0.330274064289036 -0.28402767586280209 0 0.315203972569992 -0.28599406388836862 0 0.31616400359283131 -0.27140021809428472 0 0.31140457280844042 -0.24710474912070499 0 0.31565659849655159 -0.26881006701694032 0 0.31140457280844042 -0.24710474912070499 0 0.31565659849655159 -0.26881006701694032 0 0.32909477526671738 -0.25319804842994992 0 0.34542116247921317 -0.24786541093840589 0 0.32909477526671738 -0.25319804842994992 0 0.34457666422559302 -0.26801309975333321 0 0.31565659849655159 -0.26881006701694032 0 0.32909477526671738 -0.25319804842994992 0 0.34457666422559302 -0.26801309975333321 0 0.31565659849655159 -0.26881006701694032 0 0.34457666422559302 -0.26801309975333321 0 0.330274064289036 -0.28402767586280209 0 0.31616400359283131 -0.27140021809428472 0 0.34457666422559302 -0.26801309975333321 0 0.35327842571551671 -0.2677733001931194 0 0.36211004630048071 -0.25874315800932568 0 0.36139056500297317 -0.28258450191058321 0 0.34457666422559302 -0.26801309975333321 0 0.35327842571551671 -0.2677733001931194 0 0.36139056500297317 -0.28258450191058321 0 0.34457666422559302 -0.26801309975333321 0 0.35327842571551671 -0.2677733001931194 0 0.34542116247921317 -0.24786541093840589 0 0.35327842571551671 -0.2677733001931194 0 0.36211004630048071 -0.25874315800932568 0 0.34542116247921317 -0.24786541093840589 0 0.34457666422559302 -0.26801309975333321 0 0.34542116247921317 -0.24786541093840589 0 0.34457666422559302 -0.26801309975333321 0 0.35327842571551671 -0.2677733001931194 0 0.36876625398544938 -0.24898888889403961 0 0.37754581309809132 -0.23651361028518689 0 0.3725796289452375 -0.26579697317357759 0 0.36876625398544938 -0.24898888889403961 0 0.36211004630048071 -0.25874315800932568 0 0.3725796289452375 -0.26579697317357759 0 0.36211004630048071 -0.25874315800932568 0 0.36139056500297317 -0.28258450191058321 0 0.36211004630048071 -0.25874315800932568 0 0.3725796289452375 -0.26579697317357759 0 0.36139056500297317 -0.28258450191058321 0 0.3725796289452375 -0.26579697317357759 0 0.36761344479238373 -0.29508033606196837 0 0.3725796289452375 -0.26579697317357759 0 0.36139056500297317 -0.28258450191058321 0 0.36761344479238373 -0.29508033606196837 0 0.36139056500297317 -0.28258450191058321 0 0.36067108370546558 -0.30642584581184062 0 0.36139056500297317 -0.28258450191058321 0 0.36761344479238373 -0.29508033606196837 0 0.36067108370546558 -0.30642584581184062 0 0.37929392098169401 -0.28404327537796259 0 0.3725796289452375 -0.26579697317357759 0 0.36761344479238373 -0.29508033606196837 0 0.34332234684577362 -0.29793808318023329 0 0.36139056500297317 -0.28258450191058321 0 0.36067108370546558 -0.30642584581184062 0 0.34332234684577362 -0.29793808318023329 0 0.34457666422559302 -0.26801309975333321 0 0.34332234684577362 -0.29793808318023329 0 0.34457666422559302 -0.26801309975333321 0 0.36139056500297317 -0.28258450191058321 0 0.34332234684577362 -0.29793808318023329 0 0.36067108370546558 -0.30642584581184062 0 0.35385294866325562 -0.31815161708919842 0 0.37804720550635529 -0.30651687721429538 0 0.36761344479238373 -0.29508033606196837 0 0.37325959660283969 -0.31225701655594912 0 0.36761344479238373 -0.29508033606196837 0 0.37325959660283969 -0.31225701655594912 0 0.36522996683296982 -0.32210974174446261 0 0.36761344479238373 -0.29508033606196837 0 0.3626472606395299 -0.32436369895035932 0 0.36761344479238373 -0.29508033606196837 0 0.36067108370546558 -0.30642584581184062 0 0.3626472606395299 -0.32436369895035932 0 0.36067108370546558 -0.30642584581184062 0 0.35995160240795782 -0.33026718971309799 0 0.37325959660283969 -0.31225701655594912 0 0.36522996683296982 -0.32210974174446261 0 0.37029473460036533 -0.32565573538444043 0 0.36761344479238373 -0.29508033606196837 0 0.3626472606395299 -0.32436369895035932 0 0.36522996683296982 -0.32210974174446261 0 0.36067108370546558 -0.30642584581184062 0 0.3626472606395299 -0.32436369895035932 0 0.35995160240795782 -0.33026718971309799 0 0.38064079273778262 -0.31288188218018531 0 0.37325959660283969 -0.31225701655594912 0 0.37029473460036533 -0.32565573538444043 0 0.3626472606395299 -0.32436369895035932 0 0.37029473460036533 -0.32565573538444043 0 0.35995160240795782 -0.33026718971309799 0 0.37029473460036533 -0.32565573538444043 0 0.35995160240795782 -0.33026718971309799 0 0.3626472606395299 -0.32436369895035932 0 0.36522996683296982 -0.32210974174446261 0 0.37029473460036533 -0.32565573538444043 0 0.36522996683296982 -0.32210974174446261 0 0.37029473460036533 -0.32565573538444043 0 0.35995160240795782 -0.33026718971309799 0 0.35941557651728179 -0.34802939929915899 0 0.37029473460036533 -0.32565573538444043 0 0.37212478857772979 -0.33864880005647208 0 0.35995160240795782 -0.33026718971309799 0 0.3654326502107581 -0.34245967622864359 0 0.35995160240795782 -0.33026718971309799 0 0.35941557651728179 -0.34802939929915899 0 0.37212478857772979 -0.33864880005647208 0 0.3654326502107581 -0.34245967622864359 0 0.37040156667629781 -0.34671437794913718 0 0.37212478857772979 -0.33864880005647208 0 0.3654326502107581 -0.34245967622864359 0 0.35995160240795782 -0.33026718971309799 0 0.35995160240795782 -0.33026718971309799 0 0.35941557651728179 -0.34802939929915899 0 0.34162477060798069 -0.33843815246039383 0 0.35941557651728179 -0.34802939929915899 0 0.34146637893605181 -0.3422169952266676 0 0.34162477060798069 -0.33843815246039383 0 0.35995160240795782 -0.33026718971309799 0 0.34162477060798069 -0.33843815246039383 0 0.35995160240795782 -0.33026718971309799 0 0.34764647170350632 -0.33021231032179682 0 0.34162477060798069 -0.33843815246039383 0 0.35995160240795782 -0.33026718971309799 0 0.34764647170350632 -0.33021231032179682 0 0.35274785573456591 -0.3260756163463463 0 0.34764647170350632 -0.33021231032179682 0 0.34206802946595682 -0.32786306660713371 0 0.34162477060798069 -0.33843815246039383 0 0.34764647170350632 -0.33021231032179682 0 0.34206802946595682 -0.32786306660713371 0 0.35385294866325562 -0.31815161708919842 0 0.35274785573456591 -0.3260756163463463 0 0.34206802946595682 -0.32786306660713371 0 0.34764647170350632 -0.33021231032179682 0 0.35274785573456591 -0.3260756163463463 0 0.34206802946595682 -0.32786306660713371 0 0.34332234684577362 -0.29793808318023329 0 0.35385294866325562 -0.31815161708919842 0 0.34206802946595682 -0.32786306660713371 0 0.36067108370546558 -0.30642584581184062 0 0.35995160240795782 -0.33026718971309799 0 0.35385294866325562 -0.31815161708919842 0 0.35995160240795782 -0.33026718971309799 0 0.35385294866325562 -0.31815161708919842 0 0.35274785573456591 -0.3260756163463463 0 0.38249634533461108 -0.36797477098799591 0 0.36724772315424481 -0.38247146420994571 0 0.36664078794155069 -0.36853845970684512 0 0.38249634533461108 -0.36797477098799591 0 0.36664078794155069 -0.36853845970684512 0 0.37305712147220338 -0.36102055586376819 0 0.3553956415560332 -0.375446985373177 0 0.36664078794155069 -0.36853845970684512 0 0.35901533294662008 -0.36129221050145399 0 0.36664078794155069 -0.36853845970684512 0 0.37305712147220338 -0.36102055586376819 0 0.36517854466496658 -0.35714892472411869 0 0.36664078794155069 -0.36853845970684512 0 0.36517854466496658 -0.35714892472411869 0 0.35901533294662008 -0.36129221050145399 0 0.36517854466496658 -0.35714892472411869 0 0.35941557651728179 -0.34802939929915899 0 0.35901533294662008 -0.36129221050145399 0 0.36517854466496658 -0.35714892472411869 0 0.36469303305047901 -0.34973837317986511 0 0.35941557651728179 -0.34802939929915899 0 0.36517854466496658 -0.35714892472411869 0 0.37030234625384911 -0.35279401393457888 0 0.36469303305047901 -0.34973837317986511 0 0.37818146540529818 -0.34934783795600571 0 0.37305712147220338 -0.36102055586376819 0 0.37030234625384911 -0.35279401393457888 0 0.37305712147220338 -0.36102055586376819 0 0.36517854466496658 -0.35714892472411869 0 0.37030234625384911 -0.35279401393457888 0 0.37818146540529818 -0.34934783795600571 0 0.37212478857772979 -0.33864880005647208 0 0.37040156667629781 -0.34671437794913718 0 0.37818146540529818 -0.34934783795600571 0 0.37030234625384911 -0.35279401393457888 0 0.37040156667629781 -0.34671437794913718 0 0.37030234625384911 -0.35279401393457888 0 0.37040156667629781 -0.34671437794913718 0 0.36469303305047901 -0.34973837317986511 0 0.3654326502107581 -0.34245967622864359 0 0.37040156667629781 -0.34671437794913718 0 0.36469303305047901 -0.34973837317986511 0 0.36469303305047901 -0.34973837317986511 0 0.35941557651728179 -0.34802939929915899 0 0.3654326502107581 -0.34245967622864359 0 0.36469303305047901 -0.34973837317986511 0 0.35941557651728179 -0.34802939929915899 0 0.35003449333301101 -0.35574942476505861 0 0.34024068493209042 -0.37145909403295352 0 0.34146637893605181 -0.3422169952266676 0 0.35941557651728179 -0.34802939929915899 0 0.35003449333301101 -0.35574942476505861 0 0.34146637893605181 -0.3422169952266676 0 0.35941557651728179 -0.34802939929915899 0 0.34146637893605181 -0.3422169952266676 0 0.35941557651728179 -0.34802939929915899 0 0.35901533294662008 -0.36129221050145399 0 0.35941557651728179 -0.34802939929915899 0 0.35003449333301101 -0.35574942476505861 0 0.35901533294662008 -0.36129221050145399 0 0.35003449333301101 -0.35574942476505861 0 0.35901533294662008 -0.36129221050145399 0 0.34024068493209042 -0.37145909403295352 0 0.3553956415560332 -0.375446985373177 0 0.35901533294662008 -0.36129221050145399 0 0.34024068493209042 -0.37145909403295352 0 0.34024068493209042 -0.37145909403295352 0 0.33264239376833749 -0.35548373211026962 0 0.32473595581008968 -0.36877041147622941 0 0.34024068493209042 -0.37145909403295352 0 0.33264239376833749 -0.35548373211026962 0 0.34146637893605181 -0.3422169952266676 0 0.34024068493209042 -0.37145909403295352 0 0.34146637893605181 -0.3422169952266676 0 0.33264239376833749 -0.35548373211026962 0 0.32969677432389999 -0.34883746930945858 0 0.32350037713642671 -0.3535383953733186 0 0.33264239376833749 -0.35548373211026962 0 0.33484083241944268 -0.34588391539316982 0 0.34146637893605181 -0.3422169952266676 0 0.33264239376833749 -0.35548373211026962 0 0.33484083241944268 -0.34588391539316982 0 0.32969677432389999 -0.34883746930945858 0 0.33484083241944268 -0.34588391539316982 0 0.32969677432389999 -0.34883746930945858 0 0.33080291213000951 -0.34437854531234752 0 0.32969677432389999 -0.34883746930945858 0 0.33080291213000951 -0.34437854531234752 0 0.32576759743036687 -0.34544500479448842 0 0.32576759743036687 -0.34544500479448842 0 0.32008489300350967 -0.34478001059398899 0 0.32350037713642671 -0.3535383953733186 0 0.32969677432389999 -0.34883746930945858 0 0.32576759743036687 -0.34544500479448842 0 0.32350037713642671 -0.3535383953733186 0 0.32576759743036687 -0.34544500479448842 0 0.32008489300350967 -0.34478001059398899 0 0.3230261242077439 -0.3426129045732173 0 0.32008489300350967 -0.34478001059398899 0 0.31455300750316167 -0.34989325112993808 0 0.32350037713642671 -0.3535383953733186 0 0.32008489300350967 -0.34478001059398899 0 0.31455300750316167 -0.34989325112993808 0 0.31278358272303802 -0.34129775444127147 0 0.31455300750316167 -0.34989325112993808 0 0.32350037713642671 -0.3535383953733186 0 0.31266700858965563 -0.36105898834543543 0 0.33264239376833749 -0.35548373211026962 0 0.32350037713642671 -0.3535383953733186 0 0.32473595581008968 -0.36877041147622941 0 0.30852465471842783 -0.38296478278532459 0 0.31266700858965563 -0.36105898834543543 0 0.32473595581008968 -0.36877041147622941 0 0.32350037713642671 -0.3535383953733186 0 0.31266700858965563 -0.36105898834543543 0 0.32473595581008968 -0.36877041147622941 0 0.34332234684577362 -0.29793808318023329 0 0.34206802946595682 -0.32786306660713371 0 0.32977293544345387 -0.30596193421111573 0 0.34206802946595682 -0.32786306660713371 0 0.32081511337912821 -0.31891284763754968 0 0.34206802946595682 -0.32786306660713371 0 0.32602109842812482 -0.32927153728442071 0 0.32081511337912821 -0.31891284763754968 0 0.34206802946595682 -0.32786306660713371 0 0.32081511337912821 -0.31891284763754968 0 0.34206802946595682 -0.32786306660713371 0 0.34162477060798069 -0.33843815246039383 0 0.33801441914131958 -0.33597980122333287 0 0.34206802946595682 -0.32786306660713371 0 0.34162477060798069 -0.33843815246039383 0 0.34206802946595682 -0.32786306660713371 0 0.33503975802439162 -0.33352730776002742 0 0.32602109842812482 -0.32927153728442071 0 0.34206802946595682 -0.32786306660713371 0 0.33801441914131958 -0.33597980122333287 0 0.33503975802439162 -0.33352730776002742 0 0.34146637893605181 -0.3422169952266676 0 0.34162477060798069 -0.33843815246039383 0 0.33664845261102122 -0.34065682884787418 0 0.34146637893605181 -0.3422169952266676 0 0.34162477060798069 -0.33843815246039383 0 0.34162477060798069 -0.33843815246039383 0 0.33801441914131958 -0.33597980122333287 0 0.33664845261102122 -0.34065682884787418 0 0.34162477060798069 -0.33843815246039383 0 0.33664845261102122 -0.34065682884787418 0 0.33801441914131958 -0.33597980122333287 0 0.33664845261102122 -0.34065682884787418 0 0.334556636173299 -0.33621284741772872 0 0.33484083241944268 -0.34588391539316982 0 0.34146637893605181 -0.3422169952266676 0 0.33664845261102122 -0.34065682884787418 0 0.34146637893605181 -0.3422169952266676 0 0.33664845261102122 -0.34065682884787418 0 0.33080291213000951 -0.34437854531234752 0 0.33664845261102122 -0.34065682884787418 0 0.32753883147517121 -0.34023469067202677 0 0.33664845261102122 -0.34065682884787418 0 0.334556636173299 -0.33621284741772872 0 0.32852391491646382 -0.33468745183968091 0 0.33484083241944268 -0.34588391539316982 0 0.33080291213000951 -0.34437854531234752 0 0.33664845261102122 -0.34065682884787418 0 0.33503975802439162 -0.33352730776002742 0 0.32852391491646382 -0.33468745183968091 0 0.32602109842812482 -0.32927153728442071 0 0.334556636173299 -0.33621284741772872 0 0.33503975802439162 -0.33352730776002742 0 0.32852391491646382 -0.33468745183968091 0 0.33801441914131958 -0.33597980122333287 0 0.334556636173299 -0.33621284741772872 0 0.33503975802439162 -0.33352730776002742 0 0.32753883147517121 -0.34023469067202677 0 0.31871317492192791 -0.33999191223236508 0 0.30992165968220392 -0.33200201743577268 0 0.32852391491646382 -0.33468745183968091 0 0.32602109842812482 -0.32927153728442071 0 0.30992165968220392 -0.33200201743577268 0 0.33664845261102122 -0.34065682884787418 0 0.32852391491646382 -0.33468745183968091 0 0.30992165968220392 -0.33200201743577268 0 0.33664845261102122 -0.34065682884787418 0 0.32753883147517121 -0.34023469067202677 0 0.30992165968220392 -0.33200201743577268 0 0.32602109842812482 -0.32927153728442071 0 0.31516553794356478 -0.32688419612254632 0 0.30992165968220392 -0.33200201743577268 0 0.33664845261102122 -0.34065682884787418 0 0.30992165968220392 -0.33200201743577268 0 0.32753883147517121 -0.34023469067202677 0 0.3230261242077439 -0.3426129045732173 0 0.31871317492192791 -0.33999191223236508 0 0.33080291213000951 -0.34437854531234752 0 0.32576759743036687 -0.34544500479448842 0 0.32753883147517121 -0.34023469067202677 0 0.32576759743036687 -0.34544500479448842 0 0.32753883147517121 -0.34023469067202677 0 0.3230261242077439 -0.3426129045732173 0 0.32008489300350967 -0.34478001059398899 0 0.3230261242077439 -0.3426129045732173 0 0.31871317492192791 -0.33999191223236508 0 0.31871317492192791 -0.33999191223236508 0 0.31278358272303802 -0.34129775444127147 0 0.30992165968220392 -0.33200201743577268 0 0.32008489300350967 -0.34478001059398899 0 0.31871317492192791 -0.33999191223236508 0 0.31278358272303802 -0.34129775444127147 0 0.32602109842812482 -0.32927153728442071 0 0.31516553794356478 -0.32688419612254632 0 0.32081511337912821 -0.31891284763754968 0 0.31516553794356478 -0.32688419612254632 0 0.32081511337912821 -0.31891284763754968 0 0.29956219729229971 -0.30996262866796498 0 0.31516553794356478 -0.32688419612254632 0 0.30992165968220392 -0.33200201743577268 0 0.29956219729229971 -0.30996262866796498 0 0.30992165968220392 -0.33200201743577268 0 0.28319486675338662 -0.32334720602367162 0 0.29956219729229971 -0.30996262866796498 0 0.32081511337912821 -0.31891284763754968 0 0.29956219729229971 -0.30996262866796498 0 0.31516553794356478 -0.32688419612254632 0 0.29956219729229971 -0.30996262866796498 0 0.31278358272303802 -0.34129775444127147 0 0.30544777269898171 -0.33968681455295602 0 0.30372917606317851 -0.34879110689567611 0 0.31278358272303802 -0.34129775444127147 0 0.30992165968220392 -0.33200201743577268 0 0.30544777269898171 -0.33968681455295602 0 0.30992165968220392 -0.33200201743577268 0 0.30544777269898171 -0.33968681455295602 0 0.29535667232750618 -0.33665637943910393 0 0.30544777269898171 -0.33968681455295602 0 0.29535667232750618 -0.33665637943910393 0 0.30372917606317851 -0.34879110689567611 0 0.30992165968220392 -0.33200201743577268 0 0.29535667232750618 -0.33665637943910393 0 0.28319486675338662 -0.32334720602367162 0 0.29535667232750618 -0.33665637943910393 0 0.28811986741475609 -0.34954264064797458 0 0.28056009198101312 -0.33712721632873971 0 0.29535667232750618 -0.33665637943910393 0 0.28319486675338662 -0.32334720602367162 0 0.28056009198101312 -0.33712721632873971 0 0.30992165968220392 -0.33200201743577268 0 0.28319486675338662 -0.32334720602367162 0 0.30852465471842783 -0.38296478278532459 0 0.31266700858965563 -0.36105898834543543 0 0.29576167506738288 -0.36584798696867898 0 0.31266700858965563 -0.36105898834543543 0 0.30372917606317851 -0.34879110689567611 0 0.29576167506738288 -0.36584798696867898 0 0.31455300750316167 -0.34989325112993808 0 0.31266700858965563 -0.36105898834543543 0 0.30372917606317851 -0.34879110689567611 0 0.31455300750316167 -0.34989325112993808 0 0.31278358272303802 -0.34129775444127147 0 0.30372917606317851 -0.34879110689567611 0 0.30372917606317851 -0.34879110689567611 0 0.28811986741475609 -0.34954264064797458 0 0.29576167506738288 -0.36584798696867898 0 0.29535667232750618 -0.33665637943910393 0 0.30372917606317851 -0.34879110689567611 0 0.28811986741475609 -0.34954264064797458 0 0.28811986741475609 -0.34954264064797458 0 0.29576167506738288 -0.36584798696867898 0 0.27628411724202862 -0.36524783617958329 0 0.28524522637625171 -0.38748256695808048 0 0.29576167506738288 -0.36584798696867898 0 0.27628411724202862 -0.36524783617958329 0 0.27628411724202862 -0.36524783617958329 0 0.26970242523906313 -0.3463930650348116 0 0.25620327224306561 -0.36049072758523892 0 0.28811986741475609 -0.34954264064797458 0 0.27628411724202862 -0.36524783617958329 0 0.26970242523906313 -0.3463930650348116 0 0.28811986741475609 -0.34954264064797458 0 0.26970242523906313 -0.3463930650348116 0 0.28056009198101312 -0.33712721632873971 0 0.26970242523906313 -0.3463930650348116 0 0.25620327224306561 -0.36049072758523892 0 0.25110761996098008 -0.33756133299550262 0 0.26194523537769671 -0.38343407302417171 0 0.27628411724202862 -0.36524783617958329 0 0.25620327224306561 -0.36049072758523892 0 0.26194523537769671 -0.38343407302417171 0 0.25620327224306561 -0.36049072758523892 0 0.2380746425401753 -0.37739124482652259 0 0.28319486675338662 -0.32334720602367162 0 0.25646807382456938 -0.31469239461157061 0 0.28319486675338662 -0.32334720602367162 0 0.25646807382456938 -0.31469239461157061 0 0.26668910057358802 -0.30550764638795852 0 0.28319486675338662 -0.32334720602367162 0 0.26642662817035351 -0.32969679049813649 0 0.25646807382456938 -0.31469239461157061 0 0.26970242523906313 -0.3463930650348116 0 0.26642662817035351 -0.32969679049813649 0 0.28056009198101312 -0.33712721632873971 0 0.28319486675338662 -0.32334720602367162 0 0.26642662817035351 -0.32969679049813649 0 0.28056009198101312 -0.33712721632873971 0 0.26970242523906313 -0.3463930650348116 0 0.26642662817035351 -0.32969679049813649 0 0.25110761996098008 -0.33756133299550262 0 0.26642662817035351 -0.32969679049813649 0 0.25110761996098008 -0.33756133299550262 0 0.25646807382456938 -0.31469239461157061 0 0.26020915296869068 -0.2933899210744732 0 0.26668910057358802 -0.30550764638795852 0 0.24613976577650579 -0.30323365481969039 0 0.25646807382456938 -0.31469239461157061 0 0.26668910057358802 -0.30550764638795852 0 0.24613976577650579 -0.30323365481969039 0 0.26020915296869068 -0.2933899210744732 0 0.25058364390229548 -0.28023087545190861 0 0.26295470628353768 -0.27026240406269297 0 0.26020915296869068 -0.2933899210744732 0 0.25058364390229548 -0.28023087545190861 0 0.24053263080688631 -0.28510356727772701 0 0.26020915296869068 -0.2933899210744732 0 0.24053263080688631 -0.28510356727772701 0 0.26020915296869068 -0.2933899210744732 0 0.28125845178791892 -0.29011251636532881 0 0.26295470628353768 -0.27026240406269297 0 0.26020915296869068 -0.2933899210744732 0 0.27988567513049512 -0.30167627487121951 0 0.28125845178791892 -0.29011251636532881 0 0.26020915296869068 -0.2933899210744732 0 0.26668910057358802 -0.30550764638795852 0 0.27988567513049512 -0.30167627487121951 0 0.26020915296869068 -0.2933899210744732 0 0.27988567513049512 -0.30167627487121951 0 0.28319486675338662 -0.32334720602367162 0 0.26668910057358802 -0.30550764638795852 0 0.27988567513049512 -0.30167627487121951 0 0.27988567513049512 -0.30167627487121951 0 0.29956219729229971 -0.30996262866796498 0 0.28125845178791892 -0.29011251636532881 0 0.29956219729229971 -0.30996262866796498 0 0.27988567513049512 -0.30167627487121951 0 0.28125845178791892 -0.29011251636532881 0 0.29956219729229971 -0.30996262866796498 0 0.28319486675338662 -0.32334720602367162 0 0.27988567513049512 -0.30167627487121951 0 0.29956219729229971 -0.30996262866796498 0 0.28125845178791892 -0.29011251636532881 0 0.30351741442094582 -0.28364787667668517 0 0.29956219729229971 -0.30996262866796498 0 0.30351741442094582 -0.28364787667668517 0 0.30893165249025939 -0.29458973757352408 0 0.29956219729229971 -0.30996262866796498 0 0.315203972569992 -0.28599406388836862 0 0.30351741442094582 -0.28364787667668517 0 0.30893165249025939 -0.29458973757352408 0 0.31744302567780058 -0.29875438106107682 0 0.30893165249025939 -0.29458973757352408 0 0.29956219729229971 -0.30996262866796498 0 0.31140457280844042 -0.24710474912070499 0 0.31565659849655159 -0.26881006701694032 0 0.29718577407036301 -0.25519814195989071 0 0.31565659849655159 -0.26881006701694032 0 0.29718577407036301 -0.25519814195989071 0 0.28930565239004458 -0.26953623553981648 0 0.31565659849655159 -0.26881006701694032 0 0.28930565239004458 -0.26953623553981648 0 0.31565659849655159 -0.26881006701694032 0 0.30351741442094582 -0.28364787667668517 0 0.28930565239004458 -0.26953623553981648 0 0.315203972569992 -0.28599406388836862 0 0.31616400359283131 -0.27140021809428472 0 0.30351741442094582 -0.28364787667668517 0 0.31616400359283131 -0.27140021809428472 0 0.31565659849655159 -0.26881006701694032 0 0.30351741442094582 -0.28364787667668517 0 0.28125845178791892 -0.29011251636532881 0 0.30351741442094582 -0.28364787667668517 0 0.28930565239004458 -0.26953623553981648 0 0.29234931722919649 -0.23956849287787771 0 0.29718577407036301 -0.25519814195989071 0 0.28009493911397709 -0.25531812806766069 0 0.29718577407036301 -0.25519814195989071 0 0.28930565239004458 -0.26953623553981648 0 0.28009493911397709 -0.25531812806766069 0 0.28009493911397709 -0.25531812806766069 0 0.26295470628353768 -0.27026240406269297 0 0.26515279713901752 -0.25474276698909742 0 0.28930565239004458 -0.26953623553981648 0 0.28009493911397709 -0.25531812806766069 0 0.26295470628353768 -0.27026240406269297 0 0.27362138757170362 -0.2426007269765893 0 0.28009493911397709 -0.25531812806766069 0 0.26515279713901752 -0.25474276698909742 0 0.28930565239004458 -0.26953623553981648 0 0.26295470628353768 -0.27026240406269297 0 0.28125845178791892 -0.29011251636532881 0 0.28930565239004458 -0.26953623553981648 0 0.26295470628353768 -0.27026240406269297 0 0.28125845178791892 -0.29011251636532881 0 0.26295470628353768 -0.27026240406269297 0 0.26295470628353768 -0.27026240406269297 0 0.25920525151110962 -0.26619618175379239 0 0.2333624491378041 -0.27107789530058801 0 0.26295470628353768 -0.27026240406269297 0 0.25920525151110962 -0.26619618175379239 0 0.26515279713901752 -0.25474276698909742 0 0.25909559454287789 -0.26033526294480458 0 0.25575058308532189 -0.25269357128633052 0 0.26295470628353768 -0.27026240406269297 0 0.25920525151110962 -0.26619618175379239 0 0.25909559454287789 -0.26033526294480458 0 0.26295470628353768 -0.27026240406269297 0 0.26515279713901752 -0.25474276698909742 0 0.25909559454287789 -0.26033526294480458 0 0.25920525151110962 -0.26619618175379239 0 0.25909559454287789 -0.26033526294480458 0 0.2525593813984649 -0.26013433662011259 0 0.2525593813984649 -0.26013433662011259 0 0.25575058308532189 -0.25269357128633052 0 0.2462907050713771 -0.25204034373521428 0 0.25909559454287789 -0.26033526294480458 0 0.2525593813984649 -0.26013433662011259 0 0.25575058308532189 -0.25269357128633052 0 0.2525593813984649 -0.26013433662011259 0 0.2372713891187809 -0.25677075628574592 0 0.2333624491378041 -0.27107789530058801 0 0.2525593813984649 -0.26013433662011259 0 0.2462907050713771 -0.25204034373521428 0 0.2372713891187809 -0.25677075628574592 0 0.2525593813984649 -0.26013433662011259 0 0.2372713891187809 -0.25677075628574592 0 0.2462907050713771 -0.25204034373521428 0 0.2372713891187809 -0.25677075628574592 0 0.2374752251495614 -0.24157268794541539 0 0.26295470628353768 -0.27026240406269297 0 0.2333624491378041 -0.27107789530058801 0 0.25058364390229548 -0.28023087545190861 0 0.2333624491378041 -0.27107789530058801 0 0.24053263080688631 -0.28510356727772701 0 0.25920525151110962 -0.26619618175379239 0 0.2525593813984649 -0.26013433662011259 0 0.2333624491378041 -0.27107789530058801 0 0.25058364390229548 -0.28023087545190861 0 0.26295470628353768 -0.27026240406269297 0 0.2333624491378041 -0.27107789530058801 0 0.2333624491378041 -0.27107789530058801 0 0.22391874229476511 -0.2824004848955064 0 0.24053263080688631 -0.28510356727772701 0 0.2333624491378041 -0.27107789530058801 0 0.22198339683909701 -0.25340717595137879 0 0.22391874229476511 -0.2824004848955064 0 0.22198339683909701 -0.25340717595137879 0 0.21277476220729311 -0.27908963951381288 0 0.22391874229476511 -0.2824004848955064 0 0.22198339683909701 -0.25340717595137879 0 0.22391874229476511 -0.2824004848955064 0 0.2372713891187809 -0.25677075628574592 0 0.2333624491378041 -0.27107789530058801 0 0.22198339683909701 -0.25340717595137879 0 0.2372713891187809 -0.25677075628574592 0 0.22198339683909701 -0.25340717595137879 0 0.2374752251495614 -0.24157268794541539 0 0.2372713891187809 -0.25677075628574592 0 0.22198339683909701 -0.25340717595137879 0 0.22198339683909701 -0.25340717595137879 0 0.19767743283581299 -0.26201501502554969 0 0.19815896102696709 -0.24816545406213189 0 0.22198339683909701 -0.25340717595137879 0 0.19815896102696709 -0.24816545406213189 0 0.22198339683909701 -0.25340717595137879 0 0.2070014623020448 -0.26844420161526761 0 0.19767743283581299 -0.26201501502554969 0 0.22198339683909701 -0.25340717595137879 0 0.21277476220729311 -0.27908963951381288 0 0.2070014623020448 -0.26844420161526761 0 0.21277476220729311 -0.27908963951381288 0 0.19627752834655959 -0.27465633278028612 0 0.20552852767052071 -0.28818040814850709 0 0.21277476220729311 -0.27908963951381288 0 0.2070014623020448 -0.26844420161526761 0 0.19627752834655959 -0.27465633278028612 0 0.2070014623020448 -0.26844420161526761 0 0.19627752834655959 -0.27465633278028612 0 0.19767743283581299 -0.26201501502554969 0 0.19627752834655959 -0.27465633278028612 0 0.19767743283581299 -0.26201501502554969 0 0.1861358052291735 -0.26379397041404468 0 0.19767743283581299 -0.26201501502554969 0 0.1861358052291735 -0.26379397041404468 0 0.19815896102696709 -0.24816545406213189 0 0.1861358052291735 -0.26379397041404468 0 0.18066177981631051 -0.25348299893649828 0 0.19815896102696709 -0.24816545406213189 0 0.20129939135720101 -0.31175464383988888 0 0.20552852767052071 -0.28818040814850709 0 0.1861316223780578 -0.30340045511113362 0 0.20552852767052071 -0.28818040814850709 0 0.18615950714984131 -0.28714944863913389 0 0.1861316223780578 -0.30340045511113362 0 0.19627752834655959 -0.27465633278028612 0 0.20552852767052071 -0.28818040814850709 0 0.18615950714984131 -0.28714944863913389 0 0.21277476220729311 -0.27908963951381288 0 0.20552852767052071 -0.28818040814850709 0 0.22391874229476511 -0.2824004848955064 0 0.20552852767052071 -0.28818040814850709 0 0.21283890344555609 -0.30228465628523993 0 0.22391874229476511 -0.2824004848955064 0 0.20129939135720101 -0.31175464383988888 0 0.20552852767052071 -0.28818040814850709 0 0.21283890344555609 -0.30228465628523993 0 0.225854087750432 -0.31139379383963389 0 0.22391874229476511 -0.2824004848955064 0 0.21283890344555609 -0.30228465628523993 0 0.225854087750432 -0.31139379383963389 0 0.22391874229476511 -0.2824004848955064 0 0.225854087750432 -0.31139379383963389 0 0.22391874229476511 -0.2824004848955064 0 0.24053263080688631 -0.28510356727772701 0 0.26020915296869068 -0.2933899210744732 0 0.24053263080688631 -0.28510356727772701 0 0.24613976577650579 -0.30323365481969039 0 0.225854087750432 -0.31139379383963389 0 0.24053263080688631 -0.28510356727772701 0 0.24613976577650579 -0.30323365481969039 0 0.225854087750432 -0.31139379383963389 0 0.24613976577650579 -0.30323365481969039 0 0.24147179610371719 -0.32145365581003182 0 0.25110761996098008 -0.33756133299550262 0 0.25646807382456938 -0.31469239461157061 0 0.24147179610371719 -0.32145365581003182 0 0.25646807382456938 -0.31469239461157061 0 0.24613976577650579 -0.30323365481969039 0 0.24147179610371719 -0.32145365581003182 0 0.25110761996098008 -0.33756133299550262 0 0.24147179610371719 -0.32145365581003182 0 0.2277894332060989 -0.3403871027837615 0 0.225854087750432 -0.31139379383963389 0 0.24147179610371719 -0.32145365581003182 0 0.2277894332060989 -0.3403871027837615 0 0.225854087750432 -0.31139379383963389 0 0.2277894332060989 -0.3403871027837615 0 0.2131017443993804 -0.32550716011161479 0 0.225854087750432 -0.31139379383963389 0 0.2277894332060989 -0.3403871027837615 0 0.25620327224306561 -0.36049072758523892 0 0.23939100935974761 -0.35412122659527612 0 0.2380746425401753 -0.37739124482652259 0 0.25110761996098008 -0.33756133299550262 0 0.2277894332060989 -0.3403871027837615 0 0.23939100935974761 -0.35412122659527612 0 0.25620327224306561 -0.36049072758523892 0 0.25110761996098008 -0.33756133299550262 0 0.23939100935974761 -0.35412122659527612 0 0.2277894332060989 -0.3403871027837615 0 0.23939100935974761 -0.35412122659527612 0 0.22160146260088931 -0.35672021721344238 0 0.2277894332060989 -0.3403871027837615 0 0.22160146260088931 -0.35672021721344238 0 0.21393580002607371 -0.34141846605291087 0 0.23939100935974761 -0.35412122659527612 0 0.22160146260088931 -0.35672021721344238 0 0.2380746425401753 -0.37739124482652259 0 0.22160146260088931 -0.35672021721344238 0 0.21646245367279571 -0.38358476595235552 0 0.22160146260088931 -0.35672021721344238 0 0.2380746425401753 -0.37739124482652259 0 0.21646245367279571 -0.38358476595235552 0 0.22160146260088931 -0.35672021721344238 0 0.19836301469614079 -0.36402790855933592 0 0.2025217842010896 -0.37807387373583923 0 0.22160146260088931 -0.35672021721344238 0 0.21646245367279571 -0.38358476595235552 0 0.2025217842010896 -0.37807387373583923 0 0.22160146260088931 -0.35672021721344238 0 0.20535211274276649 -0.35018034328080122 0 0.21393580002607371 -0.34141846605291087 0 0.22160146260088931 -0.35672021721344238 0 0.20535211274276649 -0.35018034328080122 0 0.19836301469614079 -0.36402790855933592 0 0.20535211274276649 -0.35018034328080122 0 0.19180082998577391 -0.35029167033112268 0 0.20100079568597551 -0.33875735092892167 0 0.19180082998577391 -0.35029167033112268 0 0.19836301469614079 -0.36402790855933592 0 0.18636698824462991 -0.36225910140511608 0 0.19180082998577391 -0.35029167033112268 0 0.18636698824462991 -0.36225910140511608 0 0.18448777755487131 -0.35210036546502188 0 0.20535211274276649 -0.35018034328080122 0 0.19180082998577391 -0.35029167033112268 0 0.19836301469614079 -0.36402790855933592 0 0.19836301469614079 -0.36402790855933592 0 0.19083927531350181 -0.37426462870353422 0 0.18636698824462991 -0.36225910140511608 0 0.19836301469614079 -0.36402790855933592 0 0.19083927531350181 -0.37426462870353422 0 0.2025217842010896 -0.37807387373583923 0 0.20129939135720101 -0.31175464383988888 0 0.21283890344555609 -0.30228465628523993 0 0.2131017443993804 -0.32550716011161479 0 0.21283890344555609 -0.30228465628523993 0 0.225854087750432 -0.31139379383963389 0 0.2131017443993804 -0.32550716011161479 0 0.2277894332060989 -0.3403871027837615 0 0.2131017443993804 -0.32550716011161479 0 0.21393580002607371 -0.34141846605291087 0 0.2131017443993804 -0.32550716011161479 0 0.21393580002607371 -0.34141846605291087 0 0.20100079568597551 -0.33875735092892167 0 0.20535211274276649 -0.35018034328080122 0 0.21393580002607371 -0.34141846605291087 0 0.20100079568597551 -0.33875735092892167 0 0.19180082998577391 -0.35029167033112268 0 0.20100079568597551 -0.33875735092892167 0 0.1840044286915227 -0.33601373309634508 0 0.20100079568597551 -0.33875735092892167 0 0.19352690233448341 -0.32516644492614982 0 0.1840044286915227 -0.33601373309634508 0 0.2131017443993804 -0.32550716011161479 0 0.20100079568597551 -0.33875735092892167 0 0.19352690233448341 -0.32516644492614982 0 0.20129939135720101 -0.31175464383988888 0 0.2131017443993804 -0.32550716011161479 0 0.19352690233448341 -0.32516644492614982 0 0.20129939135720101 -0.31175464383988888 0 0.19352690233448341 -0.32516644492614982 0 0.1861316223780578 -0.30340045511113362 0 0.19352690233448341 -0.32516644492614982 0 0.17526094699071121 -0.32121364916979261 0 0.1840044286915227 -0.33601373309634508 0 0.19352690233448341 -0.32516644492614982 0 0.17526094699071121 -0.32121364916979261 0 0.1861316223780578 -0.30340045511113362 0 0.17526094699071121 -0.32121364916979261 0 0.1840044286915227 -0.33601373309634508 0 0.17670370261134591 -0.35101137430815987 0 0.17526094699071121 -0.32121364916979261 0 0.16632300769682529 -0.33914532989683449 0 0.17670370261134591 -0.35101137430815987 0 0.17526094699071121 -0.32121364916979261 0 0.17670370261134591 -0.35101137430815987 0 0.16632300769682529 -0.33914532989683449 0 0.15635532043033851 -0.32762317205032648 0 0.15384528835215919 -0.34888323103730828 0 0.17526094699071121 -0.32121364916979261 0 0.16632300769682529 -0.33914532989683449 0 0.15635532043033851 -0.32762317205032648 0 0.17526094699071121 -0.32121364916979261 0 0.15635532043033851 -0.32762317205032648 0 0.16613015085753399 -0.29794196337136208 0 0.19083927531350181 -0.37426462870353422 0 0.18636698824462991 -0.36225910140511608 0 0.17814645823198061 -0.38080909944652741 0 0.17670370261134591 -0.35101137430815987 0 0.1695008882053643 -0.3539014675276998 0 0.17814645823198061 -0.38080909944652741 0 0.17670370261134591 -0.35101137430815987 0 0.17814645823198061 -0.38080909944652741 0 0.18636698824462991 -0.36225910140511608 0 0.17670370261134591 -0.35101137430815987 0 0.17814645823198061 -0.38080909944652741 0 0.18636698824462991 -0.36225910140511608 0 0.18448777755487131 -0.35210036546502188 0 0.17670370261134591 -0.35101137430815987 0 0.18448777755487131 -0.35210036546502188 0 0.18424918471087839 -0.34735428580016242 0 0.17670370261134591 -0.35101137430815987 0 0.19180082998577391 -0.35029167033112268 0 0.1840044286915227 -0.33601373309634508 0 0.18424918471087839 -0.34735428580016242 0 0.1840044286915227 -0.33601373309634508 0 0.18424918471087839 -0.34735428580016242 0 0.17670370261134591 -0.35101137430815987 0 0.19180082998577391 -0.35029167033112268 0 0.18448777755487131 -0.35210036546502188 0 0.18424918471087839 -0.34735428580016242 0 0.16632300769682529 -0.33914532989683449 0 0.1695008882053643 -0.3539014675276998 0 0.15384528835215919 -0.34888323103730828 0 0.1695008882053643 -0.3539014675276998 0 0.15622266046030589 -0.36560529067035252 0 0.15384528835215919 -0.34888323103730828 0 0.16632300769682529 -0.33914532989683449 0 0.17670370261134591 -0.35101137430815987 0 0.1695008882053643 -0.3539014675276998 0 0.1695008882053643 -0.3539014675276998 0 0.15622266046030589 -0.36560529067035252 0 0.1662516937484437 -0.37945746017663878 0 0.1695008882053643 -0.3539014675276998 0 0.17814645823198061 -0.38080909944652741 0 0.1662516937484437 -0.37945746017663878 0 0.1695008882053643 -0.3539014675276998 0 0.1662516937484437 -0.37945746017663878 0 0.15622266046030589 -0.36560529067035252 0 0.15384528835215919 -0.34888323103730828 0 0.13913284643621729 -0.36987147755796063 0 0.15622266046030589 -0.36560529067035252 0 0.13913284643621729 -0.36987147755796063 0 0.15122325216971341 -0.38057118911269922 0 0.15384528835215919 -0.34888323103730828 0 0.13913284643621729 -0.36987147755796063 0 0.1385684583736729 -0.34280877879487409 0 0.1385684583736729 -0.34280877879487409 0 0.1245186505824013 -0.36113750934922573 0 0.1203073559828662 -0.34481831064573482 0 0.13913284643621729 -0.36987147755796063 0 0.1385684583736729 -0.34280877879487409 0 0.13913284643621729 -0.36987147755796063 0 0.1385684583736729 -0.34280877879487409 0 0.1245186505824013 -0.36113750934922573 0 0.13913284643621729 -0.36987147755796063 0 0.12672469353237761 -0.38193719477194499 0 0.1245186505824013 -0.36113750934922573 0 0.15635532043033851 -0.32762317205032648 0 0.13800407031112841 -0.31574608003178772 0 0.16613015085753399 -0.29794196337136208 0 0.15635532043033851 -0.32762317205032648 0 0.15384528835215919 -0.34888323103730828 0 0.1385684583736729 -0.34280877879487409 0 0.15635532043033851 -0.32762317205032648 0 0.1385684583736729 -0.34280877879487409 0 0.13800407031112841 -0.31574608003178772 0 0.1385684583736729 -0.34280877879487409 0 0.13800407031112841 -0.31574608003178772 0 0.1385684583736729 -0.34280877879487409 0 0.1252730154641265 -0.33501756179834041 0 0.127277047630593 -0.32368123984794023 0 0.1385684583736729 -0.34280877879487409 0 0.1252730154641265 -0.33501756179834041 0 0.1203073559828662 -0.34481831064573482 0 0.13800407031112841 -0.31574608003178772 0 0.127277047630593 -0.32368123984794023 0 0.1207194796176513 -0.31206082339016011 0 0.1385684583736729 -0.34280877879487409 0 0.13800407031112841 -0.31574608003178772 0 0.127277047630593 -0.32368123984794023 0 0.13800407031112841 -0.31574608003178772 0 0.13743968224858391 -0.28868338126870119 0 0.1207194796176513 -0.31206082339016011 0 0.13800407031112841 -0.31574608003178772 0 0.13743968224858391 -0.28868338126870119 0 0.13800407031112841 -0.31574608003178772 0 0.13743968224858391 -0.28868338126870119 0 0.16613015085753399 -0.29794196337136208 0 0.13743968224858391 -0.28868338126870119 0 0.16013622185265231 -0.27370264407204231 0 0.16613015085753399 -0.29794196337136208 0 0.13743968224858391 -0.28868338126870119 0 0.13687529418603939 -0.26162068250561471 0 0.13743968224858391 -0.28868338126870119 0 0.13687529418603939 -0.26162068250561471 0 0.12122917553908071 -0.27280048239714111 0 0.13687529418603939 -0.26162068250561471 0 0.15867772839633809 -0.25707915377424612 0 0.15532271566916761 -0.23874085795770611 0 0.13687529418603939 -0.26162068250561471 0 0.16013622185265231 -0.27370264407204231 0 0.15867772839633809 -0.25707915377424612 0 0.13743968224858391 -0.28868338126870119 0 0.13687529418603939 -0.26162068250561471 0 0.16013622185265231 -0.27370264407204231 0 0.16013622185265231 -0.27370264407204231 0 0.17163424862532001 -0.26348395238230132 0 0.17866520103123101 -0.27392164610568698 0 0.16013622185265231 -0.27370264407204231 0 0.15867772839633809 -0.25707915377424612 0 0.17163424862532001 -0.26348395238230132 0 0.15867772839633809 -0.25707915377424612 0 0.17163424862532001 -0.26348395238230132 0 0.17304535898525439 -0.24904788565112909 0 0.17163424862532001 -0.26348395238230132 0 0.18066177981631051 -0.25348299893649828 0 0.17304535898525439 -0.24904788565112909 0 0.17163424862532001 -0.26348395238230132 0 0.1861358052291735 -0.26379397041404468 0 0.18066177981631051 -0.25348299893649828 0 0.19627752834655959 -0.27465633278028612 0 0.17866520103123101 -0.27392164610568698 0 0.18615950714984131 -0.28714944863913389 0 0.19627752834655959 -0.27465633278028612 0 0.1861358052291735 -0.26379397041404468 0 0.17866520103123101 -0.27392164610568698 0 0.17163424862532001 -0.26348395238230132 0 0.1861358052291735 -0.26379397041404468 0 0.17866520103123101 -0.27392164610568698 0 0.17866520103123101 -0.27392164610568698 0 0.18615950714984131 -0.28714944863913389 0 0.16613015085753399 -0.29794196337136208 0 0.18615950714984131 -0.28714944863913389 0 0.1861316223780578 -0.30340045511113362 0 0.16613015085753399 -0.29794196337136208 0 0.17526094699071121 -0.32121364916979261 0 0.1861316223780578 -0.30340045511113362 0 0.16613015085753399 -0.29794196337136208 0 0.16013622185265231 -0.27370264407204231 0 0.17866520103123101 -0.27392164610568698 0 0.16613015085753399 -0.29794196337136208 0 0.19650118937966099 -0.48458767462136337 0 0.18247472509388471 -0.47020227486163019 0 0.1839174807145193 -0.49999999999999789 0 0.19650118937966099 -0.48458767462136337 0 0.2054847406710314 -0.5 0 0.1839174807145193 -0.49999999999999789 0 0.19650118937966099 -0.48458767462136337 0 0.1995265252191368 -0.47051219141525807 0 0.18247472509388471 -0.47020227486163019 0 0.19650118937966099 -0.48458767462136337 0 0.1995265252191368 -0.47051219141525807 0 0.21142085222808771 -0.48158275099342862 0 0.1995265252191368 -0.47051219141525807 0 0.21142085222808771 -0.48158275099342862 0 0.21140626781342409 -0.46122374827882839 0 0.21142085222808771 -0.48158275099342862 0 0.23068219321441441 -0.47630316546961982 0 0.21140626781342409 -0.46122374827882839 0 0.19650118937966099 -0.48458767462136337 0 0.21142085222808771 -0.48158275099342862 0 0.2054847406710314 -0.5 0 0.21142085222808771 -0.48158275099342862 0 0.2054847406710314 -0.5 0 0.22705200062754341 -0.49999999999999972 0 0.21142085222808771 -0.48158275099342862 0 0.22705200062754341 -0.49999999999999972 0 0.23068219321441441 -0.47630316546961982 0 0.22705200062754341 -0.49999999999999972 0 0.24310759435645521 -0.48732129405658853 0 0.23068219321441441 -0.47630316546961982 0 0.22705200062754341 -0.49999999999999972 0 0.23068219321441441 -0.47630316546961982 0 0.25573491640979129 -0.5 0 0.22705200062754341 -0.49999999999999972 0 0.24310759435645521 -0.48732129405658853 0 0.24310759435645521 -0.48732129405658853 0 0.24452211955108941 -0.47321082899062988 0 0.23068219321441441 -0.47630316546961982 0 0.23068219321441441 -0.47630316546961982 0 0.23431238580128549 -0.45260633093924002 0 0.23068219321441441 -0.47630316546961982 0 0.23431238580128549 -0.45260633093924002 0 0.21140626781342409 -0.46122374827882839 0 0.24452211955108941 -0.47321082899062988 0 0.23068219321441441 -0.47630316546961982 0 0.23431238580128549 -0.45260633093924002 0 0.25055382002994903 -0.45112655962101422 0 0.24452211955108941 -0.47321082899062988 0 0.23431238580128549 -0.45260633093924002 0 0.25055382002994903 -0.45112655962101422 0 0.23431238580128549 -0.45260633093924002 0 0.24845486683426421 -0.43056678600332871 0 0.23431238580128549 -0.45260633093924002 0 0.2061844358166085 -0.43731386343018219 0 0.22816721351006641 -0.42382217308135922 0 0.23431238580128549 -0.45260633093924002 0 0.21140626781342409 -0.46122374827882839 0 0.2061844358166085 -0.43731386343018219 0 0.21140626781342409 -0.46122374827882839 0 0.1958295915806266 -0.45496450832104018 0 0.2061844358166085 -0.43731386343018219 0 0.1995265252191368 -0.47051219141525807 0 0.1958295915806266 -0.45496450832104018 0 0.18247472509388471 -0.47020227486163019 0 0.1995265252191368 -0.47051219141525807 0 0.21140626781342409 -0.46122374827882839 0 0.1958295915806266 -0.45496450832104018 0 0.1958295915806266 -0.45496450832104018 0 0.2061844358166085 -0.43731386343018219 0 0.18103196947325001 -0.44040454972326271 0 0.19189840580791451 -0.42494462472696731 0 0.2061844358166085 -0.43731386343018219 0 0.18103196947325001 -0.44040454972326271 0 0.19189840580791451 -0.42494462472696731 0 0.1954291475964339 -0.41062193775622902 0 0.2113234447447021 -0.41044931469126889 0 0.19189840580791451 -0.42494462472696731 0 0.1954291475964339 -0.41062193775622902 0 0.17958921385261531 -0.41060682458489489 0 0.19189840580791451 -0.42494462472696731 0 0.2113234447447021 -0.41044931469126889 0 0.2061844358166085 -0.43731386343018219 0 0.2113234447447021 -0.41044931469126889 0 0.2061844358166085 -0.43731386343018219 0 0.22816721351006641 -0.42382217308135922 0 0.2113234447447021 -0.41044931469126889 0 0.2061844358166085 -0.43731386343018219 0 0.23431238580128549 -0.45260633093924002 0 0.22816721351006641 -0.42382217308135922 0 0.24845486683426421 -0.43056678600332871 0 0.22816721351006641 -0.42382217308135922 0 0.24845486683426421 -0.43056678600332871 0 0.24730388124056729 -0.40448370284608931 0 0.22816721351006641 -0.42382217308135922 0 0.22802948983690591 -0.39972126622214238 0 0.24730388124056729 -0.40448370284608931 0 0.2113234447447021 -0.41044931469126889 0 0.22816721351006641 -0.42382217308135922 0 0.22802948983690591 -0.39972126622214238 0 0.22802948983690591 -0.39972126622214238 0 0.24730388124056729 -0.40448370284608931 0 0.2380746425401753 -0.37739124482652259 0 0.26194523537769671 -0.38343407302417171 0 0.24730388124056729 -0.40448370284608931 0 0.2380746425401753 -0.37739124482652259 0 0.22802948983690591 -0.39972126622214238 0 0.2380746425401753 -0.37739124482652259 0 0.21646245367279571 -0.38358476595235552 0 0.21646245367279571 -0.38358476595235552 0 0.19890552598050351 -0.3964869870217847 0 0.2025217842010896 -0.37807387373583923 0 0.2113234447447021 -0.41044931469126889 0 0.22802948983690591 -0.39972126622214238 0 0.21646245367279571 -0.38358476595235552 0 0.2113234447447021 -0.41044931469126889 0 0.21646245367279571 -0.38358476595235552 0 0.2113234447447021 -0.41044931469126889 0 0.21646245367279571 -0.38358476595235552 0 0.19890552598050351 -0.3964869870217847 0 0.1954291475964339 -0.41062193775622902 0 0.2113234447447021 -0.41044931469126889 0 0.19890552598050351 -0.3964869870217847 0 0.1954291475964339 -0.41062193775622902 0 0.19890552598050351 -0.3964869870217847 0 0.17958921385261531 -0.41060682458489489 0 0.19890552598050351 -0.3964869870217847 0 0.19000045151593811 -0.3880482826985161 0 0.17958921385261531 -0.41060682458489489 0 0.19890552598050351 -0.3964869870217847 0 0.19000045151593811 -0.3880482826985161 0 0.2025217842010896 -0.37807387373583923 0 0.19083927531350181 -0.37426462870353422 0 0.19000045151593811 -0.3880482826985161 0 0.2025217842010896 -0.37807387373583923 0 0.19083927531350181 -0.37426462870353422 0 0.19000045151593811 -0.3880482826985161 0 0.17814645823198061 -0.38080909944652741 0 0.17814645823198061 -0.38080909944652741 0 0.17958921385261531 -0.41060682458489489 0 0.19000045151593811 -0.3880482826985161 0 0.17814645823198061 -0.38080909944652741 0 0.17958921385261531 -0.41060682458489489 0 0.17814645823198061 -0.38080909944652741 0 0.17073561596382039 -0.39301209499015272 0 0.17958921385261531 -0.41060682458489489 0 0.16300249929152311 -0.40501345282557782 0 0.1662516937484437 -0.37945746017663878 0 0.1548118257048379 -0.39098754083749682 0 0.17073561596382039 -0.39301209499015272 0 0.16300249929152311 -0.40501345282557782 0 0.1662516937484437 -0.37945746017663878 0 0.17073561596382039 -0.39301209499015272 0 0.16300249929152311 -0.40501345282557782 0 0.17958921385261531 -0.41060682458489489 0 0.16300249929152311 -0.40501345282557782 0 0.1662516937484437 -0.37945746017663878 0 0.1662516937484437 -0.37945746017663878 0 0.15122325216971341 -0.38057118911269922 0 0.1548118257048379 -0.39098754083749682 0 0.17814645823198061 -0.38080909944652741 0 0.17073561596382039 -0.39301209499015272 0 0.1662516937484437 -0.37945746017663878 0 0.15622266046030589 -0.36560529067035252 0 0.1662516937484437 -0.37945746017663878 0 0.15122325216971341 -0.38057118911269922 0 0.15122325216971341 -0.38057118911269922 0 0.13969723449876181 -0.39693417632104711 0 0.1548118257048379 -0.39098754083749682 0 0.13913284643621729 -0.36987147755796063 0 0.15122325216971341 -0.38057118911269922 0 0.13969723449876181 -0.39693417632104711 0 0.13913284643621729 -0.36987147755796063 0 0.12672469353237761 -0.38193719477194499 0 0.13969723449876181 -0.39693417632104711 0 0.13913284643621729 -0.36987147755796063 0 0.13969723449876181 -0.39693417632104711 0 0.12672469353237761 -0.38193719477194499 0 0.13969723449876181 -0.39693417632104711 0 0.1219351525082772 -0.40864131998943182 0 0.16300249929152311 -0.40501345282557782 0 0.13969723449876181 -0.39693417632104711 0 0.1524997256598466 -0.41582351463554701 0 0.16300249929152311 -0.40501345282557782 0 0.13969723449876181 -0.39693417632104711 0 0.1548118257048379 -0.39098754083749682 0 0.13969723449876181 -0.39693417632104711 0 0.1524997256598466 -0.41582351463554701 0 0.14026162256130631 -0.42399687508413381 0 0.13969723449876181 -0.39693417632104711 0 0.14026162256130631 -0.42399687508413381 0 0.13969723449876181 -0.39693417632104711 0 0.14026162256130631 -0.42399687508413381 0 0.1219351525082772 -0.40864131998943182 0 0.1272554141007321 -0.42571201066291808 0 0.14026162256130631 -0.42399687508413381 0 0.1219351525082772 -0.40864131998943182 0 0.13018508541287829 -0.43658956786597553 0 0.14026162256130631 -0.42399687508413381 0 0.14082601062385081 -0.45105957384722029 0 0.13018508541287829 -0.43658956786597553 0 0.1272554141007321 -0.42571201066291808 0 0.14026162256130631 -0.42399687508413381 0 0.1524997256598466 -0.41582351463554701 0 0.14026162256130631 -0.42399687508413381 0 0.15975330483460251 -0.43056944547451692 0 0.14026162256130631 -0.42399687508413381 0 0.15975330483460251 -0.43056944547451692 0 0.14082601062385081 -0.45105957384722029 0 0.16300249929152311 -0.40501345282557782 0 0.15975330483460251 -0.43056944547451692 0 0.17958921385261531 -0.41060682458489489 0 0.16300249929152311 -0.40501345282557782 0 0.15975330483460251 -0.43056944547451692 0 0.16300249929152311 -0.40501345282557782 0 0.1524997256598466 -0.41582351463554701 0 0.15975330483460251 -0.43056944547451692 0 0.15975330483460251 -0.43056944547451692 0 0.17958921385261531 -0.41060682458489489 0 0.18103196947325001 -0.44040454972326271 0 0.17958921385261531 -0.41060682458489489 0 0.18103196947325001 -0.44040454972326271 0 0.19189840580791451 -0.42494462472696731 0 0.17958921385261531 -0.41060682458489489 0 0.18103196947325001 -0.44040454972326271 0 0.18103196947325001 -0.44040454972326271 0 0.16491961284223791 -0.45249038001545161 0 0.18247472509388471 -0.47020227486163019 0 0.18103196947325001 -0.44040454972326271 0 0.18247472509388471 -0.47020227486163019 0 0.1958295915806266 -0.45496450832104018 0 0.18103196947325001 -0.44040454972326271 0 0.18247472509388471 -0.47020227486163019 0 0.16491961284223791 -0.45249038001545161 0 0.1605120541856016 -0.47021605617062739 0 0.18247472509388471 -0.47020227486163019 0 0.15975330483460251 -0.43056944547451692 0 0.18103196947325001 -0.44040454972326271 0 0.16491961284223791 -0.45249038001545161 0 0.15975330483460251 -0.43056944547451692 0 0.16491961284223791 -0.45249038001545161 0 0.14082601062385081 -0.45105957384722029 0 0.14026162256130631 -0.42399687508413381 0 0.14082601062385081 -0.45105957384722029 0 0.14082601062385081 -0.45105957384722029 0 0.12543676829432579 -0.44683393452868708 0 0.12531186358948529 -0.45757018679138572 0 0.13018508541287829 -0.43658956786597553 0 0.14082601062385081 -0.45105957384722029 0 0.12543676829432579 -0.44683393452868708 0 0.14082601062385081 -0.45105957384722029 0 0.12842365125323091 -0.46593607888014599 0 0.13328939848609819 -0.47119455711627289 0 0.14082601062385081 -0.45105957384722029 0 0.14139039868639619 -0.47812227261030682 0 0.13328939848609819 -0.47119455711627289 0 0.12842365125323091 -0.46593607888014599 0 0.12531186358948529 -0.45757018679138572 0 0.1232316263288145 -0.46410889533344052 0 0.12842365125323091 -0.46593607888014599 0 0.1245497287119053 -0.47085317529077592 0 0.12311265484265969 -0.46777846846391841 0 0.14082601062385081 -0.45105957384722029 0 0.12842365125323091 -0.46593607888014599 0 0.12531186358948529 -0.45757018679138572 0 0.16491961284223791 -0.45249038001545161 0 0.14082601062385081 -0.45105957384722029 0 0.1605120541856016 -0.47021605617062739 0 0.14082601062385081 -0.45105957384722029 0 0.14139039868639619 -0.47812227261030682 0 0.14082601062385081 -0.45105957384722029 0 0.14139039868639619 -0.47812227261030682 0 0.1605120541856016 -0.47021605617062739 0 0.14139039868639619 -0.47812227261030682 0 0.15939735020609169 -0.48906113630515408 0 0.1605120541856016 -0.47021605617062739 0 0.14139039868639619 -0.47812227261030682 0 0.15939735020609169 -0.48906113630515408 0 0.14139039868639619 -0.47812227261030682 0 0.13328939848609819 -0.47119455711627289 0 0.13520794413867351 -0.47916570768291911 0 0.14139039868639619 -0.47812227261030682 0 0.13520794413867351 -0.47916570768291911 0 0.13309005864575499 -0.48654881223837643 0 0.13328939848609819 -0.47119455711627289 0 0.13520794413867351 -0.47916570768291911 0 0.1282166063692238 -0.47963436787526348 0 0.13520794413867351 -0.47916570768291911 0 0.1282166063692238 -0.47963436787526348 0 0.13309005864575499 -0.48654881223837643 0 0.12842365125323091 -0.46593607888014599 0 0.1275076222339897 -0.47406719287555171 0 0.1245497287119053 -0.47085317529077592 0 0.12842365125323091 -0.46593607888014599 0 0.13328939848609819 -0.47119455711627289 0 0.1275076222339897 -0.47406719287555171 0 0.13328939848609819 -0.47119455711627289 0 0.1282166063692238 -0.47963436787526348 0 0.1275076222339897 -0.47406719287555171 0 0.1282166063692238 -0.47963436787526348 0 0.1275076222339897 -0.47406719287555171 0 0.12271037357175291 -0.47562361121234281 0 0.14139039868639619 -0.47812227261030682 0 0.13309005864575499 -0.48654881223837643 0 0.1417493920694651 -0.49533619053082339 0 0.1325088383252874 -0.49999999999999689 0 0.11946717228548211 -0.4870343347309507 0 0.1325088383252874 -0.49999999999999689 0 0.13309005864575499 -0.48654881223837643 0 0.11946717228548211 -0.4870343347309507 0 0.1282166063692238 -0.47963436787526348 0 0.13309005864575499 -0.48654881223837643 0 0.11946717228548211 -0.4870343347309507 0 0.1325088383252874 -0.49999999999999689 0 0.13309005864575499 -0.48654881223837643 0 0.1417493920694651 -0.49533619053082339 0 0.1325088383252874 -0.49999999999999689 0 0.1417493920694651 -0.49533619053082339 0 0.15495657002553739 -0.5 0 0.14139039868639619 -0.47812227261030682 0 0.14937342774687271 -0.49062989986157102 0 0.15939735020609169 -0.48906113630515408 0 0.14139039868639619 -0.47812227261030682 0 0.1417493920694651 -0.49533619053082339 0 0.14139039868639619 -0.47812227261030682 0 0.1417493920694651 -0.49533619053082339 0 0.14937342774687271 -0.49062989986157102 0 0.1417493920694651 -0.49533619053082339 0 0.14937342774687271 -0.49062989986157102 0 0.15495657002553739 -0.5 0 0.14937342774687271 -0.49062989986157102 0 0.15495657002553739 -0.5 0 0.15939735020609169 -0.48906113630515408 0 0.15939735020609169 -0.48906113630515408 0 0.17467337585270831 -0.48420504396041608 0 0.1774043017257875 -0.50000000000000111 0 0.15939735020609169 -0.48906113630515408 0 0.1774043017257875 -0.50000000000000111 0 0.15495657002553739 -0.5 0 0.15939735020609169 -0.48906113630515408 0 0.1774043017257875 -0.50000000000000111 0 0.15939735020609169 -0.48906113630515408 0 0.1605120541856016 -0.47021605617062739 0 0.17467337585270831 -0.48420504396041608 0 0.1605120541856016 -0.47021605617062739 0 0.17467337585270831 -0.48420504396041608 0 0.18247472509388471 -0.47020227486163019 0 0.18247472509388471 -0.47020227486163019 0 0.1839174807145193 -0.49999999999999789 0 0.17467337585270831 -0.48420504396041608 0 0.18247472509388471 -0.47020227486163019 0 0.1839174807145193 -0.49999999999999789 0 0.17467337585270831 -0.48420504396041608 0 0.1839174807145193 -0.49999999999999789 0 0.1774043017257875 -0.50000000000000111 0 0.065949985054517032 -0.48884997455687013 0 0.080677891680827868 -0.48404188118506331 0 0.084758324792090334 -0.49999999999999989 0 0.065949985054517032 -0.48884997455687013 0 0.084758324792090334 -0.49999999999999989 0 0.055728539092515517 -0.5 0 0.065949985054517032 -0.48884997455687013 0 0.069113753880103546 -0.47032146630200872 0 0.080677891680827868 -0.48404188118506331 0 0.065949985054517032 -0.48884997455687013 0 0.069113753880103546 -0.47032146630200872 0 0.057596711449277201 -0.48334309492942701 0 0.069113753880103546 -0.47032146630200872 0 0.080677891680827868 -0.48404188118506331 0 0.088790870678748121 -0.47481427013272492 0 0.069113753880103546 -0.47032146630200872 0 0.088790870678748121 -0.47481427013272492 0 0.09506323621333454 -0.46277261346061632 0 0.080677891680827868 -0.48404188118506331 0 0.088790870678748121 -0.47481427013272492 0 0.094776523998680279 -0.48622369493371298 0 0.080677891680827868 -0.48404188118506331 0 0.084758324792090334 -0.49999999999999989 0 0.094776523998680279 -0.48622369493371298 0 0.084758324792090334 -0.49999999999999989 0 0.10099043700106421 -0.499999999999999 0 0.094776523998680279 -0.48622369493371298 0 0.084758324792090334 -0.49999999999999989 0 0.094776523998680279 -0.48622369493371298 0 0.10099043700106421 -0.499999999999999 0 0.1064255062456735 -0.47406866946190801 0 0.10099043700106421 -0.499999999999999 0 0.094776523998680279 -0.48622369493371298 0 0.1064255062456735 -0.47406866946190801 0 0.10099043700106421 -0.499999999999999 0 0.11946717228548211 -0.4870343347309507 0 0.1064255062456735 -0.47406866946190801 0 0.1325088383252874 -0.49999999999999689 0 0.1167496376631757 -0.5 0 0.11946717228548211 -0.4870343347309507 0 0.10099043700106421 -0.499999999999999 0 0.1167496376631757 -0.5 0 0.11946717228548211 -0.4870343347309507 0 0.12074084002908721 -0.47045370359981148 0 0.12271037357175291 -0.47562361121234281 0 0.11625567037499381 -0.47238364776222469 0 0.12074084002908721 -0.47045370359981148 0 0.11625567037499381 -0.47238364776222469 0 0.1192823524431306 -0.4663394170250621 0 0.12074084002908721 -0.47045370359981148 0 0.1245497287119053 -0.47085317529077592 0 0.12271037357175291 -0.47562361121234281 0 0.12074084002908721 -0.47045370359981148 0 0.1245497287119053 -0.47085317529077592 0 0.12311265484265969 -0.46777846846391841 0 0.1275076222339897 -0.47406719287555171 0 0.1245497287119053 -0.47085317529077592 0 0.12271037357175291 -0.47562361121234281 0 0.1282166063692238 -0.47963436787526348 0 0.11946717228548211 -0.4870343347309507 0 0.12271037357175291 -0.47562361121234281 0 0.11946717228548211 -0.4870343347309507 0 0.12271037357175291 -0.47562361121234281 0 0.11625567037499381 -0.47238364776222469 0 0.11946717228548211 -0.4870343347309507 0 0.1064255062456735 -0.47406866946190801 0 0.11946717228548211 -0.4870343347309507 0 0.11625567037499381 -0.47238364776222469 0 0.1064255062456735 -0.47406866946190801 0 0.11625567037499381 -0.47238364776222469 0 0.1064255062456735 -0.47406866946190801 0 0.11129693947086181 -0.46795476393154728 0 0.1064255062456735 -0.47406866946190801 0 0.10479472320527 -0.47244738986742602 0 0.1075632658294263 -0.46864028970971422 0 0.1064255062456735 -0.47406866946190801 0 0.1075632658294263 -0.46864028970971422 0 0.11129693947086181 -0.46795476393154728 0 0.088790870678748121 -0.47481427013272492 0 0.094776523998680279 -0.48622369493371298 0 0.10479472320527 -0.47244738986742602 0 0.1064255062456735 -0.47406866946190801 0 0.1075632658294263 -0.46864028970971422 0 0.088790870678748121 -0.47481427013272492 0 0.10479472320527 -0.47244738986742602 0 0.09506323621333454 -0.46277261346061632 0 0.10479472320527 -0.47244738986742602 0 0.1075632658294263 -0.46864028970971422 0 0.1064255062456735 -0.47406866946190801 0 0.10479472320527 -0.47244738986742602 0 0.094776523998680279 -0.48622369493371298 0 0.1064255062456735 -0.47406866946190801 0 0.10479472320527 -0.47244738986742602 0 0.094776523998680279 -0.48622369493371298 0 0.10479472320527 -0.47244738986742602 0 0.10479472320527 -0.47244738986742602 0 0.09506323621333454 -0.46277261346061632 0 0.1060131744550812 -0.45411466011360518 0 0.1075632658294263 -0.46864028970971422 0 0.11260152047704799 -0.44460220652757759 0 0.09506323621333454 -0.46277261346061632 0 0.10011436795704159 -0.45274002486564408 0 0.091519926973447546 -0.44626784630584138 0 0.09506323621333454 -0.46277261346061632 0 0.10386028492466159 -0.46021350167150438 0 0.09506323621333454 -0.46277261346061632 0 0.10386028492466159 -0.46021350167150438 0 0.10011436795704159 -0.45274002486564408 0 0.10386028492466159 -0.46021350167150438 0 0.1060131744550812 -0.45411466011360518 0 0.10011436795704159 -0.45274002486564408 0 0.10386028492466159 -0.46021350167150438 0 0.1060131744550812 -0.45411466011360518 0 0.1075632658294263 -0.46864028970971422 0 0.10479472320527 -0.47244738986742602 0 0.09506323621333454 -0.46277261346061632 0 0.1075632658294263 -0.46864028970971422 0 0.09506323621333454 -0.46277261346061632 0 0.10386028492466159 -0.46021350167150438 0 0.1075632658294263 -0.46864028970971422 0 0.1075632658294263 -0.46864028970971422 0 0.1123560704600764 -0.46204957042440498 0 0.11260152047704799 -0.44460220652757759 0 0.1075632658294263 -0.46864028970971422 0 0.1123560704600764 -0.46204957042440498 0 0.1075632658294263 -0.46864028970971422 0 0.11129693947086181 -0.46795476393154728 0 0.1123560704600764 -0.46204957042440498 0 0.1075632658294263 -0.46864028970971422 0 0.11260152047704799 -0.44460220652757759 0 0.11129693947086181 -0.46795476393154728 0 0.1123560704600764 -0.46204957042440498 0 0.11129693947086181 -0.46795476393154728 0 0.1149697984784732 -0.46556593525158491 0 0.1123560704600764 -0.46204957042440498 0 0.11625567037499381 -0.47238364776222469 0 0.1149697984784732 -0.46556593525158491 0 0.1192823524431306 -0.4663394170250621 0 0.11625567037499381 -0.47238364776222469 0 0.11129693947086181 -0.46795476393154728 0 0.1149697984784732 -0.46556593525158491 0 0.1149697984784732 -0.46556593525158491 0 0.1123560704600764 -0.46204957042440498 0 0.118705430672609 -0.46205297743075813 0 0.1123560704600764 -0.46204957042440498 0 0.11635977570981471 -0.45654396370023359 0 0.118705430672609 -0.46205297743075813 0 0.1123560704600764 -0.46204957042440498 0 0.11635977570981471 -0.45654396370023359 0 0.12531186358948529 -0.45757018679138572 0 0.11635977570981471 -0.45654396370023359 0 0.118705430672609 -0.46205297743075813 0 0.12543676829432579 -0.44683393452868708 0 0.12531186358948529 -0.45757018679138572 0 0.11635977570981471 -0.45654396370023359 0 0.12531186358948529 -0.45757018679138572 0 0.1232316263288145 -0.46410889533344052 0 0.118705430672609 -0.46205297743075813 0 0.1232316263288145 -0.46410889533344052 0 0.12311265484265969 -0.46777846846391841 0 0.1192823524431306 -0.4663394170250621 0 0.12842365125323091 -0.46593607888014599 0 0.1232316263288145 -0.46410889533344052 0 0.12311265484265969 -0.46777846846391841 0 0.12074084002908721 -0.47045370359981148 0 0.12311265484265969 -0.46777846846391841 0 0.1192823524431306 -0.4663394170250621 0 0.1149697984784732 -0.46556593525158491 0 0.1192823524431306 -0.4663394170250621 0 0.118705430672609 -0.46205297743075813 0 0.1232316263288145 -0.46410889533344052 0 0.1192823524431306 -0.4663394170250621 0 0.118705430672609 -0.46205297743075813 0 0.1123560704600764 -0.46204957042440498 0 0.11714561148417681 -0.43534544520691831 0 0.1123560704600764 -0.46204957042440498 0 0.11260152047704799 -0.44460220652757759 0 0.11714561148417681 -0.43534544520691831 0 0.1123560704600764 -0.46204957042440498 0 0.11635977570981471 -0.45654396370023359 0 0.11714561148417681 -0.43534544520691831 0 0.12543676829432579 -0.44683393452868708 0 0.11635977570981471 -0.45654396370023359 0 0.11714561148417681 -0.43534544520691831 0 0.13018508541287829 -0.43658956786597553 0 0.12543676829432579 -0.44683393452868708 0 0.11714561148417681 -0.43534544520691831 0 0.10592643308722841 -0.44437727779358549 0 0.083881602994700072 -0.43088647549478237 0 0.10592643308722841 -0.44437727779358549 0 0.091519926973447546 -0.44626784630584138 0 0.083881602994700072 -0.43088647549478237 0 0.11260152047704799 -0.44460220652757759 0 0.10592643308722841 -0.44437727779358549 0 0.1086116799951807 -0.43095684568344572 0 0.1060131744550812 -0.45411466011360518 0 0.10592643308722841 -0.44437727779358549 0 0.10011436795704159 -0.45274002486564408 0 0.1060131744550812 -0.45411466011360518 0 0.11260152047704799 -0.44460220652757759 0 0.10592643308722841 -0.44437727779358549 0 0.10592643308722841 -0.44437727779358549 0 0.10011436795704159 -0.45274002486564408 0 0.091519926973447546 -0.44626784630584138 0 0.09506323621333454 -0.46277261346061632 0 0.073976492589610171 -0.44180875358221461 0 0.09506323621333454 -0.46277261346061632 0 0.091519926973447546 -0.44626784630584138 0 0.073976492589610171 -0.44180875358221461 0 0.091519926973447546 -0.44626784630584138 0 0.073976492589610171 -0.44180875358221461 0 0.083881602994700072 -0.43088647549478237 0 0.069113753880103546 -0.47032146630200872 0 0.09506323621333454 -0.46277261346061632 0 0.09506323621333454 -0.46277261346061632 0 0.075948319170580939 -0.45709497223106438 0 0.073976492589610171 -0.44180875358221461 0 0.069113753880103546 -0.47032146630200872 0 0.09506323621333454 -0.46277261346061632 0 0.075948319170580939 -0.45709497223106438 0 0.069113753880103546 -0.47032146630200872 0 0.075948319170580939 -0.45709497223106438 0 0.064267892493667544 -0.45245405090636609 0 0.064267892493667544 -0.45245405090636609 0 0.073976492589610171 -0.44180875358221461 0 0.061221704008603092 -0.43412854505433712 0 0.075948319170580939 -0.45709497223106438 0 0.064267892493667544 -0.45245405090636609 0 0.073976492589610171 -0.44180875358221461 0 0.083881602994700072 -0.43088647549478237 0 0.061836772902171017 -0.41739567319598042 0 0.061221704008603092 -0.43412854505433712 0 0.073976492589610171 -0.44180875358221461 0 0.083881602994700072 -0.43088647549478237 0 0.061221704008603092 -0.43412854505433712 0 0.083881602994700072 -0.43088647549478237 0 0.061836772902171017 -0.41739567319598042 0 0.087852613914545186 -0.40334306140395609 0 0.070156507476487037 -0.39917662383738439 0 0.061836772902171017 -0.41739567319598042 0 0.087852613914545186 -0.40334306140395609 0 0.061836772902171017 -0.41739567319598042 0 0.090204007114443943 -0.4177400312392191 0 0.087852613914545186 -0.40334306140395609 0 0.061836772902171017 -0.41739567319598042 0 0.090204007114443943 -0.4177400312392191 0 0.083881602994700072 -0.43088647549478237 0 0.061836772902171017 -0.41739567319598042 0 0.090204007114443943 -0.4177400312392191 0 0.083881602994700072 -0.43088647549478237 0 0.10022705322515101 -0.42809075962971732 0 0.10592643308722841 -0.44437727779358549 0 0.083881602994700072 -0.43088647549478237 0 0.10022705322515101 -0.42809075962971732 0 0.10592643308722841 -0.44437727779358549 0 0.10022705322515101 -0.42809075962971732 0 0.1086116799951807 -0.43095684568344572 0 0.10022705322515101 -0.42809075962971732 0 0.1086116799951807 -0.43095684568344572 0 0.10561771621597441 -0.41891116251106192 0 0.11260152047704799 -0.44460220652757759 0 0.11714561148417681 -0.43534544520691831 0 0.11763977512467 -0.42056412334544119 0 0.11714561148417681 -0.43534544520691831 0 0.1219351525082772 -0.40864131998943182 0 0.11260152047704799 -0.44460220652757759 0 0.11763977512467 -0.42056412334544119 0 0.11260152047704799 -0.44460220652757759 0 0.1086116799951807 -0.43095684568344572 0 0.11763977512467 -0.42056412334544119 0 0.1272554141007321 -0.42571201066291808 0 0.11714561148417681 -0.43534544520691831 0 0.1219351525082772 -0.40864131998943182 0 0.1086116799951807 -0.43095684568344572 0 0.11763977512467 -0.42056412334544119 0 0.10561771621597441 -0.41891116251106192 0 0.13018508541287829 -0.43658956786597553 0 0.1272554141007321 -0.42571201066291808 0 0.11714561148417681 -0.43534544520691831 0 0.1219351525082772 -0.40864131998943182 0 0.11763977512467 -0.42056412334544119 0 0.1226780297722921 -0.39652604016330478 0 0.11763977512467 -0.42056412334544119 0 0.1063857367604352 -0.40565829933023112 0 0.1226780297722921 -0.39652604016330478 0 0.11714561148417681 -0.43534544520691831 0 0.1219351525082772 -0.40864131998943182 0 0.11763977512467 -0.42056412334544119 0 0.11763977512467 -0.42056412334544119 0 0.1226780297722921 -0.39652604016330478 0 0.11763977512467 -0.42056412334544119 0 0.10561771621597441 -0.41891116251106192 0 0.1063857367604352 -0.40565829933023112 0 0.090204007114443943 -0.4177400312392191 0 0.1063857367604352 -0.40565829933023112 0 0.087852613914545186 -0.40334306140395609 0 0.090204007114443943 -0.4177400312392191 0 0.10561771621597441 -0.41891116251106192 0 0.1063857367604352 -0.40565829933023112 0 0.090204007114443943 -0.4177400312392191 0 0.10022705322515101 -0.42809075962971732 0 0.10561771621597441 -0.41891116251106192 0 0.1063857367604352 -0.40565829933023112 0 0.11269819459067421 -0.38831450138448881 0 0.097085641119374302 -0.38571424072610178 0 0.1063857367604352 -0.40565829933023112 0 0.097085641119374302 -0.38571424072610178 0 0.087852613914545186 -0.40334306140395609 0 0.12672469353237761 -0.38193719477194499 0 0.1219351525082772 -0.40864131998943182 0 0.1063857367604352 -0.40565829933023112 0 0.1226780297722921 -0.39652604016330478 0 0.11269819459067421 -0.38831450138448881 0 0.12672469353237761 -0.38193719477194499 0 0.1219351525082772 -0.40864131998943182 0 0.1226780297722921 -0.39652604016330478 0 0.12672469353237761 -0.38193719477194499 0 0.11269819459067421 -0.38831450138448881 0 0.1080928822255358 -0.3703790814713866 0 0.12672469353237761 -0.38193719477194499 0 0.1226780297722921 -0.39652604016330478 0 0.11269819459067421 -0.38831450138448881 0 0.11269819459067421 -0.38831450138448881 0 0.097085641119374302 -0.38571424072610178 0 0.1080928822255358 -0.3703790814713866 0 0.097085641119374302 -0.38571424072610178 0 0.078524092076429908 -0.38558307009035819 0 0.085574671404253372 -0.36606529366265911 0 0.097085641119374302 -0.38571424072610178 0 0.078524092076429908 -0.38558307009035819 0 0.087852613914545186 -0.40334306140395609 0 0.078524092076429908 -0.38558307009035819 0 0.087852613914545186 -0.40334306140395609 0 0.070156507476487037 -0.39917662383738439 0 0.078524092076429908 -0.38558307009035819 0 0.070156507476487037 -0.39917662383738439 0 0.064141871653705745 -0.38905297891460661 0 0.070156507476487037 -0.39917662383738439 0 0.058427186835583247 -0.40050833558202109 0 0.061836772902171017 -0.41739567319598042 0 0.070156507476487037 -0.39917662383738439 0 0.064141871653705745 -0.38905297891460661 0 0.058427186835583247 -0.40050833558202109 0 0.078524092076429908 -0.38558307009035819 0 0.064141871653705745 -0.38905297891460661 0 0.064781398010314309 -0.37536455347105108 0 0.078524092076429908 -0.38558307009035819 0 0.064781398010314309 -0.37536455347105108 0 0.085574671404253372 -0.36606529366265911 0 0.064781398010314309 -0.37536455347105108 0 0.05115882120843647 -0.38571757356542352 0 0.043890455581289831 -0.3709268115488259 0 0.05115882120843647 -0.38571757356542352 0 0.043890455581289831 -0.3709268115488259 0 0.064141871653705745 -0.38905297891460661 0 0.064781398010314309 -0.37536455347105108 0 0.05115882120843647 -0.38571757356542352 0 0.064141871653705745 -0.38905297891460661 0 0.05115882120843647 -0.38571757356542352 0 0.058427186835583247 -0.40050833558202109 0 0.05115882120843647 -0.38571757356542352 0 0.058427186835583247 -0.40050833558202109 0 0.05115882120843647 -0.38571757356542352 0 0.058427186835583247 -0.40050833558202109 0 0.039291666751458072 -0.38953557003537942 0 0.058427186835583247 -0.40050833558202109 0 0.03861507037192409 -0.403184658796582 0 0.039291666751458072 -0.38953557003537942 0 0.039291666751458072 -0.38953557003537942 0 0.030780854092194759 -0.38031894893150719 0 0.043890455581289831 -0.3709268115488259 0 0.05115882120843647 -0.38571757356542352 0 0.039291666751458072 -0.38953557003537942 0 0.043890455581289831 -0.3709268115488259 0 0.030780854092194759 -0.38031894893150719 0 0.043890455581289831 -0.3709268115488259 0 0.030780854092194759 -0.38031894893150719 0 0.0132535835722172 -0.37610527220974688 0 0.01539336784167648 -0.38897364439718468 0 0.039291666751458072 -0.38953557003537942 0 0.030780854092194759 -0.38031894893150719 0 0.01539336784167648 -0.38897364439718468 0 0.030780854092194759 -0.38031894893150719 0 0.0132535835722172 -0.37610527220974688 0 0.022072978528308879 -0.36937310690127451 0 -0.0078283346885702904 -0.37476262999778609 0 -0.0023576536845698339 -0.39611583857600319 0 0.01539336784167648 -0.38897364439718468 0 -0.0078283346885702904 -0.37476262999778609 0 0.01539336784167648 -0.38897364439718468 0 -0.0078283346885702904 -0.37476262999778609 0 0.0132535835722172 -0.37610527220974688 0 0.01539336784167648 -0.38897364439718468 0 -0.0023576536845698339 -0.39611583857600319 0 -0.0081630895937607941 -0.41129335178386173 0 0.01158543002224671 -0.40754374071996963 0 -0.0023576536845698339 -0.39611583857600319 0 0.01539336784167648 -0.38897364439718468 0 0.01158543002224671 -0.40754374071996963 0 0.03861507037192409 -0.403184658796582 0 0.039291666751458072 -0.38953557003537942 0 0.01539336784167648 -0.38897364439718468 0 0.03861507037192409 -0.403184658796582 0 0.01539336784167648 -0.38897364439718468 0 0.026736383496206509 -0.41290648431754168 0 0.01539336784167648 -0.38897364439718468 0 0.026736383496206509 -0.41290648431754168 0 0.01158543002224671 -0.40754374071996963 0 0.03861507037192409 -0.403184658796582 0 0.01539336784167648 -0.38897364439718468 0 0.026736383496206509 -0.41290648431754168 0 0.01158543002224671 -0.40754374071996963 0 0.01747615232015888 -0.42514842909431222 0 0.026736383496206509 -0.41290648431754168 0 0.01747615232015888 -0.42514842909431222 0 0.02768083642208749 -0.42593076319487821 0 0.01158543002224671 -0.40754374071996963 0 0.0026957591361241309 -0.41958824334712869 0 0.01747615232015888 -0.42514842909431222 0 -0.0081630895937607941 -0.41129335178386173 0 0.01158543002224671 -0.40754374071996963 0 0.0026957591361241309 -0.41958824334712869 0 0.0026957591361241309 -0.41958824334712869 0 0.003851027954898749 -0.43172418954792041 0 0.01747615232015888 -0.42514842909431222 0 0.003851027954898749 -0.43172418954792041 0 0.01410030331848921 -0.43483725365991388 0 0.01747615232015888 -0.42514842909431222 0 0.003851027954898749 -0.43172418954792041 0 0.01410030331848921 -0.43483725365991388 0 0.011432193992105429 -0.44462200732167467 0 0.01747615232015888 -0.42514842909431222 0 0.023728282280598981 -0.43798020184644493 0 0.01410030331848921 -0.43483725365991388 0 0.01747615232015888 -0.42514842909431222 0 0.023728282280598981 -0.43798020184644493 0 0.01747615232015888 -0.42514842909431222 0 0.02768083642208749 -0.42593076319487821 0 0.023728282280598981 -0.43798020184644493 0 0.026736383496206509 -0.41290648431754168 0 0.02768083642208749 -0.42593076319487821 0 0.042782527591385587 -0.42768793752121392 0 0.042782527591385587 -0.42768793752121392 0 0.023728282280598981 -0.43798020184644493 0 0.02768083642208749 -0.42593076319487821 0 0.042782527591385587 -0.42768793752121392 0 0.023728282280598981 -0.43798020184644493 0 0.042782527591385587 -0.42768793752121392 0 0.038339333849137569 -0.44224603439757942 0 0.023728282280598981 -0.43798020184644493 0 0.03861507037192409 -0.403184658796582 0 0.026736383496206509 -0.41290648431754168 0 0.042782527591385587 -0.42768793752121392 0 0.03861507037192409 -0.403184658796582 0 0.042782527591385587 -0.42768793752121392 0 0.061836772902171017 -0.41739567319598042 0 0.03861507037192409 -0.403184658796582 0 0.061836772902171017 -0.41739567319598042 0 0.058427186835583247 -0.40050833558202109 0 0.03861507037192409 -0.403184658796582 0 0.061836772902171017 -0.41739567319598042 0 0.042782527591385587 -0.42768793752121392 0 0.061836772902171017 -0.41739567319598042 0 0.061221704008603092 -0.43412854505433712 0 0.042782527591385587 -0.42768793752121392 0 0.061836772902171017 -0.41739567319598042 0 0.042782527591385587 -0.42768793752121392 0 0.061221704008603092 -0.43412854505433712 0 0.052693917870023622 -0.44730825455084611 0 0.064267892493667544 -0.45245405090636609 0 0.061221704008603092 -0.43412854505433712 0 0.052693917870023622 -0.44730825455084611 0 0.069113753880103546 -0.47032146630200872 0 0.064267892493667544 -0.45245405090636609 0 0.052594011880735161 -0.46258963849414558 0 0.064267892493667544 -0.45245405090636609 0 0.052693917870023622 -0.44730825455084611 0 0.052594011880735161 -0.46258963849414558 0 0.033446276913734967 -0.45792526049492271 0 0.024747075647264399 -0.46972246297684461 0 0.043164271546872197 -0.4778703191434 0 0.052693917870023622 -0.44730825455084611 0 0.052594011880735161 -0.46258963849414558 0 0.033446276913734967 -0.45792526049492271 0 0.052594011880735161 -0.46258963849414558 0 0.033446276913734967 -0.45792526049492271 0 0.043164271546872197 -0.4778703191434 0 0.033446276913734967 -0.45792526049492271 0 0.043164271546872197 -0.4778703191434 0 0.042782527591385587 -0.42768793752121392 0 0.052693917870023622 -0.44730825455084611 0 0.038339333849137569 -0.44224603439757942 0 0.033446276913734967 -0.45792526049492271 0 0.038339333849137569 -0.44224603439757942 0 0.023728282280598981 -0.43798020184644493 0 0.052693917870023622 -0.44730825455084611 0 0.033446276913734967 -0.45792526049492271 0 0.038339333849137569 -0.44224603439757942 0 0.023728282280598981 -0.43798020184644493 0 0.011432193992105429 -0.44462200732167467 0 0.01779212199045099 -0.45571080357091009 0 0.033446276913734967 -0.45792526049492271 0 0.023728282280598981 -0.43798020184644493 0 0.033446276913734967 -0.45792526049492271 0 0.023728282280598981 -0.43798020184644493 0 0.01779212199045099 -0.45571080357091009 0 0.023728282280598981 -0.43798020184644493 0 0.011432193992105429 -0.44462200732167467 0 0.01410030331848921 -0.43483725365991388 0 0.023728282280598981 -0.43798020184644493 0 0.011432193992105429 -0.44462200732167467 0 -0.01027783979290609 -0.4450418277695869 0 0.011432193992105429 -0.44462200732167467 0 0.0031349746952128348 -0.45732154608844711 0 -0.01027783979290609 -0.4450418277695869 0 0.003851027954898749 -0.43172418954792041 0 0.011432193992105429 -0.44462200732167467 0 0.011432193992105429 -0.44462200732167467 0 0.0031349746952128348 -0.45732154608844711 0 0.01779212199045099 -0.45571080357091009 0 -0.00094907817261298132 -0.47112804672216879 0 0.0031349746952128348 -0.45732154608844711 0 0.01026392841378935 -0.46669334269712659 0 0.0031349746952128348 -0.45732154608844711 0 0.01026392841378935 -0.46669334269712659 0 0.01779212199045099 -0.45571080357091009 0 0.01026392841378935 -0.46669334269712659 0 0.01779212199045099 -0.45571080357091009 0 0.024747075647264399 -0.46972246297684461 0 0.033446276913734967 -0.45792526049492271 0 0.01779212199045099 -0.45571080357091009 0 0.024747075647264399 -0.46972246297684461 0 0.024747075647264399 -0.46972246297684461 0 0.019392481307258409 -0.48478566889839131 0 0.043164271546872197 -0.4778703191434 0 0.01026392841378935 -0.46669334269712659 0 0.024747075647264399 -0.46972246297684461 0 0.019392481307258409 -0.48478566889839131 0 0.01026392841378935 -0.46669334269712659 0 0.0053352152350804568 -0.4807791696356124 0 0.019392481307258409 -0.48478566889839131 0 -0.0043176495648967151 -0.48070428616945038 0 -0.00094907817261298132 -0.47112804672216879 0 0.0053352152350804568 -0.4807791696356124 0 -0.00094907817261298132 -0.47112804672216879 0 0.01026392841378935 -0.46669334269712659 0 0.0053352152350804568 -0.4807791696356124 0 -0.0023310323066341181 -0.5 0 -0.0043793089323552817 -0.49170101865338262 0 0.019392481307258409 -0.48478566889839131 0 -0.0043793089323552817 -0.49170101865338262 0 0.019392481307258409 -0.48478566889839131 0 -0.0043793089323552817 -0.49170101865338262 0 0.0053352152350804568 -0.4807791696356124 0 0.019392481307258409 -0.48478566889839131 0 -0.0023310323066341181 -0.5 0 0.019392481307258409 -0.48478566889839131 0 0.026698753392940699 -0.5 0 0.019392481307258409 -0.48478566889839131 0 0.026698753392940699 -0.5 0 0.035353585390671842 -0.48974665193930511 0 0.035353585390671842 -0.48974665193930511 0 0.043164271546872197 -0.4778703191434 0 0.052158835315616027 -0.49633061971542908 0 0.026698753392940699 -0.5 0 0.055728539092515517 -0.5 0 0.052158835315616027 -0.49633061971542908 0 0.026698753392940699 -0.5 0 0.035353585390671842 -0.48974665193930511 0 0.052158835315616027 -0.49633061971542908 0 0.019392481307258409 -0.48478566889839131 0 0.035353585390671842 -0.48974665193930511 0 0.043164271546872197 -0.4778703191434 0 0.019392481307258409 -0.48478566889839131 0 0.043164271546872197 -0.4778703191434 0 0.069113753880103546 -0.47032146630200872 0 0.052594011880735161 -0.46258963849414558 0 0.043164271546872197 -0.4778703191434 0 0.069113753880103546 -0.47032146630200872 0 0.043164271546872197 -0.4778703191434 0 0.057596711449277201 -0.48334309492942701 0 0.069113753880103546 -0.47032146630200872 0 0.043164271546872197 -0.4778703191434 0 0.043164271546872197 -0.4778703191434 0 0.057596711449277201 -0.48334309492942701 0 0.052158835315616027 -0.49633061971542908 0 0.065949985054517032 -0.48884997455687013 0 0.057596711449277201 -0.48334309492942701 0 0.052158835315616027 -0.49633061971542908 0 0.043164271546872197 -0.4778703191434 0 0.052158835315616027 -0.49633061971542908 0 0.065949985054517032 -0.48884997455687013 0 0.055728539092515517 -0.5 0 0.052158835315616027 -0.49633061971542908 0 0.091646396761647708 -0.28947790237370968 0 0.07071546022358817 -0.28620470259943642 0 0.079999995207784586 -0.26983589460815821 0 0.091646396761647708 -0.28947790237370968 0 0.072783535289555654 -0.30157633939854622 0 0.07071546022358817 -0.28620470259943642 0 0.091646396761647708 -0.28947790237370968 0 0.087363613427391865 -0.30807629250996549 0 0.072783535289555654 -0.30157633939854622 0 0.072783535289555654 -0.30157633939854622 0 0.073259594084162577 -0.32259772896999273 0 0.056038135353808333 -0.31320409925325249 0 0.087363613427391865 -0.30807629250996549 0 0.072783535289555654 -0.30157633939854622 0 0.073259594084162577 -0.32259772896999273 0 0.072783535289555654 -0.30157633939854622 0 0.07071546022358817 -0.28620470259943642 0 0.04944647540011983 -0.29680206833493911 0 0.07071546022358817 -0.28620470259943642 0 0.079999995207784586 -0.26983589460815821 0 0.059700898458833078 -0.27333130828182889 0 0.06835359365392131 -0.25019388684260668 0 0.079999995207784586 -0.26983589460815821 0 0.08421140423371333 -0.243891226620808 0 0.06835359365392131 -0.25019388684260668 0 0.079999995207784586 -0.26983589460815821 0 0.06835359365392131 -0.25019388684260668 0 0.079999995207784586 -0.26983589460815821 0 0.059700898458833078 -0.27333130828182889 0 0.079999995207784586 -0.26983589460815821 0 0.097662046653794854 -0.25561444261418242 0 0.08421140423371333 -0.243891226620808 0 0.079999995207784586 -0.26983589460815821 0 0.1034904733698796 -0.27103876000237981 0 0.097662046653794854 -0.25561444261418242 0 0.091646396761647708 -0.28947790237370968 0 0.079999995207784586 -0.26983589460815821 0 0.091646396761647708 -0.28947790237370968 0 0.079999995207784586 -0.26983589460815821 0 0.1034904733698796 -0.27103876000237981 0 0.1034904733698796 -0.27103876000237981 0 0.097662046653794854 -0.25561444261418242 0 0.1147239364606354 -0.25215539330366038 0 0.13687529418603939 -0.26162068250561471 0 0.1147239364606354 -0.25215539330366038 0 0.1223190960555403 -0.2394332616338683 0 0.1034904733698796 -0.27103876000237981 0 0.1147239364606354 -0.25215539330366038 0 0.12122917553908071 -0.27280048239714111 0 0.13687529418603939 -0.26162068250561471 0 0.1147239364606354 -0.25215539330366038 0 0.12122917553908071 -0.27280048239714111 0 0.1034904733698796 -0.27103876000237981 0 0.12122917553908071 -0.27280048239714111 0 0.11361649143026541 -0.29050419490534962 0 0.13743968224858391 -0.28868338126870119 0 0.12122917553908071 -0.27280048239714111 0 0.11361649143026541 -0.29050419490534962 0 0.091646396761647708 -0.28947790237370968 0 0.11361649143026541 -0.29050419490534962 0 0.10329279831551071 -0.3091199101392611 0 0.091646396761647708 -0.28947790237370968 0 0.1034904733698796 -0.27103876000237981 0 0.11361649143026541 -0.29050419490534962 0 0.091646396761647708 -0.28947790237370968 0 0.10329279831551071 -0.3091199101392611 0 0.091646396761647708 -0.28947790237370968 0 0.087363613427391865 -0.30807629250996549 0 0.10329279831551071 -0.3091199101392611 0 0.11361649143026541 -0.29050419490534962 0 0.10329279831551071 -0.3091199101392611 0 0.1207194796176513 -0.31206082339016011 0 0.13743968224858391 -0.28868338126870119 0 0.11361649143026541 -0.29050419490534962 0 0.1207194796176513 -0.31206082339016011 0 0.10329279831551071 -0.3091199101392611 0 0.11030782598785099 -0.32334328523235578 0 0.1149391998693738 -0.32876191790481257 0 0.10329279831551071 -0.3091199101392611 0 0.1207194796176513 -0.31206082339016011 0 0.1149391998693738 -0.32876191790481257 0 0.127277047630593 -0.32368123984794023 0 0.1207194796176513 -0.31206082339016011 0 0.1149391998693738 -0.32876191790481257 0 0.1252730154641265 -0.33501756179834041 0 0.127277047630593 -0.32368123984794023 0 0.1149391998693738 -0.32876191790481257 0 0.11030782598785099 -0.32334328523235578 0 0.1149391998693738 -0.32876191790481257 0 0.1071562875265276 -0.34088406714172798 0 0.1252730154641265 -0.33501756179834041 0 0.1149391998693738 -0.32876191790481257 0 0.1203073559828662 -0.34481831064573482 0 0.1149391998693738 -0.32876191790481257 0 0.1071562875265276 -0.34088406714172798 0 0.1203073559828662 -0.34481831064573482 0 0.11030782598785099 -0.32334328523235578 0 0.1071562875265276 -0.34088406714172798 0 0.088168702518997374 -0.33920446067117932 0 0.11030782598785099 -0.32334328523235578 0 0.088168702518997374 -0.33920446067117932 0 0.11030782598785099 -0.32334328523235578 0 0.092685396428672781 -0.32103820683708328 0 0.088168702518997374 -0.33920446067117932 0 0.10329279831551071 -0.3091199101392611 0 0.11030782598785099 -0.32334328523235578 0 0.092685396428672781 -0.32103820683708328 0 0.087363613427391865 -0.30807629250996549 0 0.10329279831551071 -0.3091199101392611 0 0.092685396428672781 -0.32103820683708328 0 0.10329279831551071 -0.3091199101392611 0 0.1149391998693738 -0.32876191790481257 0 0.1245186505824013 -0.36113750934922573 0 0.111761677400382 -0.35565256239397869 0 0.1080928822255358 -0.3703790814713866 0 0.12672469353237761 -0.38193719477194499 0 0.1245186505824013 -0.36113750934922573 0 0.1080928822255358 -0.3703790814713866 0 0.1245186505824013 -0.36113750934922573 0 0.111761677400382 -0.35565256239397869 0 0.1203073559828662 -0.34481831064573482 0 0.1071562875265276 -0.34088406714172798 0 0.111761677400382 -0.35565256239397869 0 0.1203073559828662 -0.34481831064573482 0 0.1071562875265276 -0.34088406714172798 0 0.09828664694928807 -0.35383226801130691 0 0.088168702518997374 -0.33920446067117932 0 0.1071562875265276 -0.34088406714172798 0 0.111761677400382 -0.35565256239397869 0 0.09828664694928807 -0.35383226801130691 0 0.097085641119374302 -0.38571424072610178 0 0.1080928822255358 -0.3703790814713866 0 0.085574671404253372 -0.36606529366265911 0 0.111761677400382 -0.35565256239397869 0 0.09828664694928807 -0.35383226801130691 0 0.1080928822255358 -0.3703790814713866 0 0.09828664694928807 -0.35383226801130691 0 0.1080928822255358 -0.3703790814713866 0 0.085574671404253372 -0.36606529366265911 0 0.085574671404253372 -0.36606529366265911 0 0.066029579050143783 -0.35506563611000291 0 0.088168702518997374 -0.33920446067117932 0 0.09828664694928807 -0.35383226801130691 0 0.085574671404253372 -0.36606529366265911 0 0.088168702518997374 -0.33920446067117932 0 0.066029579050143783 -0.35506563611000291 0 0.088168702518997374 -0.33920446067117932 0 0.064781398010314309 -0.37536455347105108 0 0.085574671404253372 -0.36606529366265911 0 0.066029579050143783 -0.35506563611000291 0 0.066029579050143783 -0.35506563611000291 0 0.088168702518997374 -0.33920446067117932 0 0.073259594084162577 -0.32259772896999273 0 0.066029579050143783 -0.35506563611000291 0 0.073259594084162577 -0.32259772896999273 0 0.048222299164917798 -0.333319266554439 0 0.092685396428672781 -0.32103820683708328 0 0.088168702518997374 -0.33920446067117932 0 0.073259594084162577 -0.32259772896999273 0 0.087363613427391865 -0.30807629250996549 0 0.092685396428672781 -0.32103820683708328 0 0.073259594084162577 -0.32259772896999273 0 0.073259594084162577 -0.32259772896999273 0 0.056038135353808333 -0.31320409925325249 0 0.048222299164917798 -0.333319266554439 0 0.056038135353808333 -0.31320409925325249 0 0.048222299164917798 -0.333319266554439 0 0.036478772830285791 -0.31172509300834528 0 0.048222299164917798 -0.333319266554439 0 0.033610930591278822 -0.35000849021355163 0 0.023331405601267931 -0.32909016887827719 0 0.048222299164917798 -0.333319266554439 0 0.023331405601267931 -0.32909016887827719 0 0.036478772830285791 -0.31172509300834528 0 0.066029579050143783 -0.35506563611000291 0 0.048355778033110031 -0.35315995845717169 0 0.043890455581289831 -0.3709268115488259 0 0.066029579050143783 -0.35506563611000291 0 0.043890455581289831 -0.3709268115488259 0 0.064781398010314309 -0.37536455347105108 0 0.066029579050143783 -0.35506563611000291 0 0.043890455581289831 -0.3709268115488259 0 0.066029579050143783 -0.35506563611000291 0 0.048222299164917798 -0.333319266554439 0 0.048355778033110031 -0.35315995845717169 0 0.048222299164917798 -0.333319266554439 0 0.048355778033110031 -0.35315995845717169 0 0.033610930591278822 -0.35000849021355163 0 0.048355778033110031 -0.35315995845717169 0 0.033610930591278822 -0.35000849021355163 0 0.043890455581289831 -0.3709268115488259 0 0.033610930591278822 -0.35000849021355163 0 0.03286340713970079 -0.36889202113574671 0 0.043890455581289831 -0.3709268115488259 0 0.033610930591278822 -0.35000849021355163 0 0.043890455581289831 -0.3709268115488259 0 0.030780854092194759 -0.38031894893150719 0 0.03286340713970079 -0.36889202113574671 0 0.043890455581289831 -0.3709268115488259 0 0.033610930591278822 -0.35000849021355163 0 0.03286340713970079 -0.36889202113574671 0 0.022072978528308879 -0.36937310690127451 0 0.030780854092194759 -0.38031894893150719 0 0.03286340713970079 -0.36889202113574671 0 0.022072978528308879 -0.36937310690127451 0 0.033610930591278822 -0.35000849021355163 0 0.022072978528308879 -0.36937310690127451 0 0.014393680356963701 -0.35536411395587292 0 0.033610930591278822 -0.35000849021355163 0 0.014393680356963701 -0.35536411395587292 0 0.0105762414372169 -0.3395135522035268 0 -0.00014080085946228561 -0.35082738964002957 0 0.014393680356963701 -0.35536411395587292 0 0.0105762414372169 -0.3395135522035268 0 -0.00014080085946228561 -0.35082738964002957 0 0.014393680356963701 -0.35536411395587292 0 0.0058490520874761691 -0.36709803082098191 0 0.022072978528308879 -0.36937310690127451 0 0.014393680356963701 -0.35536411395587292 0 0.0058490520874761691 -0.36709803082098191 0 0.022072978528308879 -0.36937310690127451 0 0.0058490520874761691 -0.36709803082098191 0 0.0132535835722172 -0.37610527220974688 0 0.022072978528308879 -0.36937310690127451 0 0.0058490520874761691 -0.36709803082098191 0 -0.0078283346885702904 -0.37476262999778609 0 0.0132535835722172 -0.37610527220974688 0 0.0058490520874761691 -0.36709803082098191 0 0.023331405601267931 -0.32909016887827719 0 0.013051880611257029 -0.30817184754300292 0 0.023331405601267931 -0.32909016887827719 0 0.013051880611257029 -0.30817184754300292 0 0.036478772830285791 -0.31172509300834528 0 0.033610930591278822 -0.35000849021355163 0 0.023331405601267931 -0.32909016887827719 0 0.0105762414372169 -0.3395135522035268 0 0.033610930591278822 -0.35000849021355163 0 0.023331405601267931 -0.32909016887827719 0 0.023331405601267931 -0.32909016887827719 0 0.0105762414372169 -0.3395135522035268 0 3.5896068887442723e-05 -0.32803491845883598 0 -0.00014080085946228561 -0.35082738964002957 0 0.0105762414372169 -0.3395135522035268 0 3.5896068887442723e-05 -0.32803491845883598 0 -0.0063780240591087903 -0.31078717533589839 0 3.5896068887442723e-05 -0.32803491845883598 0 0.013051880611257029 -0.30817184754300292 0 0.023331405601267931 -0.32909016887827719 0 3.5896068887442723e-05 -0.32803491845883598 0 0.013051880611257029 -0.30817184754300292 0 0.013051880611257029 -0.30817184754300292 0 0.0027723556212477219 -0.28725352620772771 0 0.0027723556212477219 -0.28725352620772771 0 0.026109415510684009 -0.29202779727133188 0 -0.0017476628817073611 -0.27805551369469472 0 0.0027723556212477219 -0.28725352620772771 0 0.01602201902671789 -0.28191194131808539 0 0.013051880611257029 -0.30817184754300292 0 0.0027723556212477219 -0.28725352620772771 0 0.026109415510684009 -0.29202779727133188 0 0.0027723556212477219 -0.28725352620772771 0 0.026109415510684009 -0.29202779727133188 0 0.01602201902671789 -0.28191194131808539 0 -0.0074917523477661804 -0.29461577546968681 0 0.013051880611257029 -0.30817184754300292 0 0.0027723556212477219 -0.28725352620772771 0 -0.0017476628817073611 -0.27805551369469472 0 0.0027723556212477219 -0.28725352620772771 0 0.026109415510684009 -0.29202779727133188 0 0.01602201902671789 -0.28191194131808539 0 0.036314123194761641 -0.27872041929058161 0 0.013051880611257029 -0.30817184754300292 0 0.026109415510684009 -0.29202779727133188 0 0.036478772830285791 -0.31172509300834528 0 0.026109415510684009 -0.29202779727133188 0 0.036478772830285791 -0.31172509300834528 0 0.04944647540011983 -0.29680206833493911 0 0.026109415510684009 -0.29202779727133188 0 0.04944647540011983 -0.29680206833493911 0 0.036314123194761641 -0.27872041929058161 0 0.026109415510684009 -0.29202779727133188 0 0.04944647540011983 -0.29680206833493911 0 0.04944647540011983 -0.29680206833493911 0 0.059700898458833078 -0.27333130828182889 0 0.036314123194761641 -0.27872041929058161 0 0.07071546022358817 -0.28620470259943642 0 0.04944647540011983 -0.29680206833493911 0 0.059700898458833078 -0.27333130828182889 0 0.072783535289555654 -0.30157633939854622 0 0.04944647540011983 -0.29680206833493911 0 0.056038135353808333 -0.31320409925325249 0 0.036478772830285791 -0.31172509300834528 0 0.04944647540011983 -0.29680206833493911 0 0.072783535289555654 -0.30157633939854622 0 0.056038135353808333 -0.31320409925325249 0 0.04944647540011983 -0.29680206833493911 0 0.06835359365392131 -0.25019388684260668 0 0.044986508142045613 -0.25948109579330381 0 0.047362788675733028 -0.24199119006041811 0 0.06835359365392131 -0.25019388684260668 0 0.059700898458833078 -0.27333130828182889 0 0.044986508142045613 -0.25948109579330381 0 0.06835359365392131 -0.25019388684260668 0 0.044986508142045613 -0.25948109579330381 0 0.059700898458833078 -0.27333130828182889 0 0.036314123194761641 -0.27872041929058161 0 0.044986508142045613 -0.25948109579330381 0 0.036314123194761641 -0.27872041929058161 0 0.044986508142045613 -0.25948109579330381 0 0.02161942263016943 -0.26876830474400021 0 0.044986508142045613 -0.25948109579330381 0 0.02161942263016943 -0.26876830474400021 0 0.044986508142045613 -0.25948109579330381 0 0.029973277209287209 -0.25054958921230208 0 0.02161942263016943 -0.26876830474400021 0 0.044986508142045613 -0.25948109579330381 0 0.029973277209287209 -0.25054958921230208 0 0.047362788675733028 -0.24199119006041811 0 0.029973277209287209 -0.25054958921230208 0 0.015960739131678031 -0.25406337006458851 0 0.02161942263016943 -0.26876830474400021 0 0.01602201902671789 -0.28191194131808539 0 0.036314123194761641 -0.27872041929058161 0 0.02161942263016943 -0.26876830474400021 0 -0.0017476628817073611 -0.27805551369469472 0 0.01602201902671789 -0.28191194131808539 0 0.02161942263016943 -0.26876830474400021 0 -0.0017476628817073611 -0.27805551369469472 0 0.02161942263016943 -0.26876830474400021 0 -0.0017476628817073611 -0.27805551369469472 0 0.02161942263016943 -0.26876830474400021 0 0.0057386521092319797 -0.26220041049146298 0 0.015960739131678031 -0.25406337006458851 0 0.02161942263016943 -0.26876830474400021 0 0.0057386521092319797 -0.26220041049146298 0 0.015960739131678031 -0.25406337006458851 0 0.0057386521092319797 -0.26220041049146298 0 0.0025328853753160741 -0.24958102673793139 0 0.0010854142569982001 -0.23807309260292489 0 0.010575476039053681 -0.22730954243123891 0 0.017210747296828609 -0.24036453645492739 0 0.0010854142569982001 -0.23807309260292489 0 0.0025328853753160741 -0.24958102673793139 0 0.017210747296828609 -0.24036453645492739 0 0.015960739131678031 -0.25406337006458851 0 0.0025328853753160741 -0.24958102673793139 0 0.017210747296828609 -0.24036453645492739 0 -0.0061584899570064598 -0.22962027277065361 0 0.0010854142569982001 -0.23807309260292489 0 0.010575476039053681 -0.22730954243123891 0 -0.0061584899570064598 -0.22962027277065361 0 0.010575476039053681 -0.22730954243123891 0 0.0064165675551885711 -0.21575046092143421 0 -0.0061584899570064598 -0.22962027277065361 0 0.0064165675551885711 -0.21575046092143421 0 0.010575476039053681 -0.22730954243123891 0 0.0064165675551885711 -0.21575046092143421 0 0.021509429760601551 -0.21557394742371069 0 0.010575476039053681 -0.22730954243123891 0 0.0064165675551885711 -0.21575046092143421 0 0.010575476039053681 -0.22730954243123891 0 0.02225812238200572 -0.22838936745028471 0 0.017210747296828609 -0.24036453645492739 0 0.010575476039053681 -0.22730954243123891 0 0.02225812238200572 -0.22838936745028471 0 0.021509429760601551 -0.21557394742371069 0 0.02225812238200572 -0.22838936745028471 0 0.029479073121619459 -0.22118232130399371 0 0.021509429760601551 -0.21557394742371069 0 0.02225812238200572 -0.22838936745028471 0 0.029479073121619459 -0.22118232130399371 0 0.031866256870133697 -0.23515517363185631 0 0.029973277209287209 -0.25054958921230208 0 0.017210747296828609 -0.24036453645492739 0 0.031866256870133697 -0.23515517363185631 0 0.02225812238200572 -0.22838936745028471 0 0.017210747296828609 -0.24036453645492739 0 0.031866256870133697 -0.23515517363185631 0 0.029973277209287209 -0.25054958921230208 0 0.015960739131678031 -0.25406337006458851 0 0.017210747296828609 -0.24036453645492739 0 -0.0015622250741301779 -0.1935745667631632 0 0.01896638504685547 -0.20190848785827681 0 0.0091962193441852118 -0.18107109871456811 0 -0.0015622250741301779 -0.1935745667631632 0 0.0064165675551885711 -0.21575046092143421 0 0.01896638504685547 -0.20190848785827681 0 -0.0015622250741301779 -0.1935745667631632 0 0.0064165675551885711 -0.21575046092143421 0 0.0064165675551885711 -0.21575046092143421 0 0.01896638504685547 -0.20190848785827681 0 0.0064165675551885711 -0.21575046092143421 0 0.021509429760601551 -0.21557394742371069 0 0.01896638504685547 -0.20190848785827681 0 0.029479073121619459 -0.22118232130399371 0 0.021509429760601551 -0.21557394742371069 0 0.033558692489570878 -0.21195100443687931 0 0.021509429760601551 -0.21557394742371069 0 0.029251690937081031 -0.20258635003767089 0 0.033558692489570878 -0.21195100443687931 0 0.021509429760601551 -0.21557394742371069 0 0.01896638504685547 -0.20190848785827681 0 0.029251690937081031 -0.20258635003767089 0 0.01896638504685547 -0.20190848785827681 0 0.031516202538524517 -0.1880665147951214 0 0.0091962193441852118 -0.18107109871456811 0 0.01896638504685547 -0.20190848785827681 0 0.029251690937081031 -0.20258635003767089 0 0.031516202538524517 -0.1880665147951214 0 0.01896638504685547 -0.20190848785827681 0 0.031516202538524517 -0.1880665147951214 0 0.043838458457815248 -0.18986676967386279 0 0.039506267971797952 -0.20154200132731501 0 0.055741541871671067 -0.19352675789948551 0 0.043838458457815248 -0.18986676967386279 0 0.031516202538524517 -0.1880665147951214 0 0.039506267971797952 -0.20154200132731501 0 0.031516202538524517 -0.1880665147951214 0 0.039506267971797952 -0.20154200132731501 0 0.029251690937081031 -0.20258635003767089 0 0.031516202538524517 -0.1880665147951214 0 0.039506267971797952 -0.20154200132731501 0 0.039506267971797952 -0.20154200132731501 0 0.033558692489570878 -0.21195100443687931 0 0.047496333405074677 -0.2150174878595065 0 0.039506267971797952 -0.20154200132731501 0 0.047496333405074677 -0.2150174878595065 0 0.029251690937081031 -0.20258635003767089 0 0.039506267971797952 -0.20154200132731501 0 0.033558692489570878 -0.21195100443687931 0 0.033558692489570878 -0.21195100443687931 0 0.047496333405074677 -0.2150174878595065 0 0.033558692489570878 -0.21195100443687931 0 0.047496333405074677 -0.2150174878595065 0 0.039554961726260877 -0.22474601638733641 0 0.039506267971797952 -0.20154200132731501 0 0.047496333405074677 -0.2150174878595065 0 0.05523956109653505 -0.20714630445374671 0 0.047496333405074677 -0.2150174878595065 0 0.05523956109653505 -0.20714630445374671 0 0.064206587222380762 -0.21869398638814641 0 0.047496333405074677 -0.2150174878595065 0 0.064206587222380762 -0.21869398638814641 0 0.039506267971797952 -0.20154200132731501 0 0.05523956109653505 -0.20714630445374671 0 0.055741541871671067 -0.19352675789948551 0 0.05523956109653505 -0.20714630445374671 0 0.055741541871671067 -0.19352675789948551 0 0.069247075011750078 -0.20695128879428309 0 0.055741541871671067 -0.19352675789948551 0 0.069247075011750078 -0.20695128879428309 0 0.029973277209287209 -0.25054958921230208 0 0.031866256870133697 -0.23515517363185631 0 0.047362788675733028 -0.24199119006041811 0 0.031866256870133697 -0.23515517363185631 0 0.039554961726260877 -0.22474601638733641 0 0.047362788675733028 -0.24199119006041811 0 0.029479073121619459 -0.22118232130399371 0 0.031866256870133697 -0.23515517363185631 0 0.039554961726260877 -0.22474601638733641 0 0.029479073121619459 -0.22118232130399371 0 0.033558692489570878 -0.21195100443687931 0 0.039554961726260877 -0.22474601638733641 0 0.047496333405074677 -0.2150174878595065 0 0.05536207860111314 -0.2282833045590259 0 0.064206587222380762 -0.21869398638814641 0 0.05536207860111314 -0.2282833045590259 0 0.063311866646695691 -0.24149928944984211 0 0.064206587222380762 -0.21869398638814641 0 0.039554961726260877 -0.22474601638733641 0 0.05536207860111314 -0.2282833045590259 0 0.047362788675733028 -0.24199119006041811 0 0.047496333405074677 -0.2150174878595065 0 0.039554961726260877 -0.22474601638733641 0 0.05536207860111314 -0.2282833045590259 0 0.047496333405074677 -0.2150174878595065 0 0.05536207860111314 -0.2282833045590259 0 0.05536207860111314 -0.2282833045590259 0 0.063311866646695691 -0.24149928944984211 0 0.06835359365392131 -0.25019388684260668 0 0.047362788675733028 -0.24199119006041811 0 0.063311866646695691 -0.24149928944984211 0 0.05536207860111314 -0.2282833045590259 0 0.047362788675733028 -0.24199119006041811 0 0.063311866646695691 -0.24149928944984211 0 0.06835359365392131 -0.25019388684260668 0 0.08421140423371333 -0.243891226620808 0 0.06835359365392131 -0.25019388684260668 0 0.063311866646695691 -0.24149928944984211 0 0.063311866646695691 -0.24149928944984211 0 0.074219814037010917 -0.24224782663387789 0 0.081086434463253185 -0.23335707181355411 0 0.06835359365392131 -0.25019388684260668 0 0.063311866646695691 -0.24149928944984211 0 0.074219814037010917 -0.24224782663387789 0 0.06835359365392131 -0.25019388684260668 0 0.074219814037010917 -0.24224782663387789 0 0.08421140423371333 -0.243891226620808 0 0.08421140423371333 -0.243891226620808 0 0.081086434463253185 -0.23335707181355411 0 0.10006921481350529 -0.2375885663990091 0 0.08421140423371333 -0.243891226620808 0 0.10006921481350529 -0.2375885663990091 0 0.074219814037010917 -0.24224782663387789 0 0.08421140423371333 -0.243891226620808 0 0.081086434463253185 -0.23335707181355411 0 0.081086434463253185 -0.23335707181355411 0 0.085851572697872774 -0.2234561975504171 0 0.10006921481350529 -0.2375885663990091 0 0.085851572697872774 -0.2234561975504171 0 0.08275260815182911 -0.2203758196890806 0 0.098293187803831117 -0.21887499219370271 0 0.085851572697872774 -0.2234561975504171 0 0.10006921481350529 -0.2375885663990091 0 0.081086434463253185 -0.23335707181355411 0 0.085851572697872774 -0.2234561975504171 0 0.080916841039686133 -0.2223704849167896 0 0.085851572697872774 -0.2234561975504171 0 0.080916841039686133 -0.2223704849167896 0 0.085851572697872774 -0.2234561975504171 0 0.08275260815182911 -0.2203758196890806 0 0.080916841039686133 -0.2223704849167896 0 0.085851572697872774 -0.2234561975504171 0 0.08275260815182911 -0.2203758196890806 0 0.08275260815182911 -0.2203758196890806 0 0.080916841039686133 -0.2223704849167896 0 0.063311866646695691 -0.24149928944984211 0 0.080916841039686133 -0.2223704849167896 0 0.063311866646695691 -0.24149928944984211 0 0.080916841039686133 -0.2223704849167896 0 0.064206587222380762 -0.21869398638814641 0 0.080916841039686133 -0.2223704849167896 0 0.064206587222380762 -0.21869398638814641 0 0.063311866646695691 -0.24149928944984211 0 0.081086434463253185 -0.23335707181355411 0 0.080916841039686133 -0.2223704849167896 0 0.080916841039686133 -0.2223704849167896 0 0.064206587222380762 -0.21869398638814641 0 0.069247075011750078 -0.20695128879428309 0 0.05523956109653505 -0.20714630445374671 0 0.064206587222380762 -0.21869398638814641 0 0.069247075011750078 -0.20695128879428309 0 0.08275260815182911 -0.2203758196890806 0 0.069247075011750078 -0.20695128879428309 0 0.08275260815182911 -0.2203758196890806 0 0.080916841039686133 -0.2223704849167896 0 0.069247075011750078 -0.20695128879428309 0 0.055741541871671067 -0.19352675789948551 0 0.069247075011750078 -0.20695128879428309 0 0.070887819862862286 -0.1914088031202833 0 0.069247075011750078 -0.20695128879428309 0 0.070887819862862286 -0.1914088031202833 0 0.082832551139222166 -0.19914513048671481 0 0.070887819862862286 -0.1914088031202833 0 0.082832551139222166 -0.19914513048671481 0 0.081821336385090343 -0.18186245165470949 0 0.082832551139222166 -0.19914513048671481 0 0.097084301305641635 -0.20480362112478781 0 0.095405874932467813 -0.18887779734800569 0 0.082832551139222166 -0.19914513048671481 0 0.095405874932467813 -0.18887779734800569 0 0.081821336385090343 -0.18186245165470949 0 0.08275260815182911 -0.2203758196890806 0 0.082832551139222166 -0.19914513048671481 0 0.097084301305641635 -0.20480362112478781 0 0.08275260815182911 -0.2203758196890806 0 0.069247075011750078 -0.20695128879428309 0 0.082832551139222166 -0.19914513048671481 0 0.08275260815182911 -0.2203758196890806 0 0.097084301305641635 -0.20480362112478781 0 0.098293187803831117 -0.21887499219370271 0 0.08275260815182911 -0.2203758196890806 0 0.097084301305641635 -0.20480362112478781 0 0.097084301305641635 -0.20480362112478781 0 0.1146962174531268 -0.21673223195775559 0 0.098293187803831117 -0.21887499219370271 0 0.097084301305641635 -0.20480362112478781 0 0.095405874932467813 -0.18887779734800569 0 0.11141599445945349 -0.1892314225604943 0 0.097084301305641635 -0.20480362112478781 0 0.11141599445945349 -0.1892314225604943 0 0.097084301305641635 -0.20480362112478781 0 0.1210323504124224 -0.2015702574875764 0 0.11141599445945349 -0.1892314225604943 0 0.1210323504124224 -0.2015702574875764 0 0.11141599445945349 -0.1892314225604943 0 0.13523084618428721 -0.18276855246186111 0 0.1210323504124224 -0.2015702574875764 0 0.1146962174531268 -0.21673223195775559 0 0.13583218450739579 -0.2116030352811932 0 0.097084301305641635 -0.20480362112478781 0 0.1210323504124224 -0.2015702574875764 0 0.1146962174531268 -0.21673223195775559 0 0.1110812394106853 -0.22900709064647229 0 0.12594488917549271 -0.2231145762792166 0 0.1363109061234978 -0.23455798374252809 0 0.1110812394106853 -0.22900709064647229 0 0.1223190960555403 -0.2394332616338683 0 0.1363109061234978 -0.23455798374252809 0 0.1110812394106853 -0.22900709064647229 0 0.1363109061234978 -0.23455798374252809 0 0.1146962174531268 -0.21673223195775559 0 0.1110812394106853 -0.22900709064647229 0 0.12594488917549271 -0.2231145762792166 0 0.1110812394106853 -0.22900709064647229 0 0.1223190960555403 -0.2394332616338683 0 0.1084330749156753 -0.23426436422737831 0 0.1147239364606354 -0.25215539330366038 0 0.1223190960555403 -0.2394332616338683 0 0.1084330749156753 -0.23426436422737831 0 0.097662046653794854 -0.25561444261418242 0 0.1147239364606354 -0.25215539330366038 0 0.10006921481350529 -0.2375885663990091 0 0.1147239364606354 -0.25215539330366038 0 0.10006921481350529 -0.2375885663990091 0 0.1084330749156753 -0.23426436422737831 0 0.097662046653794854 -0.25561444261418242 0 0.08421140423371333 -0.243891226620808 0 0.10006921481350529 -0.2375885663990091 0 0.10006921481350529 -0.2375885663990091 0 0.1084330749156753 -0.23426436422737831 0 0.1147239364606354 -0.25215539330366038 0 0.10006921481350529 -0.2375885663990091 0 0.085851572697872774 -0.2234561975504171 0 0.1110812394106853 -0.22900709064647229 0 0.1146962174531268 -0.21673223195775559 0 0.1110812394106853 -0.22900709064647229 0 0.098293187803831117 -0.21887499219370271 0 0.085851572697872774 -0.2234561975504171 0 0.1110812394106853 -0.22900709064647229 0 0.098293187803831117 -0.21887499219370271 0 0.085851572697872774 -0.2234561975504171 0 0.1110812394106853 -0.22900709064647229 0 0.10006921481350529 -0.2375885663990091 0 0.1110812394106853 -0.22900709064647229 0 0.10006921481350529 -0.2375885663990091 0 0.1084330749156753 -0.23426436422737831 0 0.1040552578412003 -0.15282191894301261 0 0.1005807427949069 -0.13366374688330029 0 0.11727103389215909 -0.1361484369810822 0 0.1005807427949069 -0.13366374688330029 0 0.11727103389215909 -0.1361484369810822 0 0.1051359327507693 -0.1227177542784853 0 0.1040552578412003 -0.15282191894301261 0 0.1005807427949069 -0.13366374688330029 0 0.082362828069140165 -0.1319846138898183 0 0.11727103389215909 -0.1361484369810822 0 0.1154331983948798 -0.1174886032934183 0 0.13404900744611239 -0.12609877526333699 0 0.11727103389215909 -0.1361484369810822 0 0.1051359327507693 -0.1227177542784853 0 0.1154331983948798 -0.1174886032934183 0 0.1040552578412003 -0.15282191894301261 0 0.11727103389215909 -0.1361484369810822 0 0.1232701832726428 -0.15427141090171109 0 0.11727103389215909 -0.1361484369810822 0 0.1232701832726428 -0.15427141090171109 0 0.13444198148756639 -0.1449420832838656 0 0.1040552578412003 -0.15282191894301261 0 0.12574768761326591 -0.17365922399620121 0 0.1040552578412003 -0.15282191894301261 0 0.1002282447692335 -0.17458527697826651 0 0.12574768761326591 -0.17365922399620121 0 0.1040552578412003 -0.15282191894301261 0 0.1232701832726428 -0.15427141090171109 0 0.12574768761326591 -0.17365922399620121 0 0.11141599445945349 -0.1892314225604943 0 0.1002282447692335 -0.17458527697826651 0 0.12574768761326591 -0.17365922399620121 0 0.11141599445945349 -0.1892314225604943 0 0.12574768761326591 -0.17365922399620121 0 0.13523084618428721 -0.18276855246186111 0 0.11141599445945349 -0.1892314225604943 0 0.12574768761326591 -0.17365922399620121 0 0.095405874932467813 -0.18887779734800569 0 0.11141599445945349 -0.1892314225604943 0 0.1002282447692335 -0.17458527697826651 0 0.1040552578412003 -0.15282191894301261 0 0.1002282447692335 -0.17458527697826651 0 0.08311303581058499 -0.16124853818171381 0 0.095405874932467813 -0.18887779734800569 0 0.1002282447692335 -0.17458527697826651 0 0.081821336385090343 -0.18186245165470949 0 0.1002282447692335 -0.17458527697826651 0 0.08311303581058499 -0.16124853818171381 0 0.081821336385090343 -0.18186245165470949 0 0.08311303581058499 -0.16124853818171381 0 0.081821336385090343 -0.18186245165470949 0 0.066780308608768796 -0.17493307235476979 0 0.070887819862862286 -0.1914088031202833 0 0.081821336385090343 -0.18186245165470949 0 0.066780308608768796 -0.17493307235476979 0 0.055741541871671067 -0.19352675789948551 0 0.070887819862862286 -0.1914088031202833 0 0.066780308608768796 -0.17493307235476979 0 0.08311303581058499 -0.16124853818171381 0 0.066780308608768796 -0.17493307235476979 0 0.065413952892267702 -0.150678580858252 0 0.065413952892267702 -0.150678580858252 0 0.082362828069140165 -0.1319846138898183 0 0.08311303581058499 -0.16124853818171381 0 0.065413952892267702 -0.150678580858252 0 0.082362828069140165 -0.1319846138898183 0 0.1040552578412003 -0.15282191894301261 0 0.08311303581058499 -0.16124853818171381 0 0.082362828069140165 -0.1319846138898183 0 0.1040552578412003 -0.15282191894301261 0 0.082362828069140165 -0.1319846138898183 0 0.1005807427949069 -0.13366374688330029 0 0.082362828069140165 -0.1319846138898183 0 0.095577299328253623 -0.1174095529111252 0 0.082362828069140165 -0.1319846138898183 0 0.070308403876621794 -0.13238109852993221 0 0.069837722907261313 -0.1199532536492431 0 0.065413952892267702 -0.150678580858252 0 0.082362828069140165 -0.1319846138898183 0 0.070308403876621794 -0.13238109852993221 0 0.082362828069140165 -0.1319846138898183 0 0.069837722907261313 -0.1199532536492431 0 0.065413952892267702 -0.150678580858252 0 0.070308403876621794 -0.13238109852993221 0 0.06118566078759103 -0.13005342953014129 0 0.070308403876621794 -0.13238109852993221 0 0.06118566078759103 -0.13005342953014129 0 0.069837722907261313 -0.1199532536492431 0 0.065413952892267702 -0.150678580858252 0 0.06118566078759103 -0.13005342953014129 0 0.053245925046226952 -0.14076102386291889 0 0.06118566078759103 -0.13005342953014129 0 0.049352038069647858 -0.1295439288512826 0 0.048525659269531229 -0.11802361343548989 0 0.049352038069647858 -0.1295439288512826 0 0.053245925046226952 -0.14076102386291889 0 0.041700188437408421 -0.13409859591225329 0 0.06118566078759103 -0.13005342953014129 0 0.049352038069647858 -0.1295439288512826 0 0.053245925046226952 -0.14076102386291889 0 0.065413952892267702 -0.150678580858252 0 0.053245925046226952 -0.14076102386291889 0 0.048465077715394989 -0.16937254782668559 0 0.053245925046226952 -0.14076102386291889 0 0.040505841312838547 -0.14468304457988079 0 0.048465077715394989 -0.16937254782668559 0 0.040505841312838547 -0.14468304457988079 0 0.03393783807298914 -0.14093707321474161 0 0.030230252537669321 -0.1566253376229266 0 0.040505841312838547 -0.14468304457988079 0 0.030230252537669321 -0.1566253376229266 0 0.040505841312838547 -0.14468304457988079 0 0.03393783807298914 -0.14093707321474161 0 0.041700188437408421 -0.13409859591225329 0 0.03393783807298914 -0.14093707321474161 0 0.041700188437408421 -0.13409859591225329 0 0.024480650806643651 -0.1375151559245551 0 0.041700188437408421 -0.13409859591225329 0 0.042102756807481732 -0.1247829815156095 0 0.031290738437872938 -0.1201921761368282 0 0.049352038069647858 -0.1295439288512826 0 0.041700188437408421 -0.13409859591225329 0 0.042102756807481732 -0.1247829815156095 0 0.053245925046226952 -0.14076102386291889 0 0.040505841312838547 -0.14468304457988079 0 0.041700188437408421 -0.13409859591225329 0 0.055741541871671067 -0.19352675789948551 0 0.066780308608768796 -0.17493307235476979 0 0.048465077715394989 -0.16937254782668559 0 0.043838458457815248 -0.18986676967386279 0 0.055741541871671067 -0.19352675789948551 0 0.048465077715394989 -0.16937254782668559 0 0.066780308608768796 -0.17493307235476979 0 0.065413952892267702 -0.150678580858252 0 0.048465077715394989 -0.16937254782668559 0 0.065413952892267702 -0.150678580858252 0 0.048465077715394989 -0.16937254782668559 0 0.040505841312838547 -0.14468304457988079 0 0.048465077715394989 -0.16937254782668559 0 0.030230252537669321 -0.1566253376229266 0 0.048465077715394989 -0.16937254782668559 0 0.033338822752702377 -0.1705348433046637 0 0.030230252537669321 -0.1566253376229266 0 0.043838458457815248 -0.18986676967386279 0 0.031516202538524517 -0.1880665147951214 0 0.048465077715394989 -0.16937254782668559 0 0.031516202538524517 -0.1880665147951214 0 0.048465077715394989 -0.16937254782668559 0 0.031516202538524517 -0.1880665147951214 0 0.048465077715394989 -0.16937254782668559 0 0.033338822752702377 -0.1705348433046637 0 0.031516202538524517 -0.1880665147951214 0 0.033338822752702377 -0.1705348433046637 0 0.01995466376250531 -0.16856763066597699 0 0.031516202538524517 -0.1880665147951214 0 0.01995466376250531 -0.16856763066597699 0 0.031516202538524517 -0.1880665147951214 0 0.01995466376250531 -0.16856763066597699 0 0.0091962193441852118 -0.18107109871456811 0 0.01995466376250531 -0.16856763066597699 0 0.030230252537669321 -0.1566253376229266 0 0.008868239412810253 -0.14987004135808221 0 0.033338822752702377 -0.1705348433046637 0 0.01995466376250531 -0.16856763066597699 0 0.030230252537669321 -0.1566253376229266 0 0.01995466376250531 -0.16856763066597699 0 0.030230252537669321 -0.1566253376229266 0 -0.0025999653858941639 -0.16131422913783491 0 0.0067086063528142403 -0.16809244781376179 0 0.008868239412810253 -0.14987004135808221 0 0.01995466376250531 -0.16856763066597699 0 0.008868239412810253 -0.14987004135808221 0 0.01995466376250531 -0.16856763066597699 0 0.0067086063528142403 -0.16809244781376179 0 0.008868239412810253 -0.14987004135808221 0 -0.0084927016390539001 -0.17431231470194719 0 0.0067086063528142403 -0.16809244781376179 0 0.0091962193441852118 -0.18107109871456811 0 0.01995466376250531 -0.16856763066597699 0 0.0091962193441852118 -0.18107109871456811 0 0.01995466376250531 -0.16856763066597699 0 0.0067086063528142403 -0.16809244781376179 0 0.0091962193441852118 -0.18107109871456811 0 -0.0015622250741301779 -0.1935745667631632 0 0.0091962193441852118 -0.18107109871456811 0 0.041700188437408421 -0.13409859591225329 0 0.014197789575412951 -0.12328672932727321 0 0.031290738437872938 -0.1201921761368282 0 0.041700188437408421 -0.13409859591225329 0 0.024480650806643651 -0.1375151559245551 0 0.014197789575412951 -0.12328672932727321 0 0.041700188437408421 -0.13409859591225329 0 0.014197789575412951 -0.12328672932727321 0 0.024480650806643651 -0.1375151559245551 0 0.011332123714495041 -0.13546109466502479 0 0.014197789575412951 -0.12328672932727321 0 0.03393783807298914 -0.14093707321474161 0 0.030230252537669321 -0.1566253376229266 0 0.024480650806643651 -0.1375151559245551 0 0.030230252537669321 -0.1566253376229266 0 0.024480650806643651 -0.1375151559245551 0 0.008868239412810253 -0.14987004135808221 0 0.024480650806643651 -0.1375151559245551 0 0.008868239412810253 -0.14987004135808221 0 0.011332123714495041 -0.13546109466502479 0 -0.00221818493688669 -0.13117245205018849 0 -0.0031786103040098569 -0.14705450477373769 0 0.008868239412810253 -0.14987004135808221 0 -0.0031786103040098569 -0.14705450477373769 0 -0.0025999653858941639 -0.16131422913783491 0 0.008868239412810253 -0.14987004135808221 0 -0.00221818493688669 -0.13117245205018849 0 0.008868239412810253 -0.14987004135808221 0 -0.00221818493688669 -0.13117245205018849 0 0.011332123714495041 -0.13546109466502479 0 0.014197789575412951 -0.12328672932727321 0 -0.00221818493688669 -0.13117245205018849 0 0.008868239412810253 -0.14987004135808221 0 0.011332123714495041 -0.13546109466502479 0 -0.013304609286582791 -0.1124748627422944 0 0.014197789575412951 -0.12328672932727321 0 0.014197789575412951 -0.12328672932727321 0 0.020945276257035669 -0.1055296092587116 0 0.0046245275045138064 -0.1076828264142336 0 -0.013304609286582791 -0.1124748627422944 0 0.014197789575412951 -0.12328672932727321 0 0.0046245275045138064 -0.1076828264142336 0 0.014197789575412951 -0.12328672932727321 0 0.020945276257035669 -0.1055296092587116 0 0.031290738437872938 -0.1201921761368282 0 0.020945276257035669 -0.1055296092587116 0 0.031290738437872938 -0.1201921761368282 0 0.040241467446851142 -0.1026788937802551 0 0.020945276257035669 -0.1055296092587116 0 0.028115865357471449 -0.087896533900266943 0 0.040241467446851142 -0.1026788937802551 0 0.020945276257035669 -0.1055296092587116 0 0.0072012692200917657 -0.09144049599341271 0 0.028115865357471449 -0.087896533900266943 0 -0.0070294542012635762 -0.10327829347153671 0 0.0046245275045138064 -0.1076828264142336 0 0.0072012692200917657 -0.09144049599341271 0 0.020945276257035669 -0.1055296092587116 0 0.0046245275045138064 -0.1076828264142336 0 0.0072012692200917657 -0.09144049599341271 0 0.0072012692200917657 -0.09144049599341271 0 0.0054575408194632406 -0.073720759659108445 0 0.018511759797904249 -0.077210571545524964 0 -0.0056293594721457006 -0.082036805430144924 0 0.0072012692200917657 -0.09144049599341271 0 0.0054575408194632406 -0.073720759659108445 0 0.0054575408194632406 -0.073720759659108445 0 0.018354718881549058 -0.065167425818499949 0 0.003426744450576454 -0.054815297075420773 0 -0.0072319765520409062 -0.068818796064575097 0 0.0054575408194632406 -0.073720759659108445 0 0.003426744450576454 -0.054815297075420773 0 0.0054575408194632406 -0.073720759659108445 0 0.018354718881549058 -0.065167425818499949 0 0.018511759797904249 -0.077210571545524964 0 0.018511759797904249 -0.077210571545524964 0 0.028115865357471449 -0.087896533900266943 0 0.033429404710945708 -0.067827642356336801 0 0.018354718881549058 -0.065167425818499949 0 0.018511759797904249 -0.077210571545524964 0 0.033429404710945708 -0.067827642356336801 0 0.0072012692200917657 -0.09144049599341271 0 0.018511759797904249 -0.077210571545524964 0 0.028115865357471449 -0.087896533900266943 0 0.028115865357471449 -0.087896533900266943 0 0.044094628308957058 -0.087651847290754856 0 0.040241467446851142 -0.1026788937802551 0 0.028115865357471449 -0.087896533900266943 0 0.044094628308957058 -0.087651847290754856 0 0.033429404710945708 -0.067827642356336801 0 0.044094628308957058 -0.087651847290754856 0 0.033429404710945708 -0.067827642356336801 0 0.052580487019044733 -0.06457445167855122 0 0.052580487019044733 -0.06457445167855122 0 0.057640786708643768 -0.07951032993234286 0 0.068682665651441266 -0.069637891440837665 0 0.044094628308957058 -0.087651847290754856 0 0.052580487019044733 -0.06457445167855122 0 0.057640786708643768 -0.07951032993234286 0 0.044094628308957058 -0.087651847290754856 0 0.057640786708643768 -0.07951032993234286 0 0.064045145718632748 -0.088800152685812248 0 0.056223070490067702 -0.1049071233711502 0 0.048525659269531229 -0.11802361343548989 0 0.040241467446851142 -0.1026788937802551 0 0.044094628308957058 -0.087651847290754856 0 0.056223070490067702 -0.1049071233711502 0 0.064045145718632748 -0.088800152685812248 0 0.06118566078759103 -0.13005342953014129 0 0.056223070490067702 -0.1049071233711502 0 0.048525659269531229 -0.11802361343548989 0 0.048525659269531229 -0.11802361343548989 0 0.042102756807481732 -0.1247829815156095 0 0.031290738437872938 -0.1201921761368282 0 0.048525659269531229 -0.11802361343548989 0 0.031290738437872938 -0.1201921761368282 0 0.040241467446851142 -0.1026788937802551 0 0.049352038069647858 -0.1295439288512826 0 0.048525659269531229 -0.11802361343548989 0 0.042102756807481732 -0.1247829815156095 0 0.044094628308957058 -0.087651847290754856 0 0.056223070490067702 -0.1049071233711502 0 0.040241467446851142 -0.1026788937802551 0 0.020415517075116841 0.0076517724901667356 0 0.020207185183206099 -0.010785841930981459 0 0.039787151186370009 -0.0039594854922263374 0 0.020207185183206099 -0.010785841930981459 0 0.0047038114401232534 -0.001040937293712483 0 0.0026421611525163911 -0.019923693291100199 0 0.020415517075116841 0.0076517724901667356 0 0.020207185183206099 -0.010785841930981459 0 0.0047038114401232534 -0.001040937293712483 0 0.020207185183206099 -0.010785841930981459 0 0.0026421611525163911 -0.019923693291100199 0 0.018057611388834851 -0.030223969914345401 0 0.0026421611525163911 -0.019923693291100199 0 0.018057611388834851 -0.030223969914345401 0 0.001114662024295677 -0.034644724797188199 0 0.018057611388834851 -0.030223969914345401 0 0.03214982838215158 -0.036550164909951742 0 0.03396684481877061 -0.021771474300517551 0 0.020207185183206099 -0.010785841930981459 0 0.018057611388834851 -0.030223969914345401 0 0.03396684481877061 -0.021771474300517551 0 0.018057611388834851 -0.030223969914345401 0 0.010882918392325341 -0.043546784918672053 0 0.022583515379492949 -0.04946345385366932 0 0.018057611388834851 -0.030223969914345401 0 0.022583515379492949 -0.04946345385366932 0 0.03214982838215158 -0.036550164909951742 0 0.010882918392325341 -0.043546784918672053 0 0.001114662024295677 -0.034644724797188199 0 0.003426744450576454 -0.054815297075420773 0 0.018057611388834851 -0.030223969914345401 0 0.010882918392325341 -0.043546784918672053 0 0.001114662024295677 -0.034644724797188199 0 0.018354718881549058 -0.065167425818499949 0 0.003426744450576454 -0.054815297075420773 0 0.022583515379492949 -0.04946345385366932 0 0.010882918392325341 -0.043546784918672053 0 0.003426744450576454 -0.054815297075420773 0 0.022583515379492949 -0.04946345385366932 0 0.018354718881549058 -0.065167425818499949 0 0.033429404710945708 -0.067827642356336801 0 0.022583515379492949 -0.04946345385366932 0 0.033429404710945708 -0.067827642356336801 0 0.022583515379492949 -0.04946345385366932 0 0.040434423972952403 -0.049093231793294147 0 0.033429404710945708 -0.067827642356336801 0 0.052580487019044733 -0.06457445167855122 0 0.040434423972952403 -0.049093231793294147 0 0.052580487019044733 -0.06457445167855122 0 0.040434423972952403 -0.049093231793294147 0 0.05544232884238081 -0.044875881875575382 0 0.052580487019044733 -0.06457445167855122 0 0.05544232884238081 -0.044875881875575382 0 0.068339170937992105 -0.053424337060716878 0 0.040434423972952403 -0.049093231793294147 0 0.05544232884238081 -0.044875881875575382 0 0.045706746350707102 -0.032198694687932281 0 0.05544232884238081 -0.044875881875575382 0 0.045706746350707102 -0.032198694687932281 0 0.061157621829282929 -0.025231604425866621 0 0.040434423972952403 -0.049093231793294147 0 0.045706746350707102 -0.032198694687932281 0 0.03214982838215158 -0.036550164909951742 0 0.022583515379492949 -0.04946345385366932 0 0.040434423972952403 -0.049093231793294147 0 0.03214982838215158 -0.036550164909951742 0 0.045706746350707102 -0.032198694687932281 0 0.03214982838215158 -0.036550164909951742 0 0.03396684481877061 -0.021771474300517551 0 0.045706746350707102 -0.032198694687932281 0 0.03396684481877061 -0.021771474300517551 0 0.047710046720236987 -0.018368172826886429 0 0.061157621829282929 -0.025231604425866621 0 0.047710046720236987 -0.018368172826886429 0 0.057931869416054299 -0.0086796052278893948 0 0.045706746350707102 -0.032198694687932281 0 0.061157621829282929 -0.025231604425866621 0 0.047710046720236987 -0.018368172826886429 0 0.053306813386582982 0.0056008818424343951 0 0.057931869416054299 -0.0086796052278893948 0 0.039787151186370009 -0.0039594854922263374 0 0.047710046720236987 -0.018368172826886429 0 0.057931869416054299 -0.0086796052278893948 0 0.039787151186370009 -0.0039594854922263374 0 0.053306813386582982 0.0056008818424343951 0 0.065940651683257009 0.0024831850618150888 0 0.057931869416054299 -0.0086796052278893948 0 0.020207185183206099 -0.010785841930981459 0 0.03396684481877061 -0.021771474300517551 0 0.039787151186370009 -0.0039594854922263374 0 0.03396684481877061 -0.021771474300517551 0 0.047710046720236987 -0.018368172826886429 0 0.039787151186370009 -0.0039594854922263374 0 0.07992851590561921 0.0082161523869754144 0 0.085319843464057188 -0.007629982329875426 0 0.074177093133044117 -0.010507922444979889 0 0.07992851590561921 0.0082161523869754144 0 0.085319843464057188 -0.007629982329875426 0 0.09649789417263642 -0.0037639840011086311 0 0.093491186985964037 -0.01472799792969565 0 0.085319843464057188 -0.007629982329875426 0 0.09649789417263642 -0.0037639840011086311 0 0.093491186985964037 -0.01472799792969565 0 0.085319843464057188 -0.007629982329875426 0 0.083581835824733053 -0.016535058395947159 0 0.085319843464057188 -0.007629982329875426 0 0.074177093133044117 -0.010507922444979889 0 0.083581835824733053 -0.016535058395947159 0 0.061157621829282929 -0.025231604425866621 0 0.057931869416054299 -0.0086796052278893948 0 0.074177093133044117 -0.010507922444979889 0 0.065940651683257009 0.0024831850618150888 0 0.057931869416054299 -0.0086796052278893948 0 0.074177093133044117 -0.010507922444979889 0 0.061157621829282929 -0.025231604425866621 0 0.077044537184394621 -0.024954964190685061 0 0.071280738265345076 -0.03811759874850193 0 0.061157621829282929 -0.025231604425866621 0 0.074177093133044117 -0.010507922444979889 0 0.077044537184394621 -0.024954964190685061 0 0.077044537184394621 -0.024954964190685061 0 0.087876518356205288 -0.024854425084499782 0 0.083696735197635597 -0.035074751153617953 0 0.077044537184394621 -0.024954964190685061 0 0.083581835824733053 -0.016535058395947159 0 0.087876518356205288 -0.024854425084499782 0 0.074177093133044117 -0.010507922444979889 0 0.077044537184394621 -0.024954964190685061 0 0.083581835824733053 -0.016535058395947159 0 0.093491186985964037 -0.01472799792969565 0 0.083581835824733053 -0.016535058395947159 0 0.087876518356205288 -0.024854425084499782 0 0.093491186985964037 -0.01472799792969565 0 0.087876518356205288 -0.024854425084499782 0 0.096892307268332672 -0.02266252034611416 0 0.087876518356205288 -0.024854425084499782 0 0.093921030959280866 -0.033511072873054298 0 0.096892307268332672 -0.02266252034611416 0 0.087876518356205288 -0.024854425084499782 0 0.083696735197635597 -0.035074751153617953 0 0.093921030959280866 -0.033511072873054298 0 0.088828324516270887 -0.041348533459236683 0 0.095977453204919599 -0.050472192210401508 0 0.093921030959280866 -0.033511072873054298 0 0.088828324516270887 -0.041348533459236683 0 0.083696735197635597 -0.035074751153617953 0 0.093921030959280866 -0.033511072873054298 0 0.088828324516270887 -0.041348533459236683 0 0.081718078703247488 -0.046336117599872988 0 0.095977453204919599 -0.050472192210401508 0 0.088828324516270887 -0.041348533459236683 0 0.081718078703247488 -0.046336117599872988 0 0.083696735197635597 -0.035074751153617953 0 0.081718078703247488 -0.046336117599872988 0 0.083696735197635597 -0.035074751153617953 0 0.071280738265345076 -0.03811759874850193 0 0.05544232884238081 -0.044875881875575382 0 0.061157621829282929 -0.025231604425866621 0 0.071280738265345076 -0.03811759874850193 0 0.05544232884238081 -0.044875881875575382 0 0.071280738265345076 -0.03811759874850193 0 0.068339170937992105 -0.053424337060716878 0 0.077044537184394621 -0.024954964190685061 0 0.083696735197635597 -0.035074751153617953 0 0.071280738265345076 -0.03811759874850193 0 0.081718078703247488 -0.046336117599872988 0 0.071280738265345076 -0.03811759874850193 0 0.068339170937992105 -0.053424337060716878 0 0.081718078703247488 -0.046336117599872988 0 0.068339170937992105 -0.053424337060716878 0 0.079819511512682115 -0.059373961925762081 0 0.068339170937992105 -0.053424337060716878 0 0.079819511512682115 -0.059373961925762081 0 0.068682665651441266 -0.069637891440837665 0 0.079819511512682115 -0.059373961925762081 0 0.095977453204919599 -0.050472192210401508 0 0.084380189065810102 -0.076999271316981366 0 0.081718078703247488 -0.046336117599872988 0 0.079819511512682115 -0.059373961925762081 0 0.095977453204919599 -0.050472192210401508 0 0.095977453204919599 -0.050472192210401508 0 0.1084893608633546 -0.054995312108922077 0 0.1003826539890946 -0.069656067773248523 0 0.095977453204919599 -0.050472192210401508 0 0.1084893608633546 -0.054995312108922077 0 0.10497618281608501 -0.042163163930312997 0 0.1084893608633546 -0.054995312108922077 0 0.12021542192502691 -0.05736310542253667 0 0.11225492598618329 -0.067700646346746801 0 0.12021542192502691 -0.05736310542253667 0 0.1181844865236701 -0.045884275653046647 0 0.1350650896680477 -0.050994701792827862 0 0.1084893608633546 -0.054995312108922077 0 0.12021542192502691 -0.05736310542253667 0 0.1181844865236701 -0.045884275653046647 0 0.1084893608633546 -0.054995312108922077 0 0.1181844865236701 -0.045884275653046647 0 0.10497618281608501 -0.042163163930312997 0 0.1181844865236701 -0.045884275653046647 0 0.1169603374125384 -0.034526050343312617 0 0.10497618281608501 -0.042163163930312997 0 0.10497618281608501 -0.042163163930312997 0 0.1139069069496291 -0.021464697665753471 0 0.1169603374125384 -0.034526050343312617 0 0.10497618281608501 -0.042163163930312997 0 0.1139069069496291 -0.021464697665753471 0 0.1181844865236701 -0.045884275653046647 0 0.1169603374125384 -0.034526050343312617 0 0.1283586559847627 -0.040725310836502493 0 0.095977453204919599 -0.050472192210401508 0 0.10497618281608501 -0.042163163930312997 0 0.1075747173440291 -0.023945113103821601 0 0.095977453204919599 -0.050472192210401508 0 0.093921030959280866 -0.033511072873054298 0 0.1075747173440291 -0.023945113103821601 0 0.095977453204919599 -0.050472192210401508 0 0.1075747173440291 -0.023945113103821601 0 0.10497618281608501 -0.042163163930312997 0 0.1075747173440291 -0.023945113103821601 0 0.1139069069496291 -0.021464697665753471 0 0.093921030959280866 -0.033511072873054298 0 0.096892307268332672 -0.02266252034611416 0 0.1075747173440291 -0.023945113103821601 0 0.093491186985964037 -0.01472799792969565 0 0.096892307268332672 -0.02266252034611416 0 0.10169828607787421 -0.015923098960230999 0 0.096892307268332672 -0.02266252034611416 0 0.10169828607787421 -0.015923098960230999 0 0.1075747173440291 -0.023945113103821601 0 0.10169828607787421 -0.015923098960230999 0 0.1075747173440291 -0.023945113103821601 0 0.1082483433893755 -0.0084409933366877514 0 0.1169603374125384 -0.034526050343312617 0 0.1213672368215104 -0.025634276355807499 0 0.12969235634276979 -0.031284000123743903 0 0.1169603374125384 -0.034526050343312617 0 0.1213672368215104 -0.025634276355807499 0 0.1139069069496291 -0.021464697665753471 0 0.1213672368215104 -0.025634276355807499 0 0.1139069069496291 -0.021464697665753471 0 0.12490934658110441 -0.01526235729042 0 0.11917198148314 0.002581966002757949 0 0.1075747173440291 -0.023945113103821601 0 0.1139069069496291 -0.021464697665753471 0 0.11917198148314 0.002581966002757949 0 0.1139069069496291 -0.021464697665753471 0 0.1228376310831711 -0.00076623140119310329 0 0.11917198148314 0.002581966002757949 0 0.1075747173440291 -0.023945113103821601 0 0.1082483433893755 -0.0084409933366877514 0 0.1139069069496291 -0.021464697665753471 0 0.12490934658110441 -0.01526235729042 0 0.1228376310831711 -0.00076623140119310329 0 0.1139069069496291 -0.021464697665753471 0 0.1228376310831711 -0.00076623140119310329 0 0.11917198148314 0.002581966002757949 0 0.1075747173440291 -0.023945113103821601 0 0.11917198148314 0.002581966002757949 0 0.1105415625726717 -0.0014271332550589229 0 0.1082483433893755 -0.0084409933366877514 0 0.1078625722471533 0.0022823866337398822 0 0.1105415625726717 -0.0014271332550589229 0 0.1039166904039584 -0.0028966343462391718 0 0.1039166904039584 -0.0028966343462391718 0 0.1082483433893755 -0.0084409933366877514 0 0.10154047648190589 -0.00941290969201335 0 0.1105415625726717 -0.0014271332550589229 0 0.1039166904039584 -0.0028966343462391718 0 0.1082483433893755 -0.0084409933366877514 0 0.10169828607787421 -0.015923098960230999 0 0.1082483433893755 -0.0084409933366877514 0 0.10154047648190589 -0.00941290969201335 0 0.093491186985964037 -0.01472799792969565 0 0.10154047648190589 -0.00941290969201335 0 0.09649789417263642 -0.0037639840011086311 0 0.093491186985964037 -0.01472799792969565 0 0.10169828607787421 -0.015923098960230999 0 0.10154047648190589 -0.00941290969201335 0 0.1039166904039584 -0.0028966343462391718 0 0.10154047648190589 -0.00941290969201335 0 0.09649789417263642 -0.0037639840011086311 0 0.088046088292129038 -0.10430519341125349 0 0.072782924926700548 -0.1035263504235614 0 0.088717560391344957 -0.092993146067331611 0 0.088046088292129038 -0.10430519341125349 0 0.080670658246847674 -0.112136361820053 0 0.072782924926700548 -0.1035263504235614 0 0.088046088292129038 -0.10430519341125349 0 0.088717560391344957 -0.092993146067331611 0 0.100171096126226 -0.096028489315426471 0 0.088046088292129038 -0.10430519341125349 0 0.089116900718008318 -0.11226838151764811 0 0.096817389343646892 -0.1088784313235004 0 0.088046088292129038 -0.10430519341125349 0 0.089116900718008318 -0.11226838151764811 0 0.080670658246847674 -0.112136361820053 0 0.089116900718008318 -0.11226838151764811 0 0.082844213492092533 -0.1195429602861619 0 0.095577299328253623 -0.1174095529111252 0 0.082362828069140165 -0.1319846138898183 0 0.082844213492092533 -0.1195429602861619 0 0.095577299328253623 -0.1174095529111252 0 0.082362828069140165 -0.1319846138898183 0 0.095577299328253623 -0.1174095529111252 0 0.082362828069140165 -0.1319846138898183 0 0.082844213492092533 -0.1195429602861619 0 0.069837722907261313 -0.1199532536492431 0 0.089116900718008318 -0.11226838151764811 0 0.082844213492092533 -0.1195429602861619 0 0.080670658246847674 -0.112136361820053 0 0.080670658246847674 -0.112136361820053 0 0.069837722907261313 -0.1199532536492431 0 0.072782924926700548 -0.1035263504235614 0 0.06118566078759103 -0.13005342953014129 0 0.072782924926700548 -0.1035263504235614 0 0.06118566078759103 -0.13005342953014129 0 0.069837722907261313 -0.1199532536492431 0 0.072782924926700548 -0.1035263504235614 0 0.06118566078759103 -0.13005342953014129 0 0.056223070490067702 -0.1049071233711502 0 0.072782924926700548 -0.1035263504235614 0 0.082844213492092533 -0.1195429602861619 0 0.080670658246847674 -0.112136361820053 0 0.069837722907261313 -0.1199532536492431 0 0.056223070490067702 -0.1049071233711502 0 0.072782924926700548 -0.1035263504235614 0 0.064045145718632748 -0.088800152685812248 0 0.057640786708643768 -0.07951032993234286 0 0.064045145718632748 -0.088800152685812248 0 0.068682665651441266 -0.069637891440837665 0 0.064045145718632748 -0.088800152685812248 0 0.068682665651441266 -0.069637891440837665 0 0.084380189065810102 -0.076999271316981366 0 0.072782924926700548 -0.1035263504235614 0 0.064045145718632748 -0.088800152685812248 0 0.084380189065810102 -0.076999271316981366 0 0.052580487019044733 -0.06457445167855122 0 0.068339170937992105 -0.053424337060716878 0 0.068682665651441266 -0.069637891440837665 0 0.079819511512682115 -0.059373961925762081 0 0.068682665651441266 -0.069637891440837665 0 0.084380189065810102 -0.076999271316981366 0 0.095977453204919599 -0.050472192210401508 0 0.084380189065810102 -0.076999271316981366 0 0.1003826539890946 -0.069656067773248523 0 0.095977453204919599 -0.050472192210401508 0 0.084380189065810102 -0.076999271316981366 0 0.084380189065810102 -0.076999271316981366 0 0.095693843046354268 -0.0841642264331387 0 0.1003826539890946 -0.069656067773248523 0 0.072782924926700548 -0.1035263504235614 0 0.084380189065810102 -0.076999271316981366 0 0.072782924926700548 -0.1035263504235614 0 0.084380189065810102 -0.076999271316981366 0 0.088717560391344957 -0.092993146067331611 0 0.084380189065810102 -0.076999271316981366 0 0.088717560391344957 -0.092993146067331611 0 0.095693843046354268 -0.0841642264331387 0 0.088717560391344957 -0.092993146067331611 0 0.095693843046354268 -0.0841642264331387 0 0.100171096126226 -0.096028489315426471 0 0.095693843046354268 -0.0841642264331387 0 0.1061825878765964 -0.082065358753895937 0 0.100171096126226 -0.096028489315426471 0 0.095693843046354268 -0.0841642264331387 0 0.1061825878765964 -0.082065358753895937 0 0.1003826539890946 -0.069656067773248523 0 0.1061825878765964 -0.082065358753895937 0 0.1152940355071756 -0.093458773729521216 0 0.100171096126226 -0.096028489315426471 0 0.1061825878765964 -0.082065358753895937 0 0.1003826539890946 -0.069656067773248523 0 0.11225492598618329 -0.067700646346746801 0 0.1084893608633546 -0.054995312108922077 0 0.1003826539890946 -0.069656067773248523 0 0.11225492598618329 -0.067700646346746801 0 0.1061825878765964 -0.082065358753895937 0 0.11225492598618329 -0.067700646346746801 0 0.1171317857577618 -0.078667044940758796 0 0.1171317857577618 -0.078667044940758796 0 0.12857779857738699 -0.078718698725873171 0 0.12708324658387871 -0.067240591211139955 0 0.11225492598618329 -0.067700646346746801 0 0.1171317857577618 -0.078667044940758796 0 0.12708324658387871 -0.067240591211139955 0 0.12021542192502691 -0.05736310542253667 0 0.11225492598618329 -0.067700646346746801 0 0.12708324658387871 -0.067240591211139955 0 0.1061825878765964 -0.082065358753895937 0 0.1152940355071756 -0.093458773729521216 0 0.1171317857577618 -0.078667044940758796 0 0.1171317857577618 -0.078667044940758796 0 0.1286838548293292 -0.09135300801218077 0 0.12857779857738699 -0.078718698725873171 0 0.1152940355071756 -0.093458773729521216 0 0.1171317857577618 -0.078667044940758796 0 0.1286838548293292 -0.09135300801218077 0 0.1152940355071756 -0.093458773729521216 0 0.1230450488982011 -0.098166020395255585 0 0.1286838548293292 -0.09135300801218077 0 0.1152940355071756 -0.093458773729521216 0 0.1230450488982011 -0.098166020395255585 0 0.1196469902177196 -0.1061558951397697 0 0.1230450488982011 -0.098166020395255585 0 0.1196469902177196 -0.1061558951397697 0 0.12917406780106669 -0.1036793655145172 0 0.1196469902177196 -0.1061558951397697 0 0.1094725419179296 -0.1044020385603272 0 0.1154331983948798 -0.1174886032934183 0 0.1152940355071756 -0.093458773729521216 0 0.1196469902177196 -0.1061558951397697 0 0.1094725419179296 -0.1044020385603272 0 0.1152940355071756 -0.093458773729521216 0 0.1094725419179296 -0.1044020385603272 0 0.100171096126226 -0.096028489315426471 0 0.1094725419179296 -0.1044020385603272 0 0.096817389343646892 -0.1088784313235004 0 0.100171096126226 -0.096028489315426471 0 0.088046088292129038 -0.10430519341125349 0 0.096817389343646892 -0.1088784313235004 0 0.100171096126226 -0.096028489315426471 0 0.096817389343646892 -0.1088784313235004 0 0.1051359327507693 -0.1227177542784853 0 0.1154331983948798 -0.1174886032934183 0 0.096817389343646892 -0.1088784313235004 0 0.1154331983948798 -0.1174886032934183 0 0.1005807427949069 -0.13366374688330029 0 0.095577299328253623 -0.1174095529111252 0 0.1051359327507693 -0.1227177542784853 0 0.1094725419179296 -0.1044020385603272 0 0.096817389343646892 -0.1088784313235004 0 0.1154331983948798 -0.1174886032934183 0 0.089116900718008318 -0.11226838151764811 0 0.096817389343646892 -0.1088784313235004 0 0.095577299328253623 -0.1174095529111252 0 0.096817389343646892 -0.1088784313235004 0 0.095577299328253623 -0.1174095529111252 0 0.1051359327507693 -0.1227177542784853 0 0.1154331983948798 -0.1174886032934183 0 0.13404900744611239 -0.12609877526333699 0 0.1196469902177196 -0.1061558951397697 0 0.1154331983948798 -0.1174886032934183 0 0.12686113813069899 -0.1114359576666621 0 0.1154331983948798 -0.1174886032934183 0 0.12686113813069899 -0.1114359576666621 0 0.13390982127973511 -0.11942472678041111 0 0.1154331983948798 -0.1174886032934183 0 0.13390982127973511 -0.11942472678041111 0 0.13404900744611239 -0.12609877526333699 0 0.12686113813069899 -0.1114359576666621 0 0.13614161296009411 -0.11043119760519431 0 0.13390982127973511 -0.11942472678041111 0 0.13614161296009411 -0.11043119760519431 0 0.14023431030656019 -0.11642081500581559 0 0.13390982127973511 -0.11942472678041111 0 0.13614161296009411 -0.11043119760519431 0 0.14023431030656019 -0.11642081500581559 0 0.14347338005148061 -0.1082488085161593 0 0.13773130733042549 -0.12113088311922759 0 0.1427320902892944 -0.12257921542734659 0 0.13404900744611239 -0.12609877526333699 0 0.13390982127973511 -0.11942472678041111 0 0.13773130733042549 -0.12113088311922759 0 0.13404900744611239 -0.12609877526333699 0 0.13390982127973511 -0.11942472678041111 0 0.13404900744611239 -0.12609877526333699 0 0.14023431030656019 -0.11642081500581559 0 0.13773130733042549 -0.12113088311922759 0 0.1427320902892944 -0.12257921542734659 0 0.14023431030656019 -0.11642081500581559 0 0.13390982127973511 -0.11942472678041111 0 0.13773130733042549 -0.12113088311922759 0 0.1427320902892944 -0.12257921542734659 0 0.15192118682329561 -0.12273271218809589 0 0.1490682445489844 -0.1279194233146575 0 0.1427320902892944 -0.12257921542734659 0 0.1474293378639818 -0.11515719203513899 0 0.15192118682329561 -0.12273271218809589 0 0.14023431030656019 -0.11642081500581559 0 0.1427320902892944 -0.12257921542734659 0 0.1474293378639818 -0.11515719203513899 0 0.1474293378639818 -0.11515719203513899 0 0.15201290161170181 -0.107226104105896 0 0.14347338005148061 -0.1082488085161593 0 0.14023431030656019 -0.11642081500581559 0 0.1474293378639818 -0.11515719203513899 0 0.14347338005148061 -0.1082488085161593 0 0.1474293378639818 -0.11515719203513899 0 0.15419764536576119 -0.1149677746217292 0 0.15201290161170181 -0.107226104105896 0 0.15419764536576119 -0.1149677746217292 0 0.15201290161170181 -0.107226104105896 0 0.1590985184781393 -0.1107939778183322 0 0.15419764536576119 -0.1149677746217292 0 0.15192118682329561 -0.12273271218809589 0 0.1605262820516872 -0.11892888696118289 0 0.1474293378639818 -0.11515719203513899 0 0.15419764536576119 -0.1149677746217292 0 0.15192118682329561 -0.12273271218809589 0 0.153855148049276 -0.097460838801678593 0 0.15201290161170181 -0.107226104105896 0 0.1462355681673109 -0.099255024001954253 0 0.153855148049276 -0.097460838801678593 0 0.1462355681673109 -0.099255024001954253 0 0.1490737095502995 -0.088653392770718792 0 0.153855148049276 -0.097460838801678593 0 0.15201290161170181 -0.107226104105896 0 0.16008969536972259 -0.10263897543636979 0 0.14347338005148061 -0.1082488085161593 0 0.1462355681673109 -0.099255024001954253 0 0.13800617896953651 -0.1013117005447786 0 0.15201290161170181 -0.107226104105896 0 0.14347338005148061 -0.1082488085161593 0 0.1462355681673109 -0.099255024001954253 0 0.1462355681673109 -0.099255024001954253 0 0.13800617896953651 -0.1013117005447786 0 0.14099209077157121 -0.092629299272494275 0 0.13800617896953651 -0.1013117005447786 0 0.1286838548293292 -0.09135300801218077 0 0.14099209077157121 -0.092629299272494275 0 0.13614161296009411 -0.11043119760519431 0 0.13800617896953651 -0.1013117005447786 0 0.12917406780106669 -0.1036793655145172 0 0.13614161296009411 -0.11043119760519431 0 0.14347338005148061 -0.1082488085161593 0 0.13800617896953651 -0.1013117005447786 0 0.1196469902177196 -0.1061558951397697 0 0.12686113813069899 -0.1114359576666621 0 0.12917406780106669 -0.1036793655145172 0 0.12686113813069899 -0.1114359576666621 0 0.13614161296009411 -0.11043119760519431 0 0.12917406780106669 -0.1036793655145172 0 0.1230450488982011 -0.098166020395255585 0 0.12917406780106669 -0.1036793655145172 0 0.1286838548293292 -0.09135300801218077 0 0.13800617896953651 -0.1013117005447786 0 0.12917406780106669 -0.1036793655145172 0 0.1286838548293292 -0.09135300801218077 0 0.1286838548293292 -0.09135300801218077 0 0.12857779857738699 -0.078718698725873171 0 0.13748132505412469 -0.08396770010957226 0 0.13748132505412469 -0.08396770010957226 0 0.1367334774756912 -0.073531819827653083 0 0.14538989296775451 -0.078880163337803719 0 0.12857779857738699 -0.078718698725873171 0 0.13748132505412469 -0.08396770010957226 0 0.1367334774756912 -0.073531819827653083 0 0.1286838548293292 -0.09135300801218077 0 0.13748132505412469 -0.08396770010957226 0 0.14099209077157121 -0.092629299272494275 0 0.12857779857738699 -0.078718698725873171 0 0.12708324658387871 -0.067240591211139955 0 0.1367334774756912 -0.073531819827653083 0 0.12708324658387871 -0.067240591211139955 0 0.1367334774756912 -0.073531819827653083 0 0.14110971147140131 -0.064913967020147179 0 0.1367334774756912 -0.073531819827653083 0 0.14110971147140131 -0.064913967020147179 0 0.14964674351361701 -0.070099729323911744 0 0.14110971147140131 -0.064913967020147179 0 0.14964674351361701 -0.070099729323911744 0 0.15194569281242609 -0.056105127932606663 0 0.1367334774756912 -0.073531819827653083 0 0.14964674351361701 -0.070099729323911744 0 0.14538989296775451 -0.078880163337803719 0 0.14964674351361701 -0.070099729323911744 0 0.14538989296775451 -0.078880163337803719 0 0.15822082836811369 -0.079982126599630443 0 0.14964674351361701 -0.070099729323911744 0 0.15822082836811369 -0.079982126599630443 0 0.1603896916223197 -0.069044426588861466 0 0.14964674351361701 -0.070099729323911744 0 0.1603896916223197 -0.069044426588861466 0 0.15194569281242609 -0.056105127932606663 0 0.13748132505412469 -0.08396770010957226 0 0.14099209077157121 -0.092629299272494275 0 0.1490737095502995 -0.088653392770718792 0 0.1462355681673109 -0.099255024001954253 0 0.14099209077157121 -0.092629299272494275 0 0.1490737095502995 -0.088653392770718792 0 0.13748132505412469 -0.08396770010957226 0 0.14538989296775451 -0.078880163337803719 0 0.1490737095502995 -0.088653392770718792 0 0.14538989296775451 -0.078880163337803719 0 0.1490737095502995 -0.088653392770718792 0 0.15822082836811369 -0.079982126599630443 0 0.153855148049276 -0.097460838801678593 0 0.1490737095502995 -0.088653392770718792 0 0.1594354292934542 -0.091737259282716963 0 0.1490737095502995 -0.088653392770718792 0 0.1594354292934542 -0.091737259282716963 0 0.15822082836811369 -0.079982126599630443 0 0.1594354292934542 -0.091737259282716963 0 0.15822082836811369 -0.079982126599630443 0 0.1684140015429216 -0.087293140772549349 0 0.15822082836811369 -0.079982126599630443 0 0.1684140015429216 -0.087293140772549349 0 0.1694423915093585 -0.075846288749261012 0 0.1684140015429216 -0.087293140772549349 0 0.1776016981043757 -0.094466756631608209 0 0.16825903644140999 -0.098606158866582916 0 0.1594354292934542 -0.091737259282716963 0 0.1684140015429216 -0.087293140772549349 0 0.16825903644140999 -0.098606158866582916 0 0.15822082836811369 -0.079982126599630443 0 0.1603896916223197 -0.069044426588861466 0 0.1694423915093585 -0.075846288749261012 0 0.1603896916223197 -0.069044426588861466 0 0.1694423915093585 -0.075846288749261012 0 0.17187576892014289 -0.062138750134232333 0 0.17971720707086189 -0.073145871694163048 0 0.17187576892014289 -0.062138750134232333 0 0.19180584502786041 -0.068172372335855602 0 0.17187576892014289 -0.062138750134232333 0 0.19180584502786041 -0.068172372335855602 0 0.1694423915093585 -0.075846288749261012 0 0.17971720707086189 -0.073145871694163048 0 0.17187576892014289 -0.062138750134232333 0 0.1694423915093585 -0.075846288749261012 0 0.17971720707086189 -0.073145871694163048 0 0.17803685153179119 -0.083473416706129469 0 0.17971720707086189 -0.073145871694163048 0 0.18645595400882431 -0.078186102724248294 0 0.19180584502786041 -0.068172372335855602 0 0.1684140015429216 -0.087293140772549349 0 0.17803685153179119 -0.083473416706129469 0 0.1776016981043757 -0.094466756631608209 0 0.1684140015429216 -0.087293140772549349 0 0.1694423915093585 -0.075846288749261012 0 0.17803685153179119 -0.083473416706129469 0 0.17803685153179119 -0.083473416706129469 0 0.18645595400882431 -0.078186102724248294 0 0.18748362772352481 -0.090285751384613616 0 0.17971720707086189 -0.073145871694163048 0 0.17803685153179119 -0.083473416706129469 0 0.18645595400882431 -0.078186102724248294 0 0.17803685153179119 -0.083473416706129469 0 0.18748362772352481 -0.090285751384613616 0 0.1776016981043757 -0.094466756631608209 0 0.1776016981043757 -0.094466756631608209 0 0.1757785255420414 -0.1036637588673371 0 0.18737718651252391 -0.1018645954104864 0 0.18748362772352481 -0.090285751384613616 0 0.1776016981043757 -0.094466756631608209 0 0.18737718651252391 -0.1018645954104864 0 0.1776016981043757 -0.094466756631608209 0 0.1757785255420414 -0.1036637588673371 0 0.16825903644140999 -0.098606158866582916 0 0.1757785255420414 -0.1036637588673371 0 0.17797479248166551 -0.1125427820454727 0 0.16787713834435419 -0.11000951374301229 0 0.1757785255420414 -0.1036637588673371 0 0.18737718651252391 -0.1018645954104864 0 0.17797479248166551 -0.1125427820454727 0 0.18737718651252391 -0.1018645954104864 0 0.18701697985041221 -0.11880972375357141 0 0.17797479248166551 -0.1125427820454727 0 0.18701697985041221 -0.11880972375357141 0 0.173543926957343 -0.1211375462363173 0 0.17990838590865871 -0.12844737664361131 0 0.18701697985041221 -0.11880972375357141 0 0.173543926957343 -0.1211375462363173 0 0.17797479248166551 -0.1125427820454727 0 0.173543926957343 -0.1211375462363173 0 0.17797479248166551 -0.1125427820454727 0 0.16787713834435419 -0.11000951374301229 0 0.173543926957343 -0.1211375462363173 0 0.16787713834435419 -0.11000951374301229 0 0.1605262820516872 -0.11892888696118289 0 0.173543926957343 -0.1211375462363173 0 0.1605262820516872 -0.11892888696118289 0 0.1641162962428066 -0.126449221113482 0 0.15192118682329561 -0.12273271218809589 0 0.1605262820516872 -0.11892888696118289 0 0.1587247560068413 -0.12564209046719049 0 0.1605262820516872 -0.11892888696118289 0 0.1587247560068413 -0.12564209046719049 0 0.1641162962428066 -0.126449221113482 0 0.15419764536576119 -0.1149677746217292 0 0.1605262820516872 -0.11892888696118289 0 0.1590985184781393 -0.1107939778183322 0 0.16787713834435419 -0.11000951374301229 0 0.1605262820516872 -0.11892888696118289 0 0.1590985184781393 -0.1107939778183322 0 0.15201290161170181 -0.107226104105896 0 0.1590985184781393 -0.1107939778183322 0 0.16008969536972259 -0.10263897543636979 0 0.16787713834435419 -0.11000951374301229 0 0.1590985184781393 -0.1107939778183322 0 0.16008969536972259 -0.10263897543636979 0 0.1594354292934542 -0.091737259282716963 0 0.16008969536972259 -0.10263897543636979 0 0.16825903644140999 -0.098606158866582916 0 0.153855148049276 -0.097460838801678593 0 0.1594354292934542 -0.091737259282716963 0 0.16008969536972259 -0.10263897543636979 0 0.1757785255420414 -0.1036637588673371 0 0.16787713834435419 -0.11000951374301229 0 0.16825903644140999 -0.098606158866582916 0 0.16787713834435419 -0.11000951374301229 0 0.16008969536972259 -0.10263897543636979 0 0.16825903644140999 -0.098606158866582916 0 0.1552076984021574 -0.0047487866015848753 0 0.1380919344669613 -0.01469948322874493 0 0.1606476670511833 -0.017066892083396779 0 0.14127976741107601 0.00215554095495248 0 0.1552076984021574 -0.0047487866015848753 0 0.1380919344669613 -0.01469948322874493 0 0.14127976741107601 0.00215554095495248 0 0.1228376310831711 -0.00076623140119310329 0 0.1380919344669613 -0.01469948322874493 0 0.1228376310831711 -0.00076623140119310329 0 0.1380919344669613 -0.01469948322874493 0 0.12490934658110441 -0.01526235729042 0 0.1228376310831711 -0.00076623140119310329 0 0.1380919344669613 -0.01469948322874493 0 0.1380919344669613 -0.01469948322874493 0 0.1415761600091012 -0.038003691908970592 0 0.12969235634276979 -0.031284000123743903 0 0.1213672368215104 -0.025634276355807499 0 0.12490934658110441 -0.01526235729042 0 0.12969235634276979 -0.031284000123743903 0 0.12490934658110441 -0.01526235729042 0 0.1380919344669613 -0.01469948322874493 0 0.12969235634276979 -0.031284000123743903 0 0.1380919344669613 -0.01469948322874493 0 0.15334623785075199 -0.02863273505629621 0 0.1415761600091012 -0.038003691908970592 0 0.1380919344669613 -0.01469948322874493 0 0.15334623785075199 -0.02863273505629621 0 0.1606476670511833 -0.017066892083396779 0 0.1380919344669613 -0.01469948322874493 0 0.15334623785075199 -0.02863273505629621 0 0.15437572795414581 -0.042117567211766717 0 0.1415761600091012 -0.038003691908970592 0 0.15194569281242609 -0.056105127932606663 0 0.15334623785075199 -0.02863273505629621 0 0.15437572795414581 -0.042117567211766717 0 0.1415761600091012 -0.038003691908970592 0 0.1181844865236701 -0.045884275653046647 0 0.1283586559847627 -0.040725310836502493 0 0.1350650896680477 -0.050994701792827862 0 0.1415761600091012 -0.038003691908970592 0 0.12969235634276979 -0.031284000123743903 0 0.1283586559847627 -0.040725310836502493 0 0.1169603374125384 -0.034526050343312617 0 0.12969235634276979 -0.031284000123743903 0 0.1283586559847627 -0.040725310836502493 0 0.1415761600091012 -0.038003691908970592 0 0.1283586559847627 -0.040725310836502493 0 0.1350650896680477 -0.050994701792827862 0 0.1181844865236701 -0.045884275653046647 0 0.1350650896680477 -0.050994701792827862 0 0.12021542192502691 -0.05736310542253667 0 0.12708324658387871 -0.067240591211139955 0 0.1350650896680477 -0.050994701792827862 0 0.12708324658387871 -0.067240591211139955 0 0.14110971147140131 -0.064913967020147179 0 0.1350650896680477 -0.050994701792827862 0 0.14110971147140131 -0.064913967020147179 0 0.15194569281242609 -0.056105127932606663 0 0.1415761600091012 -0.038003691908970592 0 0.1350650896680477 -0.050994701792827862 0 0.15194569281242609 -0.056105127932606663 0 0.1350650896680477 -0.050994701792827862 0 0.15194569281242609 -0.056105127932606663 0 0.14110971147140131 -0.064913967020147179 0 0.1350650896680477 -0.050994701792827862 0 0.15194569281242609 -0.056105127932606663 0 0.15194569281242609 -0.056105127932606663 0 0.16860054123454279 -0.042565986883847551 0 0.15437572795414581 -0.042117567211766717 0 0.15194569281242609 -0.056105127932606663 0 0.16860054123454279 -0.042565986883847551 0 0.1603896916223197 -0.069044426588861466 0 0.15194569281242609 -0.056105127932606663 0 0.17187576892014289 -0.062138750134232333 0 0.15194569281242609 -0.056105127932606663 0 0.165016394264413 -0.053661354003145263 0 0.17187576892014289 -0.062138750134232333 0 0.15194569281242609 -0.056105127932606663 0 0.165016394264413 -0.053661354003145263 0 0.16860054123454279 -0.042565986883847551 0 0.15194569281242609 -0.056105127932606663 0 0.17187576892014289 -0.062138750134232333 0 0.165016394264413 -0.053661354003145263 0 0.17187576892014289 -0.062138750134232333 0 0.18345715790010181 -0.056135992415964377 0 0.165016394264413 -0.053661354003145263 0 0.18345715790010181 -0.056135992415964377 0 0.16860054123454279 -0.042565986883847551 0 0.17187576892014289 -0.062138750134232333 0 0.18345715790010181 -0.056135992415964377 0 0.19180584502786041 -0.068172372335855602 0 0.18345715790010181 -0.056135992415964377 0 0.17385144243116649 -0.043269821226828903 0 0.18595588634396351 -0.043176695624854357 0 0.18345715790010181 -0.056135992415964377 0 0.17385144243116649 -0.043269821226828903 0 0.16860054123454279 -0.042565986883847551 0 0.18345715790010181 -0.056135992415964377 0 0.16860054123454279 -0.042565986883847551 0 0.18595588634396351 -0.043176695624854357 0 0.1782733089797521 -0.034702753096601993 0 0.1941468740000297 -0.021798736782002521 0 0.17385144243116649 -0.043269821226828903 0 0.18595588634396351 -0.043176695624854357 0 0.1782733089797521 -0.034702753096601993 0 0.17385144243116649 -0.043269821226828903 0 0.1782733089797521 -0.034702753096601993 0 0.16860054123454279 -0.042565986883847551 0 0.1782733089797521 -0.034702753096601993 0 0.16860054123454279 -0.042565986883847551 0 0.17385144243116649 -0.043269821226828903 0 0.1782733089797521 -0.034702753096601993 0 0.1782733089797521 -0.034702753096601993 0 0.16860054123454279 -0.042565986883847551 0 0.1670526359884773 -0.02836254214418232 0 0.15334623785075199 -0.02863273505629621 0 0.16860054123454279 -0.042565986883847551 0 0.1670526359884773 -0.02836254214418232 0 0.15334623785075199 -0.02863273505629621 0 0.15437572795414581 -0.042117567211766717 0 0.16860054123454279 -0.042565986883847551 0 0.15334623785075199 -0.02863273505629621 0 0.16860054123454279 -0.042565986883847551 0 0.15334623785075199 -0.02863273505629621 0 0.1606476670511833 -0.017066892083396779 0 0.1670526359884773 -0.02836254214418232 0 0.1606476670511833 -0.017066892083396779 0 0.1670526359884773 -0.02836254214418232 0 0.1743954248261565 -0.018844343600769399 0 0.1782733089797521 -0.034702753096601993 0 0.1743954248261565 -0.018844343600769399 0 0.1918659379284415 -0.0083679514935210662 0 0.1782733089797521 -0.034702753096601993 0 0.1670526359884773 -0.02836254214418232 0 0.1743954248261565 -0.018844343600769399 0 0.1782733089797521 -0.034702753096601993 0 0.1918659379284415 -0.0083679514935210662 0 0.1782733089797521 -0.034702753096601993 0 0.1941468740000297 -0.021798736782002521 0 0.1743954248261565 -0.018844343600769399 0 0.17983697574181159 -0.0080573062328258595 0 0.1918659379284415 -0.0083679514935210662 0 0.1743954248261565 -0.018844343600769399 0 0.17983697574181159 -0.0080573062328258595 0 0.17056947168728639 -0.0076341498549102596 0 0.17983697574181159 -0.0080573062328258595 0 0.18580903226614379 -0.0011502469314075439 0 0.17786282304025339 -0.001583287003114023 0 0.17983697574181159 -0.0080573062328258595 0 0.18580903226614379 -0.0011502469314075439 0 0.1918659379284415 -0.0083679514935210662 0 0.17983697574181159 -0.0080573062328258595 0 0.17786282304025339 -0.001583287003114023 0 0.17056947168728639 -0.0076341498549102596 0 0.17227434920368959 0.00081991249798677823 0 0.17786282304025339 -0.001583287003114023 0 0.17056947168728639 -0.0076341498549102596 0 0.17227434920368959 0.00081991249798677823 0 0.16550177429739321 0.001625335581948511 0 0.17056947168728639 -0.0076341498549102596 0 0.1606476670511833 -0.017066892083396779 0 0.1743954248261565 -0.018844343600769399 0 0.17056947168728639 -0.0076341498549102596 0 0.1552076984021574 -0.0047487866015848753 0 0.1606476670511833 -0.017066892083396779 0 0.17056947168728639 -0.0076341498549102596 0 0.15830422717032419 0.0026668804518291322 0 0.16550177429739321 0.001625335581948511 0 0.1552076984021574 -0.0047487866015848753 0 0.16550177429739321 0.001625335581948511 0 0.1552076984021574 -0.0047487866015848753 0 0.17056947168728639 -0.0076341498549102596 0 0.21653748859829491 -0.0035968485671754561 0 0.20239897911060981 -0.0049616950454924097 0 0.1941468740000297 -0.021798736782002521 0 0.21653748859829491 -0.0035968485671754561 0 0.1941468740000297 -0.021798736782002521 0 0.20955206102217341 -0.019021580532265901 0 0.21653748859829491 -0.0035968485671754561 0 0.20955206102217341 -0.019021580532265901 0 0.22864161374710179 -0.024239001361894639 0 0.21653748859829491 -0.0035968485671754561 0 0.1941468740000297 -0.021798736782002521 0 0.20938161325362409 0.0025060029461209908 0 0.21653748859829491 -0.0035968485671754561 0 0.20239897911060981 -0.0049616950454924097 0 0.19981118715584381 0.0070254328827108366 0 0.20239897911060981 -0.0049616950454924097 0 0.1918659379284415 -0.0083679514935210662 0 0.19981118715584381 0.0070254328827108366 0 0.1918659379284415 -0.0083679514935210662 0 0.20239897911060981 -0.0049616950454924097 0 0.1918659379284415 -0.0083679514935210662 0 0.1941468740000297 -0.021798736782002521 0 0.1894192936343001 0.0060385698470956234 0 0.18580903226614379 -0.0011502469314075439 0 0.1918659379284415 -0.0083679514935210662 0 0.1894192936343001 0.0060385698470956234 0 0.1918659379284415 -0.0083679514935210662 0 0.1918659379284415 -0.0083679514935210662 0 0.1941468740000297 -0.021798736782002521 0 0.1782733089797521 -0.034702753096601993 0 0.1918659379284415 -0.0083679514935210662 0 0.1941468740000297 -0.021798736782002521 0 0.1941468740000297 -0.021798736782002521 0 0.2031559883210855 -0.029985938475911671 0 0.20955206102217341 -0.019021580532265901 0 0.20955206102217341 -0.019021580532265901 0 0.21066165658577479 -0.033085676709690801 0 0.22864161374710179 -0.024239001361894639 0 0.2031559883210855 -0.029985938475911671 0 0.20955206102217341 -0.019021580532265901 0 0.21066165658577479 -0.033085676709690801 0 0.21864271396698939 -0.038649087319523719 0 0.21066165658577479 -0.033085676709690801 0 0.21034122995680221 -0.050048420551560682 0 0.21066165658577479 -0.033085676709690801 0 0.1982633616763636 -0.046037759879686967 0 0.21034122995680221 -0.050048420551560682 0 0.2031559883210855 -0.029985938475911671 0 0.21066165658577479 -0.033085676709690801 0 0.1982633616763636 -0.046037759879686967 0 0.21864271396698939 -0.038649087319523719 0 0.21034122995680221 -0.050048420551560682 0 0.21819242210762169 -0.050823402618315167 0 0.1941468740000297 -0.021798736782002521 0 0.2031559883210855 -0.029985938475911671 0 0.1982633616763636 -0.046037759879686967 0 0.18595588634396351 -0.043176695624854357 0 0.1941468740000297 -0.021798736782002521 0 0.1982633616763636 -0.046037759879686967 0 0.1941468740000297 -0.021798736782002521 0 0.1982633616763636 -0.046037759879686967 0 0.1982633616763636 -0.046037759879686967 0 0.19180584502786041 -0.068172372335855602 0 0.20237984935269879 -0.070276782977371152 0 0.1982633616763636 -0.046037759879686967 0 0.20237984935269879 -0.070276782977371152 0 0.18345715790010181 -0.056135992415964377 0 0.1982633616763636 -0.046037759879686967 0 0.19180584502786041 -0.068172372335855602 0 0.18345715790010181 -0.056135992415964377 0 0.18595588634396351 -0.043176695624854357 0 0.1982633616763636 -0.046037759879686967 0 0.21034122995680221 -0.050048420551560682 0 0.21390737605136481 -0.061417813804776289 0 0.20237984935269879 -0.070276782977371152 0 0.1982633616763636 -0.046037759879686967 0 0.21034122995680221 -0.050048420551560682 0 0.20237984935269879 -0.070276782977371152 0 0.21034122995680221 -0.050048420551560682 0 0.21819242210762169 -0.050823402618315167 0 0.21390737605136481 -0.061417813804776289 0 0.2255736282180465 -0.056882305063223393 0 0.23627526009844421 -0.049694667024589079 0 0.23165324526163639 -0.065502610206523884 0 0.21390737605136481 -0.061417813804776289 0 0.2255736282180465 -0.056882305063223393 0 0.2221192681341374 -0.068345353637844553 0 0.21819242210762169 -0.050823402618315167 0 0.21390737605136481 -0.061417813804776289 0 0.2255736282180465 -0.056882305063223393 0 0.21819242210762169 -0.050823402618315167 0 0.2255736282180465 -0.056882305063223393 0 0.22546512762764079 -0.044057692677509197 0 0.2255736282180465 -0.056882305063223393 0 0.23627526009844421 -0.049694667024589079 0 0.22546512762764079 -0.044057692677509197 0 0.24617004458672351 -0.058202332164817121 0 0.23627526009844421 -0.049694667024589079 0 0.24390890644978661 -0.075150332687283522 0 0.23627526009844421 -0.049694667024589079 0 0.24390890644978661 -0.075150332687283522 0 0.25164978009717781 -0.053061021673298493 0 0.24617004458672351 -0.058202332164817121 0 0.24422464309495209 -0.046986837608536558 0 0.24617004458672351 -0.058202332164817121 0 0.24422464309495209 -0.046986837608536558 0 0.23627526009844421 -0.049694667024589079 0 0.25164978009717781 -0.053061021673298493 0 0.2539732262079259 -0.044675773385505282 0 0.24422464309495209 -0.046986837608536558 0 0.24422464309495209 -0.046986837608536558 0 0.23627526009844421 -0.049694667024589079 0 0.24524507923365879 -0.0330622213940093 0 0.25845033672230949 -0.02738613623275089 0 0.24422464309495209 -0.046986837608536558 0 0.24524507923365879 -0.0330622213940093 0 0.23627526009844421 -0.049694667024589079 0 0.24524507923365879 -0.0330622213940093 0 0.22864161374710179 -0.024239001361894639 0 0.21864271396698939 -0.038649087319523719 0 0.21066165658577479 -0.033085676709690801 0 0.22864161374710179 -0.024239001361894639 0 0.23627526009844421 -0.049694667024589079 0 0.22864161374710179 -0.024239001361894639 0 0.21864271396698939 -0.038649087319523719 0 0.22546512762764079 -0.044057692677509197 0 0.22864161374710179 -0.024239001361894639 0 0.23627526009844421 -0.049694667024589079 0 0.22546512762764079 -0.044057692677509197 0 0.22864161374710179 -0.024239001361894639 0 0.21864271396698939 -0.038649087319523719 0 0.21819242210762169 -0.050823402618315167 0 0.22546512762764079 -0.044057692677509197 0 0.22864161374710179 -0.024239001361894639 0 0.24437070500465241 -0.019757014484825589 0 0.23246643938152739 -0.0092251246746631842 0 0.24524507923365879 -0.0330622213940093 0 0.22864161374710179 -0.024239001361894639 0 0.24437070500465241 -0.019757014484825589 0 0.25013504981522988 -0.025019616072594848 0 0.24524507923365879 -0.0330622213940093 0 0.24437070500465241 -0.019757014484825589 0 0.25247407830029878 -0.019873092178793648 0 0.25006914023697918 -0.01208141302270524 0 0.24437070500465241 -0.019757014484825589 0 0.25013504981522988 -0.025019616072594848 0 0.25247407830029878 -0.019873092178793648 0 0.24437070500465241 -0.019757014484825589 0 0.24437070500465241 -0.019757014484825589 0 0.242989310538931 -0.0092135161021761666 0 0.23246643938152739 -0.0092251246746631842 0 0.25006914023697918 -0.01208141302270524 0 0.242989310538931 -0.0092135161021761666 0 0.2479891295484222 -0.0022684572774312019 0 0.25006914023697918 -0.01208141302270524 0 0.24437070500465241 -0.019757014484825589 0 0.242989310538931 -0.0092135161021761666 0 0.2429424487767215 0.0026164120279975069 0 0.2479891295484222 -0.0022684572774312019 0 0.24005113852307369 -0.0027355710512556022 0 0.242989310538931 -0.0092135161021761666 0 0.2479891295484222 -0.0022684572774312019 0 0.24005113852307369 -0.0027355710512556022 0 0.23517440673197429 0.0051848507458196356 0 0.24005113852307369 -0.0027355710512556022 0 0.23246643938152739 -0.0092251246746631842 0 0.242989310538931 -0.0092135161021761666 0 0.24005113852307369 -0.0027355710512556022 0 0.23246643938152739 -0.0092251246746631842 0 0.22100796739575951 0.001216664300799794 0 0.22864161374710179 -0.024239001361894639 0 0.23246643938152739 -0.0092251246746631842 0 0.23517440673197429 0.0051848507458196356 0 0.22100796739575951 0.001216664300799794 0 0.23246643938152739 -0.0092251246746631842 0 0.22100796739575951 0.001216664300799794 0 0.21653748859829491 -0.0035968485671754561 0 0.22864161374710179 -0.024239001361894639 0 0.22100796739575951 0.001216664300799794 0 0.22864161374710179 -0.024239001361894639 0 0.206496337029034 -0.094515806075055359 0 0.21061282470536921 -0.1187548291727395 0 0.206496337029034 -0.094515806075055359 0 0.22623965631488491 -0.089683688039789988 0 0.22333782165884589 -0.10574313483481231 0 0.206496337029034 -0.094515806075055359 0 0.21061282470536921 -0.1187548291727395 0 0.22333782165884589 -0.10574313483481231 0 0.18737718651252391 -0.1018645954104864 0 0.18701697985041221 -0.11880972375357141 0 0.21061282470536921 -0.1187548291727395 0 0.18701697985041221 -0.11880972375357141 0 0.21061282470536921 -0.1187548291727395 0 0.19260125287660149 -0.13207131947283501 0 0.18748362772352481 -0.090285751384613616 0 0.18737718651252391 -0.1018645954104864 0 0.206496337029034 -0.094515806075055359 0 0.18737718651252391 -0.1018645954104864 0 0.206496337029034 -0.094515806075055359 0 0.21061282470536921 -0.1187548291727395 0 0.18748362772352481 -0.090285751384613616 0 0.206496337029034 -0.094515806075055359 0 0.19448955746265811 -0.082220240722777116 0 0.206496337029034 -0.094515806075055359 0 0.19448955746265811 -0.082220240722777116 0 0.20237984935269879 -0.070276782977371152 0 0.18645595400882431 -0.078186102724248294 0 0.18748362772352481 -0.090285751384613616 0 0.19448955746265811 -0.082220240722777116 0 0.18645595400882431 -0.078186102724248294 0 0.19448955746265811 -0.082220240722777116 0 0.19180584502786041 -0.068172372335855602 0 0.19448955746265811 -0.082220240722777116 0 0.19180584502786041 -0.068172372335855602 0 0.20237984935269879 -0.070276782977371152 0 0.21390737605136481 -0.061417813804776289 0 0.20237984935269879 -0.070276782977371152 0 0.21248527081093549 -0.070330245212121473 0 0.20237984935269879 -0.070276782977371152 0 0.21248527081093549 -0.070330245212121473 0 0.2145783618208984 -0.079628257083024359 0 0.21248527081093549 -0.070330245212121473 0 0.2145783618208984 -0.079628257083024359 0 0.2221192681341374 -0.068345353637844553 0 0.21390737605136481 -0.061417813804776289 0 0.21248527081093549 -0.070330245212121473 0 0.2221192681341374 -0.068345353637844553 0 0.206496337029034 -0.094515806075055359 0 0.20237984935269879 -0.070276782977371152 0 0.2145783618208984 -0.079628257083024359 0 0.206496337029034 -0.094515806075055359 0 0.2145783618208984 -0.079628257083024359 0 0.22623965631488491 -0.089683688039789988 0 0.206496337029034 -0.094515806075055359 0 0.20237984935269879 -0.070276782977371152 0 0.2145783618208984 -0.079628257083024359 0 0.22623965631488491 -0.089683688039789988 0 0.23038916340776741 -0.077440392619678861 0 0.22623965631488491 -0.089683688039789988 0 0.23038916340776741 -0.077440392619678861 0 0.23781669784438761 -0.088769324738514177 0 0.22623965631488491 -0.089683688039789988 0 0.23781669784438761 -0.088769324738514177 0 0.23714180950183539 -0.10160942858925499 0 0.2145783618208984 -0.079628257083024359 0 0.2221192681341374 -0.068345353637844553 0 0.23038916340776741 -0.077440392619678861 0 0.2255736282180465 -0.056882305063223393 0 0.2221192681341374 -0.068345353637844553 0 0.23165324526163639 -0.065502610206523884 0 0.2221192681341374 -0.068345353637844553 0 0.23038916340776741 -0.077440392619678861 0 0.23165324526163639 -0.065502610206523884 0 0.25256726729664603 -0.064532785491330763 0 0.24617004458672351 -0.058202332164817121 0 0.24390890644978661 -0.075150332687283522 0 0.23627526009844421 -0.049694667024589079 0 0.23165324526163639 -0.065502610206523884 0 0.24390890644978661 -0.075150332687283522 0 0.23038916340776741 -0.077440392619678861 0 0.23165324526163639 -0.065502610206523884 0 0.24390890644978661 -0.075150332687283522 0 0.25154255280112903 -0.1006059983499779 0 0.24390890644978661 -0.075150332687283522 0 0.25154255280112903 -0.1006059983499779 0 0.24390890644978661 -0.075150332687283522 0 0.23781669784438761 -0.088769324738514177 0 0.23038916340776741 -0.077440392619678861 0 0.24390890644978661 -0.075150332687283522 0 0.23781669784438761 -0.088769324738514177 0 0.25154255280112903 -0.1006059983499779 0 0.23714180950183539 -0.10160942858925499 0 0.24954668948061209 -0.11284283178631641 0 0.25154255280112903 -0.1006059983499779 0 0.23781669784438761 -0.088769324738514177 0 0.23714180950183539 -0.10160942858925499 0 0.23714180950183539 -0.10160942858925499 0 0.22333782165884589 -0.10574313483481231 0 0.23542538064511609 -0.1194854446592761 0 0.22623965631488491 -0.089683688039789988 0 0.23714180950183539 -0.10160942858925499 0 0.22333782165884589 -0.10574313483481231 0 0.21061282470536921 -0.1187548291727395 0 0.22333782165884589 -0.10574313483481231 0 0.23542538064511609 -0.1194854446592761 0 0.25741251913389712 -0.1305951081492244 0 0.23542538064511609 -0.1194854446592761 0 0.24954668948061209 -0.11284283178631641 0 0.23714180950183539 -0.10160942858925499 0 0.23542538064511609 -0.1194854446592761 0 0.24954668948061209 -0.11284283178631641 0 0.25741251913389712 -0.1305951081492244 0 0.25452239946831973 -0.14829655140993131 0 0.23191914561449989 -0.13726295483178369 0 0.25741251913389712 -0.1305951081492244 0 0.23542538064511609 -0.1194854446592761 0 0.23191914561449989 -0.13726295483178369 0 0.25452239946831973 -0.14829655140993131 0 0.23782434991563151 -0.15439369078169049 0 0.23191914561449989 -0.13726295483178369 0 0.23782434991563151 -0.15439369078169049 0 0.2147293123817042 -0.1429938522704238 0 0.23782434991563151 -0.15439369078169049 0 0.2147293123817042 -0.1429938522704238 0 0.21952864142792899 -0.1712536350637954 0 0.23782434991563151 -0.15439369078169049 0 0.23191914561449989 -0.13726295483178369 0 0.2147293123817042 -0.1429938522704238 0 0.21061282470536921 -0.1187548291727395 0 0.23542538064511609 -0.1194854446592761 0 0.23191914561449989 -0.13726295483178369 0 0.21061282470536921 -0.1187548291727395 0 0.23191914561449989 -0.13726295483178369 0 0.2147293123817042 -0.1429938522704238 0 0.2147293123817042 -0.1429938522704238 0 0.19260125287660149 -0.13207131947283501 0 0.21061282470536921 -0.1187548291727395 0 0.2147293123817042 -0.1429938522704238 0 0.19260125287660149 -0.13207131947283501 0 0.21061282470536921 -0.1187548291727395 0 0.2147293123817042 -0.1429938522704238 0 0.2147293123817042 -0.1429938522704238 0 0.20548350855114439 -0.15623176612928341 0 0.19677556980284089 -0.14597147697610061 0 0.20548350855114439 -0.15623176612928341 0 0.19677556980284089 -0.14597147697610061 0 0.19325106823209409 -0.153061144976989 0 0.19677556980284089 -0.14597147697610061 0 0.19325106823209409 -0.153061144976989 0 0.18786488322971459 -0.15098965934649999 0 0.19325106823209409 -0.153061144976989 0 0.18786488322971459 -0.15098965934649999 0 0.1842505296355367 -0.15589311325690541 0 0.19677556980284089 -0.14597147697610061 0 0.18786488322971459 -0.15098965934649999 0 0.188659048266132 -0.1418371739210742 0 0.2147293123817042 -0.1429938522704238 0 0.19677556980284089 -0.14597147697610061 0 0.19260125287660149 -0.13207131947283501 0 0.19677556980284089 -0.14597147697610061 0 0.188659048266132 -0.1418371739210742 0 0.19260125287660149 -0.13207131947283501 0 0.18830323417204939 -0.1765657128700695 0 0.20313295091115369 -0.1678787213591082 0 0.20600005448239761 -0.18645800734220749 0 0.18830323417204939 -0.1765657128700695 0 0.20600005448239761 -0.18645800734220749 0 0.1956377870383576 -0.1970896374814364 0 0.19325106823209409 -0.153061144976989 0 0.18830323417204939 -0.1765657128700695 0 0.19325106823209409 -0.153061144976989 0 0.18830323417204939 -0.1765657128700695 0 0.20313295091115369 -0.1678787213591082 0 0.19325106823209409 -0.153061144976989 0 0.18830323417204939 -0.1765657128700695 0 0.18144082188941271 -0.16389154531309821 0 0.20548350855114439 -0.15623176612928341 0 0.19325106823209409 -0.153061144976989 0 0.20313295091115369 -0.1678787213591082 0 0.20548350855114439 -0.15623176612928341 0 0.20313295091115369 -0.1678787213591082 0 0.21952864142792899 -0.1712536350637954 0 0.2147293123817042 -0.1429938522704238 0 0.21952864142792899 -0.1712536350637954 0 0.2147293123817042 -0.1429938522704238 0 0.20548350855114439 -0.15623176612928341 0 0.21952864142792899 -0.1712536350637954 0 0.20600005448239761 -0.18645800734220749 0 0.21952864142792899 -0.1712536350637954 0 0.22432797047415351 -0.19951341785716731 0 0.20313295091115369 -0.1678787213591082 0 0.20600005448239761 -0.18645800734220749 0 0.21952864142792899 -0.1712536350637954 0 0.21952864142792899 -0.1712536350637954 0 0.2437278363918948 -0.18195096812212239 0 0.22432797047415351 -0.19951341785716731 0 0.21952864142792899 -0.1712536350637954 0 0.22432797047415351 -0.19951341785716731 0 0.23782434991563151 -0.15439369078169049 0 0.21952864142792899 -0.1712536350637954 0 0.2437278363918948 -0.18195096812212239 0 0.260919387449559 -0.16579352929295721 0 0.23782434991563151 -0.15439369078169049 0 0.260919387449559 -0.16579352929295721 0 0.23782434991563151 -0.15439369078169049 0 0.2437278363918948 -0.18195096812212239 0 0.2437278363918948 -0.18195096812212239 0 0.24314545538918961 -0.20571013864437751 0 0.22432797047415351 -0.19951341785716731 0 0.2593871514889205 -0.19799184377322379 0 0.2437278363918948 -0.18195096812212239 0 0.24314545538918961 -0.20571013864437751 0 0.22432797047415351 -0.19951341785716731 0 0.2342802842193491 -0.2219117808856606 0 0.21564630723174069 -0.21833189921059021 0 0.24314545538918961 -0.20571013864437751 0 0.22432797047415351 -0.19951341785716731 0 0.2342802842193491 -0.2219117808856606 0 0.2462907050713771 -0.25204034373521428 0 0.2499607574480687 -0.24385609709525671 0 0.2374752251495614 -0.24157268794541539 0 0.25134951441318748 -0.22920843539767929 0 0.2499607574480687 -0.24385609709525671 0 0.2374752251495614 -0.24157268794541539 0 0.25134951441318748 -0.22920843539767929 0 0.24314545538918961 -0.20571013864437751 0 0.2342802842193491 -0.2219117808856606 0 0.25134951441318748 -0.22920843539767929 0 0.2374752251495614 -0.24157268794541539 0 0.2342802842193491 -0.2219117808856606 0 0.2374752251495614 -0.24157268794541539 0 0.22060620183210919 -0.232775489656291 0 0.2342802842193491 -0.2219117808856606 0 0.22060620183210919 -0.232775489656291 0 0.2342802842193491 -0.2219117808856606 0 0.21564630723174069 -0.21833189921059021 0 0.22198339683909701 -0.25340717595137879 0 0.2374752251495614 -0.24157268794541539 0 0.22060620183210919 -0.232775489656291 0 0.22198339683909701 -0.25340717595137879 0 0.22060620183210919 -0.232775489656291 0 0.22198339683909701 -0.25340717595137879 0 0.22060620183210919 -0.232775489656291 0 0.20573671357227499 -0.23448295905173899 0 0.22198339683909701 -0.25340717595137879 0 0.20573671357227499 -0.23448295905173899 0 0.19815896102696709 -0.24816545406213189 0 0.22060620183210919 -0.232775489656291 0 0.20573671357227499 -0.23448295905173899 0 0.21564630723174069 -0.21833189921059021 0 0.20573671357227499 -0.23448295905173899 0 0.19801089506944891 -0.22061097325298201 0 0.21564630723174069 -0.21833189921059021 0 0.20573671357227499 -0.23448295905173899 0 0.19801089506944891 -0.22061097325298201 0 0.18862314846194941 -0.23474346369713109 0 0.19801089506944891 -0.22061097325298201 0 0.18862314846194941 -0.23474346369713109 0 0.17884496266341901 -0.22149700646801701 0 0.20573671357227499 -0.23448295905173899 0 0.18862314846194941 -0.23474346369713109 0 0.19815896102696709 -0.24816545406213189 0 0.20600005448239761 -0.18645800734220749 0 0.22432797047415351 -0.19951341785716731 0 0.20571207111442141 -0.20503903284801611 0 0.22432797047415351 -0.19951341785716731 0 0.21564630723174069 -0.21833189921059021 0 0.20571207111442141 -0.20503903284801611 0 0.19801089506944891 -0.22061097325298201 0 0.21564630723174069 -0.21833189921059021 0 0.20571207111442141 -0.20503903284801611 0 0.19801089506944891 -0.22061097325298201 0 0.19227081910603411 -0.2100117569492751 0 0.17884496266341901 -0.22149700646801701 0 0.20571207111442141 -0.20503903284801611 0 0.19227081910603411 -0.2100117569492751 0 0.1956377870383576 -0.1970896374814364 0 0.19801089506944891 -0.22061097325298201 0 0.20571207111442141 -0.20503903284801611 0 0.19227081910603411 -0.2100117569492751 0 0.18830323417204939 -0.1765657128700695 0 0.1956377870383576 -0.1970896374814364 0 0.18335540011200491 -0.20007028076315 0 0.19227081910603411 -0.2100117569492751 0 0.1956377870383576 -0.1970896374814364 0 0.18335540011200491 -0.20007028076315 0 0.1956377870383576 -0.1970896374814364 0 0.18335540011200491 -0.20007028076315 0 0.20600005448239761 -0.18645800734220749 0 0.20571207111442141 -0.20503903284801611 0 0.1956377870383576 -0.1970896374814364 0 0.18830323417204939 -0.1765657128700695 0 0.18335540011200491 -0.20007028076315 0 0.18335540011200491 -0.20007028076315 0 0.16873688803845349 -0.19227854821165941 0 0.17543185729929969 -0.18273889272689711 0 0.19227081910603411 -0.2100117569492751 0 0.18335540011200491 -0.20007028076315 0 0.17884496266341901 -0.22149700646801701 0 0.18335540011200491 -0.20007028076315 0 0.17884496266341901 -0.22149700646801701 0 0.18335540011200491 -0.20007028076315 0 0.16621660047528611 -0.21253283526692829 0 0.17884496266341901 -0.22149700646801701 0 0.16621660047528611 -0.21253283526692829 0 0.1593158439583067 -0.2059041094785751 0 0.15302060169630469 -0.2217977003443504 0 0.18335540011200491 -0.20007028076315 0 0.16621660047528611 -0.21253283526692829 0 0.1593158439583067 -0.2059041094785751 0 0.16621660047528611 -0.21253283526692829 0 0.1593158439583067 -0.2059041094785751 0 0.1593158439583067 -0.2059041094785751 0 0.15759932706250929 -0.18907488386135229 0 0.16873688803845349 -0.19227854821165941 0 0.18335540011200491 -0.20007028076315 0 0.1593158439583067 -0.2059041094785751 0 0.18335540011200491 -0.20007028076315 0 0.1593158439583067 -0.2059041094785751 0 0.16873688803845349 -0.19227854821165941 0 0.18066177981631051 -0.25348299893649828 0 0.19815896102696709 -0.24816545406213189 0 0.17433452521483719 -0.24292373217288479 0 0.19815896102696709 -0.24816545406213189 0 0.17433452521483719 -0.24292373217288479 0 0.18862314846194941 -0.23474346369713109 0 0.19815896102696709 -0.24816545406213189 0 0.17433452521483719 -0.24292373217288479 0 0.18066177981631051 -0.25348299893649828 0 0.17304535898525439 -0.24904788565112909 0 0.17433452521483719 -0.24292373217288479 0 0.17304535898525439 -0.24904788565112909 0 0.17433452521483719 -0.24292373217288479 0 0.18862314846194941 -0.23474346369713109 0 0.17433452521483719 -0.24292373217288479 0 0.17884496266341901 -0.22149700646801701 0 0.17433452521483719 -0.24292373217288479 0 0.17884496266341901 -0.22149700646801701 0 0.17433452521483719 -0.24292373217288479 0 0.17884496266341901 -0.22149700646801701 0 0.16512535944417561 -0.22744738033917331 0 0.16512535944417561 -0.22744738033917331 0 0.15532271566916761 -0.23874085795770611 0 0.15302060169630469 -0.2217977003443504 0 0.16621660047528611 -0.21253283526692829 0 0.17884496266341901 -0.22149700646801701 0 0.16512535944417561 -0.22744738033917331 0 0.16621660047528611 -0.21253283526692829 0 0.16512535944417561 -0.22744738033917331 0 0.15302060169630469 -0.2217977003443504 0 0.17304535898525439 -0.24904788565112909 0 0.17433452521483719 -0.24292373217288479 0 0.15532271566916761 -0.23874085795770611 0 0.15867772839633809 -0.25707915377424612 0 0.17304535898525439 -0.24904788565112909 0 0.15532271566916761 -0.23874085795770611 0 0.17433452521483719 -0.24292373217288479 0 0.16512535944417561 -0.22744738033917331 0 0.15532271566916761 -0.23874085795770611 0 0.17433452521483719 -0.24292373217288479 0 0.15532271566916761 -0.23874085795770611 0 0.15532271566916761 -0.23874085795770611 0 0.1363109061234978 -0.23455798374252809 0 0.13687529418603939 -0.26162068250561471 0 0.15532271566916761 -0.23874085795770611 0 0.1363109061234978 -0.23455798374252809 0 0.15532271566916761 -0.23874085795770611 0 0.15302060169630469 -0.2217977003443504 0 0.1363109061234978 -0.23455798374252809 0 0.15302060169630469 -0.2217977003443504 0 0.1363109061234978 -0.23455798374252809 0 0.13583218450739579 -0.2116030352811932 0 0.12594488917549271 -0.2231145762792166 0 0.1363109061234978 -0.23455798374252809 0 0.13583218450739579 -0.2116030352811932 0 0.1363109061234978 -0.23455798374252809 0 0.13583218450739579 -0.2116030352811932 0 0.13687529418603939 -0.26162068250561471 0 0.1363109061234978 -0.23455798374252809 0 0.13687529418603939 -0.26162068250561471 0 0.1223190960555403 -0.2394332616338683 0 0.1363109061234978 -0.23455798374252809 0 0.1593158439583067 -0.2059041094785751 0 0.15759932706250929 -0.18907488386135229 0 0.14727334507129489 -0.19433633097022029 0 0.14727334507129489 -0.19433633097022029 0 0.13523084618428721 -0.18276855246186111 0 0.1593158439583067 -0.2059041094785751 0 0.14727334507129489 -0.19433633097022029 0 0.1593158439583067 -0.2059041094785751 0 0.14727334507129489 -0.19433633097022029 0 0.13583218450739579 -0.2116030352811932 0 0.1593158439583067 -0.2059041094785751 0 0.13583218450739579 -0.2116030352811932 0 0.1593158439583067 -0.2059041094785751 0 0.15302060169630469 -0.2217977003443504 0 0.13583218450739579 -0.2116030352811932 0 0.1146962174531268 -0.21673223195775559 0 0.12594488917549271 -0.2231145762792166 0 0.13583218450739579 -0.2116030352811932 0 0.1146962174531268 -0.21673223195775559 0 0.13583218450739579 -0.2116030352811932 0 0.13583218450739579 -0.2116030352811932 0 0.13523084618428721 -0.18276855246186111 0 0.1210323504124224 -0.2015702574875764 0 0.13583218450739579 -0.2116030352811932 0 0.13523084618428721 -0.18276855246186111 0 0.14727334507129489 -0.19433633097022029 0 0.13583218450739579 -0.2116030352811932 0 0.13523084618428721 -0.18276855246186111 0 0.13523084618428721 -0.18276855246186111 0 0.13483495552902119 -0.16378539130439421 0 0.13523084618428721 -0.18276855246186111 0 0.14953284821028701 -0.17659781711855899 0 0.13483495552902119 -0.16378539130439421 0 0.12574768761326591 -0.17365922399620121 0 0.13523084618428721 -0.18276855246186111 0 0.13483495552902119 -0.16378539130439421 0 0.12574768761326591 -0.17365922399620121 0 0.13523084618428721 -0.18276855246186111 0 0.15759932706250929 -0.18907488386135229 0 0.14727334507129489 -0.19433633097022029 0 0.14953284821028701 -0.17659781711855899 0 0.14727334507129489 -0.19433633097022029 0 0.13523084618428721 -0.18276855246186111 0 0.14953284821028701 -0.17659781711855899 0 0.15759932706250929 -0.18907488386135229 0 0.14953284821028701 -0.17659781711855899 0 0.16056198994912749 -0.17787080610445691 0 0.14953284821028701 -0.17659781711855899 0 0.15118562361057611 -0.16212531631630639 0 0.13483495552902119 -0.16378539130439421 0 0.15118562361057611 -0.16212531631630639 0 0.13483495552902119 -0.16378539130439421 0 0.15272907190244081 -0.1550331303974728 0 0.15118562361057611 -0.16212531631630639 0 0.15272907190244081 -0.1550331303974728 0 0.15987479688754311 -0.1572750313981319 0 0.14953284821028701 -0.17659781711855899 0 0.15118562361057611 -0.16212531631630639 0 0.1601367247146048 -0.167216461388007 0 0.1232701832726428 -0.15427141090171109 0 0.12574768761326591 -0.17365922399620121 0 0.13483495552902119 -0.16378539130439421 0 0.12574768761326591 -0.17365922399620121 0 0.13483495552902119 -0.16378539130439421 0 0.13483495552902119 -0.16378539130439421 0 0.13444198148756639 -0.1449420832838656 0 0.14315652521050079 -0.14523933820255211 0 0.1232701832726428 -0.15427141090171109 0 0.13483495552902119 -0.16378539130439421 0 0.13444198148756639 -0.1449420832838656 0 0.13483495552902119 -0.16378539130439421 0 0.13444198148756639 -0.1449420832838656 0 0.13444198148756639 -0.1449420832838656 0 0.1434537453928684 -0.13532839273855221 0 0.14315652521050079 -0.14523933820255211 0 0.13444198148756639 -0.1449420832838656 0 0.13404900744611239 -0.12609877526333699 0 0.13444198148756639 -0.1449420832838656 0 0.13404900744611239 -0.12609877526333699 0 0.1434537453928684 -0.13532839273855221 0 0.11727103389215909 -0.1361484369810822 0 0.13444198148756639 -0.1449420832838656 0 0.13404900744611239 -0.12609877526333699 0 0.13404900744611239 -0.12609877526333699 0 0.1490682445489844 -0.1279194233146575 0 0.1609569453379138 -0.13854421730491809 0 0.13404900744611239 -0.12609877526333699 0 0.1609569453379138 -0.13854421730491809 0 0.13404900744611239 -0.12609877526333699 0 0.1434537453928684 -0.13532839273855221 0 0.1609569453379138 -0.13854421730491809 0 0.1434537453928684 -0.13532839273855221 0 0.14993504674019009 -0.14021612160814689 0 0.1609569453379138 -0.13854421730491809 0 0.1427320902892944 -0.12257921542734659 0 0.13404900744611239 -0.12609877526333699 0 0.1490682445489844 -0.1279194233146575 0 0.1434537453928684 -0.13532839273855221 0 0.14993504674019009 -0.14021612160814689 0 0.14315652521050079 -0.14523933820255211 0 0.14993504674019009 -0.14021612160814689 0 0.15469010670848909 -0.14221164189652771 0 0.1609569453379138 -0.13854421730491809 0 0.15568199284830581 -0.1296421963895899 0 0.1490682445489844 -0.1279194233146575 0 0.1609569453379138 -0.13854421730491809 0 0.15192118682329561 -0.12273271218809589 0 0.15568199284830581 -0.1296421963895899 0 0.1587247560068413 -0.12564209046719049 0 0.15192118682329561 -0.12273271218809589 0 0.15568199284830581 -0.1296421963895899 0 0.1490682445489844 -0.1279194233146575 0 0.13483495552902119 -0.16378539130439421 0 0.15469010670848909 -0.14221164189652771 0 0.13483495552902119 -0.16378539130439421 0 0.14315652521050079 -0.14523933820255211 0 0.15469010670848909 -0.14221164189652771 0 0.13483495552902119 -0.16378539130439421 0 0.15469010670848909 -0.14221164189652771 0 0.15272907190244081 -0.1550331303974728 0 0.14993504674019009 -0.14021612160814689 0 0.14315652521050079 -0.14523933820255211 0 0.15469010670848909 -0.14221164189652771 0 0.15272907190244081 -0.1550331303974728 0 0.16278769519534109 -0.1503194818261428 0 0.15987479688754311 -0.1572750313981319 0 0.16278769519534109 -0.1503194818261428 0 0.15987479688754311 -0.1572750313981319 0 0.16866771310860729 -0.15951236945753941 0 0.15469010670848909 -0.14221164189652771 0 0.15272907190244081 -0.1550331303974728 0 0.16278769519534109 -0.1503194818261428 0 0.15469010670848909 -0.14221164189652771 0 0.16278769519534109 -0.1503194818261428 0 0.1609569453379138 -0.13854421730491809 0 0.16278769519534109 -0.1503194818261428 0 0.1609569453379138 -0.13854421730491809 0 0.17433915911560069 -0.15342176620747169 0 0.16278769519534109 -0.1503194818261428 0 0.17433915911560069 -0.15342176620747169 0 0.16866771310860729 -0.15951236945753941 0 0.1609569453379138 -0.13854421730491809 0 0.16898528270356589 -0.1319020538664718 0 0.17739448715537109 -0.13831623988886119 0 0.1587247560068413 -0.12564209046719049 0 0.1613780220681113 -0.13045743568360191 0 0.1641162962428066 -0.126449221113482 0 0.15568199284830581 -0.1296421963895899 0 0.1587247560068413 -0.12564209046719049 0 0.1613780220681113 -0.13045743568360191 0 0.15568199284830581 -0.1296421963895899 0 0.1613780220681113 -0.13045743568360191 0 0.1609569453379138 -0.13854421730491809 0 0.1613780220681113 -0.13045743568360191 0 0.1609569453379138 -0.13854421730491809 0 0.16898528270356589 -0.1319020538664718 0 0.173543926957343 -0.1211375462363173 0 0.16898528270356589 -0.1319020538664718 0 0.1641162962428066 -0.126449221113482 0 0.1613780220681113 -0.13045743568360191 0 0.16898528270356589 -0.1319020538664718 0 0.1641162962428066 -0.126449221113482 0 0.173543926957343 -0.1211375462363173 0 0.16898528270356589 -0.1319020538664718 0 0.17990838590865871 -0.12844737664361131 0 0.16898528270356589 -0.1319020538664718 0 0.17739448715537109 -0.13831623988886119 0 0.17990838590865871 -0.12844737664361131 0 0.188659048266132 -0.1418371739210742 0 0.19260125287660149 -0.13207131947283501 0 0.17739448715537109 -0.13831623988886119 0 0.19260125287660149 -0.13207131947283501 0 0.17739448715537109 -0.13831623988886119 0 0.17990838590865871 -0.12844737664361131 0 0.18701697985041221 -0.11880972375357141 0 0.19260125287660149 -0.13207131947283501 0 0.17990838590865871 -0.12844737664361131 0 0.18786488322971459 -0.15098965934649999 0 0.1609569453379138 -0.13854421730491809 0 0.17433915911560069 -0.15342176620747169 0 0.18786488322971459 -0.15098965934649999 0 0.1609569453379138 -0.13854421730491809 0 0.18786488322971459 -0.15098965934649999 0 0.1609569453379138 -0.13854421730491809 0 0.17739448715537109 -0.13831623988886119 0 0.18786488322971459 -0.15098965934649999 0 0.188659048266132 -0.1418371739210742 0 0.17739448715537109 -0.13831623988886119 0 0.18786488322971459 -0.15098965934649999 0 0.17433915911560069 -0.15342176620747169 0 0.1842505296355367 -0.15589311325690541 0 0.17433915911560069 -0.15342176620747169 0 0.1842505296355367 -0.15589311325690541 0 0.18144082188941271 -0.16389154531309821 0 0.19325106823209409 -0.153061144976989 0 0.1842505296355367 -0.15589311325690541 0 0.18144082188941271 -0.16389154531309821 0 0.18830323417204939 -0.1765657128700695 0 0.18144082188941271 -0.16389154531309821 0 0.17072519494025609 -0.1704686386871877 0 0.17433915911560069 -0.15342176620747169 0 0.18144082188941271 -0.16389154531309821 0 0.16866771310860729 -0.15951236945753941 0 0.18144082188941271 -0.16389154531309821 0 0.16866771310860729 -0.15951236945753941 0 0.17072519494025609 -0.1704686386871877 0 0.18830323417204939 -0.1765657128700695 0 0.18335540011200491 -0.20007028076315 0 0.17543185729929969 -0.18273889272689711 0 0.18830323417204939 -0.1765657128700695 0 0.17543185729929969 -0.18273889272689711 0 0.17072519494025609 -0.1704686386871877 0 0.17543185729929969 -0.18273889272689711 0 0.16056198994912749 -0.17787080610445691 0 0.17072519494025609 -0.1704686386871877 0 0.16873688803845349 -0.19227854821165941 0 0.17543185729929969 -0.18273889272689711 0 0.16056198994912749 -0.17787080610445691 0 0.15759932706250929 -0.18907488386135229 0 0.16873688803845349 -0.19227854821165941 0 0.16056198994912749 -0.17787080610445691 0 0.14953284821028701 -0.17659781711855899 0 0.16056198994912749 -0.17787080610445691 0 0.1601367247146048 -0.167216461388007 0 0.16056198994912749 -0.17787080610445691 0 0.1601367247146048 -0.167216461388007 0 0.17072519494025609 -0.1704686386871877 0 0.1601367247146048 -0.167216461388007 0 0.15987479688754311 -0.1572750313981319 0 0.16866771310860729 -0.15951236945753941 0 0.15118562361057611 -0.16212531631630639 0 0.1601367247146048 -0.167216461388007 0 0.15987479688754311 -0.1572750313981319 0 0.1601367247146048 -0.167216461388007 0 0.16866771310860729 -0.15951236945753941 0 0.17072519494025609 -0.1704686386871877 0 
</DataArray>
</Points>
<Cells>
<DataArray type="UInt32" Name="connectivity" format="ascii">
0 1 2 3 4 5 6 7 8 9 10 11 12 13 14 15 16 17 18 19 20 21 22 23 24 25 26 27 28 29 30 31 32 33 34 35 36 37 38 39 40 41 42 43 44 45 46 47 48 49 50 51 52 53 54 55 56 57 58 59 60 61 62 63 64 65 66 67 68 69 70 71 72 73 74 75 76 77 78 79 80 81 82 83 84 85 86 87 88 89 90 91 92 93 94 95 96 97 98 99 100 101 102 103 104 105 106 107 108 109 110 111 112 113 114 115 116 117 118 119 120 121 122 123 124 125 126 127 128 129 130 131 132 133 134 135 136 137 138 139 140 141 142 143 144 145 146 147 148 149 150 151 152 153 154 155 156 157 158 159 160 161 162 163 164 165 166 167 168 169 170 171 172 173 174 175 176 177 178 179 180 181 182 183 184 185 186 187 188 189 190 191 192 193 194 195 196 197 198 199 200 201 202 203 204 205 206 207 208 209 210 211 212 213 214 215 216 217 218 219 220 221 222 223 224 225 226 227 228 229 230 231 232 233 234 235 236 237 238 239 240 241 242 243 244 245 246 247 248 249 250 251 252 253 254 255 256 257 258 259 260 261 262 263 264 265 266 267 268 269 270 271 272 273 274 275 276 277 278 279 280 281 282 283 284 285 286 287 288 289 290 291 292 293 294 295 296 297 298 299 300 301 302 303 304 305 306 307 308 309 310 311 312 313 314 315 316 317 318 319 320 321 322 323 324 325 326 327 328 329 330 331 332 333 334 335 336 337 338 339 340 341 342 343 344 345 346 347 348 349 350 351 352 353 354 355 356 357 358 359 360 361 362 363 364 365 366 367 368 369 370 371 372 373 374 375 376 377 378 379 380 381 382 383 384 385 386 387 388 389 390 391 392 393 394 395 396 397 398 399 400 401 402 403 404 405 406 407 408 409 410 411 412 413 414 415 416 417 418 419 420 421 422 423 424 425 426 427 428 429 430 431 432 433 434 435 436 437 438 439 440 441 442 443 444 445 446 447 448 449 450 451 452 453 454 455 456 457 458 459 460 461 462 463 464 465 466 467 468 469 470 471 472 473 474 475 476 477 478 479 480 481 482 483 484 485 486 487 488 489 490 491 492 493 494 495 496 497 498 499 500 501 502 503 504 505 506 507 508 509 510 511 512 513 514 515 516 517 518 519 520 521 522 523 524 525 526 527 528 529 530 531 532 533 534 535 536 537 538 539 540 541 542 543 544 545 546 547 548 549 550 551 552 553 554 555 556 557 558 559 560 561 562 563 564 565 566 567 568 569 570 571 572 573 574 575 576 577 578 579 580 581 582 583 584 585 586 587 588 589 590 591 592 593 594 595 596 597 598 599 600 601 602 603 604 605 606 607 608 609 610 611 612 613 614 615 616 617 618 619 620 621 622 623 624 625 626 627 628 629 630 631 632 633 634 635 636 637 638 639 640 641 642 643 644 645 646 647 648 649 650 651 652 653 654 655 656 657 658 659 660 661 662 663 664 665 666 667 668 669 670 671 672 673 674 675 676 677 678 679 680 681 682 683 684 685 686 687 688 689 690 691 692 693 694 695 696 697 698 699 700 701 702 703 704 705 706 707 708 709 710 711 712 713 714 715 716 717 718 719 720 721 722 723 724 725 726 727 728 729 730 731 732 733 734 735 736 737 738 739 740 741 742 743 744 745 746 747 748 749 750 751 752 753 754 755 756 757 758 759 760 761 762 763 764 765 766 767 768 769 770 771 772 773 774 775 776 777 778 779 780 781 782 783 784 785 786 787 788 789 790 791 792 793 794 795 796 797 798 799 800 801 802 803 804 805 806 807 808 809 810 811 812 813 814 815 816 817 818 819 820 821 822 823 824 825 826 827 828 829 830 831 832 833 834 835 836 837 838 839 840 841 842 843 844 845 846 847 848 849 850 851 852 853 854 855 856 857 858 859 860 861 862 863 864 865 866 867 868 869 870 871 872 873 874 875 876 877 878 879 880 881 882 883 884 885 886 887 888 889 890 891 892 893 894 895 896 897 898 899 900 901 902 903 904 905 906 907 908 909 910 911 912 913 914 915 916 917 918 919 920 921 922 923 924 925 926 927 928 929 930 931 932 933 934 935 936 937 938 939 940 941 942 943 944 945 946 947 948 949 950 951 952 953 954 955 956 957 958 959 960 961 962 963 964 965 966 967 968 969 970 971 972 973 974 975 976 977 978 979 980 981 982 983 984 985 986 987 988 989 990 991 992 993 994 995 996 997 998 999 1000 1001 1002 1003 1004 1005 1006 1007 1008 1009 1010 1011 1012 1013 1014 1015 1016 1017 1018 1019 1020 1021 1022 1023 1024 1025 1026 1027 1028 1029 1030 1031 1032 1033 1034 1035 1036 1037 1038 1039 1040 1041 1042 1043 1044 1045 1046 1047 1048 1049 1050 1051 1052 1053 1054 1055 1056 1057 1058 1059 1060 1061 1062 1063 1064 1065 1066 1067 1068 1069 1070 1071 1072 1073 1074 1075 1076 1077 1078 1079 1080 1081 1082 1083 1084 1085 1086 1087 1088 1089 1090 1091 1092 1093 1094 1095 1096 1097 1098 1099 1100 1101 1102 1103 1104 1105 1106 1107 1108 1109 1110 1111 1112 1113 1114 1115 1116 1117 1118 1119 1120 1121 1122 1123 1124 1125 1126 1127 1128 1129 1130 1131 1132 1133 1134 1135 1136 1137 1138 1139 1140 1141 1142 1143 1144 1145 1146 1147 1148 1149 1150 1151 1152 1153 1154 1155 1156 1157 1158 1159 1160 1161 1162 1163 1164 1165 1166 1167 1168 1169 1170 1171 1172 1173 1174 1175 1176 1177 1178 1179 1180 1181 1182 1183 1184 1185 1186 1187 1188 1189 1190 1191 1192 1193 1194 1195 1196 1197 1198 1199 1200 1201 1202 1203 1204 1205 1206 1207 1208 1209 1210 1211 1212 1213 1214 1215 1216 1217 1218 1219 1220 1221 1222 1223 1224 1225 1226 1227 1228 1229 1230 1231 1232 1233 1234 1235 1236 1237 1238 1239 1240 1241 1242 1243 1244 1245 1246 1247 1248 1249 1250 1251 1252 1253 1254 1255 1256 1257 1258 1259 1260 1261 1262 1263 1264 1265 1266 1267 1268 1269 1270 1271 1272 1273 1274 1275 1276 1277 1278 1279 1280 1281 1282 1283 1284 1285 1286 1287 1288 1289 1290 1291 1292 1293 1294 1295 1296 1297 1298 1299 1300 1301 1302 1303 1304 1305 1306 1307 1308 1309 1310 1311 1312 1313 1314 1315 1316 1317 1318 1319 1320 1321 1322 1323 1324 1325 1326 1327 1328 1329 1330 1331 1332 1333 1334 1335 1336 1337 1338 1339 1340 1341 1342 1343 1344 1345 1346 1347 1348 1349 1350 1351 1352 1353 1354 1355 1356 1357 1358 1359 1360 1361 1362 1363 1364 1365 1366 1367 1368 1369 1370 1371 1372 1373 1374 1375 1376 1377 1378 1379 1380 1381 1382 1383 1384 1385 1386 1387 1388 1389 1390 1391 1392 1393 1394 1395 1396 1397 1398 1399 1400 1401 1402 1403 1404 1405 1406 1407 1408 1409 1410 1411 1412 1413 1414 1415 1416 1417 1418 1419 1420 1421 1422 1423 1424 1425 1426 1427 1428 1429 1430 1431 1432 1433 1434 1435 1436 1437 1438 1439 1440 1441 1442 1443 1444 1445 1446 1447 1448 1449 1450 1451 1452 1453 1454 1455 1456 1457 1458 1459 1460 1461 1462 1463 1464 1465 1466 1467 1468 1469 1470 1471 1472 1473 1474 1475 1476 1477 1478 1479 1480 1481 1482 1483 1484 1485 1486 1487 1488 1489 1490 1491 1492 1493 1494 1495 1496 1497 1498 1499 1500 1501 1502 1503 1504 1505 1506 1507 1508 1509 1510 1511 1512 1513 1514 1515 1516 1517 1518 1519 1520 1521 1522 1523 1524 1525 1526 1527 1528 1529 1530 1531 1532 1533 1534 1535 1536 1537 1538 1539 1540 1541 1542 1543 1544 1545 1546 1547 1548 1549 1550 1551 1552 1553 1554 1555 1556 1557 1558 1559 1560 1561 1562 1563 1564 1565 1566 1567 1568 1569 1570 1571 1572 1573 1574 1575 1576 1577 1578 1579 1580 1581 1582 1583 1584 1585 1586 1587 1588 1589 1590 1591 1592 1593 1594 1595 1596 1597 1598 1599 1600 1601 1602 1603 1604 1605 1606 1607 1608 1609 1610 1611 1612 1613 1614 1615 1616 1617 1618 1619 1620 1621 1622 1623 1624 1625 1626 1627 1628 1629 1630 1631 1632 1633 1634 1635 1636 1637 1638 1639 1640 1641 1642 1643 1644 1645 1646 1647 1648 1649 1650 1651 1652 1653 1654 1655 1656 1657 1658 1659 1660 1661 1662 1663 1664 1665 1666 1667 1668 1669 1670 1671 1672 1673 1674 1675 1676 1677 1678 1679 1680 1681 1682 1683 1684 1685 1686 1687 1688 1689 1690 1691 1692 1693 1694 1695 1696 1697 1698 1699 1700 1701 1702 1703 1704 1705 1706 1707 1708 1709 1710 1711 1712 1713 1714 1715 1716 1717 1718 1719 1720 1721 1722 1723 1724 1725 1726 1727 1728 1729 1730 1731 1732 1733 1734 1735 1736 1737 1738 1739 1740 1741 1742 1743 1744 1745 1746 1747 1748 1749 1750 1751 1752 1753 1754 1755 1756 1757 1758 1759 1760 1761 1762 1763 1764 1765 1766 1767 1768 1769 1770 1771 1772 1773 1774 1775 1776 1777 1778 1779 1780 1781 1782 1783 1784 1785 1786 1787 1788 1789 1790 1791 1792 1793 1794 1795 1796 1797 1798 1799 1800 1801 1802 1803 1804 1805 1806 1807 1808 1809 1810 1811 1812 1813 1814 1815 1816 1817 1818 1819 1820 1821 1822 1823 1824 1825 1826 1827 1828 1829 1830 1831 1832 1833 1834 1835 1836 1837 1838 1839 1840 1841 1842 1843 1844 1845 1846 1847 1848 1849 1850 1851 1852 1853 1854 1855 1856 1857 1858 1859 1860 1861 1862 1863 1864 1865 1866 1867 1868 1869 1870 1871 1872 1873 1874 1875 1876 1877 1878 1879 1880 1881 1882 1883 1884 1885 1886 1887 1888 1889 1890 1891 1892 1893 1894 1895 1896 1897 1898 1899 1900 1901 1902 1903 1904 1905 1906 1907 1908 1909 1910 1911 1912 1913 1914 1915 1916 1917 1918 1919 1920 1921 1922 1923 1924 1925 1926 1927 1928 1929 1930 1931 1932 1933 1934 1935 1936 1937 1938 1939 1940 1941 1942 1943 1944 1945 1946 1947 1948 1949 1950 1951 1952 1953 1954 1955 1956 1957 1958 1959 1960 1961 1962 1963 1964 1965 1966 1967 1968 1969 1970 1971 1972 1973 1974 1975 1976 1977 1978 1979 1980 1981 1982 1983 1984 1985 1986 1987 1988 1989 1990 1991 1992 1993 1994 1995 1996 1997 1998 1999 2000 2001 2002 2003 2004 2005 2006 2007 2008 2009 2010 2011 2012 2013 2014 2015 2016 2017 2018 2019 2020 2021 2022 2023 2024 2025 2026 2027 2028 2029 2030 2031 2032 2033 2034 2035 2036 2037 2038 2039 2040 2041 2042 2043 2044 2045 2046 2047 2048 2049 2050 2051 2052 2053 2054 2055 2056 2057 2058 2059 2060 2061 2062 2063 2064 2065 2066 2067 2068 2069 2070 2071 2072 2073 2074 2075 2076 2077 2078 2079 2080 2081 2082 2083 2084 2085 2086 2087 2088 2089 2090 2091 2092 2093 2094 2095 2096 2097 2098 2099 2100 2101 2102 2103 2104 2105 2106 2107 2108 2109 2110 2111 2112 2113 2114 2115 2116 2117 2118 2119 2120 2121 2122 2123 2124 2125 2126 2127 2128 2129 2130 2131 2132 2133 2134 2135 2136 2137 2138 2139 2140 2141 2142 2143 2144 2145 2146 2147 2148 2149 2150 2151 2152 2153 2154 2155 2156 2157 2158 2159 2160 2161 2162 2163 2164 2165 2166 2167 2168 2169 2170 2171 2172 2173 2174 2175 2176 2177 2178 2179 2180 2181 2182 2183 2184 2185 2186 2187 2188 2189 2190 2191 2192 2193 2194 2195 2196 2197 2198 2199 2200 2201 2202 2203 2204 2205 2206 2207 2208 2209 2210 2211 2212 2213 2214 2215 2216 2217 2218 2219 2220 2221 2222 2223 2224 2225 2226 2227 2228 2229 2230 2231 2232 2233 2234 2235 2236 2237 2238 2239 2240 2241 2242 2243 2244 2245 2246 2247 2248 2249 2250 2251 2252 2253 2254 2255 2256 2257 2258 2259 2260 2261 2262 2263 2264 2265 2266 2267 2268 2269 2270 2271 2272 2273 2274 2275 2276 2277 2278 2279 2280 2281 2282 2283 2284 2285 2286 2287 2288 2289 2290 2291 2292 2293 2294 2295 2296 2297 2298 2299 2300 2301 2302 2303 2304 2305 2306 2307 2308 2309 2310 2311 2312 2313 2314 2315 2316 2317 2318 2319 2320 2321 2322 2323 2324 2325 2326 2327 2328 2329 2330 2331 2332 2333 2334 2335 2336 2337 2338 2339 2340 2341 2342 2343 2344 2345 2346 2347 2348 2349 2350 2351 2352 2353 2354 2355 2356 2357 2358 2359 2360 2361 2362 2363 2364 2365 2366 2367 2368 2369 2370 2371 2372 2373 2374 2375 2376 2377 2378 2379 2380 2381 2382 2383 2384 2385 2386 2387 2388 2389 2390 2391 2392 2393 2394 2395 2396 2397 2398 2399 2400 2401 2402 2403 2404 2405 2406 2407 2408 2409 2410 2411 2412 2413 2414 2415 2416 2417 2418 2419 2420 2421 2422 2423 2424 2425 2426 2427 2428 2429 2430 2431 2432 2433 2434 2435 2436 2437 2438 2439 2440 2441 2442 2443 2444 2445 2446 2447 2448 2449 2450 2451 2452 2453 2454 2455 2456 2457 2458 2459 2460 2461 2462 2463 2464 2465 2466 2467 2468 2469 2470 2471 2472 2473 2474 2475 2476 2477 2478 2479 2480 2481 2482 2483 2484 2485 2486 2487 2488 2489 2490 2491 2492 2493 2494 2495 2496 2497 2498 2499 2500 2501 2502 2503 2504 2505 2506 2507 2508 2509 2510 2511 2512 2513 2514 2515 2516 2517 2518 2519 2520 2521 2522 2523 2524 2525 2526 2527 2528 2529 2530 2531 2532 2533 2534 2535 2536 2537 2538 2539 2540 2541 2542 2543 2544 2545 2546 2547 2548 2549 2550 2551 2552 2553 2554 2555 2556 2557 2558 2559 2560 2561 2562 2563 2564 2565 2566 2567 2568 2569 2570 2571 2572 2573 2574 2575 2576 2577 2578 2579 2580 2581 2582 2583 2584 2585 2586 2587 2588 2589 2590 2591 2592 2593 2594 2595 2596 2597 2598 2599 2600 2601 2602 2603 2604 2605 2606 2607 2608 2609 2610 2611 2612 2613 2614 2615 2616 2617 2618 2619 2620 2621 2622 2623 2624 2625 2626 2627 2628 2629 2630 2631 2632 2633 2634 2635 2636 2637 2638 2639 2640 2641 2642 2643 2644 2645 2646 2647 2648 2649 2650 2651 2652 2653 2654 2655 2656 2657 2658 2659 2660 2661 2662 2663 2664 2665 2666 2667 2668 2669 2670 2671 2672 2673 2674 2675 2676 2677 2678 2679 2680 2681 2682 2683 2684 2685 2686 2687 2688 2689 2690 2691 2692 2693 2694 2695 2696 2697 2698 2699 2700 2701 2702 2703 2704 2705 2706 2707 2708 2709 2710 2711 2712 2713 2714 2715 2716 2717 2718 2719 2720 2721 2722 2723 2724 2725 2726 2727 2728 2729 2730 2731 2732 2733 2734 2735 2736 2737 2738 2739 2740 2741 2742 2743 2744 2745 2746 2747 2748 2749 2750 2751 2752 2753 2754 2755 2756 2757 2758 2759 2760 2761 2762 2763 2764 2765 2766 2767 2768 2769 2770 2771 2772 2773 2774 2775 2776 2777 2778 2779 2780 2781 2782 2783 2784 2785 2786 2787 2788 2789 2790 2791 2792 2793 2794 2795 2796 2797 2798 2799 2800 2801 2802 2803 2804 2805 2806 2807 2808 2809 2810 2811 2812 2813 2814 2815 2816 2817 2818 2819 2820 2821 2822 2823 2824 2825 2826 2827 2828 2829 2830 2831 2832 2833 2834 2835 2836 2837 2838 2839 2840 2841 2842 2843 2844 2845 2846 2847 2848 2849 2850 2851 2852 2853 2854 2855 2856 2857 2858 2859 2860 2861 2862 2863 2864 2865 2866 2867 2868 2869 2870 2871 2872 2873 2874 2875 2876 2877 2878 2879 2880 2881 2882 2883 2884 2885 2886 2887 2888 2889 2890 2891 2892 2893 2894 2895 2896 2897 2898 2899 2900 2901 2902 2903 2904 2905 2906 2907 2908 2909 2910 2911 2912 2913 2914 2915 2916 2917 2918 2919 2920 2921 2922 2923 2924 2925 2926 2927 2928 2929 2930 2931 2932 2933 2934 2935 2936 2937 2938 2939 2940 2941 2942 2943 2944 2945 2946 2947 2948 2949 2950 2951 2952 2953 2954 2955 2956 2957 2958 2959 2960 2961 2962 2963 2964 2965 2966 2967 2968 2969 2970 2971 2972 2973 2974 2975 2976 2977 2978 2979 2980 2981 2982 2983 2984 2985 2986 2987 2988 2989 2990 2991 2992 2993 2994 2995 2996 2997 2998 2999 3000 3001 3002 3003 3004 3005 3006 3007 3008 3009 3010 3011 3012 3013 3014 3015 3016 3017 3018 3019 3020 3021 3022 3023 3024 3025 3026 3027 3028 3029 3030 3031 3032 3033 3034 3035 3036 3037 3038 3039 3040 3041 3042 3043 3044 3045 3046 3047 3048 3049 3050 3051 3052 3053 3054 3055 3056 3057 3058 3059 3060 3061 3062 3063 3064 3065 3066 3067 3068 3069 3070 3071 3072 3073 3074 3075 3076 3077 3078 3079 3080 3081 3082 3083 3084 3085 3086 3087 3088 3089 3090 3091 3092 3093 3094 3095 3096 3097 3098 3099 3100 3101 3102 3103 3104 3105 3106 3107 3108 3109 3110 3111 3112 3113 3114 3115 3116 3117 3118 3119 3120 3121 3122 3123 3124 3125 3126 3127 3128 3129 3130 3131 3132 3133 3134 3135 3136 3137 3138 3139 3140 3141 3142 3143 3144 3145 3146 3147 3148 3149 3150 3151 3152 3153 3154 3155 3156 3157 3158 3159 3160 3161 3162 3163 3164 3165 3166 3167 3168 3169 3170 3171 3172 3173 3174 3175 3176 3177 3178 3179 3180 3181 3182 3183 3184 3185 3186 3187 3188 3189 3190 3191 3192 3193 3194 3195 3196 3197 3198 3199 3200 3201 3202 3203 3204 3205 3206 3207 3208 3209 3210 3211 3212 3213 3214 3215 3216 3217 3218 3219 3220 3221 3222 3223 3224 3225 3226 3227 3228 3229 3230 3231 3232 3233 3234 3235 3236 3237 3238 3239 3240 3241 3242 3243 3244 3245 3246 3247 3248 3249 3250 3251 3252 3253 3254 3255 3256 3257 3258 3259 3260 3261 3262 3263 3264 3265 3266 3267 3268 3269 3270 3271 3272 3273 3274 3275 3276 3277 3278 3279 3280 3281 3282 3283 3284 3285 3286 3287 3288 3289 3290 3291 3292 3293 3294 3295 3296 3297 3298 3299 3300 3301 3302 3303 3304 3305 3306 3307 3308 3309 3310 3311 3312 3313 3314 3315 3316 3317 3318 3319 3320 3321 3322 3323 3324 3325 3326 3327 3328 3329 3330 3331 3332 3333 3334 3335 3336 3337 3338 3339 3340 3341 3342 3343 3344 3345 3346 3347 3348 3349 3350 3351 3352 3353 3354 3355 3356 3357 3358 3359 3360 3361 3362 3363 3364 3365 3366 3367 3368 3369 3370 3371 3372 3373 3374 3375 3376 3377 3378 3379 3380 3381 3382 3383 3384 3385 3386 3387 3388 3389 3390 3391 3392 3393 3394 3395 3396 3397 3398 3399 3400 3401 3402 3403 3404 3405 3406 3407 3408 3409 3410 3411 3412 3413 3414 3415 3416 3417 3418 3419 3420 3421 3422 3423 3424 3425 3426 3427 3428 3429 3430 3431 3432 3433 3434 3435 3436 3437 3438 3439 3440 3441 3442 3443 3444 3445 3446 3447 3448 3449 3450 3451 3452 3453 3454 3455 3456 3457 3458 3459 3460 3461 3462 3463 3464 3465 3466 3467 3468 3469 3470 3471 3472 3473 3474 3475 3476 3477 3478 3479 3480 3481 3482 3483 3484 3485 3486 3487 3488 3489 3490 3491 3492 3493 3494 3495 3496 3497 3498 3499 3500 3501 3502 3503 3504 3505 3506 3507 3508 3509 3510 3511 3512 3513 3514 3515 3516 3517 3518 3519 3520 3521 3522 3523 3524 3525 3526 3527 3528 3529 3530 3531 3532 3533 3534 3535 3536 3537 3538 3539 3540 3541 3542 3543 3544 3545 3546 3547 3548 3549 3550 3551 3552 3553 3554 3555 3556 3557 3558 3559 3560 3561 3562 3563 3564 3565 3566 3567 3568 3569 3570 3571 3572 3573 3574 3575 3576 3577 3578 3579 3580 3581 3582 3583 3584 3585 3586 3587 3588 3589 3590 3591 3592 3593 3594 3595 3596 3597 3598 3599 3600 3601 3602 3603 3604 3605 3606 3607 3608 3609 3610 3611 3612 3613 3614 3615 3616 3617 3618 3619 3620 3621 3622 3623 3624 3625 3626 3627 3628 3629 3630 3631 3632 3633 3634 3635 3636 3637 3638 3639 3640 3641 3642 3643 3644 3645 3646 3647 3648 3649 3650 3651 3652 3653 3654 3655 3656 3657 3658 3659 3660 3661 3662 3663 3664 3665 3666 3667 3668 3669 3670 3671 3672 3673 3674 3675 3676 3677 3678 3679 3680 3681 3682 3683 3684 3685 3686 3687 3688 3689 3690 3691 3692 3693 3694 3695 3696 3697 3698 3699 3700 3701 3702 3703 3704 3705 3706 3707 3708 3709 3710 3711 3712 3713 3714 3715 3716 3717 3718 3719 3720 3721 3722 3723 3724 3725 3726 3727 3728 3729 3730 3731 3732 3733 3734 3735 3736 3737 3738 3739 3740 3741 3742 3743 3744 3745 3746 3747 3748 3749 3750 3751 3752 3753 3754 3755 3756 3757 3758 3759 3760 3761 3762 3763 3764 3765 3766 3767 3768 3769 3770 3771 3772 3773 3774 3775 3776 3777 3778 3779 3780 3781 3782 3783 3784 3785 3786 3787 3788 3789 3790 3791 3792 3793 3794 3795 3796 3797 3798 3799 3800 3801 3802 3803 3804 3805 3806 3807 3808 3809 3810 3811 3812 3813 3814 3815 3816 3817 3818 3819 3820 3821 3822 3823 3824 3825 3826 3827 3828 3829 3830 3831 3832 3833 3834 3835 3836 3837 3838 3839 3840 3841 3842 3843 3844 3845 3846 3847 3848 3849 3850 3851 3852 3853 3854 3855 3856 3857 3858 3859 3860 3861 3862 3863 3864 3865 3866 3867 3868 3869 3870 3871 3872 3873 3874 3875 3876 3877 3878 3879 3880 3881 3882 3883 3884 3885 3886 3887 3888 3889 3890 3891 3892 3893 3894 3895 3896 3897 3898 3899 3900 3901 3902 3903 3904 3905 3906 3907 3908 3909 3910 3911 3912 3913 3914 3915 3916 3917 3918 3919 3920 3921 3922 3923 3924 3925 3926 3927 3928 3929 3930 3931 3932 3933 3934 3935 3936 3937 3938 3939 3940 3941 3942 3943 3944 3945 3946 3947 3948 3949 3950 3951 3952 3953 3954 3955 3956 3957 3958 3959 3960 3961 3962 3963 3964 3965 3966 3967 3968 3969 3970 3971 3972 3973 3974 3975 3976 3977 3978 3979 3980 3981 3982 3983 3984 3985 3986 3987 3988 3989 3990 3991 3992 3993 3994 3995 3996 3997 3998 3999 4000 4001 4002 4003 4004 4005 4006 4007 4008 4009 4010 4011 4012 4013 4014 4015 4016 4017 4018 4019 4020 4021 4022 4023 4024 4025 4026 4027 4028 4029 4030 4031 4032 4033 4034 4035 4036 4037 4038 4039 4040 4041 4042 4043 4044 4045 4046 4047 4048 4049 4050 4051 4052 4053 4054 4055 4056 4057 4058 4059 4060 4061 4062 4063 4064 4065 4066 4067 4068 4069 4070 4071 4072 4073 4074 4075 4076 4077 4078 4079 4080 4081 4082 4083 4084 4085 4086 4087 4088 4089 4090 4091 4092 4093 4094 4095 4096 4097 4098 4099 4100 4101 4102 4103 4104 4105 4106 4107 4108 4109 4110 4111 4112 4113 4114 4115 4116 4117 4118 4119 4120 4121 4122 4123 4124 4125 4126 4127 4128 4129 4130 4131 4132 4133 4134 4135 4136 4137 4138 4139 4140 4141 4142 4143 4144 4145 4146 4147 4148 4149 4150 4151 4152 4153 4154 4155 4156 4157 4158 4159 4160 4161 4162 4163 4164 4165 4166 4167 4168 4169 4170 4171 4172 4173 4174 4175 4176 4177 4178 4179 4180 4181 4182 4183 4184 4185 4186 4187 4188 4189 4190 4191 4192 4193 4194 4195 4196 4197 4198 4199 4200 4201 4202 4203 4204 4205 4206 4207 4208 4209 4210 4211 4212 4213 4214 4215 4216 4217 4218 4219 4220 4221 4222 4223 4224 4225 4226 4227 4228 4229 4230 4231 4232 4233 4234 4235 4236 4237 4238 4239 4240 4241 4242 4243 4244 4245 4246 4247 4248 4249 4250 4251 4252 4253 4254 4255 4256 4257 4258 4259 4260 4261 4262 4263 4264 4265 4266 4267 4268 4269 4270 4271 4272 4273 4274 4275 4276 4277 4278 4279 4280 4281 4282 4283 4284 4285 4286 4287 4288 4289 4290 4291 4292 4293 4294 4295 4296 4297 4298 4299 4300 4301 4302 4303 4304 4305 4306 4307 4308 4309 4310 4311 4312 4313 4314 4315 4316 4317 4318 4319 4320 4321 4322 4323 4324 4325 4326 4327 4328 4329 4330 4331 4332 4333 4334 4335 4336 4337 4338 4339 4340 4341 4342 4343 4344 4345 4346 4347 4348 4349 4350 4351 4352 4353 4354 4355 4356 4357 4358 4359 4360 4361 4362 4363 4364 4365 4366 4367 4368 4369 4370 4371 4372 4373 4374 4375 4376 4377 4378 4379 4380 4381 4382 4383 4384 4385 4386 4387 4388 4389 4390 4391 4392 4393 4394 4395 4396 4397 4398 4399 4400 4401 4402 4403 4404 4405 4406 4407 4408 4409 4410 4411 4412 4413 4414 4415 4416 4417 4418 4419 4420 4421 4422 4423 4424 4425 4426 4427 4428 4429 4430 4431 4432 4433 4434 4435 4436 4437 4438 4439 4440 4441 4442 4443 4444 4445 4446 4447 4448 4449 4450 4451 4452 4453 4454 4455 4456 4457 4458 4459 4460 4461 4462 4463 4464 4465 4466 4467 4468 4469 4470 4471 4472 4473 4474 4475 4476 4477 4478 4479 4480 4481 4482 4483 4484 4485 4486 4487 4488 4489 4490 4491 4492 4493 4494 4495 4496 4497 4498 4499 4500 4501 4502 4503 4504 4505 4506 4507 4508 4509 4510 4511 4512 4513 4514 4515 4516 4517 4518 4519 4520 4521 4522 4523 4524 4525 4526 4527 4528 4529 4530 4531 4532 4533 4534 4535 4536 4537 4538 4539 4540 4541 4542 4543 4544 4545 4546 4547 4548 4549 4550 4551 4552 4553 4554 4555 4556 4557 4558 4559 4560 4561 4562 4563 4564 4565 4566 4567 4568 4569 4570 4571 4572 4573 4574 4575 4576 4577 4578 4579 4580 4581 4582 4583 4584 4585 4586 4587 4588 4589 4590 4591 4592 4593 4594 4595 4596 4597 4598 4599 4600 4601 4602 4603 4604 4605 4606 4607 4608 4609 4610 4611 4612 4613 4614 4615 4616 4617 4618 4619 4620 4621 4622 4623 4624 4625 4626 4627 4628 4629 4630 4631 4632 4633 4634 4635 4636 4637 4638 4639 4640 4641 4642 4643 4644 4645 4646 4647 4648 4649 4650 4651 4652 4653 4654 4655 4656 4657 4658 4659 4660 4661 4662 4663 4664 4665 4666 4667 4668 4669 4670 4671 4672 4673 4674 4675 4676 4677 4678 4679 4680 4681 4682 4683 4684 4685 4686 4687 4688 4689 4690 4691 4692 4693 4694 4695 4696 4697 4698 4699 4700 4701 4702 4703 4704 4705 4706 4707 4708 4709 4710 4711 4712 4713 4714 4715 4716 4717 4718 4719 4720 4721 4722 4723 4724 4725 4726 4727 4728 4729 4730 4731 4732 4733 4734 4735 4736 4737 4738 4739 4740 4741 4742 4743 4744 4745 4746 4747 4748 4749 4750 4751 4752 4753 4754 4755 4756 4757 4758 4759 4760 4761 4762 4763 4764 4765 4766 4767 4768 4769 4770 4771 4772 4773 4774 4775 4776 4777 4778 4779 4780 4781 4782 4783 4784 4785 4786 4787 4788 4789 4790 4791 4792 4793 4794 4795 4796 4797 4798 4799 4800 4801 4802 4803 4804 4805 4806 4807 4808 4809 4810 4811 4812 4813 4814 4815 4816 4817 4818 4819 4820 4821 4822 4823 4824 4825 4826 4827 4828 4829 4830 4831 4832 4833 4834 4835 4836 4837 4838 4839 4840 4841 4842 4843 4844 4845 4846 4847 4848 4849 4850 4851 4852 4853 4854 4855 4856 4857 4858 4859 4860 4861 4862 4863 4864 4865 4866 4867 4868 4869 4870 4871 4872 4873 4874 4875 4876 4877 4878 4879 4880 4881 4882 4883 4884 4885 4886 4887 4888 4889 4890 4891 4892 4893 4894 4895 4896 4897 4898 4899 4900 4901 4902 4903 4904 4905 4906 4907 4908 4909 4910 4911 4912 4913 4914 4915 4916 4917 4918 4919 4920 4921 4922 4923 4924 4925 4926 4927 4928 4929 4930 4931 4932 4933 4934 4935 4936 4937 4938 4939 4940 4941 4942 4943 4944 4945 4946 4947 4948 4949 4950 4951 4952 4953 4954 4955 4956 4957 4958 4959 4960 4961 4962 4963 4964 4965 4966 4967 4968 4969 4970 4971 4972 4973 4974 4975 4976 4977 4978 4979 4980 4981 4982 4983 4984 4985 4986 4987 4988 4989 4990 4991 4992 4993 4994 4995 4996 4997 4998 4999 5000 5001 5002 5003 5004 5005 5006 5007 5008 5009 5010 5011 5012 5013 5014 5015 5016 5017 5018 5019 5020 5021 5022 5023 5024 5025 5026 5027 5028 5029 5030 5031 5032 5033 5034 5035 5036 5037 5038 5039 5040 5041 5042 5043 5044 5045 5046 5047 5048 5049 5050 5051 5052 5053 5054 5055 5056 5057 5058 5059 5060 5061 5062 5063 5064 5065 5066 5067 5068 5069 5070 5071 5072 5073 5074 5075 5076 5077 5078 5079 5080 5081 5082 5083 5084 5085 5086 5087 5088 5089 5090 5091 5092 5093 5094 5095 5096 5097 5098 5099 5100 5101 5102 5103 5104 5105 5106 5107 5108 5109 5110 5111 5112 5113 5114 5115 5116 5117 5118 5119 5120 5121 5122 5123 5124 5125 5126 5127 5128 5129 5130 5131 5132 5133 5134 5135 5136 5137 5138 5139 5140 5141 5142 5143 5144 5145 5146 5147 5148 5149 5150 5151 5152 5153 5154 5155 5156 5157 5158 5159 5160 5161 5162 5163 5164 5165 5166 5167 5168 5169 5170 5171 5172 5173 5174 5175 5176 5177 5178 5179 5180 5181 5182 5183 5184 5185 5186 5187 5188 5189 5190 5191 5192 5193 5194 5195 5196 5197 5198 5199 5200 5201 5202 5203 5204 5205 5206 5207 5208 5209 5210 5211 5212 5213 5214 5215 5216 5217 5218 5219 5220 5221 5222 5223 5224 5225 5226 5227 5228 5229 5230 5231 5232 5233 5234 5235 5236 5237 5238 5239 5240 5241 5242 5243 5244 5245 5246 5247 5248 5249 5250 5251 5252 5253 5254 5255 5256 5257 5258 5259 5260 5261 5262 5263 5264 5265 5266 5267 5268 5269 5270 5271 5272 5273 5274 5275 5276 5277 5278 5279 5280 5281 5282 5283 5284 5285 5286 5287 5288 5289 5290 5291 5292 5293 5294 5295 5296 5297 5298 5299 5300 5301 5302 5303 5304 5305 5306 5307 5308 5309 5310 5311 5312 5313 5314 5315 5316 5317 5318 5319 5320 5321 5322 5323 5324 5325 5326 5327 5328 5329 5330 5331 5332 5333 5334 5335 5336 5337 5338 5339 5340 5341 5342 5343 5344 5345 5346 5347 5348 5349 5350 5351 5352 5353 5354 5355 5356 5357 5358 5359 5360 5361 5362 5363 5364 5365 5366 5367 5368 5369 5370 5371 5372 5373 5374 5375 5376 5377 5378 5379 5380 5381 5382 5383 5384 5385 5386 5387 5388 5389 5390 5391 5392 5393 5394 5395 5396 5397 5398 5399 5400 5401 5402 5403 5404 5405 5406 5407 5408 5409 5410 5411 5412 5413 5414 5415 5416 5417 5418 5419 5420 5421 5422 5423 5424 5425 5426 5427 5428 5429 5430 5431 5432 5433 5434 5435 5436 5437 5438 5439 5440 5441 5442 5443 5444 5445 5446 5447 5448 5449 5450 5451 5452 5453 5454 5455 5456 5457 5458 5459 5460 5461 5462 5463 5464 5465 5466 5467 5468 5469 5470 5471 5472 5473 5474 5475 5476 5477 5478 5479 5480 5481 5482 5483 5484 5485 5486 5487 5488 5489 5490 5491 5492 5493 5494 5495 5496 5497 5498 5499 5500 5501 5502 5503 5504 5505 5506 5507 5508 5509 5510 5511 5512 5513 5514 5515 5516 5517 5518 5519 5520 5521 5522 5523 5524 5525 5526 5527 5528 5529 5530 5531 5532 5533 5534 5535 5536 5537 5538 5539 5540 5541 5542 5543 5544 5545 5546 5547 5548 5549 5550 5551 5552 5553 5554 5555 5556 5557 5558 5559 5560 5561 5562 5563 5564 5565 5566 5567 5568 5569 5570 5571 5572 5573 5574 5575 5576 5577 5578 5579 5580 5581 5582 5583 5584 5585 5586 5587 5588 5589 5590 5591 5592 5593 5594 5595 5596 5597 5598 5599 5600 5601 5602 5603 5604 5605 5606 5607 5608 5609 5610 5611 5612 5613 5614 5615 5616 5617 5618 5619 5620 5621 5622 5623 5624 5625 5626 5627 5628 5629 5630 5631 5632 5633 5634 5635 5636 5637 5638 5639 5640 5641 5642 5643 5644 5645 5646 5647 5648 5649 5650 5651 5652 5653 5654 5655 5656 5657 5658 5659 5660 5661 5662 5663 5664 5665 5666 5667 5668 5669 5670 5671 5672 5673 5674 5675 5676 5677 5678 5679 5680 5681 5682 5683 5684 5685 5686 5687 5688 5689 5690 5691 5692 5693 5694 5695 5696 5697 5698 5699 5700 5701 5702 5703 5704 5705 5706 5707 5708 5709 5710 5711 5712 5713 5714 5715 5716 5717 5718 5719 5720 5721 5722 5723 5724 5725 5726 5727 5728 5729 5730 5731 5732 5733 5734 5735 5736 5737 5738 5739 5740 5741 5742 5743 5744 5745 5746 5747 5748 5749 5750 5751 5752 5753 5754 5755 5756 5757 5758 5759 5760 5761 5762 5763 5764 5765 5766 5767 5768 5769 5770 5771 5772 5773 5774 5775 5776 5777 5778 5779 5780 5781 5782 5783 5784 5785 5786 5787 5788 5789 5790 5791 5792 5793 5794 5795 5796 5797 5798 5799 5800 5801 5802 5803 5804 5805 5806 5807 5808 5809 5810 5811 5812 5813 5814 5815 5816 5817 5818 5819 5820 5821 5822 5823 5824 5825 5826 5827 5828 5829 5830 5831 5832 5833 5834 5835 5836 5837 5838 5839 5840 5841 5842 5843 5844 5845 5846 5847 5848 5849 5850 5851 5852 5853 5854 5855 5856 5857 5858 5859 5860 5861 5862 5863 5864 5865 5866 5867 5868 5869 5870 5871 5872 5873 5874 5875 5876 5877 5878 5879 5880 5881 5882 5883 5884 5885 5886 5887 5888 5889 5890 5891 5892 5893 5894 5895 5896 5897 5898 5899 5900 5901 5902 5903 5904 5905 5906 5907 5908 5909 5910 5911 5912 5913 5914 5915 5916 5917 5918 5919 5920 5921 5922 5923 5924 5925 5926 5927 5928 5929 5930 5931 5932 5933 5934 5935 5936 5937 5938 5939 5940 5941 5942 5943 5944 5945 5946 5947 5948 5949 5950 5951 5952 5953 5954 5955 5956 5957 5958 5959 5960 5961 5962 5963 5964 5965 5966 5967 5968 5969 5970 5971 5972 5973 5974 5975 5976 5977 5978 5979 5980 5981 5982 5983 5984 5985 5986 5987 5988 5989 5990 5991 5992 5993 5994 5995 5996 5997 5998 5999 6000 6001 6002 6003 6004 6005 6006 6007 6008 6009 6010 6011 6012 6013 6014 6015 6016 6017 6018 6019 6020 6021 6022 6023 6024 6025 6026 6027 6028 6029 6030 6031 6032 6033 6034 6035 6036 6037 6038 6039 6040 6041 6042 6043 6044 6045 6046 6047 6048 6049 6050 6051 6052 6053 6054 6055 6056 6057 6058 6059 6060 6061 6062 6063 6064 6065 6066 6067 6068 6069 6070 6071 6072 6073 6074 6075 6076 6077 6078 6079 6080 6081 6082 6083 6084 6085 6086 6087 6088 6089 6090 6091 6092 6093 6094 6095 6096 6097 6098 6099 6100 6101 6102 6103 6104 6105 6106 6107 6108 6109 6110 6111 6112 6113 6114 6115 6116 6117 6118 6119 6120 6121 6122 6123 6124 6125 6126 6127 6128 6129 6130 6131 6132 6133 6134 6135 6136 6137 6138 6139 6140 6141 6142 6143 6144 6145 6146 6147 6148 6149 6150 6151 6152 6153 6154 6155 6156 6157 6158 6159 6160 6161 6162 6163 6164 6165 6166 6167 6168 6169 6170 6171 6172 6173 6174 6175 6176 6177 6178 6179 6180 6181 6182 6183 6184 6185 6186 6187 6188 6189 6190 6191 6192 6193 6194 6195 6196 6197 6198 6199 6200 6201 6202 6203 6204 6205 6206 6207 6208 6209 6210 6211 6212 6213 6214 6215 6216 6217 6218 6219 6220 6221 6222 6223 6224 6225 6226 6227 6228 6229 6230 6231 6232 6233 6234 6235 6236 6237 6238 6239 6240 6241 6242 6243 6244 6245 6246 6247 6248 6249 6250 6251 6252 6253 6254 6255 6256 6257 6258 6259 6260 6261 6262 6263 6264 6265 6266 6267 6268 6269 6270 6271 6272 6273 6274 6275 6276 6277 6278 6279 6280 6281 6282 6283 6284 6285 6286 6287 6288 6289 6290 6291 6292 6293 6294 6295 6296 6297 6298 6299 6300 6301 6302 6303 6304 6305 6306 6307 6308 6309 6310 6311 6312 6313 6314 6315 6316 6317 6318 6319 6320 6321 6322 6323 6324 6325 6326 6327 6328 6329 6330 6331 6332 6333 6334 6335 6336 6337 6338 6339 6340 6341 6342 6343 6344 6345 6346 6347 6348 6349 6350 6351 6352 6353 6354 6355 6356 6357 6358 6359 6360 6361 6362 6363 6364 6365 6366 6367 6368 6369 6370 6371 6372 6373 6374 6375 6376 6377 6378 6379 6380 6381 6382 6383 6384 6385 6386 6387 6388 6389 6390 6391 6392 6393 6394 6395 6396 6397 6398 6399 6400 6401 6402 6403 6404 6405 6406 6407 6408 6409 6410 6411 6412 6413 6414 6415 6416 6417 6418 6419 6420 6421 6422 6423 6424 6425 6426 6427 6428 6429 6430 6431 6432 6433 6434 6435 6436 6437 6438 6439 6440 6441 6442 6443 6444 6445 6446 6447 6448 6449 6450 6451 6452 6453 6454 6455 6456 6457 6458 6459 6460 6461 6462 6463 6464 6465 6466 6467 6468 6469 6470 6471 6472 6473 6474 6475 6476 6477 6478 6479 6480 6481 6482 6483 6484 6485 6486 6487 6488 6489 6490 6491 6492 6493 6494 6495 6496 6497 6498 6499 6500 6501 6502 6503 6504 6505 6506 6507 6508 6509 6510 6511 6512 6513 6514 6515 6516 6517 6518 6519 6520 6521 6522 6523 6524 6525 6526 6527 6528 6529 6530 6531 6532 6533 6534 6535 6536 6537 6538 6539 6540 6541 6542 6543 6544 6545 6546 6547 6548 6549 6550 6551 6552 6553 6554 6555 6556 6557 6558 6559 6560 6561 6562 6563 6564 6565 6566 6567 6568 6569 6570 6571 6572 6573 6574 6575 6576 6577 6578 6579 6580 6581 6582 6583 6584 6585 6586 6587 6588 6589 6590 6591 6592 6593 6594 6595 6596 6597 6598 6599 6600 6601 6602 6603 6604 6605 6606 6607 6608 6609 6610 6611 6612 6613 6614 6615 6616 6617 6618 6619 6620 6621 6622 6623 6624 6625 6626 6627 6628 6629 6630 6631 6632 6633 6634 6635 6636 6637 6638 6639 6640 6641 6642 6643 6644 6645 6646 6647 6648 6649 6650 6651 6652 6653 6654 6655 6656 6657 6658 6659 6660 6661 6662 6663 6664 6665 6666 6667 6668 6669 6670 6671 6672 6673 6674 6675 6676 6677 6678 6679 6680 6681 6682 6683 6684 6685 6686 6687 6688 6689 6690 6691 6692 6693 6694 6695 6696 6697 6698 6699 6700 6701 6702 6703 6704 6705 6706 6707 6708 6709 6710 6711 6712 6713 6714 6715 6716 6717 6718 6719 6720 6721 6722 6723 6724 6725 6726 6727 6728 6729 6730 6731 6732 6733 6734 6735 6736 6737 6738 6739 6740 6741 6742 6743 6744 6745 6746 6747 6748 6749 6750 6751 6752 6753 6754 6755 6756 6757 6758 6759 6760 6761 6762 6763 6764 6765 6766 6767 6768 6769 6770 6771 6772 6773 6774 6775 6776 6777 6778 6779 6780 6781 6782 6783 6784 6785 6786 6787 6788 6789 6790 6791 6792 6793 6794 6795 6796 6797 6798 6799 6800 6801 6802 6803 6804 6805 6806 6807 6808 6809 6810 6811 6812 6813 6814 6815 6816 6817 6818 6819 6820 6821 6822 6823 6824 6825 6826 6827 6828 6829 6830 6831 6832 6833 6834 6835 6836 6837 6838 6839 6840 6841 6842 6843 6844 6845 6846 6847 6848 6849 6850 6851 6852 6853 6854 6855 6856 6857 6858 6859 6860 6861 6862 6863 6864 6865 6866 6867 6868 6869 6870 6871 6872 6873 6874 6875 6876 6877 6878 6879 6880 6881 6882 6883 6884 6885 6886 6887 6888 6889 6890 6891 6892 6893 6894 6895 6896 6897 6898 6899 6900 6901 6902 6903 6904 6905 6906 6907 6908 6909 6910 6911 6912 6913 6914 6915 6916 6917 6918 6919 6920 6921 6922 6923 6924 6925 6926 6927 6928 6929 6930 6931 6932 6933 6934 6935 6936 6937 6938 6939 6940 6941 6942 6943 6944 6945 6946 6947 6948 6949 6950 6951 6952 6953 6954 6955 6956 6957 6958 6959 6960 6961 6962 6963 6964 6965 6966 6967 6968 6969 6970 6971 6972 6973 6974 6975 6976 6977 6978 6979 6980 6981 6982 6983 6984 6985 6986 6987 6988 6989 6990 6991 6992 6993 6994 6995 6996 6997 6998 6999 7000 7001 7002 7003 7004 7005 7006 7007 7008 7009 7010 7011 7012 7013 7014 7015 7016 7017 7018 7019 7020 7021 7022 7023 7024 7025 7026 7027 7028 7029 7030 7031 7032 7033 7034 7035 7036 7037 7038 7039 7040 7041 7042 7043 7044 7045 7046 7047 7048 7049 7050 7051 7052 7053 7054 7055 7056 7057 7058 7059 7060 7061 7062 7063 7064 7065 7066 7067 7068 7069 7070 7071 7072 7073 7074 7075 7076 7077 7078 7079 7080 7081 7082 7083 7084 7085 7086 7087 7088 7089 7090 7091 7092 7093 7094 7095 7096 7097 7098 7099 7100 7101 7102 7103 7104 7105 7106 7107 7108 7109 7110 7111 7112 7113 7114 7115 7116 7117 7118 7119 7120 7121 7122 7123 7124 7125 7126 7127 7128 7129 7130 7131 7132 7133 7134 7135 7136 7137 7138 7139 7140 7141 7142 7143 7144 7145 7146 7147 7148 7149 7150 7151 7152 7153 7154 7155 7156 7157 7158 7159 7160 7161 7162 7163 7164 7165 7166 7167 7168 7169 7170 7171 7172 7173 7174 7175 7176 7177 7178 7179 7180 7181 7182 7183 7184 7185 7186 7187 7188 7189 7190 7191 7192 7193 7194 7195 7196 7197 7198 7199 7200 7201 7202 7203 7204 7205 7206 7207 7208 7209 7210 7211 7212 7213 7214 7215 7216 7217 7218 7219 7220 7221 7222 7223 7224 7225 7226 7227 7228 7229 7230 7231 7232 7233 7234 7235 7236 7237 7238 7239 7240 7241 7242 7243 7244 7245 7246 7247 7248 7249 7250 7251 7252 7253 7254 7255 7256 7257 7258 7259 7260 7261 7262 7263 7264 7265 7266 7267 7268 7269 7270 7271 7272 7273 7274 7275 7276 7277 7278 7279 7280 7281 7282 7283 7284 7285 7286 7287 7288 7289 7290 7291 7292 7293 7294 7295 7296 7297 7298 7299 7300 7301 7302 7303 7304 7305 7306 7307 7308 7309 7310 7311 7312 7313 7314 7315 7316 7317 7318 7319 7320 7321 7322 7323 7324 7325 7326 7327 7328 7329 7330 7331 7332 7333 7334 7335 7336 7337 7338 7339 7340 7341 7342 7343 7344 7345 7346 7347 7348 7349 7350 7351 7352 7353 7354 7355 7356 7357 7358 7359 7360 7361 7362 7363 7364 7365 7366 7367 7368 7369 7370 7371 7372 7373 7374 7375 7376 7377 7378 7379 7380 7381 7382 7383 7384 7385 7386 7387 7388 7389 7390 7391 7392 7393 7394 7395 7396 7397 7398 7399 7400 7401 7402 7403 7404 7405 7406 7407 7408 7409 7410 7411 7412 7413 7414 7415 7416 7417 7418 7419 7420 7421 7422 7423 7424 7425 7426 7427 7428 7429 7430 7431 7432 7433 7434 7435 7436 7437 7438 7439 7440 7441 7442 7443 7444 7445 7446 7447 7448 7449 7450 7451 7452 7453 7454 7455 7456 7457 7458 7459 7460 7461 7462 7463 7464 7465 7466 7467 7468 7469 7470 7471 7472 7473 7474 7475 7476 7477 7478 7479 7480 7481 7482 7483 7484 7485 7486 7487 7488 7489 7490 7491 7492 7493 7494 7495 7496 7497 7498 7499 7500 7501 7502 7503 7504 7505 7506 7507 7508 7509 7510 7511 7512 7513 7514 7515 7516 7517 7518 7519 7520 7521 7522 7523 7524 7525 7526 7527 7528 7529 7530 7531 7532 7533 7534 7535 7536 7537 7538 7539 7540 7541 7542 7543 7544 7545 7546 7547 7548 7549 7550 7551 7552 7553 7554 7555 7556 7557 7558 7559 7560 7561 7562 7563 7564 7565 7566 7567 7568 7569 7570 7571 7572 7573 7574 7575 7576 7577 7578 7579 7580 7581 7582 7583 7584 7585 7586 7587 7588 7589 7590 7591 7592 7593 7594 7595 7596 7597 7598 7599 7600 7601 7602 7603 7604 7605 7606 7607 7608 7609 7610 7611 7612 7613 7614 7615 7616 7617 7618 7619 7620 7621 7622 7623 7624 7625 7626 7627 7628 7629 7630 7631 7632 7633 7634 7635 7636 7637 7638 7639 7640 7641 7642 7643 7644 7645 7646 7647 7648 7649 7650 7651 7652 7653 7654 7655 7656 7657 7658 7659 7660 7661 7662 7663 7664 7665 7666 7667 7668 7669 7670 7671 7672 7673 7674 7675 7676 7677 7678 7679 7680 7681 7682 7683 7684 7685 7686 7687 7688 7689 7690 7691 7692 7693 7694 7695 7696 7697 7698 7699 7700 7701 7702 7703 7704 7705 7706 7707 7708 7709 7710 7711 7712 7713 7714 7715 7716 7717 7718 7719 7720 7721 7722 7723 7724 7725 7726 7727 7728 7729 7730 7731 7732 7733 7734 7735 7736 7737 7738 7739 7740 7741 7742 7743 7744 7745 7746 7747 7748 7749 7750 7751 7752 7753 7754 7755 7756 7757 7758 7759 7760 7761 7762 7763 7764 7765 7766 7767 7768 7769 7770 7771 7772 7773 7774 7775 7776 7777 7778 7779 7780 7781 7782 7783 7784 7785 7786 7787 7788 7789 7790 7791 7792 7793 7794 7795 7796 7797 7798 7799 7800 7801 7802 7803 7804 7805 7806 7807 7808 7809 7810 7811 7812 7813 7814 7815 7816 7817 7818 7819 7820 7821 7822 7823 7824 7825 7826 7827 7828 7829 7830 7831 7832 7833 7834 7835 7836 7837 7838 7839 7840 7841 7842 7843 7844 7845 7846 7847 7848 7849 7850 7851 7852 7853 7854 7855 7856 7857 7858 7859 7860 7861 7862 7863 7864 7865 7866 7867 7868 7869 7870 7871 7872 7873 7874 7875 7876 7877 7878 7879 7880 7881 7882 7883 7884 7885 7886 7887 7888 7889 7890 7891 7892 7893 7894 7895 7896 7897 7898 7899 7900 7901 7902 7903 7904 7905 7906 7907 7908 7909 7910 7911 7912 7913 7914 7915 7916 7917 7918 7919 7920 7921 7922 7923 7924 7925 7926 7927 7928 7929 7930 7931 7932 7933 7934 7935 7936 7937 7938 7939 7940 7941 7942 7943 7944 7945 7946 7947 7948 7949 7950 7951 7952 7953 7954 7955 7956 7957 7958 7959 7960 7961 7962 7963 7964 7965 7966 7967 7968 7969 7970 7971 7972 7973 7974 7975 7976 7977 7978 7979 7980 7981 7982 7983 7984 7985 7986 7987 7988 7989 7990 7991 7992 7993 7994 7995 7996 7997 7998 7999 8000 8001 8002 8003 8004 8005 8006 8007 8008 8009 8010 8011 8012 8013 8014 8015 8016 8017 8018 8019 8020 8021 8022 8023 8024 8025 8026 8027 8028 8029 8030 8031 8032 8033 8034 8035 8036 8037 8038 8039 8040 8041 8042 8043 8044 8045 8046 8047 8048 8049 8050 8051 8052 8053 8054 8055 8056 8057 8058 8059 8060 8061 8062 8063 8064 8065 8066 8067 8068 8069 8070 8071 8072 8073 8074 8075 8076 8077 8078 8079 8080 8081 8082 8083 8084 8085 8086 8087 8088 8089 8090 8091 8092 8093 8094 8095 8096 8097 8098 8099 8100 8101 8102 8103 8104 8105 8106 8107 8108 8109 8110 8111 8112 8113 8114 8115 8116 8117 8118 8119 8120 8121 8122 8123 8124 8125 8126 8127 8128 8129 8130 8131 8132 8133 8134 8135 8136 8137 8138 8139 8140 8141 8142 8143 8144 8145 8146 8147 8148 8149 8150 8151 8152 8153 8154 8155 8156 8157 8158 8159 8160 8161 8162 8163 8164 8165 8166 8167 8168 8169 8170 8171 8172 8173 8174 8175 8176 8177 8178 8179 8180 8181 8182 8183 8184 8185 8186 8187 8188 8189 8190 8191 8192 8193 8194 8195 8196 8197 8198 8199 8200 8201 8202 8203 8204 8205 8206 8207 8208 8209 8210 8211 8212 8213 8214 8215 8216 8217 8218 8219 8220 8221 8222 8223 8224 8225 8226 8227 8228 8229 8230 8231 8232 8233 8234 8235 8236 8237 8238 8239 8240 8241 8242 8243 8244 8245 8246 8247 8248 8249 8250 8251 8252 8253 8254 8255 8256 8257 8258 8259 8260 8261 8262 8263 8264 8265 8266 8267 8268 8269 8270 8271 8272 8273 8274 8275 8276 8277 8278 8279 8280 8281 8282 8283 8284 8285 8286 8287 8288 8289 8290 8291 8292 8293 8294 8295 8296 8297 8298 8299 8300 8301 8302 8303 8304 8305 8306 8307 8308 8309 8310 8311 8312 8313 8314 8315 8316 8317 8318 8319 8320 8321 8322 8323 8324 8325 8326 8327 8328 8329 8330 8331 8332 8333 8334 8335 8336 8337 8338 8339 8340 8341 8342 8343 8344 8345 8346 8347 8348 8349 8350 8351 8352 8353 8354 8355 8356 8357 8358 8359 8360 8361 8362 8363 8364 8365 8366 8367 8368 8369 8370 8371 8372 8373 8374 8375 8376 8377 8378 8379 8380 8381 8382 8383 8384 8385 8386 8387 8388 8389 8390 8391 8392 8393 8394 8395 8396 8397 8398 8399 8400 8401 8402 8403 8404 8405 8406 8407 8408 8409 8410 8411 8412 8413 8414 8415 8416 8417 8418 8419 8420 8421 8422 8423 8424 8425 8426 8427 8428 8429 8430 8431 8432 8433 8434 8435 8436 8437 8438 8439 8440 8441 8442 8443 8444 8445 8446 8447 8448 8449 8450 8451 8452 8453 8454 8455 8456 8457 8458 8459 8460 8461 8462 8463 8464 8465 8466 8467 8468 8469 8470 8471 8472 8473 8474 8475 8476 8477 8478 8479 8480 8481 8482 8483 8484 8485 8486 8487 8488 8489 8490 8491 8492 8493 8494 8495 8496 8497 8498 8499 8500 8501 8502 8503 8504 8505 8506 8507 8508 8509 8510 8511 8512 8513 8514 8515 8516 8517 8518 8519 8520 8521 8522 8523 8524 8525 8526 8527 8528 8529 8530 8531 8532 8533 8534 8535 8536 8537 8538 8539 8540 8541 8542 8543 8544 8545 8546 8547 8548 8549 8550 8551 8552 8553 8554 8555 8556 8557 8558 8559 8560 8561 8562 8563 8564 8565 8566 8567 8568 8569 8570 8571 8572 8573 8574 8575 8576 8577 8578 8579 8580 8581 8582 8583 8584 8585 8586 8587 8588 8589 8590 8591 8592 8593 8594 8595 8596 8597 8598 8599 8600 8601 8602 8603 8604 8605 8606 8607 8608 8609 8610 8611 8612 8613 8614 8615 8616 8617 8618 8619 8620 8621 8622 8623 8624 8625 8626 8627 8628 8629 8630 8631 8632 8633 8634 8635 8636 8637 8638 8639 8640 8641 8642 8643 8644 8645 8646 8647 8648 8649 8650 8651 8652 8653 8654 8655 8656 8657 8658 8659 8660 8661 8662 8663 8664 8665 8666 8667 8668 8669 8670 8671 8672 8673 8674 8675 8676 8677 8678 8679 8680 8681 8682 8683 8684 8685 8686 8687 8688 8689 8690 8691 8692 8693 8694 8695 8696 8697 8698 8699 8700 8701 8702 8703 8704 8705 8706 8707 8708 8709 8710 8711 8712 8713 8714 8715 8716 8717 8718 8719 8720 8721 8722 8723 8724 8725 8726 8727 8728 8729 8730 8731 8732 8733 8734 8735 8736 8737 8738 8739 8740 8741 8742 8743 8744 8745 8746 8747 8748 8749 8750 8751 8752 8753 8754 8755 8756 8757 8758 8759 8760 8761 8762 8763 8764 8765 8766 8767 8768 8769 8770 8771 8772 8773 8774 8775 8776 8777 8778 8779 8780 8781 8782 8783 8784 8785 8786 8787 8788 8789 8790 8791 8792 8793 8794 8795 8796 8797 8798 8799 8800 8801 8802 8803 8804 8805 8806 8807 8808 8809 8810 8811 8812 8813 8814 8815 8816 8817 8818 8819 8820 8821 8822 8823 8824 8825 8826 8827 8828 8829 8830 8831 8832 8833 8834 8835 8836 8837 8838 8839 8840 8841 8842 8843 8844 8845 8846 8847 8848 8849 8850 8851 8852 8853 8854 8855 8856 8857 8858 8859 8860 8861 8862 8863 8864 8865 8866 8867 8868 8869 8870 8871 8872 8873 8874 8875 8876 8877 8878 8879 8880 8881 8882 8883 8884 8885 8886 8887 8888 8889 8890 8891 8892 8893 8894 8895 8896 8897 8898 8899 8900 8901 8902 8903 8904 8905 8906 8907 8908 8909 8910 8911 8912 8913 8914 8915 8916 8917 8918 8919 8920 8921 8922 8923 8924 8925 8926 8927 8928 8929 8930 8931 8932 8933 8934 8935 8936 8937 8938 8939 8940 8941 8942 8943 8944 8945 8946 8947 8948 8949 8950 8951 8952 8953 8954 8955 8956 8957 8958 8959 8960 8961 8962 8963 8964 8965 8966 8967 8968 8969 8970 8971 8972 8973 8974 8975 8976 8977 8978 8979 8980 8981 8982 8983 8984 8985 8986 8987 8988 8989 8990 8991 8992 8993 8994 8995 8996 8997 8998 8999 9000 9001 9002 9003 9004 9005 9006 9007 9008 9009 9010 9011 9012 9013 9014 9015 9016 9017 9018 9019 9020 9021 9022 9023 9024 9025 9026 9027 9028 9029 9030 9031 9032 9033 9034 9035 9036 9037 9038 9039 9040 9041 9042 9043 9044 9045 9046 9047 9048 9049 9050 9051 9052 9053 9054 9055 9056 9057 9058 9059 9060 9061 9062 9063 9064 9065 9066 9067 9068 9069 9070 9071 9072 9073 9074 9075 9076 9077 9078 9079 9080 9081 9082 9083 9084 9085 9086 9087 9088 9089 9090 9091 9092 9093 9094 9095 9096 9097 9098 9099 9100 9101 9102 9103 9104 9105 9106 9107 9108 9109 9110 9111 9112 9113 9114 9115 9116 9117 9118 9119 9120 9121 9122 9123 9124 9125 9126 9127 9128 9129 9130 9131 9132 9133 9134 9135 9136 9137 9138 9139 9140 9141 9142 9143 9144 9145 9146 9147 9148 9149 9150 9151 9152 9153 9154 9155 9156 9157 9158 9159 9160 9161 9162 9163 9164 9165 9166 9167 9168 9169 9170 9171 9172 9173 9174 9175 9176 9177 9178 9179 9180 9181 9182 9183 9184 9185 9186 9187 9188 9189 9190 9191 9192 9193 9194 9195 9196 9197 9198 9199 9200 9201 9202 9203 9204 9205 9206 9207 9208 9209 9210 9211 9212 9213 9214 9215 9216 9217 9218 9219 9220 9221 9222 9223 9224 9225 9226 9227 9228 9229 9230 9231 9232 9233 9234 9235 9236 9237 9238 9239 9240 9241 9242 9243 9244 9245 9246 9247 9248 9249 9250 9251 9252 9253 9254 9255 9256 9257 9258 9259 9260 9261 9262 9263 9264 9265 9266 9267 9268 9269 9270 9271 9272 9273 9274 9275 9276 9277 9278 9279 9280 9281 9282 9283 9284 9285 9286 9287 9288 9289 9290 9291 9292 9293 9294 9295 9296 9297 9298 9299 9300 9301 9302 9303 9304 9305 9306 9307 9308 9309 9310 9311 9312 9313 9314 9315 9316 9317 9318 9319 9320 9321 9322 9323 9324 9325 9326 9327 9328 9329 9330 9331 9332 9333 9334 9335 9336 9337 9338 9339 9340 9341 9342 9343 9344 9345 9346 9347 9348 9349 9350 9351 9352 9353 9354 9355 9356 9357 9358 9359 9360 9361 9362 9363 9364 9365 9366 9367 9368 9369 9370 9371 9372 9373 9374 9375 9376 9377 9378 9379 9380 9381 9382 9383 9384 9385 9386 9387 9388 9389 9390 9391 9392 9393 9394 9395 9396 9397 9398 9399 9400 9401 9402 9403 9404 9405 9406 9407 9408 9409 9410 9411 9412 9413 9414 9415 9416 9417 9418 9419 9420 9421 9422 9423 9424 9425 9426 9427 9428 9429 9430 9431 9432 9433 9434 9435 9436 9437 9438 9439 9440 9441 9442 9443 9444 9445 9446 9447 9448 9449 9450 9451 9452 9453 9454 9455 9456 9457 9458 9459 9460 9461 9462 9463 9464 9465 9466 9467 9468 9469 9470 9471 9472 9473 9474 9475 9476 9477 9478 9479 9480 9481 9482 9483 9484 9485 9486 9487 9488 9489 9490 9491 9492 9493 9494 9495 9496 9497 9498 9499 9500 9501 9502 9503 9504 9505 9506 9507 9508 9509 9510 9511 9512 9513 9514 9515 9516 9517 9518 9519 9520 9521 9522 9523 9524 9525 9526 9527 9528 9529 9530 9531 9532 9533 9534 9535 9536 9537 9538 9539 9540 9541 9542 9543 9544 9545 9546 9547 9548 9549 9550 9551 9552 9553 9554 9555 9556 9557 9558 9559 9560 9561 9562 9563 9564 9565 9566 9567 9568 9569 9570 9571 9572 9573 9574 9575 9576 9577 9578 9579 9580 9581 9582 9583 9584 9585 9586 9587 9588 9589 9590 9591 9592 9593 9594 9595 9596 9597 9598 9599 9600 9601 9602 9603 9604 9605 9606 9607 9608 9609 9610 9611 9612 9613 9614 9615 9616 9617 9618 9619 9620 9621 9622 9623 9624 9625 9626 9627 9628 9629 9630 9631 9632 9633 9634 9635 9636 9637 9638 9639 9640 9641 9642 9643 9644 9645 9646 9647 9648 9649 9650 9651 9652 9653 9654 9655 9656 9657 9658 9659 9660 9661 9662 9663 9664 9665 9666 9667 9668 9669 9670 9671 9672 9673 9674 9675 9676 9677 9678 9679 9680 9681 9682 9683 9684 9685 9686 9687 9688 9689 9690 9691 9692 9693 9694 9695 9696 9697 9698 9699 9700 9701 9702 9703 9704 9705 9706 9707 9708 9709 9710 9711 9712 9713 9714 9715 9716 9717 9718 9719 9720 9721 9722 9723 9724 9725 9726 9727 9728 9729 9730 9731 9732 9733 9734 9735 9736 9737 9738 9739 9740 9741 9742 9743 9744 9745 9746 9747 9748 9749 9750 9751 9752 9753 9754 9755 9756 9757 9758 9759 9760 9761 9762 9763 9764 9765 9766 9767 9768 9769 9770 9771 9772 9773 9774 9775 9776 9777 9778 9779 9780 9781 9782 9783 9784 9785 9786 9787 9788 9789 9790 9791 9792 9793 9794 9795 9796 9797 9798 9799 9800 9801 9802 9803 9804 9805 9806 9807 9808 9809 9810 9811 9812 9813 9814 9815 9816 9817 9818 9819 9820 9821 9822 9823 9824 9825 9826 9827 9828 9829 9830 9831 9832 9833 9834 9835 9836 9837 9838 9839 9840 9841 9842 9843 9844 9845 9846 9847 9848 9849 9850 9851 9852 9853 9854 9855 9856 9857 9858 9859 9860 9861 9862 9863 9864 9865 9866 9867 9868 9869 9870 9871 9872 9873 9874 9875 9876 9877 9878 9879 9880 9881 9882 9883 9884 9885 9886 9887 9888 9889 9890 9891 9892 9893 9894 9895 9896 9897 9898 9899 9900 9901 9902 9903 9904 9905 9906 9907 9908 9909 9910 9911 9912 9913 9914 9915 9916 9917 9918 9919 9920 9921 9922 9923 9924 9925 9926 9927 9928 9929 9930 9931 9932 9933 9934 9935 9936 9937 9938 9939 9940 9941 9942 9943 9944 9945 9946 9947 9948 9949 9950 9951 9952 9953 9954 9955 9956 9957 9958 9959 9960 9961 9962 9963 9964 9965 9966 9967 9968 9969 9970 9971 9972 9973 9974 9975 9976 9977 9978 9979 9980 9981 9982 9983 9984 9985 9986 9987 9988 9989 9990 9991 9992 9993 9994 9995 9996 9997 9998 9999 10000 10001 10002 10003 10004 10005 10006 10007 10008 10009 10010 10011 10012 10013 10014 10015 10016 10017 10018 10019 10020 10021 10022 10023 10024 10025 10026 10027 10028 10029 10030 10031 10032 10033 10034 10035 10036 10037 10038 10039 10040 10041 10042 10043 10044 10045 10046 10047 10048 10049 10050 10051 10052 10053 10054 10055 10056 10057 10058 10059 10060 10061 10062 10063 10064 10065 10066 10067 10068 10069 10070 10071 10072 10073 10074 10075 10076 10077 10078 10079 10080 10081 10082 10083 10084 10085 10086 10087 10088 10089 10090 10091 10092 10093 10094 10095 10096 10097 10098 10099 10100 10101 10102 10103 10104 10105 10106 10107 10108 10109 10110 10111 10112 10113 10114 10115 10116 10117 10118 10119 10120 10121 10122 10123 10124 10125 10126 10127 10128 10129 10130 10131 10132 10133 10134 10135 10136 10137 10138 10139 10140 10141 10142 10143 10144 10145 10146 10147 10148 10149 10150 10151 10152 10153 10154 10155 10156 10157 10158 10159 10160 10161 10162 10163 10164 10165 10166 10167 10168 10169 10170 10171 10172 10173 10174 10175 10176 10177 10178 10179 10180 10181 10182 10183 10184 10185 10186 10187 10188 10189 10190 10191 10192 10193 10194 10195 10196 10197 10198 10199 10200 10201 10202 10203 10204 10205 10206 10207 10208 10209 10210 10211 10212 10213 10214 10215 10216 10217 10218 10219 10220 10221 10222 10223 10224 10225 10226 10227 10228 10229 10230 10231 10232 10233 10234 10235 10236 10237 10238 10239 10240 10241 10242 10243 10244 10245 10246 10247 10248 10249 10250 10251 10252 10253 10254 10255 10256 10257 10258 10259 10260 10261 10262 10263 10264 10265 10266 10267 10268 10269 10270 10271 10272 10273 10274 10275 10276 10277 10278 10279 10280 10281 10282 10283 10284 10285 10286 10287 10288 10289 10290 10291 10292 10293 10294 10295 10296 10297 10298 10299 10300 10301 10302 10303 10304 10305 10306 10307 10308 10309 10310 10311 10312 10313 10314 10315 10316 10317 10318 10319 10320 10321 10322 10323 10324 10325 10326 10327 10328 10329 10330 10331 10332 10333 10334 10335 10336 10337 10338 10339 10340 10341 10342 10343 10344 10345 10346 10347 10348 10349 10350 10351 10352 10353 10354 10355 10356 10357 10358 10359 10360 10361 10362 10363 10364 10365 10366 10367 10368 10369 10370 10371 10372 10373 10374 10375 10376 10377 10378 10379 10380 10381 10382 10383 10384 10385 10386 10387 10388 10389 10390 10391 10392 10393 10394 10395 10396 10397 10398 10399 10400 10401 10402 10403 10404 10405 10406 10407 10408 10409 10410 10411 10412 10413 10414 10415 10416 10417 10418 10419 10420 10421 10422 10423 10424 10425 10426 10427 10428 10429 10430 10431 10432 10433 10434 10435 10436 10437 10438 10439 10440 10441 10442 10443 10444 10445 10446 10447 10448 10449 10450 10451 10452 10453 10454 10455 10456 10457 10458 10459 10460 10461 10462 10463 10464 10465 10466 10467 10468 10469 10470 10471 10472 10473 10474 10475 10476 10477 10478 10479 10480 10481 10482 10483 10484 10485 10486 10487 10488 10489 10490 10491 10492 10493 10494 10495 10496 10497 10498 10499 10500 10501 10502 10503 10504 10505 10506 10507 10508 10509 10510 10511 10512 10513 10514 10515 10516 10517 10518 10519 10520 10521 10522 10523 10524 10525 10526 10527 10528 10529 10530 10531 10532 10533 10534 10535 10536 10537 10538 10539 10540 10541 10542 10543 10544 10545 10546 10547 10548 10549 10550 10551 10552 10553 10554 10555 10556 10557 10558 10559 10560 10561 10562 10563 10564 10565 10566 10567 10568 10569 10570 10571 10572 10573 10574 10575 10576 10577 10578 10579 10580 10581 10582 10583 10584 10585 10586 10587 10588 10589 10590 10591 10592 10593 10594 10595 10596 10597 10598 10599 10600 10601 10602 10603 10604 10605 10606 10607 10608 10609 10610 10611 10612 10613 10614 10615 10616 10617 10618 10619 10620 10621 10622 10623 10624 10625 10626 10627 10628 10629 10630 10631 10632 10633 10634 10635 10636 10637 10638 10639 10640 10641 10642 10643 10644 10645 10646 10647 10648 10649 10650 10651 10652 10653 10654 10655 10656 10657 10658 10659 10660 10661 10662 10663 10664 10665 10666 10667 10668 10669 10670 10671 10672 10673 10674 10675 10676 10677 10678 10679 10680 10681 10682 10683 10684 10685 10686 10687 10688 10689 10690 10691 10692 10693 10694 10695 10696 10697 10698 10699 10700 10701 10702 10703 10704 10705 10706 10707 10708 10709 10710 10711 10712 10713 10714 10715 10716 10717 10718 10719 10720 10721 10722 10723 10724 10725 10726 10727 10728 10729 10730 10731 10732 10733 10734 10735 10736 10737 10738 10739 10740 10741 10742 10743 10744 10745 10746 10747 10748 10749 10750 10751 10752 10753 10754 10755 10756 10757 10758 10759 10760 10761 10762 10763 10764 10765 10766 10767 10768 10769 10770 10771 10772 10773 10774 10775 10776 10777 10778 10779 10780 10781 10782 10783 10784 10785 10786 10787 10788 10789 10790 10791 10792 10793 10794 10795 10796 10797 10798 10799 10800 10801 10802 10803 10804 10805 10806 10807 10808 10809 10810 10811 10812 10813 10814 10815 10816 10817 10818 10819 10820 10821 10822 10823 10824 10825 10826 10827 10828 10829 10830 10831 10832 10833 10834 10835 10836 10837 10838 10839 10840 10841 10842 10843 10844 10845 10846 10847 10848 10849 10850 10851 10852 10853 10854 10855 10856 10857 10858 10859 10860 10861 10862 10863 10864 10865 10866 10867 10868 10869 10870 10871 10872 10873 10874 10875 10876 10877 10878 10879 10880 10881 10882 10883 10884 10885 10886 10887 10888 10889 10890 10891 10892 10893 10894 10895 10896 10897 10898 10899 10900 10901 10902 10903 10904 10905 10906 10907 10908 10909 10910 10911 10912 10913 10914 10915 10916 10917 10918 10919 10920 10921 10922 10923 10924 10925 10926 10927 10928 10929 10930 10931 10932 10933 10934 10935 10936 10937 10938 10939 10940 10941 10942 10943 10944 10945 10946 10947 10948 10949 10950 10951 10952 10953 10954 10955 10956 10957 10958 10959 10960 10961 10962 10963 10964 10965 10966 10967 10968 10969 10970 10971 10972 10973 10974 10975 10976 10977 10978 10979 10980 10981 10982 10983 10984 10985 10986 10987 10988 10989 10990 10991 10992 10993 10994 10995 10996 10997 10998 10999 11000 11001 11002 11003 11004 11005 11006 11007 11008 11009 11010 11011 11012 11013 11014 11015 11016 11017 11018 11019 11020 11021 11022 11023 11024 11025 11026 11027 11028 11029 11030 11031 11032 11033 11034 11035 11036 11037 11038 11039 11040 11041 11042 11043 11044 11045 11046 11047 11048 11049 11050 11051 11052 11053 11054 11055 11056 11057 11058 11059 11060 11061 11062 11063 11064 11065 11066 11067 11068 11069 11070 11071 11072 11073 11074 11075 11076 11077 11078 11079 11080 11081 11082 11083 11084 11085 11086 11087 11088 11089 11090 11091 11092 11093 11094 11095 11096 11097 11098 11099 11100 11101 11102 11103 11104 11105 11106 11107 11108 11109 11110 11111 11112 11113 11114 11115 11116 11117 11118 11119 11120 11121 11122 11123 11124 11125 11126 11127 11128 11129 11130 11131 11132 11133 11134 11135 11136 11137 11138 11139 11140 11141 11142 11143 11144 11145 11146 11147 11148 11149 11150 11151 11152 11153 11154 11155 11156 11157 11158 11159 11160 11161 11162 11163 11164 11165 11166 11167 11168 11169 11170 11171 11172 11173 11174 11175 11176 11177 11178 11179 11180 11181 11182 11183 11184 11185 11186 11187 11188 11189 11190 11191 11192 11193 11194 11195 11196 11197 11198 11199 11200 11201 11202 11203 11204 11205 11206 11207 11208 11209 11210 11211 11212 11213 11214 11215 11216 11217 11218 11219 11220 11221 11222 11223 11224 11225 11226 11227 11228 11229 11230 11231 11232 11233 11234 11235 11236 11237 11238 11239 11240 11241 11242 11243 11244 11245 11246 11247 11248 11249 11250 11251 11252 11253 11254 11255 11256 11257 11258 11259 11260 11261 11262 11263 11264 11265 11266 11267 11268 11269 11270 11271 11272 11273 11274 11275 11276 11277 11278 11279 11280 11281 11282 11283 11284 11285 11286 11287 11288 11289 11290 11291 11292 11293 11294 11295 11296 11297 11298 11299 11300 11301 11302 11303 11304 11305 11306 11307 11308 11309 11310 11311 11312 11313 11314 11315 11316 11317 11318 11319 11320 11321 11322 11323 11324 11325 11326 11327 11328 11329 11330 11331 11332 11333 11334 11335 11336 11337 11338 11339 11340 11341 11342 11343 11344 11345 11346 11347 11348 11349 11350 11351 11352 11353 11354 11355 11356 11357 11358 11359 11360 11361 11362 11363 11364 11365 11366 11367 11368 11369 11370 11371 11372 11373 11374 11375 11376 11377 11378 11379 11380 11381 11382 11383 11384 11385 11386 11387 11388 11389 11390 11391 11392 11393 11394 11395 11396 11397 11398 11399 11400 11401 11402 11403 11404 11405 11406 11407 11408 11409 11410 11411 11412 11413 11414 11415 11416 11417 11418 11419 11420 11421 11422 11423 11424 11425 11426 11427 11428 11429 11430 11431 11432 11433 11434 11435 11436 11437 11438 11439 11440 11441 11442 11443 11444 11445 11446 11447 11448 11449 11450 11451 11452 11453 11454 11455 11456 11457 11458 11459 11460 11461 11462 11463 11464 11465 11466 11467 11468 11469 11470 11471 11472 11473 11474 11475 11476 11477 11478 11479 11480 11481 11482 11483 11484 11485 11486 11487 11488 11489 11490 11491 11492 11493 11494 11495 11496 11497 11498 11499 11500 11501 11502 11503 11504 11505 11506 11507 11508 11509 11510 11511 11512 11513 11514 11515 11516 11517 11518 11519 11520 11521 11522 11523 11524 11525 11526 11527 11528 11529 11530 11531 11532 11533 11534 11535 11536 11537 11538 11539 11540 11541 11542 11543 11544 11545 11546 11547 11548 11549 11550 11551 11552 11553 11554 11555 11556 11557 11558 11559 11560 11561 11562 11563 11564 11565 11566 11567 11568 11569 11570 11571 11572 11573 11574 11575 11576 11577 11578 11579 11580 11581 11582 11583 11584 11585 11586 11587 11588 11589 11590 11591 11592 11593 11594 11595 11596 11597 11598 11599 11600 11601 11602 11603 11604 11605 11606 11607 11608 11609 11610 11611 11612 11613 11614 11615 11616 11617 11618 11619 11620 11621 11622 11623 11624 11625 11626 11627 11628 11629 11630 11631 11632 11633 11634 11635 11636 11637 11638 11639 11640 11641 11642 11643 11644 11645 11646 11647 11648 11649 11650 11651 11652 11653 11654 11655 11656 11657 11658 11659 11660 11661 11662 11663 11664 11665 11666 11667 11668 11669 11670 11671 11672 11673 11674 11675 11676 11677 11678 11679 11680 11681 11682 11683 11684 11685 11686 11687 11688 11689 11690 11691 11692 11693 11694 11695 11696 11697 11698 11699 11700 11701 11702 11703 11704 11705 11706 11707 11708 11709 11710 11711 11712 11713 11714 11715 11716 11717 11718 11719 11720 11721 11722 11723 11724 11725 11726 11727 11728 11729 11730 11731 11732 11733 11734 11735 11736 11737 11738 11739 11740 11741 11742 11743 11744 11745 11746 11747 11748 11749 11750 11751 11752 11753 11754 11755 11756 11757 11758 11759 11760 11761 11762 11763 11764 11765 11766 11767 11768 11769 11770 11771 11772 11773 11774 11775 11776 11777 11778 11779 11780 11781 11782 11783 11784 11785 11786 11787 11788 11789 11790 11791 11792 11793 11794 11795 11796 11797 11798 11799 11800 11801 11802 11803 11804 11805 11806 11807 11808 11809 11810 11811 11812 11813 11814 11815 11816 11817 11818 11819 11820 11821 11822 11823 11824 11825 11826 11827 11828 11829 11830 11831 11832 11833 11834 11835 11836 11837 11838 11839 11840 11841 11842 11843 11844 11845 11846 11847 11848 11849 11850 11851 11852 11853 11854 11855 11856 11857 11858 11859 11860 11861 11862 11863 11864 11865 11866 11867 11868 11869 11870 11871 11872 11873 11874 11875 11876 11877 11878 11879 11880 11881 11882 11883 11884 11885 11886 11887 11888 11889 11890 11891 11892 11893 11894 11895 11896 11897 11898 11899 11900 11901 11902 11903 11904 11905 11906 11907 11908 11909 11910 11911 11912 11913 11914 11915 11916 11917 11918 11919 11920 11921 11922 11923 11924 11925 11926 11927 11928 11929 11930 11931 11932 11933 11934 11935 11936 11937 11938 11939 11940 11941 11942 11943 11944 11945 11946 11947 11948 11949 11950 11951 11952 11953 11954 11955 11956 11957 11958 11959 11960 11961 11962 11963 11964 11965 11966 11967 11968 11969 11970 11971 11972 11973 11974 11975 11976 11977 11978 11979 11980 11981 11982 11983 11984 11985 11986 11987 11988 11989 11990 11991 11992 11993 11994 11995 11996 11997 11998 11999 12000 12001 12002 12003 12004 12005 12006 12007 12008 12009 12010 12011 12012 12013 12014 12015 12016 12017 12018 12019 12020 12021 12022 12023 12024 12025 12026 12027 12028 12029 12030 12031 12032 12033 12034 12035 12036 12037 12038 12039 12040 12041 12042 12043 12044 12045 12046 12047 12048 12049 12050 12051 12052 12053 12054 12055 12056 12057 12058 12059 12060 12061 12062 12063 12064 12065 12066 12067 12068 12069 12070 12071 12072 12073 12074 12075 12076 12077 12078 12079 12080 12081 12082 12083 12084 12085 12086 12087 12088 12089 12090 12091 12092 12093 12094 12095 12096 12097 12098 12099 12100 12101 12102 12103 12104 12105 12106 12107 12108 12109 12110 12111 12112 12113 12114 12115 12116 12117 12118 12119 12120 12121 12122 12123 12124 12125 12126 12127 12128 12129 12130 12131 12132 12133 12134 12135 12136 12137 12138 12139 12140 12141 12142 12143 12144 12145 12146 12147 12148 12149 12150 12151 12152 12153 12154 12155 12156 12157 12158 12159 12160 12161 12162 12163 12164 12165 12166 12167 12168 12169 12170 12171 12172 12173 12174 12175 12176 12177 12178 12179 12180 12181 12182 12183 12184 12185 12186 12187 12188 12189 12190 12191 12192 12193 12194 12195 12196 12197 12198 12199 12200 12201 12202 12203 12204 12205 12206 12207 12208 12209 12210 12211 12212 12213 12214 12215 12216 12217 12218 12219 12220 12221 12222 12223 12224 12225 12226 12227 12228 12229 12230 12231 12232 12233 12234 12235 12236 12237 12238 12239 12240 12241 12242 12243 12244 12245 12246 12247 12248 12249 12250 12251 12252 12253 12254 12255 12256 12257 12258 12259 12260 12261 12262 12263 12264 12265 12266 12267 12268 12269 12270 12271 12272 12273 12274 12275 12276 12277 12278 12279 12280 12281 12282 12283 12284 12285 12286 12287 12288 12289 12290 12291 12292 12293 12294 12295 12296 12297 12298 12299 12300 12301 12302 12303 12304 12305 12306 12307 12308 12309 12310 12311 12312 12313 12314 12315 12316 12317 12318 12319 12320 12321 12322 12323 12324 12325 12326 12327 12328 12329 12330 12331 12332 12333 12334 12335 12336 12337 12338 12339 12340 12341 12342 12343 12344 12345 12346 12347 12348 12349 12350 12351 12352 12353 12354 12355 12356 12357 12358 12359 12360 12361 12362 12363 12364 12365 12366 12367 12368 12369 12370 12371 12372 12373 12374 12375 12376 12377 12378 12379 12380 12381 12382 12383 12384 12385 12386 12387 12388 12389 12390 12391 12392 12393 12394 12395 12396 12397 12398 12399 12400 12401 12402 12403 12404 12405 12406 12407 12408 12409 12410 12411 12412 12413 12414 12415 12416 12417 12418 12419 12420 12421 12422 12423 12424 12425 12426 12427 12428 12429 12430 12431 12432 12433 12434 12435 12436 12437 12438 12439 12440 12441 12442 12443 12444 12445 12446 12447 12448 12449 12450 12451 12452 12453 12454 12455 12456 12457 12458 12459 12460 12461 12462 12463 12464 12465 12466 12467 12468 12469 12470 12471 12472 12473 12474 12475 12476 12477 12478 12479 12480 12481 12482 12483 12484 12485 12486 12487 12488 12489 12490 12491 12492 12493 12494 12495 12496 12497 12498 12499 12500 12501 12502 12503 12504 12505 12506 12507 12508 12509 12510 12511 12512 12513 12514 12515 12516 12517 12518 12519 12520 12521 12522 12523 12524 12525 12526 12527 12528 12529 12530 12531 12532 12533 12534 12535 12536 12537 12538 12539 12540 12541 12542 12543 12544 12545 12546 12547 12548 12549 12550 12551 12552 12553 12554 12555 12556 12557 12558 12559 12560 12561 12562 12563 12564 12565 12566 12567 12568 12569 12570 12571 12572 12573 12574 12575 12576 12577 12578 12579 12580 12581 12582 12583 12584 12585 12586 12587 12588 12589 12590 12591 12592 12593 12594 12595 12596 12597 12598 12599 12600 12601 12602 12603 12604 12605 12606 12607 12608 12609 12610 12611 12612 12613 12614 12615 12616 12617 12618 12619 12620 12621 12622 12623 12624 12625 12626 12627 12628 12629 12630 12631 12632 12633 12634 12635 12636 12637 12638 12639 12640 12641 12642 12643 12644 12645 12646 12647 12648 12649 12650 12651 12652 12653 12654 12655 12656 12657 12658 12659 12660 12661 12662 12663 12664 12665 12666 12667 12668 12669 12670 12671 12672 12673 12674 12675 12676 12677 12678 12679 12680 12681 12682 12683 12684 12685 12686 12687 12688 12689 12690 12691 12692 12693 12694 12695 12696 12697 12698 12699 12700 12701 12702 12703 12704 12705 12706 12707 12708 12709 12710 12711 12712 12713 12714 12715 12716 12717 12718 12719 12720 12721 12722 12723 12724 12725 12726 12727 12728 12729 12730 12731 12732 12733 12734 12735 12736 12737 12738 12739 12740 12741 12742 12743 12744 12745 12746 12747 12748 12749 12750 12751 12752 12753 12754 12755 12756 12757 12758 12759 12760 12761 12762 12763 12764 12765 12766 12767 12768 12769 12770 12771 12772 12773 12774 12775 12776 12777 12778 12779 12780 12781 12782 12783 12784 12785 12786 12787 12788 12789 12790 12791 12792 12793 12794 12795 12796 12797 12798 12799 12800 12801 12802 12803 12804 12805 12806 12807 12808 12809 12810 12811 12812 12813 12814 12815 12816 12817 12818 12819 12820 12821 12822 12823 12824 12825 12826 12827 12828 12829 12830 12831 12832 12833 12834 12835 12836 12837 12838 12839 12840 12841 12842 12843 12844 12845 12846 12847 12848 12849 12850 12851 12852 12853 12854 12855 12856 12857 12858 12859 12860 12861 12862 12863 12864 12865 12866 12867 12868 12869 12870 12871 12872 12873 12874 12875 12876 12877 12878 12879 12880 12881 12882 12883 12884 12885 12886 12887 12888 12889 12890 12891 12892 12893 12894 12895 12896 12897 12898 12899 12900 12901 12902 12903 12904 12905 12906 12907 12908 12909 12910 12911 12912 12913 12914 12915 12916 12917 12918 12919 12920 12921 12922 12923 12924 12925 12926 12927 12928 12929 12930 12931 12932 12933 12934 12935 12936 12937 12938 12939 12940 12941 12942 12943 12944 12945 12946 12947 12948 12949 12950 12951 12952 12953 12954 12955 12956 12957 12958 12959 12960 12961 12962 12963 12964 12965 12966 12967 12968 12969 12970 12971 12972 12973 12974 12975 12976 12977 12978 12979 12980 12981 12982 12983 12984 12985 12986 12987 12988 12989 12990 12991 12992 12993 12994 12995 12996 12997 12998 12999 13000 13001 13002 13003 13004 13005 13006 13007 13008 13009 13010 13011 13012 13013 13014 13015 13016 13017 13018 13019 13020 13021 13022 13023 13024 13025 13026 13027 13028 13029 13030 13031 13032 13033 13034 13035 13036 13037 13038 13039 13040 13041 13042 13043 13044 13045 13046 13047 13048 13049 13050 13051 13052 13053 13054 13055 13056 13057 13058 13059 13060 13061 13062 13063 13064 13065 13066 13067 13068 13069 13070 13071 13072 13073 13074 13075 13076 13077 13078 13079 13080 13081 13082 13083 13084 13085 13086 13087 13088 13089 13090 13091 13092 13093 13094 13095 13096 13097 13098 13099 13100 13101 13102 13103 13104 13105 13106 13107 13108 13109 13110 13111 13112 13113 13114 13115 13116 13117 13118 13119 13120 13121 13122 13123 13124 13125 13126 13127 13128 13129 13130 13131 13132 13133 13134 13135 13136 13137 13138 13139 13140 13141 13142 13143 13144 13145 13146 13147 13148 13149 13150 13151 13152 13153 13154 13155 13156 13157 13158 13159 13160 13161 13162 13163 13164 13165 13166 13167 13168 13169 13170 13171 13172 13173 13174 13175 13176 13177 13178 13179 13180 13181 13182 13183 13184 13185 13186 13187 13188 13189 13190 13191 13192 13193 13194 13195 13196 13197 13198 13199 13200 13201 13202 13203 13204 13205 13206 13207 13208 13209 13210 13211 13212 13213 13214 13215 13216 13217 13218 13219 13220 13221 13222 13223 13224 13225 13226 13227 13228 13229 13230 13231 13232 13233 13234 13235 13236 13237 13238 13239 13240 13241 13242 13243 13244 13245 13246 13247 13248 13249 13250 13251 13252 13253 13254 13255 13256 13257 13258 13259 13260 13261 13262 13263 13264 13265 13266 13267 13268 13269 13270 13271 13272 13273 13274 13275 13276 13277 13278 13279 13280 13281 13282 13283 13284 13285 13286 13287 13288 13289 13290 13291 13292 13293 13294 13295 13296 13297 13298 13299 13300 13301 13302 13303 13304 13305 13306 13307 13308 13309 13310 13311 13312 13313 13314 13315 13316 13317 13318 13319 13320 13321 13322 13323 13324 13325 13326 13327 13328 13329 13330 13331 13332 13333 13334 13335 13336 13337 13338 13339 13340 13341 13342 13343 13344 13345 13346 13347 13348 13349 13350 13351 13352 13353 13354 13355 13356 13357 13358 13359 13360 13361 13362 13363 13364 13365 13366 13367 13368 13369 13370 13371 13372 13373 13374 13375 13376 13377 13378 13379 13380 13381 13382 13383 13384 13385 13386 13387 13388 13389 13390 13391 13392 13393 13394 13395 13396 13397 13398 13399 13400 13401 13402 13403 13404 13405 13406 13407 13408 13409 13410 13411 13412 13413 13414 13415 13416 13417 13418 13419 13420 13421 13422 13423 13424 13425 13426 13427 13428 13429 13430 13431 13432 13433 13434 13435 13436 13437 13438 13439 13440 13441 13442 13443 13444 13445 13446 13447 13448 13449 13450 13451 13452 13453 13454 13455 13456 13457 13458 13459 13460 13461 13462 13463 13464 13465 13466 13467 13468 13469 13470 13471 13472 13473 13474 13475 13476 13477 13478 13479 13480 13481 13482 13483 13484 13485 13486 13487 13488 13489 13490 13491 13492 13493 13494 13495 13496 13497 13498 13499 13500 13501 13502 13503 13504 13505 13506 13507 13508 13509 13510 13511 13512 13513 13514 13515 13516 13517 13518 13519 13520 13521 13522 13523 13524 13525 13526 13527 13528 13529 13530 13531 13532 13533 13534 13535 13536 13537 13538 13539 13540 13541 13542 13543 13544 13545 13546 13547 13548 13549 13550 13551 13552 13553 13554 13555 13556 13557 13558 13559 13560 13561 13562 13563 13564 13565 13566 13567 13568 13569 13570 13571 13572 13573 13574 13575 13576 13577 13578 13579 13580 13581 13582 13583 13584 13585 13586 13587 13588 13589 13590 13591 13592 13593 13594 13595 13596 13597 13598 13599 13600 13601 13602 13603 13604 13605 13606 13607 13608 13609 13610 13611 13612 13613 13614 13615 13616 13617 13618 13619 13620 13621 13622 13623 13624 13625 13626 13627 13628 13629 13630 13631 13632 13633 13634 13635 13636 13637 13638 13639 13640 13641 13642 13643 13644 13645 13646 13647 13648 13649 13650 13651 13652 13653 13654 13655 13656 13657 13658 13659 13660 13661 13662 13663 13664 13665 13666 13667 13668 13669 13670 13671 13672 13673 13674 13675 13676 13677 13678 13679 13680 13681 13682 13683 13684 13685 13686 13687 13688 13689 13690 13691 13692 13693 13694 13695 13696 13697 13698 13699 13700 13701 13702 13703 13704 13705 13706 13707 13708 13709 13710 13711 13712 13713 13714 13715 13716 13717 13718 13719 13720 13721 13722 13723 13724 13725 13726 13727 13728 13729 13730 13731 13732 13733 13734 13735 13736 13737 13738 13739 13740 13741 13742 13743 13744 13745 13746 13747 13748 13749 13750 13751 13752 13753 13754 13755 13756 13757 13758 13759 13760 13761 13762 13763 13764 13765 13766 13767 13768 13769 13770 13771 13772 13773 13774 13775 13776 13777 13778 13779 13780 13781 13782 13783 13784 13785 13786 13787 13788 13789 13790 13791 13792 13793 13794 13795 13796 13797 13798 13799 13800 13801 13802 13803 13804 13805 13806 13807 13808 13809 13810 13811 13812 13813 13814 13815 13816 13817 13818 13819 13820 13821 13822 13823 13824 13825 13826 13827 13828 13829 13830 13831 13832 13833 13834 13835 13836 13837 13838 13839 13840 13841 13842 13843 13844 13845 13846 13847 13848 13849 13850 13851 13852 13853 13854 13855 13856 13857 13858 13859 13860 13861 13862 13863 13864 13865 13866 13867 13868 13869 13870 13871 13872 13873 13874 13875 13876 13877 13878 13879 13880 13881 13882 13883 13884 13885 13886 13887 13888 13889 13890 13891 13892 13893 13894 13895 13896 13897 13898 13899 13900 13901 13902 13903 13904 13905 13906 13907 13908 13909 13910 13911 13912 13913 13914 13915 13916 13917 13918 13919 13920 13921 13922 13923 13924 13925 13926 13927 13928 13929 13930 13931 13932 13933 13934 13935 13936 13937 13938 13939 13940 13941 13942 13943 13944 13945 13946 13947 13948 13949 13950 13951 13952 13953 13954 13955 13956 13957 13958 13959 13960 13961 13962 13963 13964 13965 13966 13967 13968 13969 13970 13971 13972 13973 13974 13975 13976 13977 13978 13979 13980 13981 13982 13983 13984 13985 13986 13987 13988 13989 13990 13991 13992 13993 13994 13995 13996 13997 13998 13999 14000 14001 14002 14003 14004 14005 14006 14007 14008 14009 14010 14011 14012 14013 14014 14015 14016 14017 14018 14019 14020 14021 14022 14023 14024 14025 14026 14027 14028 14029 14030 14031 14032 14033 14034 14035 14036 14037 14038 14039 14040 14041 14042 14043 14044 14045 14046 14047 14048 14049 14050 14051 14052 14053 14054 14055 14056 14057 14058 14059 14060 14061 14062 14063 14064 14065 14066 14067 14068 14069 14070 14071 14072 14073 14074 14075 14076 14077 14078 14079 14080 14081 14082 14083 14084 14085 14086 14087 14088 14089 14090 14091 14092 14093 14094 14095 14096 14097 14098 14099 14100 14101 14102 14103 14104 14105 14106 14107 14108 14109 14110 14111 14112 14113 14114 14115 14116 14117 14118 14119 14120 14121 14122 14123 14124 14125 14126 14127 14128 14129 14130 14131 14132 14133 14134 14135 14136 14137 14138 14139 14140 14141 14142 14143 14144 14145 14146 14147 14148 14149 14150 14151 14152 14153 14154 14155 14156 14157 14158 14159 14160 14161 14162 14163 14164 14165 14166 14167 14168 14169 14170 14171 14172 14173 14174 14175 14176 14177 14178 14179 14180 14181 14182 14183 14184 14185 14186 14187 14188 14189 14190 14191 14192 14193 14194 14195 14196 14197 14198 14199 14200 14201 14202 14203 14204 14205 14206 14207 14208 14209 14210 14211 14212 14213 14214 14215 14216 14217 14218 14219 14220 14221 14222 14223 14224 14225 14226 14227 14228 14229 14230 14231 14232 14233 14234 14235 14236 14237 14238 14239 14240 14241 14242 14243 14244 14245 14246 14247 14248 14249 14250 14251 14252 14253 14254 14255 14256 14257 14258 14259 14260 14261 14262 14263 14264 14265 14266 14267 14268 14269 14270 14271 14272 14273 14274 14275 14276 14277 14278 14279 14280 14281 14282 14283 14284 14285 14286 14287 14288 14289 14290 14291 14292 14293 14294 14295 14296 14297 14298 14299 14300 14301 14302 14303 14304 14305 14306 14307 14308 14309 14310 14311 14312 14313 14314 14315 14316 14317 14318 14319 14320 14321 14322 14323 14324 14325 14326 14327 14328 14329 14330 14331 14332 14333 14334 14335 14336 14337 14338 14339 14340 14341 14342 14343 14344 14345 14346 14347 14348 14349 14350 14351 14352 14353 14354 14355 14356 14357 14358 14359 14360 14361 14362 14363 14364 14365 14366 14367 14368 14369 14370 14371 14372 14373 14374 14375 14376 14377 14378 14379 14380 14381 14382 14383 14384 14385 14386 14387 14388 14389 14390 14391 14392 14393 14394 14395 14396 14397 14398 14399 14400 14401 14402 14403 14404 14405 14406 14407 14408 14409 14410 14411 14412 14413 14414 14415 14416 14417 14418 14419 14420 14421 14422 14423 14424 14425 14426 14427 14428 14429 14430 14431 14432 14433 14434 14435 14436 14437 14438 14439 14440 14441 14442 14443 14444 14445 14446 14447 14448 14449 14450 14451 14452 14453 14454 14455 14456 14457 14458 14459 14460 14461 14462 14463 14464 14465 14466 14467 14468 14469 14470 14471 14472 14473 14474 14475 14476 14477 14478 14479 14480 14481 14482 14483 14484 14485 14486 14487 14488 14489 14490 14491 14492 14493 14494 14495 14496 14497 14498 14499 14500 14501 14502 14503 14504 14505 14506 14507 14508 14509 14510 14511 14512 14513 14514 14515 14516 14517 14518 14519 14520 14521 14522 14523 14524 14525 14526 14527 14528 14529 14530 14531 14532 14533 14534 14535 14536 14537 14538 14539 14540 14541 14542 14543 14544 14545 14546 14547 14548 14549 14550 14551 14552 14553 14554 14555 14556 14557 14558 14559 14560 14561 14562 14563 14564 14565 14566 14567 14568 14569 14570 14571 14572 14573 14574 14575 14576 14577 14578 14579 14580 14581 14582 14583 14584 14585 14586 14587 14588 14589 14590 14591 14592 14593 14594 14595 14596 14597 14598 14599 14600 14601 14602 14603 14604 14605 14606 14607 14608 14609 14610 14611 14612 14613 14614 14615 14616 14617 14618 14619 14620 14621 14622 14623 14624 14625 14626 14627 14628 14629 14630 14631 14632 14633 14634 14635 14636 14637 14638 14639 14640 14641 14642 14643 14644 14645 14646 14647 14648 14649 14650 14651 14652 14653 14654 14655 14656 14657 14658 14659 14660 14661 14662 14663 14664 14665 14666 14667 14668 14669 14670 14671 14672 14673 14674 14675 14676 14677 14678 14679 14680 14681 14682 14683 14684 14685 14686 14687 14688 14689 14690 14691 14692 14693 14694 14695 14696 14697 14698 14699 14700 14701 14702 14703 14704 14705 14706 14707 14708 14709 14710 14711 14712 14713 14714 14715 14716 14717 14718 14719 14720 14721 14722 14723 14724 14725 14726 14727 14728 14729 14730 14731 14732 14733 14734 14735 14736 14737 14738 14739 14740 14741 14742 14743 14744 14745 14746 14747 14748 14749 14750 14751 14752 14753 14754 14755 14756 14757 14758 14759 14760 14761 14762 14763 14764 14765 14766 14767 14768 14769 14770 14771 14772 14773 14774 14775 14776 14777 14778 14779 14780 14781 14782 14783 14784 14785 14786 14787 14788 14789 14790 14791 14792 14793 14794 14795 14796 14797 14798 14799 14800 14801 14802 14803 14804 14805 14806 14807 14808 14809 14810 14811 14812 14813 14814 14815 14816 14817 14818 14819 14820 14821 14822 14823 14824 14825 14826 14827 14828 14829 14830 14831 14832 14833 14834 14835 14836 14837 14838 14839 14840 14841 14842 14843 14844 14845 14846 14847 14848 14849 14850 14851 14852 14853 14854 14855 14856 14857 14858 14859 14860 14861 14862 14863 14864 14865 14866 14867 14868 14869 14870 14871 14872 14873 14874 14875 14876 14877 14878 14879 14880 14881 14882 14883 14884 14885 14886 14887 14888 14889 14890 14891 14892 14893 14894 14895 14896 14897 14898 14899 14900 14901 14902 14903 14904 14905 14906 14907 14908 14909 14910 14911 14912 14913 14914 14915 14916 14917 14918 14919 14920 14921 14922 14923 14924 14925 14926 14927 14928 14929 14930 14931 14932 14933 14934 14935 14936 14937 14938 14939 14940 14941 14942 14943 14944 14945 14946 14947 14948 14949 14950 14951 14952 14953 14954 14955 14956 14957 14958 14959 14960 14961 14962 14963 14964 14965 14966 14967 14968 14969 14970 14971 14972 14973 14974 14975 14976 14977 14978 14979 14980 14981 14982 14983 14984 14985 14986 14987 14988 14989 14990 14991 14992 14993 14994 14995 14996 14997 14998 14999 15000 15001 15002 15003 15004 15005 15006 15007 15008 15009 15010 15011 15012 15013 15014 15015 15016 15017 15018 15019 15020 15021 15022 15023 15024 15025 15026 15027 15028 15029 15030 15031 15032 15033 15034 15035 15036 15037 15038 15039 15040 15041 15042 15043 15044 15045 15046 15047 15048 15049 15050 15051 15052 15053 15054 15055 15056 15057 15058 15059 15060 15061 15062 15063 15064 15065 15066 15067 15068 15069 15070 15071 15072 15073 15074 15075 15076 15077 15078 15079 15080 15081 15082 15083 15084 15085 15086 15087 15088 15089 15090 15091 15092 15093 15094 15095 15096 15097 15098 15099 15100 15101 15102 15103 15104 15105 15106 15107 15108 15109 15110 15111 15112 15113 15114 15115 15116 15117 15118 15119 15120 15121 15122 15123 15124 15125 15126 15127 15128 15129 15130 15131 15132 15133 15134 15135 15136 15137 15138 15139 15140 15141 15142 15143 15144 15145 15146 15147 15148 15149 15150 15151 15152 15153 15154 15155 15156 15157 15158 15159 15160 15161 15162 15163 15164 15165 15166 15167 15168 15169 15170 15171 15172 15173 15174 15175 15176 15177 15178 15179 15180 15181 15182 15183 15184 15185 15186 15187 15188 15189 15190 15191 15192 15193 15194 15195 15196 15197 15198 15199 15200 15201 15202 15203 15204 15205 15206 15207 15208 15209 15210 15211 15212 15213 15214 15215 15216 15217 15218 15219 15220 15221 15222 15223 15224 15225 15226 15227 15228 15229 15230 15231 15232 15233 15234 15235 15236 15237 15238 15239 15240 15241 15242 15243 15244 15245 15246 15247 15248 15249 15250 15251 15252 15253 15254 15255 15256 15257 15258 15259 15260 15261 15262 15263 15264 15265 15266 15267 15268 15269 15270 15271 15272 15273 15274 15275 15276 15277 15278 15279 15280 15281 15282 15283 15284 15285 15286 15287 15288 15289 15290 15291 15292 15293 15294 15295 15296 15297 15298 15299 15300 15301 15302 15303 15304 15305 15306 15307 15308 15309 15310 15311 15312 15313 15314 15315 15316 15317 15318 15319 15320 15321 15322 15323 15324 15325 15326 15327 15328 15329 15330 15331 15332 15333 15334 15335 15336 15337 15338 15339 15340 15341 15342 15343 15344 15345 15346 15347 15348 15349 15350 15351 15352 15353 15354 15355 15356 15357 15358 15359 15360 15361 15362 15363 15364 15365 15366 15367 15368 15369 15370 15371 15372 15373 15374 15375 15376 15377 15378 15379 15380 15381 15382 15383 15384 15385 15386 15387 15388 15389 15390 15391 15392 15393 15394 15395 15396 15397 15398 15399 15400 15401 15402 15403 15404 15405 15406 15407 15408 15409 15410 15411 15412 15413 15414 15415 15416 15417 15418 15419 15420 15421 15422 15423 15424 15425 15426 15427 15428 15429 15430 15431 15432 15433 15434 15435 15436 15437 15438 15439 15440 15441 15442 15443 15444 15445 15446 15447 15448 15449 15450 15451 15452 15453 15454 15455 15456 15457 15458 15459 15460 15461 15462 15463 15464 15465 15466 15467 15468 15469 15470 15471 15472 15473 15474 15475 15476 15477 15478 15479 15480 15481 15482 15483 15484 15485 15486 15487 15488 15489 15490 15491 15492 15493 15494 15495 15496 15497 15498 15499 15500 15501 15502 15503 15504 15505 15506 15507 15508 15509 15510 15511 15512 15513 15514 15515 15516 15517 15518 15519 15520 15521 15522 15523 15524 15525 15526 15527 15528 15529 15530 15531 15532 15533 15534 15535 15536 15537 15538 15539 15540 15541 15542 15543 15544 15545 15546 15547 15548 15549 15550 15551 15552 15553 15554 15555 15556 15557 15558 15559 15560 15561 15562 15563 15564 15565 15566 15567 15568 15569 15570 15571 15572 15573 15574 15575 15576 15577 15578 15579 15580 15581 15582 15583 15584 15585 15586 15587 15588 15589 15590 15591 15592 15593 15594 15595 15596 15597 15598 15599 15600 15601 15602 15603 15604 15605 15606 15607 15608 15609 15610 15611 15612 15613 15614 15615 15616 15617 15618 15619 15620 15621 15622 15623 15624 15625 15626 15627 15628 15629 15630 15631 15632 15633 15634 15635 15636 15637 15638 15639 15640 15641 15642 15643 15644 15645 15646 15647 15648 15649 15650 15651 15652 15653 15654 15655 15656 15657 15658 15659 15660 15661 15662 15663 15664 15665 15666 15667 15668 15669 15670 15671 15672 15673 15674 15675 15676 15677 15678 15679 15680 15681 15682 15683 15684 15685 15686 15687 15688 15689 15690 15691 15692 15693 15694 15695 15696 15697 15698 15699 15700 15701 15702 15703 15704 15705 15706 15707 15708 15709 15710 15711 15712 15713 15714 15715 15716 15717 15718 15719 15720 15721 15722 15723 15724 15725 15726 15727 15728 15729 15730 15731 15732 15733 15734 15735 15736 15737 15738 15739 15740 15741 15742 15743 15744 15745 15746 15747 15748 15749 15750 15751 15752 15753 15754 15755 15756 15757 15758 15759 15760 15761 15762 15763 15764 15765 15766 15767 15768 15769 15770 15771 15772 15773 15774 15775 15776 15777 15778 15779 15780 15781 15782 15783 15784 15785 15786 15787 15788 15789 15790 15791 15792 15793 15794 15795 15796 15797 15798 15799 15800 15801 15802 15803 15804 15805 15806 15807 15808 15809 15810 15811 15812 15813 15814 15815 15816 15817 15818 15819 15820 15821 15822 15823 15824 15825 15826 15827 15828 15829 15830 15831 15832 15833 15834 15835 15836 15837 15838 15839 15840 15841 15842 15843 15844 15845 15846 15847 15848 15849 15850 15851 15852 15853 15854 15855 15856 15857 15858 15859 15860 15861 15862 15863 15864 15865 15866 15867 15868 15869 15870 15871 15872 15873 15874 15875 15876 15877 15878 15879 15880 15881 15882 15883 15884 15885 15886 15887 15888 15889 15890 15891 15892 15893 15894 15895 15896 15897 15898 15899 15900 15901 15902 15903 15904 15905 15906 15907 15908 15909 15910 15911 15912 15913 15914 15915 15916 15917 15918 15919 15920 15921 15922 15923 15924 15925 15926 15927 15928 15929 15930 15931 15932 15933 15934 15935 15936 15937 15938 15939 15940 15941 15942 15943 15944 15945 15946 15947 15948 15949 15950 15951 15952 15953 15954 15955 15956 15957 15958 15959 15960 15961 15962 15963 15964 15965 15966 15967 15968 15969 15970 15971 15972 15973 15974 15975 15976 15977 15978 15979 15980 15981 15982 15983 15984 15985 15986 15987 15988 15989 15990 15991 15992 15993 15994 15995 15996 15997 15998 15999 16000 16001 16002 16003 16004 16005 16006 16007 16008 16009 16010 16011 16012 16013 16014 16015 16016 16017 16018 16019 16020 16021 16022 16023 16024 16025 16026 16027 16028 16029 16030 16031 16032 16033 16034 16035 16036 16037 16038 16039 16040 16041 16042 16043 16044 16045 16046 16047 16048 16049 16050 16051 16052 16053 16054 16055 16056 16057 16058 16059 16060 16061 16062 16063 16064 16065 16066 16067 16068 16069 16070 16071 16072 16073 16074 16075 16076 16077 16078 16079 16080 16081 16082 16083 16084 16085 16086 16087 16088 16089 16090 16091 16092 16093 16094 16095 16096 16097 16098 16099 16100 16101 16102 16103 16104 16105 16106 16107 16108 16109 16110 16111 16112 16113 16114 16115 16116 16117 16118 16119 16120 16121 16122 16123 16124 16125 16126 16127 16128 16129 16130 16131 16132 16133 16134 16135 16136 16137 16138 16139 16140 16141 16142 16143 16144 16145 16146 16147 16148 16149 16150 16151 16152 16153 16154 16155 16156 16157 16158 16159 16160 16161 16162 16163 16164 16165 16166 16167 16168 16169 16170 16171 16172 16173 16174 16175 16176 16177 16178 16179 16180 16181 16182 16183 16184 16185 16186 16187 16188 16189 16190 16191 16192 16193 16194 16195 16196 16197 16198 16199 16200 16201 16202 16203 16204 16205 16206 16207 16208 16209 16210 16211 16212 16213 16214 16215 16216 16217 16218 16219 16220 16221 16222 16223 16224 16225 16226 16227 16228 16229 16230 16231 16232 16233 16234 16235 16236 16237 16238 16239 16240 16241 16242 16243 16244 16245 16246 16247 16248 16249 16250 16251 16252 16253 16254 16255 16256 16257 16258 16259 16260 16261 16262 16263 16264 16265 16266 16267 16268 16269 16270 16271 16272 16273 16274 16275 16276 16277 16278 16279 16280 16281 16282 16283 16284 16285 16286 16287 16288 16289 16290 16291 16292 16293 16294 16295 16296 16297 16298 16299 16300 16301 16302 16303 16304 16305 16306 16307 16308 16309 16310 16311 16312 16313 16314 16315 16316 16317 16318 16319 16320 16321 16322 16323 16324 16325 16326 16327 16328 16329 16330 16331 16332 16333 16334 16335 16336 16337 16338 16339 16340 16341 16342 16343 16344 16345 16346 16347 16348 16349 16350 16351 16352 16353 16354 16355 16356 16357 16358 16359 16360 16361 16362 16363 16364 16365 16366 16367 16368 16369 16370 16371 16372 16373 16374 16375 16376 16377 16378 16379 16380 16381 16382 16383 16384 16385 16386 16387 16388 16389 16390 16391 16392 16393 16394 16395 16396 16397 16398 16399 16400 16401 16402 16403 16404 16405 16406 16407 16408 16409 16410 16411 16412 16413 16414 16415 16416 16417 16418 16419 16420 16421 16422 16423 16424 16425 16426 16427 16428 16429 16430 16431 16432 16433 16434 16435 16436 16437 16438 16439 16440 16441 16442 16443 16444 16445 16446 16447 16448 16449 16450 16451 16452 16453 16454 16455 16456 16457 16458 16459 16460 16461 16462 16463 16464 16465 16466 16467 16468 16469 16470 16471 16472 16473 16474 16475 16476 16477 16478 16479 16480 16481 16482 16483 16484 16485 16486 16487 16488 16489 16490 16491 16492 16493 16494 16495 16496 16497 16498 16499 16500 16501 16502 16503 16504 16505 16506 16507 16508 16509 16510 16511 16512 16513 16514 16515 16516 16517 16518 16519 16520 16521 16522 16523 16524 16525 16526 16527 16528 16529 16530 16531 16532 16533 16534 16535 16536 16537 16538 16539 16540 16541 16542 16543 16544 16545 16546 16547 16548 16549 16550 16551 16552 16553 16554 16555 16556 16557 16558 16559 16560 16561 16562 16563 16564 16565 16566 16567 16568 16569 16570 16571 16572 16573 16574 16575 16576 16577 16578 16579 16580 16581 16582 16583 16584 16585 16586 16587 16588 16589 16590 16591 16592 16593 16594 16595 16596 16597 16598 16599 16600 16601 16602 16603 16604 16605 16606 16607 16608 16609 16610 16611 16612 16613 16614 16615 16616 16617 16618 16619 16620 16621 16622 16623 16624 16625 16626 16627 16628 16629 16630 16631 16632 16633 16634 16635 16636 16637 16638 16639 16640 16641 16642 16643 16644 16645 16646 16647 16648 16649 16650 16651 16652 16653 16654 16655 16656 16657 16658 16659 16660 16661 16662 16663 16664 16665 16666 16667 16668 16669 16670 16671 16672 16673 16674 16675 16676 16677 16678 16679 16680 16681 16682 16683 16684 16685 16686 16687 16688 16689 16690 16691 16692 16693 16694 16695 16696 16697 16698 16699 16700 16701 16702 16703 16704 16705 16706 16707 16708 16709 16710 16711 16712 16713 16714 16715 16716 16717 16718 16719 16720 16721 16722 16723 16724 16725 16726 16727 16728 16729 16730 16731 16732 16733 16734 16735 16736 16737 16738 16739 16740 16741 16742 16743 16744 16745 16746 16747 16748 16749 16750 16751 16752 16753 16754 16755 16756 16757 16758 16759 16760 16761 16762 16763 16764 16765 16766 16767 16768 16769 16770 16771 16772 16773 16774 16775 16776 16777 16778 16779 16780 16781 16782 16783 16784 16785 16786 16787 16788 16789 16790 16791 16792 16793 16794 16795 16796 16797 16798 16799 16800 16801 16802 16803 16804 16805 16806 16807 16808 16809 16810 16811 16812 16813 16814 16815 16816 16817 16818 16819 16820 16821 16822 16823 16824 16825 16826 16827 16828 16829 16830 16831 16832 16833 16834 16835 16836 16837 16838 16839 16840 16841 16842 16843 16844 16845 16846 16847 16848 16849 16850 16851 16852 16853 16854 16855 16856 16857 16858 16859 16860 16861 16862 16863 16864 16865 16866 16867 16868 16869 16870 16871 16872 16873 16874 16875 16876 16877 16878 16879 16880 16881 16882 16883 16884 16885 16886 16887 16888 16889 16890 16891 16892 16893 16894 16895 16896 16897 16898 16899 16900 16901 16902 16903 16904 16905 16906 16907 16908 16909 16910 16911 16912 16913 16914 16915 16916 16917 16918 16919 16920 16921 16922 16923 16924 16925 16926 16927 16928 16929 16930 16931 16932 16933 16934 16935 16936 16937 16938 16939 16940 16941 16942 16943 16944 16945 16946 16947 16948 16949 16950 16951 16952 16953 16954 16955 16956 16957 16958 16959 16960 16961 16962 16963 16964 16965 16966 16967 16968 16969 16970 16971 16972 16973 16974 16975 16976 16977 16978 16979 16980 16981 16982 16983 16984 16985 16986 16987 16988 16989 16990 16991 16992 16993 16994 16995 16996 16997 16998 16999 17000 17001 17002 17003 17004 17005 17006 17007 17008 17009 17010 17011 17012 17013 17014 17015 17016 17017 17018 17019 17020 17021 17022 17023 17024 17025 17026 17027 17028 17029 17030 17031 17032 17033 17034 17035 17036 17037 17038 17039 17040 17041 17042 17043 17044 17045 17046 17047 17048 17049 17050 17051 17052 17053 17054 17055 17056 17057 17058 17059 17060 17061 17062 17063 17064 17065 17066 17067 17068 17069 17070 17071 17072 17073 17074 17075 17076 17077 17078 17079 17080 17081 17082 17083 17084 17085 17086 17087 17088 17089 17090 17091 17092 17093 17094 17095 17096 17097 17098 17099 17100 17101 17102 17103 17104 17105 17106 17107 17108 17109 17110 17111 17112 17113 17114 17115 17116 17117 17118 17119 17120 17121 17122 17123 17124 17125 17126 17127 17128 17129 17130 17131 17132 17133 17134 17135 17136 17137 17138 17139 17140 17141 17142 17143 17144 17145 17146 17147 17148 17149 17150 17151 17152 17153 17154 17155 17156 17157 17158 17159 17160 17161 17162 17163 17164 17165 17166 17167 17168 17169 17170 17171 17172 17173 17174 17175 17176 17177 17178 17179 17180 17181 17182 17183 17184 17185 17186 17187 17188 17189 17190 17191 17192 17193 17194 17195 17196 17197 17198 17199 17200 17201 17202 17203 17204 17205 17206 17207 17208 17209 17210 17211 17212 17213 17214 17215 17216 17217 17218 17219 17220 17221 17222 17223 17224 17225 17226 17227 17228 17229 17230 17231 17232 17233 17234 17235 17236 17237 17238 17239 17240 17241 17242 17243 17244 17245 17246 17247 17248 17249 17250 17251 17252 17253 17254 17255 17256 17257 17258 17259 17260 17261 17262 17263 17264 17265 17266 17267 17268 17269 17270 17271 17272 17273 17274 17275 17276 17277 17278 17279 17280 17281 17282 17283 17284 17285 17286 17287 17288 17289 17290 17291 17292 17293 17294 17295 17296 17297 17298 17299 17300 17301 17302 17303 17304 17305 17306 17307 17308 17309 17310 17311 17312 17313 17314 17315 17316 17317 17318 17319 17320 17321 17322 17323 17324 17325 17326 17327 17328 17329 17330 17331 17332 17333 17334 17335 17336 17337 17338 17339 17340 17341 17342 17343 17344 17345 17346 17347 17348 17349 17350 17351 17352 17353 17354 17355 17356 17357 17358 17359 17360 17361 17362 17363 17364 17365 17366 17367 17368 17369 17370 17371 17372 17373 17374 17375 17376 17377 17378 17379 17380 17381 17382 17383 17384 17385 17386 17387 17388 17389 17390 17391 17392 17393 17394 17395 17396 17397 17398 17399 17400 17401 17402 17403 17404 17405 17406 17407 17408 17409 17410 17411 17412 17413 17414 17415 17416 17417 17418 17419 17420 17421 17422 17423 17424 17425 17426 17427 17428 17429 17430 17431 17432 17433 17434 17435 17436 17437 17438 17439 17440 17441 17442 17443 17444 17445 17446 17447 17448 17449 17450 17451 17452 17453 17454 17455 17456 17457 17458 17459 17460 17461 17462 17463 17464 17465 17466 17467 17468 17469 17470 17471 17472 17473 17474 17475 17476 17477 17478 17479 17480 17481 17482 17483 17484 17485 17486 17487 17488 17489 17490 17491 17492 17493 17494 17495 17496 17497 17498 17499 17500 17501 17502 17503 17504 17505 17506 17507 17508 17509 17510 17511 17512 17513 17514 17515 17516 17517 17518 17519 17520 17521 17522 17523 17524 17525 17526 17527 17528 17529 17530 17531 17532 17533 17534 17535 17536 17537 17538 17539 17540 17541 17542 17543 17544 17545 17546 17547 17548 17549 17550 17551 17552 17553 17554 17555 17556 17557 17558 17559 17560 17561 17562 17563 17564 17565 17566 17567 17568 17569 17570 17571 17572 17573 17574 17575 17576 17577 17578 17579 17580 17581 17582 17583 17584 17585 17586 17587 17588 17589 17590 17591 17592 17593 17594 17595 17596 17597 17598 17599 17600 17601 17602 17603 17604 17605 17606 17607 17608 17609 17610 17611 17612 17613 17614 17615 17616 17617 17618 17619 17620 17621 17622 17623 17624 17625 17626 17627 17628 17629 17630 17631 17632 17633 17634 17635 17636 17637 17638 17639 17640 17641 17642 17643 17644 17645 17646 17647 17648 17649 17650 17651 17652 17653 17654 17655 17656 17657 17658 17659 17660 17661 17662 17663 17664 17665 17666 17667 17668 17669 17670 17671 17672 17673 17674 17675 17676 17677 17678 17679 17680 17681 17682 17683 17684 17685 17686 17687 17688 17689 17690 17691 17692 17693 17694 17695 17696 17697 17698 17699 17700 17701 17702 17703 17704 17705 17706 17707 17708 17709 17710 17711 17712 17713 17714 17715 17716 17717 17718 17719 17720 17721 17722 17723 17724 17725 17726 17727 17728 17729 17730 17731 17732 17733 17734 17735 17736 17737 17738 17739 17740 17741 17742 17743 17744 17745 17746 17747 17748 17749 17750 17751 17752 17753 17754 17755 17756 17757 17758 17759 17760 17761 17762 17763 17764 17765 17766 17767 17768 17769 17770 17771 17772 17773 17774 17775 17776 17777 17778 17779 17780 17781 17782 17783 17784 17785 17786 17787 17788 17789 17790 17791 17792 17793 17794 17795 17796 17797 17798 17799 17800 17801 17802 17803 17804 17805 17806 17807 17808 17809 17810 17811 17812 17813 17814 17815 17816 17817 17818 17819 17820 17821 17822 17823 17824 17825 17826 17827 17828 17829 17830 17831 17832 17833 17834 17835 17836 17837 17838 17839 17840 17841 17842 17843 17844 17845 17846 17847 17848 17849 17850 17851 17852 17853 17854 17855 17856 17857 17858 17859 17860 17861 17862 17863 17864 17865 17866 17867 17868 17869 17870 17871 17872 17873 17874 17875 17876 17877 17878 17879 17880 17881 17882 17883 17884 17885 17886 17887 17888 17889 17890 17891 17892 17893 17894 17895 17896 17897 17898 17899 17900 17901 17902 17903 17904 17905 17906 17907 17908 17909 17910 17911 17912 17913 17914 17915 17916 17917 17918 17919 17920 17921 17922 17923 17924 17925 17926 17927 17928 17929 17930 17931 17932 17933 17934 17935 17936 17937 17938 17939 17940 17941 17942 17943 17944 17945 17946 17947 17948 17949 17950 17951 17952 17953 17954 17955 17956 17957 17958 17959 17960 17961 17962 17963 17964 17965 17966 17967 17968 17969 17970 17971 17972 17973 17974 17975 17976 17977 17978 17979 17980 17981 17982 17983 17984 17985 17986 17987 17988 17989 17990 17991 17992 17993 17994 17995 17996 17997 17998 17999 18000 18001 18002 18003 18004 18005 18006 18007 18008 18009 18010 18011 18012 18013 18014 18015 18016 18017 18018 18019 18020 18021 18022 18023 18024 18025 18026 18027 18028 18029 18030 18031 18032 18033 18034 18035 18036 18037 18038 18039 18040 18041 18042 18043 18044 18045 18046 18047 18048 18049 18050 18051 18052 18053 18054 18055 18056 18057 18058 18059 18060 18061 18062 18063 18064 18065 18066 18067 18068 18069 18070 18071 18072 18073 18074 18075 18076 18077 18078 18079 18080 18081 18082 18083 18084 18085 18086 18087 18088 18089 18090 18091 18092 18093 18094 18095 18096 18097 18098 18099 18100 18101 18102 18103 18104 18105 18106 18107 18108 18109 18110 18111 18112 18113 18114 18115 18116 18117 18118 18119 18120 18121 18122 18123 18124 18125 18126 18127 18128 18129 18130 18131 18132 18133 18134 18135 18136 18137 18138 18139 18140 18141 18142 18143 18144 18145 18146 18147 18148 18149 18150 18151 18152 18153 18154 18155 18156 18157 18158 18159 18160 18161 18162 18163 18164 18165 18166 18167 18168 18169 18170 18171 18172 18173 18174 18175 18176 18177 18178 18179 18180 18181 18182 18183 18184 18185 18186 18187 18188 18189 18190 18191 18192 18193 18194 18195 18196 18197 18198 18199 18200 18201 18202 18203 18204 18205 18206 18207 18208 18209 18210 18211 18212 18213 18214 18215 18216 18217 18218 18219 18220 18221 18222 18223 18224 18225 18226 18227 18228 18229 18230 18231 18232 18233 18234 18235 18236 18237 18238 18239 18240 18241 18242 18243 18244 18245 18246 18247 18248 18249 18250 18251 18252 18253 18254 18255 18256 18257 18258 18259 18260 18261 18262 18263 18264 18265 18266 18267 18268 18269 18270 18271 18272 18273 18274 18275 18276 18277 18278 18279 18280 18281 18282 18283 18284 18285 18286 18287 18288 18289 18290 18291 18292 18293 18294 18295 18296 18297 18298 18299 18300 18301 18302 18303 18304 18305 18306 18307 18308 18309 18310 18311 18312 18313 18314 18315 18316 18317 18318 18319 18320 18321 18322 18323 18324 18325 18326 18327 18328 18329 18330 18331 18332 18333 18334 18335 18336 18337 18338 18339 18340 18341 18342 18343 18344 18345 18346 18347 18348 18349 18350 18351 18352 18353 18354 18355 18356 18357 18358 18359 18360 18361 18362 18363 18364 18365 18366 18367 18368 18369 18370 18371 18372 18373 18374 18375 18376 18377 18378 18379 18380 18381 18382 18383 18384 18385 18386 18387 18388 18389 18390 18391 18392 18393 18394 18395 18396 18397 18398 18399 18400 18401 18402 18403 18404 18405 18406 18407 18408 18409 18410 18411 18412 18413 18414 18415 18416 18417 18418 18419 18420 18421 18422 18423 18424 18425 18426 18427 18428 18429 18430 18431 18432 18433 18434 18435 18436 18437 18438 18439 18440 18441 18442 18443 18444 18445 18446 18447 18448 18449 18450 18451 18452 18453 18454 18455 18456 18457 18458 18459 18460 18461 18462 18463 18464 18465 18466 18467 18468 18469 18470 18471 18472 18473 18474 18475 18476 18477 18478 18479 18480 18481 18482 18483 18484 18485 18486 18487 18488 18489 18490 18491 18492 18493 18494 18495 18496 18497 18498 18499 18500 18501 18502 18503 18504 18505 18506 18507 18508 18509 18510 18511 18512 18513 18514 18515 18516 18517 18518 18519 18520 18521 18522 18523 18524 18525 18526 18527 18528 18529 18530 18531 18532 18533 18534 18535 18536 18537 18538 18539 18540 18541 18542 18543 18544 18545 18546 18547 18548 18549 18550 18551 18552 18553 18554 18555 18556 18557 18558 18559 18560 18561 18562 18563 18564 18565 18566 18567 18568 18569 18570 18571 18572 18573 18574 18575 18576 18577 18578 18579 18580 18581 18582 18583 18584 18585 18586 18587 18588 18589 18590 18591 18592 18593 18594 18595 18596 18597 18598 18599 18600 18601 18602 18603 18604 18605 18606 18607 18608 18609 18610 18611 18612 18613 18614 18615 18616 18617 18618 18619 18620 18621 18622 18623 18624 18625 18626 18627 18628 18629 18630 18631 18632 18633 18634 18635 18636 18637 18638 18639 18640 18641 18642 18643 18644 18645 18646 18647 18648 18649 18650 18651 18652 18653 18654 18655 18656 18657 18658 18659 18660 18661 18662 18663 18664 18665 18666 18667 18668 18669 18670 18671 18672 18673 18674 18675 18676 18677 18678 18679 18680 18681 18682 18683 18684 18685 18686 18687 18688 18689 18690 18691 18692 18693 18694 18695 18696 18697 18698 18699 18700 18701 18702 18703 18704 18705 18706 18707 18708 18709 18710 18711 18712 18713 18714 18715 18716 18717 18718 18719 18720 18721 18722 18723 18724 18725 18726 18727 18728 18729 18730 18731 18732 18733 18734 18735 18736 18737 18738 18739 18740 18741 18742 18743 18744 18745 18746 18747 18748 18749 18750 18751 18752 18753 18754 18755 18756 18757 18758 18759 18760 18761 18762 18763 18764 18765 18766 18767 18768 18769 18770 18771 18772 18773 18774 18775 18776 18777 18778 18779 18780 18781 18782 18783 18784 18785 18786 18787 18788 18789 18790 18791 18792 18793 18794 18795 18796 18797 18798 18799 18800 18801 18802 18803 18804 18805 18806 18807 18808 18809 18810 18811 18812 18813 18814 18815 18816 18817 18818 18819 18820 18821 18822 18823 18824 18825 18826 18827 18828 18829 18830 18831 18832 18833 18834 18835 18836 18837 18838 18839 18840 18841 18842 18843 18844 18845 18846 18847 18848 18849 18850 18851 18852 18853 18854 18855 18856 18857 18858 18859 18860 18861 18862 18863 18864 18865 18866 18867 18868 18869 18870 18871 18872 18873 18874 18875 18876 18877 18878 18879 18880 18881 18882 18883 18884 18885 18886 18887 18888 18889 18890 18891 18892 18893 18894 18895 18896 18897 18898 18899 18900 18901 18902 18903 18904 18905 18906 18907 18908 18909 18910 18911 18912 18913 18914 18915 18916 18917 18918 18919 18920 18921 18922 18923 18924 18925 18926 18927 18928 18929 18930 18931 18932 18933 18934 18935 18936 18937 18938 18939 18940 18941 18942 18943 18944 18945 18946 18947 18948 18949 18950 18951 18952 18953 18954 18955 18956 18957 18958 18959 18960 18961 18962 18963 18964 18965 18966 18967 18968 18969 18970 18971 18972 18973 18974 18975 18976 18977 18978 18979 18980 18981 18982 18983 18984 18985 18986 18987 18988 18989 18990 18991 18992 18993 18994 18995 18996 18997 18998 18999 19000 19001 19002 19003 19004 19005 19006 19007 19008 19009 19010 19011 19012 19013 19014 19015 19016 19017 19018 19019 19020 19021 19022 19023 19024 19025 19026 19027 19028 19029 19030 19031 19032 19033 19034 19035 19036 19037 19038 19039 19040 19041 19042 19043 19044 19045 19046 19047 19048 19049 19050 19051 19052 19053 19054 19055 19056 19057 19058 19059 19060 19061 19062 19063 19064 19065 19066 19067 19068 19069 19070 19071 19072 19073 19074 19075 19076 19077 19078 19079 19080 19081 19082 19083 19084 19085 19086 19087 19088 19089 19090 19091 19092 19093 19094 19095 19096 19097 19098 19099 19100 19101 19102 19103 19104 19105 19106 19107 19108 19109 19110 19111 19112 19113 19114 19115 19116 19117 19118 19119 19120 19121 19122 19123 19124 19125 19126 19127 19128 19129 19130 19131 19132 19133 19134 19135 19136 19137 19138 19139 19140 19141 19142 19143 19144 19145 19146 19147 19148 19149 19150 19151 19152 19153 19154 19155 19156 19157 19158 19159 19160 19161 19162 19163 19164 19165 19166 19167 19168 19169 19170 19171 19172 19173 19174 19175 19176 19177 19178 19179 19180 19181 19182 19183 19184 19185 19186 19187 19188 19189 19190 19191 19192 19193 19194 19195 19196 19197 19198 19199 19200 19201 19202 19203 19204 19205 19206 19207 19208 19209 19210 19211 19212 19213 19214 19215 19216 19217 19218 19219 19220 19221 19222 19223 19224 19225 19226 19227 19228 19229 19230 19231 19232 19233 19234 19235 19236 19237 19238 19239 19240 19241 19242 19243 19244 19245 19246 19247 19248 19249 19250 19251 19252 19253 19254 19255 19256 19257 19258 19259 19260 19261 19262 19263 19264 19265 19266 19267 19268 19269 19270 19271 19272 19273 19274 19275 19276 19277 19278 19279 19280 19281 19282 19283 19284 19285 19286 19287 19288 19289 19290 19291 19292 19293 19294 19295 19296 19297 19298 19299 19300 19301 19302 19303 19304 19305 19306 19307 19308 19309 19310 19311 19312 19313 19314 19315 19316 19317 19318 19319 19320 19321 19322 19323 19324 19325 19326 19327 19328 19329 19330 19331 19332 19333 19334 19335 19336 19337 19338 19339 19340 19341 19342 19343 19344 19345 19346 19347 19348 19349 19350 19351 19352 19353 19354 19355 19356 19357 19358 19359 19360 19361 19362 19363 19364 19365 19366 19367 19368 19369 19370 19371 19372 19373 19374 19375 19376 19377 19378 19379 19380 19381 19382 19383 19384 19385 19386 19387 19388 19389 19390 19391 19392 19393 19394 19395 19396 19397 19398 19399 19400 19401 19402 19403 19404 19405 19406 19407 19408 19409 19410 19411 19412 19413 19414 19415 19416 19417 19418 19419 19420 19421 19422 19423 19424 19425 19426 19427 19428 19429 19430 19431 19432 19433 19434 19435 19436 19437 19438 19439 19440 19441 19442 19443 19444 19445 19446 19447 19448 19449 19450 19451 19452 19453 19454 19455 19456 19457 19458 19459 19460 19461 19462 19463 19464 19465 19466 19467 19468 19469 19470 19471 19472 19473 19474 19475 19476 19477 19478 19479 19480 19481 19482 19483 19484 19485 19486 19487 19488 19489 19490 19491 19492 19493 19494 19495 19496 19497 19498 19499 19500 19501 19502 19503 19504 19505 19506 19507 19508 19509 19510 19511 19512 19513 19514 19515 19516 19517 19518 19519 19520 19521 19522 19523 19524 19525 19526 19527 19528 19529 19530 19531 19532 19533 19534 19535 19536 19537 19538 19539 19540 19541 19542 19543 19544 19545 19546 19547 19548 19549 19550 19551 19552 19553 19554 19555 19556 19557 19558 19559 19560 19561 19562 19563 19564 19565 19566 19567 19568 19569 19570 19571 19572 19573 19574 19575 19576 19577 19578 19579 19580 19581 19582 19583 19584 19585 19586 19587 19588 19589 19590 19591 19592 19593 19594 19595 19596 19597 19598 19599 19600 19601 19602 19603 19604 19605 19606 19607 19608 19609 19610 19611 19612 19613 19614 19615 19616 19617 19618 19619 19620 19621 19622 19623 19624 19625 19626 19627 19628 19629 19630 19631 19632 19633 19634 19635 19636 19637 19638 19639 19640 19641 19642 19643 19644 19645 19646 19647 19648 19649 19650 19651 19652 19653 19654 19655 19656 19657 19658 19659 19660 19661 19662 19663 19664 19665 19666 19667 19668 19669 19670 19671 19672 19673 19674 19675 19676 19677 19678 19679 19680 19681 19682 19683 19684 19685 19686 19687 19688 19689 19690 19691 19692 19693 19694 19695 19696 19697 19698 19699 19700 19701 19702 19703 19704 19705 19706 19707 19708 19709 19710 19711 19712 19713 19714 19715 19716 19717 19718 19719 19720 19721 19722 19723 19724 19725 19726 19727 19728 19729 19730 19731 19732 19733 19734 19735 19736 19737 19738 19739 19740 19741 19742 19743 19744 19745 19746 19747 19748 19749 19750 19751 19752 19753 19754 19755 19756 19757 19758 19759 19760 19761 19762 19763 19764 19765 19766 19767 19768 19769 19770 19771 19772 19773 19774 19775 19776 19777 19778 19779 19780 19781 19782 19783 19784 19785 19786 19787 19788 19789 19790 19791 19792 19793 19794 19795 19796 19797 19798 19799 19800 19801 19802 19803 19804 19805 19806 19807 19808 19809 19810 19811 19812 19813 19814 19815 19816 19817 19818 19819 19820 19821 19822 19823 19824 19825 19826 19827 19828 19829 19830 19831 19832 19833 19834 19835 19836 19837 19838 19839 19840 19841 19842 19843 19844 19845 19846 19847 19848 19849 19850 19851 19852 19853 19854 19855 19856 19857 19858 19859 19860 19861 19862 19863 19864 19865 19866 19867 19868 19869 19870 19871 19872 19873 19874 19875 19876 19877 19878 19879 19880 19881 19882 19883 19884 19885 19886 19887 19888 19889 19890 19891 19892 19893 19894 19895 19896 19897 19898 19899 19900 19901 19902 19903 19904 19905 19906 19907 19908 19909 19910 19911 19912 19913 19914 19915 19916 19917 19918 19919 19920 19921 19922 19923 19924 19925 19926 19927 19928 19929 19930 19931 19932 19933 19934 19935 19936 19937 19938 19939 19940 19941 19942 19943 19944 19945 19946 19947 19948 19949 19950 19951 19952 19953 19954 19955 19956 19957 19958 19959 19960 19961 19962 19963 19964 19965 19966 19967 19968 19969 19970 19971 19972 19973 19974 19975 19976 19977 19978 19979 19980 19981 19982 19983 19984 19985 19986 19987 19988 19989 19990 19991 19992 19993 19994 19995 19996 19997 19998 19999 20000 20001 20002 20003 20004 20005 20006 20007 20008 20009 20010 20011 20012 20013 20014 20015 20016 20017 20018 20019 20020 20021 20022 20023 20024 20025 20026 20027 20028 20029 20030 20031 20032 20033 20034 20035 20036 20037 20038 20039 20040 20041 20042 20043 20044 20045 20046 20047 20048 20049 20050 20051 20052 20053 20054 20055 20056 20057 20058 20059 20060 20061 20062 20063 20064 20065 20066 20067 20068 20069 20070 20071 20072 20073 20074 20075 20076 20077 20078 20079 20080 20081 20082 20083 20084 20085 20086 20087 20088 20089 20090 20091 20092 20093 20094 20095 20096 20097 20098 20099 20100 20101 20102 20103 20104 20105 20106 20107 20108 20109 20110 20111 20112 20113 20114 20115 20116 20117 20118 20119 20120 20121 20122 20123 20124 20125 20126 20127 20128 20129 20130 20131 20132 20133 20134 20135 20136 20137 20138 20139 20140 20141 20142 20143 20144 20145 20146 20147 20148 20149 20150 20151 20152 20153 20154 20155 20156 20157 20158 20159 20160 20161 20162 20163 20164 20165 20166 20167 20168 20169 20170 20171 20172 20173 20174 20175 20176 20177 20178 20179 20180 20181 20182 20183 20184 20185 20186 20187 20188 20189 20190 20191 20192 20193 20194 20195 20196 20197 20198 20199 20200 20201 20202 20203 20204 20205 20206 20207 20208 20209 20210 20211 20212 20213 20214 20215 20216 20217 20218 20219 20220 20221 20222 20223 20224 20225 20226 20227 20228 20229 20230 20231 20232 20233 20234 20235 20236 20237 20238 20239 20240 20241 20242 20243 20244 20245 20246 20247 20248 20249 20250 20251 20252 20253 20254 20255 20256 20257 20258 20259 20260 20261 20262 20263 20264 20265 20266 20267 20268 20269 20270 20271 20272 20273 20274 20275 20276 20277 20278 20279 20280 20281 20282 20283 20284 20285 20286 20287 20288 20289 20290 20291 20292 20293 20294 20295 20296 20297 20298 20299 20300 20301 20302 20303 20304 20305 20306 20307 20308 20309 20310 20311 20312 20313 20314 20315 20316 20317 20318 20319 20320 20321 20322 20323 20324 20325 20326 20327 20328 20329 20330 20331 20332 20333 20334 20335 20336 20337 20338 20339 20340 20341 20342 20343 20344 20345 20346 20347 20348 20349 20350 20351 20352 20353 20354 20355 20356 20357 20358 20359 20360 20361 20362 20363 20364 20365 20366 20367 20368 20369 20370 20371 20372 20373 20374 20375 20376 20377 20378 20379 20380 20381 20382 20383 20384 20385 20386 20387 20388 20389 20390 20391 20392 20393 20394 20395 20396 20397 20398 20399 20400 20401 20402 20403 20404 20405 20406 20407 20408 20409 20410 20411 20412 20413 20414 20415 20416 20417 20418 20419 20420 20421 20422 20423 20424 20425 20426 20427 20428 20429 20430 20431 20432 20433 20434 20435 20436 20437 20438 20439 20440 20441 20442 20443 20444 20445 20446 20447 20448 20449 20450 20451 20452 20453 20454 20455 20456 20457 20458 20459 20460 20461 20462 20463 20464 20465 20466 20467 20468 20469 20470 20471 20472 20473 20474 20475 20476 20477 20478 20479 20480 20481 20482 20483 20484 20485 20486 20487 20488 20489 20490 20491 20492 20493 20494 20495 20496 20497 20498 20499 20500 20501 20502 20503 20504 20505 20506 20507 20508 20509 20510 20511 20512 20513 20514 20515 20516 20517 20518 20519 20520 20521 20522 20523 20524 20525 20526 20527 20528 20529 20530 20531 20532 20533 20534 20535 20536 20537 20538 20539 20540 20541 20542 20543 20544 20545 20546 20547 20548 20549 20550 20551 20552 20553 20554 20555 20556 20557 20558 20559 20560 20561 20562 20563 20564 20565 20566 20567 20568 20569 20570 20571 20572 20573 20574 20575 20576 20577 20578 20579 20580 20581 20582 20583 20584 20585 20586 20587 20588 20589 20590 20591 20592 20593 20594 20595 20596 20597 20598 20599 20600 20601 20602 20603 20604 20605 20606 20607 20608 20609 20610 20611 20612 20613 20614 20615 20616 20617 20618 20619 20620 20621 20622 20623 20624 20625 20626 20627 20628 20629 20630 20631 20632 20633 20634 20635 20636 20637 20638 20639 20640 20641 20642 20643 20644 20645 20646 20647 20648 20649 20650 20651 20652 20653 20654 20655 20656 20657 20658 20659 20660 20661 20662 20663 20664 20665 20666 20667 20668 20669 20670 20671 20672 20673 20674 20675 20676 20677 20678 20679 20680 20681 20682 20683 20684 20685 20686 20687 20688 20689 20690 20691 20692 20693 20694 20695 20696 20697 20698 20699 20700 20701 20702 20703 20704 20705 20706 20707 20708 20709 20710 20711 20712 20713 20714 20715 20716 20717 20718 20719 20720 20721 20722 20723 20724 20725 20726 20727 20728 20729 20730 20731 20732 20733 20734 20735 20736 20737 20738 20739 20740 20741 20742 20743 20744 20745 20746 20747 20748 20749 20750 20751 20752 20753 20754 20755 20756 20757 20758 20759 20760 20761 20762 20763 20764 20765 20766 20767 20768 20769 20770 20771 20772 20773 20774 20775 20776 20777 20778 20779 20780 20781 20782 20783 20784 20785 20786 20787 20788 20789 20790 20791 20792 20793 20794 20795 20796 20797 20798 20799 20800 20801 20802 20803 20804 20805 20806 20807 20808 20809 20810 20811 20812 20813 20814 20815 20816 20817 20818 20819 20820 20821 20822 20823 20824 20825 20826 20827 20828 20829 20830 20831 20832 20833 20834 20835 20836 20837 20838 20839 20840 20841 20842 20843 20844 20845 20846 20847 20848 20849 20850 20851 20852 20853 20854 20855 20856 20857 20858 20859 20860 20861 20862 20863 20864 20865 20866 20867 20868 20869 20870 20871 20872 20873 20874 20875 20876 20877 20878 20879 20880 20881 20882 20883 20884 20885 20886 20887 20888 20889 20890 20891 20892 20893 20894 20895 20896 20897 20898 20899 20900 20901 20902 20903 20904 20905 20906 20907 20908 20909 20910 20911 20912 20913 20914 20915 20916 20917 20918 20919 20920 20921 20922 20923 20924 20925 20926 20927 20928 20929 20930 20931 20932 20933 20934 20935 20936 20937 20938 20939 20940 20941 20942 20943 20944 20945 20946 20947 20948 20949 20950 20951 20952 20953 20954 20955 20956 20957 20958 20959 20960 20961 20962 20963 20964 20965 20966 20967 20968 20969 20970 20971 20972 20973 20974 20975 20976 20977 20978 20979 20980 20981 20982 20983 20984 20985 20986 20987 20988 20989 20990 20991 20992 20993 20994 20995 20996 20997 20998 20999 21000 21001 21002 21003 21004 21005 21006 21007 21008 21009 21010 21011 21012 21013 21014 21015 21016 21017 21018 21019 21020 21021 21022 21023 21024 21025 21026 21027 21028 21029 21030 21031 21032 21033 21034 21035 21036 21037 21038 21039 21040 21041 21042 21043 21044 21045 21046 21047 21048 21049 21050 21051 21052 21053 21054 21055 21056 21057 21058 21059 21060 21061 21062 21063 21064 21065 21066 21067 21068 21069 21070 21071 21072 21073 21074 21075 21076 21077 21078 21079 21080 21081 21082 21083 21084 21085 21086 21087 21088 21089 21090 21091 21092 21093 21094 21095 21096 21097 21098 21099 21100 21101 21102 21103 21104 21105 21106 21107 21108 21109 21110 21111 21112 21113 21114 21115 21116 21117 21118 21119 21120 21121 21122 21123 21124 21125 21126 21127 21128 21129 21130 21131 21132 21133 21134 21135 21136 21137 21138 21139 21140 21141 21142 21143 21144 21145 21146 21147 21148 21149 21150 21151 21152 21153 21154 21155 21156 21157 21158 21159 21160 21161 21162 21163 21164 21165 21166 21167 21168 21169 21170 21171 21172 21173 21174 21175 21176 21177 21178 21179 21180 21181 21182 21183 21184 21185 21186 21187 21188 21189 21190 21191 21192 21193 21194 21195 21196 21197 21198 21199 21200 21201 21202 21203 21204 21205 21206 21207 21208 21209 21210 21211 21212 21213 21214 21215 21216 21217 21218 21219 21220 21221 21222 21223 21224 21225 21226 21227 21228 21229 21230 21231 21232 21233 21234 21235 21236 21237 21238 21239 21240 21241 21242 21243 21244 21245 21246 21247 21248 21249 21250 21251 21252 21253 21254 21255 21256 21257 21258 21259 21260 21261 21262 21263 21264 21265 21266 21267 21268 21269 21270 21271 21272 21273 21274 21275 21276 21277 21278 21279 21280 21281 21282 21283 21284 21285 21286 21287 21288 21289 21290 21291 21292 21293 21294 21295 21296 21297 21298 21299 21300 21301 21302 21303 21304 21305 21306 21307 21308 21309 21310 21311 21312 21313 21314 21315 21316 21317 21318 21319 21320 21321 21322 21323 21324 21325 21326 21327 21328 21329 21330 21331 21332 21333 21334 21335 21336 21337 21338 21339 21340 21341 21342 21343 21344 21345 21346 21347 21348 21349 21350 21351 21352 21353 21354 21355 21356 21357 21358 21359 21360 21361 21362 21363 21364 21365 21366 21367 21368 21369 21370 21371 21372 21373 21374 21375 21376 21377 21378 21379 21380 21381 21382 21383 21384 21385 21386 21387 21388 21389 21390 21391 21392 21393 21394 21395 21396 21397 21398 21399 21400 21401 21402 21403 21404 21405 21406 21407 21408 21409 21410 21411 21412 21413 21414 21415 21416 21417 21418 21419 21420 21421 21422 21423 21424 21425 21426 21427 21428 21429 21430 21431 21432 21433 21434 21435 21436 21437 21438 21439 21440 21441 21442 21443 21444 21445 21446 21447 21448 21449 21450 21451 21452 21453 21454 21455 21456 21457 21458 21459 21460 21461 21462 21463 21464 21465 21466 21467 21468 21469 21470 21471 21472 21473 21474 21475 21476 21477 21478 21479 21480 21481 21482 21483 21484 21485 21486 21487 21488 21489 21490 21491 21492 21493 21494 21495 21496 21497 21498 21499 21500 21501 21502 21503 21504 21505 21506 21507 21508 21509 21510 21511 21512 21513 21514 21515 21516 21517 21518 21519 21520 21521 21522 21523 21524 21525 21526 21527 21528 21529 21530 21531 21532 21533 21534 21535 21536 21537 21538 21539 21540 21541 21542 21543 21544 21545 21546 21547 21548 21549 21550 21551 21552 21553 21554 21555 21556 21557 21558 21559 21560 21561 21562 21563 21564 21565 21566 21567 21568 21569 21570 21571 21572 21573 21574 21575 21576 21577 21578 21579 21580 21581 21582 21583 21584 21585 21586 21587 21588 21589 21590 21591 21592 21593 21594 21595 21596 21597 21598 21599 21600 21601 21602 21603 21604 21605 21606 21607 21608 21609 21610 21611 21612 21613 21614 21615 21616 21617 21618 21619 21620 21621 21622 21623 21624 21625 21626 21627 21628 21629 21630 21631 21632 21633 21634 21635 21636 21637 21638 21639 21640 21641 21642 21643 21644 21645 21646 21647 21648 21649 21650 21651 21652 21653 21654 21655 21656 21657 21658 21659 21660 21661 21662 21663 21664 21665 21666 21667 21668 21669 21670 21671 21672 21673 21674 21675 21676 21677 21678 21679 21680 21681 21682 21683 21684 21685 21686 21687 21688 21689 21690 21691 21692 21693 21694 21695 21696 21697 21698 21699 21700 21701 21702 21703 21704 21705 21706 21707 21708 21709 21710 21711 21712 21713 21714 21715 21716 21717 21718 21719 21720 21721 21722 21723 21724 21725 21726 21727 21728 21729 21730 21731 21732 21733 21734 21735 21736 21737 21738 21739 21740 21741 21742 21743 21744 21745 21746 21747 21748 21749 21750 21751 21752 21753 21754 21755 21756 21757 21758 21759 21760 21761 21762 21763 21764 21765 21766 21767 21768 21769 21770 21771 21772 21773 21774 21775 21776 21777 21778 21779 21780 21781 21782 21783 21784 21785 21786 21787 21788 21789 21790 21791 21792 21793 21794 21795 21796 21797 21798 21799 21800 21801 21802 21803 21804 21805 21806 21807 21808 21809 21810 21811 21812 21813 21814 21815 21816 21817 21818 21819 21820 21821 21822 21823 21824 21825 21826 21827 21828 21829 21830 21831 21832 21833 21834 21835 21836 21837 21838 21839 21840 21841 21842 21843 21844 21845 21846 21847 21848 21849 21850 21851 21852 21853 21854 21855 21856 21857 21858 21859 21860 21861 21862 21863 21864 21865 21866 21867 21868 21869 21870 21871 21872 21873 21874 21875 21876 21877 21878 21879 21880 21881 21882 21883 21884 21885 21886 21887 21888 21889 21890 21891 21892 21893 21894 21895 21896 21897 21898 21899 21900 21901 21902 21903 21904 21905 21906 21907 21908 21909 21910 21911 21912 21913 21914 21915 21916 21917 21918 21919 21920 21921 21922 21923 21924 21925 21926 21927 21928 21929 21930 21931 21932 21933 21934 21935 21936 21937 21938 21939 21940 21941 21942 21943 21944 21945 21946 21947 21948 21949 21950 21951 21952 21953 21954 21955 21956 21957 21958 21959 21960 21961 21962 21963 21964 21965 21966 21967 21968 21969 21970 21971 21972 21973 21974 21975 21976 21977 21978 21979 21980 21981 21982 21983 21984 21985 21986 21987 21988 21989 21990 21991 21992 21993 21994 21995 21996 21997 21998 21999 22000 22001 22002 22003 22004 22005 22006 22007 22008 22009 22010 22011 22012 22013 22014 22015 22016 22017 22018 22019 22020 22021 22022 22023 22024 22025 22026 22027 22028 22029 22030 22031 22032 22033 22034 22035 22036 22037 22038 22039 22040 22041 22042 22043 22044 22045 22046 22047 22048 22049 22050 22051 22052 22053 22054 22055 22056 22057 22058 22059 22060 22061 22062 22063 22064 22065 22066 22067 22068 22069 22070 22071 22072 22073 22074 22075 22076 22077 22078 22079 22080 22081 22082 22083 22084 22085 22086 22087 22088 22089 22090 22091 22092 22093 22094 22095 22096 22097 22098 22099 22100 22101 22102 22103 22104 22105 22106 22107 22108 22109 22110 22111 22112 22113 22114 22115 22116 22117 22118 22119 22120 22121 22122 22123 22124 22125 22126 22127 22128 22129 22130 22131 22132 22133 22134 22135 22136 22137 22138 22139 22140 22141 22142 22143 22144 22145 22146 22147 22148 22149 22150 22151 22152 22153 22154 22155 22156 22157 22158 22159 22160 22161 22162 22163 22164 22165 22166 22167 22168 22169 22170 22171 22172 22173 22174 22175 22176 22177 22178 22179 22180 22181 22182 22183 22184 22185 22186 22187 22188 22189 22190 22191 22192 22193 22194 22195 22196 22197 22198 22199 22200 22201 22202 22203 22204 22205 22206 22207 22208 22209 22210 22211 22212 22213 22214 22215 22216 22217 22218 22219 22220 22221 22222 22223 22224 22225 22226 22227 22228 22229 22230 22231 22232 22233 22234 22235 22236 22237 22238 22239 22240 22241 22242 22243 22244 22245 22246 22247 22248 22249 22250 22251 22252 22253 22254 22255 22256 22257 22258 22259 22260 22261 22262 22263 22264 22265 22266 22267 22268 22269 22270 22271 22272 22273 22274 22275 22276 22277 22278 22279 22280 22281 22282 22283 22284 22285 22286 22287 22288 22289 22290 22291 22292 22293 22294 22295 22296 22297 22298 22299 22300 22301 22302 22303 22304 22305 22306 22307 22308 22309 22310 22311 22312 22313 22314 22315 22316 22317 22318 22319 22320 22321 22322 22323 22324 22325 22326 22327 22328 22329 22330 22331 22332 22333 22334 22335 22336 22337 22338 22339 22340 22341 22342 22343 22344 22345 22346 22347 22348 22349 22350 22351 22352 22353 22354 22355 22356 22357 22358 22359 22360 22361 22362 22363 22364 22365 22366 22367 22368 22369 22370 22371 22372 22373 22374 22375 22376 22377 22378 22379 22380 22381 22382 22383 22384 22385 22386 22387 22388 22389 22390 22391 22392 22393 22394 22395 22396 22397 22398 22399 22400 22401 22402 22403 22404 22405 22406 22407 22408 22409 22410 22411 22412 22413 22414 22415 22416 22417 22418 22419 22420 22421 22422 22423 22424 22425 22426 22427 22428 22429 22430 22431 22432 22433 22434 22435 22436 22437 22438 22439 22440 22441 22442 22443 22444 22445 22446 22447 22448 22449 22450 22451 22452 22453 22454 22455 22456 22457 22458 22459 22460 22461 22462 22463 22464 22465 22466 22467 22468 22469 22470 22471 22472 22473 22474 22475 22476 22477 22478 22479 22480 22481 22482 22483 22484 22485 22486 22487 22488 22489 22490 22491 22492 22493 22494 22495 22496 22497 22498 22499 22500 22501 22502 22503 22504 22505 22506 22507 22508 22509 22510 22511 22512 22513 22514 22515 22516 22517 22518 22519 22520 22521 22522 22523 22524 22525 22526 22527 22528 22529 22530 22531 22532 22533 22534 22535 22536 22537 22538 22539 22540 22541 22542 22543 22544 22545 22546 22547 22548 22549 22550 22551 22552 22553 22554 22555 22556 22557 22558 22559 22560 22561 22562 22563 22564 22565 22566 22567 22568 22569 22570 22571 22572 22573 22574 22575 22576 22577 22578 22579 22580 22581 22582 22583 22584 22585 22586 22587 22588 22589 22590 22591 22592 22593 22594 22595 22596 22597 22598 22599 22600 22601 22602 22603 22604 22605 22606 22607 22608 22609 22610 22611 22612 22613 22614 22615 22616 22617 22618 22619 22620 22621 22622 22623 22624 22625 22626 22627 22628 22629 22630 22631 22632 22633 22634 22635 22636 22637 22638 22639 22640 22641 22642 22643 22644 22645 22646 22647 22648 22649 22650 22651 22652 22653 22654 22655 22656 22657 22658 22659 22660 22661 22662 22663 22664 22665 22666 22667 22668 22669 22670 22671 22672 22673 22674 22675 22676 22677 22678 22679 22680 22681 22682 22683 22684 22685 22686 22687 22688 22689 22690 22691 22692 22693 22694 22695 22696 22697 22698 22699 22700 22701 22702 22703 22704 22705 22706 22707 22708 22709 22710 22711 22712 22713 22714 22715 22716 22717 22718 22719 22720 22721 22722 22723 22724 22725 22726 22727 22728 22729 22730 22731 22732 22733 22734 22735 22736 22737 22738 22739 22740 22741 22742 22743 22744 22745 22746 22747 22748 22749 22750 22751 22752 22753 22754 22755 22756 22757 22758 22759 22760 22761 22762 22763 22764 22765 22766 22767 22768 22769 22770 22771 22772 22773 22774 22775 22776 22777 22778 22779 22780 22781 22782 22783 22784 22785 22786 22787 22788 22789 22790 22791 22792 22793 22794 22795 22796 22797 22798 22799 22800 22801 22802 22803 22804 22805 22806 22807 22808 22809 22810 22811 22812 22813 22814 22815 22816 22817 22818 22819 22820 22821 22822 22823 22824 22825 22826 22827 22828 22829 22830 22831 22832 22833 22834 22835 22836 22837 22838 22839 22840 22841 22842 22843 22844 22845 22846 22847 22848 22849 22850 22851 22852 22853 22854 22855 22856 22857 22858 22859 22860 22861 22862 22863 22864 22865 22866 22867 22868 22869 22870 22871 22872 22873 22874 22875 22876 22877 22878 22879 22880 22881 22882 22883 22884 22885 22886 22887 22888 22889 22890 22891 22892 22893 22894 22895 22896 22897 22898 22899 22900 22901 22902 22903 22904 22905 22906 22907 22908 22909 22910 22911 22912 22913 22914 22915 22916 22917 22918 22919 22920 22921 22922 22923 22924 22925 22926 22927 22928 22929 22930 22931 22932 22933 22934 22935 22936 22937 22938 22939 22940 22941 22942 22943 22944 22945 22946 22947 22948 22949 22950 22951 22952 22953 22954 22955 22956 22957 22958 22959 22960 22961 22962 22963 22964 22965 22966 22967 22968 22969 22970 22971 22972 22973 22974 22975 22976 22977 22978 22979 22980 22981 22982 22983 22984 22985 22986 22987 22988 22989 22990 22991 22992 22993 22994 22995 22996 22997 22998 22999 23000 23001 23002 23003 23004 23005 23006 23007 23008 23009 23010 23011 23012 23013 23014 23015 23016 23017 23018 23019 23020 23021 23022 23023 23024 23025 23026 23027 23028 23029 23030 23031 23032 23033 23034 23035 23036 23037 23038 23039 23040 23041 23042 23043 23044 23045 23046 23047 23048 23049 23050 23051 23052 23053 23054 23055 23056 23057 23058 23059 23060 23061 23062 23063 23064 23065 23066 23067 23068 23069 23070 23071 23072 23073 23074 23075 23076 23077 23078 23079 23080 23081 23082 23083 23084 23085 23086 23087 23088 23089 23090 23091 23092 23093 23094 23095 23096 23097 23098 23099 23100 23101 23102 23103 23104 23105 23106 23107 23108 23109 23110 23111 23112 23113 23114 23115 23116 23117 23118 23119 23120 23121 23122 23123 23124 23125 23126 23127 23128 23129 23130 23131 23132 23133 23134 23135 23136 23137 23138 23139 23140 23141 23142 23143 23144 23145 23146 23147 23148 23149 23150 23151 23152 23153 23154 23155 23156 23157 23158 23159 23160 23161 23162 23163 23164 23165 23166 23167 23168 23169 23170 23171 23172 23173 23174 23175 23176 23177 23178 23179 23180 23181 23182 23183 23184 23185 23186 23187 23188 23189 23190 23191 23192 23193 23194 23195 23196 23197 23198 23199 23200 23201 23202 23203 23204 23205 23206 23207 23208 23209 23210 23211 23212 23213 23214 23215 23216 23217 23218 23219 23220 23221 23222 23223 23224 23225 23226 23227 23228 23229 23230 23231 23232 23233 23234 23235 23236 23237 23238 23239 23240 23241 23242 23243 23244 23245 23246 23247 23248 23249 23250 23251 23252 23253 23254 23255 23256 23257 23258 23259 23260 23261 23262 23263 23264 23265 23266 23267 23268 23269 23270 23271 23272 23273 23274 23275 23276 23277 23278 23279 23280 23281 23282 23283 23284 23285 23286 23287 23288 23289 23290 23291 23292 23293 23294 23295 23296 23297 23298 23299 23300 23301 23302 23303 23304 23305 23306 23307 23308 23309 23310 23311 23312 23313 23314 23315 23316 23317 23318 23319 23320 23321 23322 23323 23324 23325 23326 23327 23328 23329 23330 23331 23332 23333 23334 23335 23336 23337 23338 23339 23340 23341 23342 23343 23344 23345 23346 23347 23348 23349 23350 23351 23352 23353 23354 23355 23356 23357 23358 23359 23360 23361 23362 23363 23364 23365 23366 23367 23368 23369 23370 23371 23372 23373 23374 23375 23376 23377 23378 23379 23380 23381 23382 23383 23384 23385 23386 23387 23388 23389 23390 23391 23392 23393 23394 23395 23396 23397 23398 23399 23400 23401 23402 23403 23404 23405 23406 23407 23408 23409 23410 23411 23412 23413 23414 23415 23416 23417 23418 23419 23420 23421 23422 23423 23424 23425 23426 23427 23428 23429 23430 23431 23432 23433 23434 23435 23436 23437 23438 23439 23440 23441 23442 23443 23444 23445 23446 23447 23448 23449 23450 23451 23452 23453 23454 23455 23456 23457 23458 23459 23460 23461 23462 23463 23464 23465 23466 23467 23468 23469 23470 23471 23472 23473 23474 23475 23476 23477 23478 23479 23480 23481 23482 23483 23484 23485 23486 23487 23488 23489 23490 23491 23492 23493 23494 23495 23496 23497 23498 23499 23500 23501 23502 23503 23504 23505 23506 23507 23508 23509 23510 23511 23512 23513 23514 23515 23516 23517 23518 23519 23520 23521 23522 23523 23524 23525 23526 23527 23528 23529 23530 23531 23532 23533 23534 23535 23536 23537 23538 23539 23540 23541 23542 23543 23544 23545 23546 23547 23548 23549 23550 23551 23552 23553 23554 23555 23556 23557 23558 23559 23560 23561 23562 23563 23564 23565 23566 23567 23568 23569 23570 23571 23572 23573 23574 23575 23576 23577 23578 23579 23580 23581 23582 23583 23584 23585 23586 23587 23588 23589 23590 23591 23592 23593 23594 23595 23596 23597 23598 23599 23600 23601 23602 23603 23604 23605 23606 23607 23608 23609 23610 23611 23612 23613 23614 23615 23616 23617 23618 23619 23620 23621 23622 23623 23624 23625 23626 23627 23628 23629 23630 23631 23632 23633 23634 23635 23636 23637 23638 23639 23640 23641 23642 23643 23644 23645 23646 23647 23648 23649 23650 23651 23652 23653 23654 23655 23656 23657 23658 23659 23660 23661 23662 23663 23664 23665 23666 23667 23668 23669 23670 23671 23672 23673 23674 23675 23676 23677 23678 23679 23680 23681 23682 23683 23684 23685 23686 23687 23688 23689 23690 23691 23692 23693 23694 23695 23696 23697 23698 23699 23700 23701 23702 23703 23704 23705 23706 23707 23708 23709 23710 23711 23712 23713 23714 23715 23716 23717 23718 23719 23720 23721 23722 23723 23724 23725 23726 23727 23728 23729 23730 23731 23732 23733 23734 23735 23736 23737 23738 23739 23740 23741 23742 23743 23744 23745 23746 23747 23748 23749 23750 23751 23752 23753 23754 23755 23756 23757 23758 23759 23760 23761 23762 23763 23764 23765 23766 23767 23768 23769 23770 23771 23772 23773 23774 23775 23776 23777 23778 23779 23780 23781 23782 23783 23784 23785 23786 23787 23788 23789 23790 23791 23792 23793 23794 23795 23796 23797 23798 23799 23800 23801 23802 23803 23804 23805 23806 23807 23808 23809 23810 23811 23812 23813 23814 23815 23816 23817 23818 23819 23820 23821 23822 23823 23824 23825 23826 23827 23828 23829 23830 23831 23832 23833 23834 23835 23836 23837 23838 23839 23840 23841 23842 23843 23844 23845 23846 23847 23848 23849 23850 23851 23852 23853 23854 23855 23856 23857 23858 23859 23860 23861 23862 23863 23864 23865 23866 23867 23868 23869 23870 23871 23872 23873 23874 23875 23876 23877 23878 23879 23880 23881 23882 23883 23884 23885 23886 23887 23888 23889 23890 23891 23892 23893 23894 23895 23896 23897 23898 23899 23900 23901 23902 23903 23904 23905 23906 23907 23908 23909 23910 23911 23912 23913 23914 23915 23916 23917 23918 23919 23920 23921 23922 23923 23924 23925 23926 23927 23928 23929 23930 23931 23932 23933 23934 23935 23936 23937 23938 23939 23940 23941 23942 23943 23944 23945 23946 23947 23948 23949 23950 23951 23952 23953 23954 23955 23956 23957 23958 23959 23960 23961 23962 23963 23964 23965 23966 23967 23968 23969 23970 23971 23972 23973 23974 23975 23976 23977 23978 23979 23980 23981 23982 23983 23984 23985 23986 23987 23988 23989 23990 23991 23992 23993 23994 23995 23996 23997 23998 23999 24000 24001 24002 24003 24004 24005 24006 24007 24008 24009 24010 24011 24012 24013 24014 24015 24016 24017 24018 24019 24020 24021 24022 24023 24024 24025 24026 24027 24028 24029 24030 24031 24032 24033 24034 24035 24036 24037 24038 24039 24040 24041 24042 24043 24044 24045 24046 24047 24048 24049 24050 24051 24052 24053 24054 24055 24056 24057 24058 24059 24060 24061 24062 24063 24064 24065 24066 24067 24068 24069 24070 24071 24072 24073 24074 24075 24076 24077 24078 24079 24080 24081 24082 24083 24084 24085 24086 24087 24088 24089 24090 24091 24092 24093 24094 24095 24096 24097 24098 24099 24100 24101 24102 24103 24104 24105 24106 24107 24108 24109 24110 24111 24112 24113 24114 24115 24116 24117 24118 24119 24120 24121 24122 24123 24124 24125 24126 24127 24128 24129 24130 24131 24132 24133 24134 24135 24136 24137 24138 24139 24140 24141 24142 24143 24144 24145 24146 24147 24148 24149 24150 24151 24152 24153 24154 24155 24156 24157 24158 24159 24160 24161 24162 24163 24164 24165 24166 24167 24168 24169 24170 24171 24172 24173 24174 24175 24176 24177 24178 24179 24180 24181 24182 24183 24184 24185 24186 24187 24188 24189 24190 24191 24192 24193 24194 24195 24196 24197 24198 24199 24200 24201 24202 24203 24204 24205 24206 24207 24208 24209 24210 24211 24212 24213 24214 24215 24216 24217 24218 24219 24220 24221 24222 24223 24224 24225 24226 24227 24228 24229 24230 24231 24232 24233 24234 24235 24236 24237 24238 24239 24240 24241 24242 24243 24244 24245 24246 24247 24248 24249 24250 24251 24252 24253 24254 24255 24256 24257 24258 24259 24260 24261 24262 24263 24264 24265 24266 24267 24268 24269 24270 24271 24272 24273 24274 24275 24276 24277 24278 24279 24280 24281 24282 24283 24284 24285 24286 24287 24288 24289 24290 24291 24292 24293 24294 24295 24296 24297 24298 24299 24300 24301 24302 24303 24304 24305 24306 24307 24308 24309 24310 24311 24312 24313 24314 24315 24316 24317 24318 24319 24320 24321 24322 24323 24324 24325 24326 24327 24328 24329 24330 24331 24332 24333 24334 24335 24336 24337 24338 24339 24340 24341 24342 24343 24344 24345 24346 24347 24348 24349 24350 24351 24352 24353 24354 24355 24356 24357 24358 24359 24360 24361 24362 24363 24364 24365 24366 24367 24368 24369 24370 24371 24372 24373 24374 24375 24376 24377 24378 24379 24380 24381 24382 24383 24384 24385 24386 24387 24388 24389 24390 24391 24392 24393 24394 24395 24396 24397 24398 24399 24400 24401 24402 24403 24404 24405 24406 24407 24408 24409 24410 24411 24412 24413 24414 24415 24416 24417 24418 24419 24420 24421 24422 24423 24424 24425 24426 24427 24428 24429 24430 24431 24432 24433 24434 24435 24436 24437 24438 24439 24440 24441 24442 24443 24444 24445 24446 24447 24448 24449 24450 24451 24452 24453 24454 24455 24456 24457 24458 24459 24460 24461 24462 24463 24464 24465 24466 24467 24468 24469 24470 24471 24472 24473 24474 24475 24476 24477 24478 24479 24480 24481 24482 24483 24484 24485 24486 24487 24488 24489 24490 24491 24492 24493 24494 24495 24496 24497 24498 24499 24500 24501 24502 24503 24504 24505 24506 24507 24508 24509 24510 24511 24512 24513 24514 24515 24516 24517 24518 24519 24520 24521 24522 24523 24524 24525 24526 24527 24528 24529 24530 24531 24532 24533 24534 24535 24536 24537 24538 24539 24540 24541 24542 24543 24544 24545 24546 24547 24548 24549 24550 24551 24552 24553 24554 24555 24556 24557 24558 24559 24560 24561 24562 24563 24564 24565 24566 24567 24568 24569 24570 24571 24572 24573 24574 24575 24576 24577 24578 24579 24580 24581 24582 24583 24584 24585 24586 24587 24588 24589 24590 24591 24592 24593 24594 24595 24596 24597 24598 24599 24600 24601 24602 24603 24604 24605 24606 24607 24608 24609 24610 24611 24612 24613 24614 24615 24616 24617 24618 24619 24620 24621 24622 24623 24624 24625 24626 24627 24628 24629 24630 24631 24632 24633 24634 24635 24636 24637 24638 24639 24640 24641 24642 24643 24644 24645 24646 24647 24648 24649 24650 24651 24652 24653 24654 24655 24656 24657 24658 24659 24660 24661 24662 24663 24664 24665 24666 24667 24668 24669 24670 24671 24672 24673 24674 24675 24676 24677 24678 24679 24680 24681 24682 24683 24684 24685 24686 24687 24688 24689 24690 24691 24692 24693 24694 24695 24696 24697 24698 24699 24700 24701 24702 24703 24704 24705 24706 24707 24708 24709 24710 24711 24712 24713 24714 24715 24716 24717 24718 24719 24720 24721 24722 24723 24724 24725 24726 24727 24728 24729 24730 24731 24732 24733 24734 24735 24736 24737 24738 24739 24740 24741 24742 24743 24744 24745 24746 24747 24748 24749 24750 24751 24752 24753 24754 24755 24756 24757 24758 24759 24760 24761 24762 24763 24764 24765 24766 24767 24768 24769 24770 24771 24772 24773 24774 24775 24776 24777 24778 24779 24780 24781 24782 24783 24784 24785 24786 24787 24788 24789 24790 24791 24792 24793 24794 24795 24796 24797 24798 24799 24800 24801 24802 24803 24804 24805 24806 24807 24808 24809 24810 24811 24812 24813 24814 24815 24816 24817 24818 24819 24820 24821 24822 24823 24824 24825 24826 24827 24828 24829 24830 24831 24832 24833 24834 24835 24836 24837 24838 24839 24840 24841 24842 24843 24844 24845 24846 24847 24848 24849 24850 24851 24852 24853 24854 24855 24856 24857 24858 24859 24860 24861 24862 24863 24864 24865 24866 24867 24868 24869 24870 24871 24872 24873 24874 24875 24876 24877 24878 24879 24880 24881 24882 24883 24884 24885 24886 24887 24888 24889 24890 24891 24892 24893 24894 24895 24896 24897 24898 24899 24900 24901 24902 24903 24904 24905 24906 24907 24908 24909 24910 24911 24912 24913 24914 24915 24916 24917 24918 24919 24920 24921 24922 24923 24924 24925 24926 24927 24928 24929 24930 24931 24932 24933 24934 24935 24936 24937 24938 24939 24940 24941 24942 24943 24944 24945 24946 24947 24948 24949 24950 24951 24952 24953 24954 24955 24956 24957 24958 24959 24960 24961 24962 24963 24964 24965 24966 24967 24968 24969 24970 24971 24972 24973 24974 24975 24976 24977 24978 24979 24980 24981 24982 24983 24984 24985 24986 24987 24988 24989 24990 24991 24992 24993 24994 24995 24996 24997 24998 24999 25000 25001 25002 25003 25004 25005 25006 25007 25008 25009 25010 25011 25012 25013 25014 25015 25016 25017 25018 25019 25020 25021 25022 25023 25024 25025 25026 25027 25028 25029 25030 25031 25032 25033 25034 25035 25036 25037 25038 25039 25040 25041 25042 25043 25044 25045 25046 25047 25048 25049 25050 25051 25052 25053 25054 25055 25056 25057 25058 25059 25060 25061 25062 25063 25064 25065 25066 25067 25068 25069 25070 25071 25072 25073 25074 25075 25076 25077 25078 25079 25080 25081 25082 25083 25084 25085 25086 25087 25088 25089 25090 25091 25092 25093 25094 25095 25096 25097 25098 25099 25100 25101 25102 25103 25104 25105 25106 25107 25108 25109 25110 25111 25112 25113 25114 25115 25116 25117 25118 25119 25120 25121 25122 25123 25124 25125 25126 25127 25128 25129 25130 25131 25132 25133 25134 25135 25136 25137 25138 25139 25140 25141 25142 25143 25144 25145 25146 25147 25148 25149 25150 25151 25152 25153 25154 25155 25156 25157 25158 25159 25160 25161 25162 25163 25164 25165 25166 25167 25168 25169 25170 25171 25172 25173 25174 25175 25176 25177 25178 25179 25180 25181 25182 25183 25184 25185 25186 25187 25188 25189 25190 25191 25192 25193 25194 25195 25196 25197 25198 25199 25200 25201 25202 25203 25204 25205 25206 25207 25208 25209 25210 25211 25212 25213 25214 25215 25216 25217 25218 25219 25220 25221 25222 25223 25224 25225 25226 25227 25228 25229 25230 25231 25232 25233 25234 25235 25236 25237 25238 25239 25240 25241 25242 25243 25244 25245 25246 25247 25248 25249 25250 25251 25252 25253 25254 25255 25256 25257 25258 25259 25260 25261 25262 25263 25264 25265 25266 25267 25268 25269 25270 25271 25272 25273 25274 25275 25276 25277 25278 25279 25280 25281 25282 25283 25284 25285 25286 25287 25288 25289 25290 25291 25292 25293 25294 25295 25296 25297 25298 25299 25300 25301 25302 25303 25304 25305 25306 25307 25308 25309 25310 25311 25312 25313 25314 25315 25316 25317 25318 25319 25320 25321 25322 25323 25324 25325 25326 25327 25328 25329 25330 25331 25332 25333 25334 25335 25336 25337 25338 25339 25340 25341 25342 25343 25344 25345 25346 25347 25348 25349 25350 25351 25352 25353 25354 25355 25356 25357 25358 25359 25360 25361 25362 25363 25364 25365 25366 25367 25368 25369 25370 25371 25372 25373 25374 25375 25376 25377 25378 25379 25380 25381 25382 25383 25384 25385 25386 25387 25388 25389 25390 25391 25392 25393 25394 25395 25396 25397 25398 25399 25400 25401 25402 25403 25404 25405 25406 25407 25408 25409 25410 25411 25412 25413 25414 25415 25416 25417 25418 25419 25420 25421 25422 25423 25424 25425 25426 25427 25428 25429 25430 25431 25432 25433 25434 25435 25436 25437 25438 25439 25440 25441 25442 25443 25444 25445 25446 25447 25448 25449 25450 25451 25452 25453 25454 25455 25456 25457 25458 25459 25460 25461 25462 25463 25464 25465 25466 25467 25468 25469 25470 25471 25472 25473 25474 25475 25476 25477 25478 25479 25480 25481 25482 25483 25484 25485 25486 25487 25488 25489 25490 25491 25492 25493 25494 25495 25496 25497 25498 25499 25500 25501 25502 25503 25504 25505 25506 25507 25508 25509 25510 25511 25512 25513 25514 25515 25516 25517 25518 25519 25520 25521 25522 25523 25524 25525 25526 25527 25528 25529 25530 25531 25532 25533 25534 25535 25536 25537 25538 25539 25540 25541 25542 25543 25544 25545 25546 25547 25548 25549 25550 25551 25552 25553 25554 25555 25556 25557 25558 25559 25560 25561 25562 25563 25564 25565 25566 25567 25568 25569 25570 25571 25572 25573 25574 25575 25576 25577 25578 25579 25580 25581 25582 25583 25584 25585 25586 25587 25588 25589 25590 25591 25592 25593 25594 25595 25596 25597 25598 25599 25600 25601 25602 25603 25604 25605 25606 25607 25608 25609 25610 25611 25612 25613 25614 25615 25616 25617 25618 25619 25620 25621 25622 25623 25624 25625 25626 25627 25628 25629 25630 25631 25632 25633 25634 25635 25636 25637 25638 25639 25640 25641 25642 25643 25644 25645 25646 25647 25648 25649 25650 25651 25652 25653 25654 25655 25656 25657 25658 25659 25660 25661 25662 25663 25664 25665 25666 25667 25668 25669 25670 25671 25672 25673 25674 25675 25676 25677 25678 25679 25680 25681 25682 25683 25684 25685 25686 25687 25688 25689 25690 25691 25692 25693 25694 25695 25696 25697 25698 25699 25700 25701 25702 25703 25704 25705 25706 25707 25708 25709 25710 25711 25712 25713 25714 25715 25716 25717 25718 25719 25720 25721 25722 25723 25724 25725 25726 25727 25728 25729 25730 25731 25732 25733 25734 25735 25736 25737 25738 25739 25740 25741 25742 25743 25744 25745 25746 25747 25748 25749 25750 25751 25752 25753 25754 25755 25756 25757 25758 25759 25760 25761 25762 25763 25764 25765 25766 25767 25768 25769 25770 25771 25772 25773 25774 25775 25776 25777 25778 25779 25780 25781 25782 25783 25784 25785 25786 25787 25788 25789 25790 25791 25792 25793 25794 25795 25796 25797 25798 25799 25800 25801 25802 25803 25804 25805 25806 25807 25808 25809 25810 25811 25812 25813 25814 25815 25816 25817 25818 25819 25820 25821 25822 25823 25824 25825 25826 25827 25828 25829 25830 25831 25832 25833 25834 25835 25836 25837 25838 25839 25840 25841 25842 25843 25844 25845 25846 25847 25848 25849 25850 25851 25852 25853 25854 25855 25856 25857 25858 25859 25860 25861 25862 25863 25864 25865 25866 25867 25868 25869 25870 25871 25872 25873 25874 25875 25876 25877 25878 25879 25880 25881 25882 25883 25884 25885 25886 25887 25888 25889 25890 25891 25892 25893 25894 25895 25896 25897 25898 25899 25900 25901 25902 25903 25904 25905 25906 25907 25908 25909 25910 25911 25912 25913 25914 25915 25916 25917 25918 25919 25920 25921 25922 25923 25924 25925 25926 25927 25928 25929 25930 25931 25932 25933 25934 25935 25936 25937 25938 25939 25940 25941 25942 25943 25944 25945 25946 25947 25948 25949 25950 25951 25952 25953 25954 25955 25956 25957 25958 25959 25960 25961 25962 25963 25964 25965 25966 25967 25968 25969 25970 25971 25972 25973 25974 25975 25976 25977 25978 25979 25980 25981 25982 25983 25984 25985 25986 25987 25988 25989 25990 25991 25992 25993 25994 25995 25996 25997 25998 25999 26000 26001 26002 26003 26004 26005 26006 26007 26008 26009 26010 26011 26012 26013 26014 26015 26016 26017 26018 26019 26020 26021 26022 26023 26024 26025 26026 26027 26028 26029 26030 26031 26032 26033 26034 26035 26036 26037 26038 26039 26040 26041 26042 26043 26044 26045 26046 26047 26048 26049 26050 26051 26052 26053 26054 26055 26056 26057 26058 26059 26060 26061 26062 26063 26064 26065 26066 26067 26068 26069 26070 26071 26072 26073 26074 26075 26076 26077 26078 26079 26080 26081 26082 26083 26084 26085 26086 26087 26088 26089 26090 26091 26092 26093 26094 26095 26096 26097 26098 26099 26100 26101 26102 26103 26104 26105 26106 26107 26108 26109 26110 26111 26112 26113 26114 26115 26116 26117 26118 26119 26120 26121 26122 26123 26124 26125 26126 26127 26128 26129 26130 26131 26132 26133 26134 26135 26136 26137 26138 26139 26140 26141 26142 26143 26144 26145 26146 26147 26148 26149 26150 26151 26152 26153 26154 26155 26156 26157 26158 26159 26160 26161 26162 26163 26164 26165 26166 26167 26168 26169 26170 26171 26172 26173 26174 26175 26176 26177 26178 26179 26180 26181 26182 26183 26184 26185 26186 26187 26188 26189 26190 26191 26192 26193 26194 26195 26196 26197 26198 26199 26200 26201 26202 26203 26204 26205 26206 26207 26208 26209 26210 26211 26212 26213 26214 26215 26216 26217 26218 26219 26220 26221 26222 26223 26224 26225 26226 26227 26228 26229 26230 26231 26232 26233 26234 26235 26236 26237 26238 26239 26240 26241 26242 26243 26244 26245 26246 26247 26248 26249 26250 26251 26252 26253 26254 26255 26256 26257 26258 26259 26260 26261 26262 26263 26264 26265 26266 26267 26268 26269 26270 26271 26272 26273 26274 26275 26276 26277 26278 26279 26280 26281 26282 26283 26284 26285 26286 26287 26288 26289 26290 26291 26292 26293 26294 26295 26296 26297 26298 26299 26300 26301 26302 26303 26304 26305 26306 26307 26308 26309 26310 26311 26312 26313 26314 26315 26316 26317 26318 26319 26320 26321 26322 26323 26324 26325 26326 26327 26328 26329 26330 26331 26332 26333 26334 26335 26336 26337 26338 26339 26340 26341 26342 26343 26344 26345 26346 26347 26348 26349 26350 26351 26352 26353 26354 26355 26356 26357 26358 26359 26360 26361 26362 26363 26364 26365 26366 26367 26368 26369 26370 26371 26372 26373 26374 26375 26376 26377 26378 26379 26380 26381 26382 26383 26384 26385 26386 26387 26388 26389 26390 26391 26392 26393 26394 26395 26396 26397 26398 26399 26400 26401 26402 26403 26404 26405 26406 26407 26408 26409 26410 26411 26412 26413 26414 26415 26416 26417 26418 26419 26420 26421 26422 26423 26424 26425 26426 26427 26428 26429 26430 26431 26432 26433 26434 26435 26436 26437 26438 26439 26440 26441 26442 26443 26444 26445 26446 26447 26448 26449 26450 26451 26452 26453 26454 26455 26456 26457 26458 26459 26460 26461 26462 26463 26464 26465 26466 26467 26468 26469 26470 26471 26472 26473 26474 26475 26476 26477 26478 26479 26480 26481 26482 26483 26484 26485 26486 26487 26488 26489 26490 26491 26492 26493 26494 26495 26496 26497 26498 26499 26500 26501 26502 26503 26504 26505 26506 26507 26508 26509 26510 26511 26512 26513 26514 26515 26516 26517 26518 26519 26520 26521 26522 26523 26524 26525 26526 26527 26528 26529 26530 26531 26532 26533 26534 26535 26536 26537 26538 26539 26540 26541 26542 26543 26544 26545 26546 26547 26548 26549 26550 26551 26552 26553 26554 26555 26556 26557 26558 26559 26560 26561 26562 26563 26564 26565 26566 26567 26568 26569 26570 26571 26572 26573 26574 26575 26576 26577 26578 26579 26580 26581 26582 26583 26584 26585 26586 26587 26588 26589 26590 26591 26592 26593 26594 26595 26596 26597 26598 26599 26600 26601 26602 26603 26604 26605 26606 26607 26608 26609 26610 26611 26612 26613 26614 26615 26616 26617 26618 26619 26620 26621 26622 26623 26624 26625 26626 26627 26628 26629 26630 26631 26632 26633 26634 26635 26636 26637 26638 26639 26640 26641 26642 26643 26644 26645 26646 26647 26648 26649 26650 26651 26652 26653 26654 26655 26656 26657 26658 26659 26660 26661 26662 26663 26664 26665 26666 26667 26668 26669 26670 26671 26672 26673 26674 26675 26676 26677 26678 26679 26680 26681 26682 26683 26684 26685 26686 26687 26688 26689 26690 26691 26692 26693 26694 26695 26696 26697 26698 26699 26700 26701 26702 26703 26704 26705 26706 26707 26708 26709 26710 26711 26712 26713 26714 26715 26716 26717 26718 26719 26720 26721 26722 26723 26724 26725 26726 26727 26728 26729 26730 26731 26732 26733 26734 26735 26736 26737 26738 26739 26740 26741 26742 26743 26744 26745 26746 26747 26748 26749 26750 26751 26752 26753 26754 26755 26756 26757 26758 26759 26760 26761 26762 26763 26764 26765 26766 26767 26768 26769 26770 26771 26772 26773 26774 26775 26776 26777 26778 26779 26780 26781 26782 26783 26784 26785 26786 26787 26788 26789 26790 26791 26792 26793 26794 26795 26796 26797 26798 26799 26800 26801 26802 26803 26804 26805 26806 26807 26808 26809 26810 26811 26812 26813 26814 26815 26816 26817 26818 26819 26820 26821 26822 26823 26824 26825 26826 26827 26828 26829 26830 26831 26832 26833 26834 26835 26836 26837 26838 26839 26840 26841 26842 26843 26844 26845 26846 26847 26848 26849 26850 26851 26852 26853 26854 26855 26856 26857 26858 26859 26860 26861 26862 26863 26864 26865 26866 26867 26868 26869 26870 26871 26872 26873 26874 26875 26876 26877 26878 26879 26880 26881 26882 26883 26884 26885 26886 26887 26888 26889 26890 26891 26892 26893 26894 26895 26896 26897 26898 26899 26900 26901 26902 26903 26904 26905 26906 26907 26908 26909 26910 26911 26912 26913 26914 26915 26916 26917 26918 26919 26920 26921 26922 26923 26924 26925 26926 26927 26928 26929 26930 26931 26932 26933 26934 26935 26936 26937 26938 26939 26940 26941 26942 26943 26944 26945 26946 26947 26948 26949 26950 26951 26952 26953 26954 26955 26956 26957 26958 26959 26960 26961 26962 26963 26964 26965 26966 26967 26968 26969 26970 26971 26972 26973 26974 26975 26976 26977 26978 26979 26980 26981 26982 26983 26984 26985 26986 26987 26988 26989 26990 26991 26992 26993 26994 26995 26996 26997 26998 26999 27000 27001 27002 27003 27004 27005 27006 27007 27008 27009 27010 27011 27012 27013 27014 27015 27016 27017 27018 27019 27020 27021 27022 27023 27024 27025 27026 27027 27028 27029 27030 27031 27032 27033 27034 27035 27036 27037 27038 27039 27040 27041 27042 27043 27044 27045 27046 27047 27048 27049 27050 27051 27052 27053 27054 27055 27056 27057 27058 27059 27060 27061 27062 27063 27064 27065 27066 27067 27068 27069 27070 27071 27072 27073 27074 27075 27076 27077 27078 27079 27080 27081 27082 27083 27084 27085 27086 27087 27088 27089 27090 27091 27092 27093 27094 27095 27096 27097 27098 27099 27100 27101 27102 27103 27104 27105 27106 27107 27108 27109 27110 27111 27112 27113 27114 27115 27116 27117 27118 27119 27120 27121 27122 27123 27124 27125 27126 27127 27128 27129 27130 27131 27132 27133 27134 27135 27136 27137 27138 27139 27140 27141 27142 27143 27144 27145 27146 27147 27148 27149 27150 27151 27152 27153 27154 27155 27156 27157 27158 27159 27160 27161 27162 27163 27164 27165 27166 27167 27168 27169 27170 27171 27172 27173 27174 27175 27176 27177 27178 27179 27180 27181 27182 27183 27184 27185 27186 27187 27188 27189 27190 27191 27192 27193 27194 27195 27196 27197 27198 27199 27200 27201 27202 27203 27204 27205 27206 27207 27208 27209 27210 27211 27212 27213 27214 27215 27216 27217 27218 27219 27220 27221 27222 27223 27224 27225 27226 27227 27228 27229 27230 27231 27232 27233 27234 27235 27236 27237 27238 27239 27240 27241 27242 27243 27244 27245 27246 27247 27248 27249 27250 27251 27252 27253 27254 27255 27256 27257 27258 27259 27260 27261 27262 27263 27264 27265 27266 27267 27268 27269 27270 27271 27272 27273 27274 27275 27276 27277 27278 27279 27280 27281 27282 27283 27284 27285 27286 27287 27288 27289 27290 27291 27292 27293 27294 27295 27296 27297 27298 27299 27300 27301 27302 27303 27304 27305 27306 27307 27308 27309 27310 27311 27312 27313 27314 27315 27316 27317 27318 27319 27320 27321 27322 27323 27324 27325 27326 27327 27328 27329 27330 27331 27332 27333 27334 27335 27336 27337 27338 27339 27340 27341 27342 27343 27344 27345 27346 27347 27348 27349 27350 27351 27352 27353 27354 27355 27356 27357 27358 27359 27360 27361 27362 27363 27364 27365 27366 27367 27368 27369 27370 27371 27372 27373 27374 27375 27376 27377 27378 27379 27380 27381 27382 27383 27384 27385 27386 27387 27388 27389 27390 27391 27392 27393 27394 27395 27396 27397 27398 27399 27400 27401 27402 27403 27404 27405 27406 27407 27408 27409 27410 27411 27412 27413 27414 27415 27416 27417 27418 27419 27420 27421 27422 27423 27424 27425 27426 27427 27428 27429 27430 27431 27432 27433 27434 27435 27436 27437 27438 27439 27440 27441 27442 27443 27444 27445 27446 27447 27448 27449 27450 27451 27452 27453 27454 27455 27456 27457 27458 27459 27460 27461 27462 27463 27464 27465 27466 27467 27468 27469 27470 27471 27472 27473 27474 27475 27476 27477 27478 27479 27480 27481 27482 27483 27484 27485 27486 27487 27488 27489 27490 27491 27492 27493 27494 27495 27496 27497 27498 27499 27500 27501 27502 27503 27504 27505 27506 27507 27508 27509 27510 27511 27512 27513 27514 27515 27516 27517 27518 27519 27520 27521 27522 27523 27524 27525 27526 27527 27528 27529 27530 27531 27532 27533 27534 27535 27536 27537 27538 27539 27540 27541 27542 27543 27544 27545 27546 27547 27548 27549 27550 27551 27552 27553 27554 27555 27556 27557 27558 27559 27560 27561 27562 27563 27564 27565 27566 27567 27568 27569 27570 27571 27572 27573 27574 27575 27576 27577 27578 27579 27580 27581 27582 27583 27584 27585 27586 27587 27588 27589 27590 27591 27592 27593 27594 27595 27596 27597 27598 27599 27600 27601 27602 27603 27604 27605 27606 27607 27608 27609 27610 27611 27612 27613 27614 27615 27616 27617 27618 27619 27620 27621 27622 27623 27624 27625 27626 27627 27628 27629 27630 27631 27632 27633 27634 27635 27636 27637 27638 27639 27640 27641 27642 27643 27644 27645 27646 27647 27648 27649 27650 27651 27652 27653 27654 27655 27656 27657 27658 27659 27660 27661 27662 27663 27664 27665 27666 27667 27668 27669 27670 27671 27672 27673 27674 27675 27676 27677 27678 27679 27680 27681 27682 27683 27684 27685 27686 27687 27688 27689 27690 27691 27692 27693 27694 27695 27696 27697 27698 27699 27700 27701 27702 27703 27704 27705 27706 27707 27708 27709 27710 27711 27712 27713 27714 27715 27716 27717 27718 27719 27720 27721 27722 27723 27724 27725 27726 27727 27728 27729 27730 27731 27732 27733 27734 27735 27736 27737 27738 27739 27740 27741 27742 27743 27744 27745 27746 27747 27748 27749 27750 27751 27752 27753 27754 27755 27756 27757 27758 27759 27760 27761 27762 27763 27764 27765 27766 27767 27768 27769 27770 27771 27772 27773 27774 27775 27776 27777 27778 27779 27780 27781 27782 27783 27784 27785 27786 27787 27788 27789 27790 27791 27792 27793 27794 27795 27796 27797 27798 27799 27800 27801 27802 27803 27804 27805 27806 27807 27808 27809 27810 27811 27812 27813 27814 27815 27816 27817 27818 27819 27820 27821 27822 27823 27824 27825 27826 27827 27828 27829 27830 27831 27832 27833 27834 27835 27836 27837 27838 27839 27840 27841 27842 27843 27844 27845 27846 27847 27848 27849 27850 27851 27852 27853 27854 27855 27856 27857 27858 27859 27860 27861 27862 27863 27864 27865 27866 27867 27868 27869 27870 27871 27872 27873 27874 27875 27876 27877 27878 27879 27880 27881 27882 27883 27884 27885 27886 27887 27888 27889 27890 27891 27892 27893 27894 27895 27896 27897 27898 27899 27900 27901 27902 27903 27904 27905 27906 27907 27908 27909 27910 27911 27912 27913 27914 27915 27916 27917 27918 27919 27920 27921 27922 27923 27924 27925 27926 27927 27928 27929 27930 27931 27932 27933 27934 27935 27936 27937 27938 27939 27940 27941 27942 27943 27944 27945 27946 27947 27948 27949 27950 27951 27952 27953 27954 27955 27956 27957 27958 27959 27960 27961 27962 27963 27964 27965 27966 27967 27968 27969 27970 27971 27972 27973 27974 27975 27976 27977 27978 27979 27980 27981 27982 27983 27984 27985 27986 27987 27988 27989 27990 27991 27992 27993 27994 27995 27996 27997 27998 27999 28000 28001 28002 28003 28004 28005 28006 28007 28008 28009 28010 28011 28012 28013 28014 28015 28016 28017 28018 28019 28020 28021 28022 28023 28024 28025 28026 28027 28028 28029 28030 28031 28032 28033 28034 28035 28036 28037 28038 28039 28040 28041 28042 28043 28044 28045 28046 28047 28048 28049 28050 28051 28052 28053 28054 28055 28056 28057 28058 28059 28060 28061 28062 28063 28064 28065 28066 28067 28068 28069 28070 28071 28072 28073 28074 28075 28076 28077 28078 28079 28080 28081 28082 28083 28084 28085 28086 28087 28088 28089 28090 28091 28092 28093 28094 28095 28096 28097 28098 28099 28100 28101 28102 28103 28104 28105 28106 28107 28108 28109 28110 28111 28112 28113 28114 28115 28116 28117 28118 28119 28120 28121 28122 28123 28124 28125 28126 28127 28128 28129 28130 28131 28132 28133 28134 28135 28136 28137 28138 28139 28140 28141 28142 28143 28144 28145 28146 28147 28148 28149 28150 28151 28152 28153 28154 28155 28156 28157 28158 28159 28160 28161 28162 28163 28164 28165 28166 28167 28168 28169 28170 28171 28172 28173 28174 28175 28176 28177 28178 28179 28180 28181 28182 28183 28184 28185 28186 28187 28188 28189 28190 28191 28192 28193 28194 28195 28196 28197 28198 28199 28200 28201 28202 28203 28204 28205 28206 28207 28208 28209 28210 28211 28212 28213 28214 28215 28216 28217 28218 28219 28220 28221 28222 28223 28224 28225 28226 28227 28228 28229 28230 28231 28232 28233 28234 28235 28236 28237 28238 28239 28240 28241 28242 28243 28244 28245 28246 28247 28248 28249 28250 28251 28252 28253 28254 28255 28256 28257 28258 28259 28260 28261 28262 28263 28264 28265 28266 28267 28268 28269 28270 28271 28272 28273 28274 28275 28276 28277 28278 28279 28280 28281 28282 28283 28284 28285 28286 28287 28288 28289 28290 28291 28292 28293 28294 28295 28296 28297 28298 28299 28300 28301 28302 28303 28304 28305 28306 28307 28308 28309 28310 28311 28312 28313 28314 28315 28316 28317 28318 28319 28320 28321 28322 28323 28324 28325 28326 28327 28328 28329 28330 28331 28332 28333 28334 28335 28336 28337 28338 28339 28340 28341 28342 28343 28344 28345 28346 28347 28348 28349 28350 28351 28352 28353 28354 28355 28356 28357 28358 28359 28360 28361 28362 28363 28364 28365 28366 28367 28368 28369 28370 28371 28372 28373 28374 28375 28376 28377 28378 28379 28380 28381 28382 28383 28384 28385 28386 28387 28388 28389 28390 28391 28392 28393 28394 28395 28396 28397 28398 28399 28400 28401 28402 28403 28404 28405 28406 28407 28408 28409 28410 28411 28412 28413 28414 28415 28416 28417 28418 28419 28420 28421 28422 28423 28424 28425 28426 28427 28428 28429 28430 28431 28432 28433 28434 28435 28436 28437 28438 28439 28440 28441 28442 28443 28444 28445 28446 28447 28448 28449 28450 28451 28452 28453 28454 28455 28456 28457 28458 28459 28460 28461 28462 28463 28464 28465 28466 28467 28468 28469 28470 28471 28472 28473 28474 28475 28476 28477 28478 28479 28480 28481 28482 28483 28484 28485 28486 28487 28488 28489 28490 28491 28492 28493 28494 28495 28496 28497 28498 28499 28500 28501 28502 28503 28504 28505 28506 28507 28508 28509 28510 28511 28512 28513 28514 28515 28516 28517 28518 28519 28520 28521 28522 28523 28524 28525 28526 28527 28528 28529 28530 28531 28532 28533 28534 28535 28536 28537 28538 28539 28540 28541 28542 28543 28544 28545 28546 28547 28548 28549 28550 28551 28552 28553 28554 28555 28556 28557 28558 28559 28560 28561 28562 28563 28564 28565 28566 28567 28568 28569 28570 28571 28572 28573 28574 28575 28576 28577 28578 28579 28580 28581 28582 28583 28584 28585 28586 28587 28588 28589 28590 28591 28592 28593 28594 28595 28596 28597 28598 28599 28600 28601 28602 28603 28604 28605 28606 28607 28608 28609 28610 28611 28612 28613 28614 28615 28616 28617 28618 28619 28620 28621 28622 28623 28624 28625 28626 28627 28628 28629 28630 28631 28632 28633 28634 28635 28636 28637 28638 28639 28640 28641 28642 28643 28644 28645 28646 28647 28648 28649 28650 28651 28652 28653 28654 28655 28656 28657 28658 28659 28660 28661 28662 28663 28664 28665 28666 28667 28668 28669 28670 28671 28672 28673 28674 28675 28676 28677 28678 28679 28680 28681 28682 28683 28684 28685 28686 28687 28688 28689 28690 28691 28692 28693 28694 28695 28696 28697 28698 28699 28700 28701 28702 28703 28704 28705 28706 28707 28708 28709 28710 28711 28712 28713 28714 28715 28716 28717 28718 28719 28720 28721 28722 28723 28724 28725 28726 28727 28728 28729 28730 28731 28732 28733 28734 28735 28736 28737 28738 28739 28740 28741 28742 28743 28744 28745 28746 28747 28748 28749 28750 28751 28752 28753 28754 28755 28756 28757 28758 28759 28760 28761 28762 28763 28764 28765 28766 28767 28768 28769 28770 28771 28772 28773 28774 28775 28776 28777 28778 28779 28780 28781 28782 28783 28784 28785 28786 28787 28788 28789 28790 28791 28792 28793 28794 28795 28796 28797 28798 28799 28800 28801 28802 28803 28804 28805 28806 28807 28808 28809 28810 28811 28812 28813 28814 28815 28816 28817 28818 28819 28820 28821 28822 28823 28824 28825 28826 28827 28828 28829 28830 28831 28832 28833 28834 28835 28836 28837 28838 28839 28840 28841 28842 28843 28844 28845 28846 28847 28848 28849 28850 28851 28852 28853 28854 28855 28856 28857 28858 28859 28860 28861 28862 28863 28864 28865 28866 28867 28868 28869 28870 28871 28872 28873 28874 28875 28876 28877 28878 28879 28880 28881 28882 28883 28884 28885 28886 28887 28888 28889 28890 28891 28892 28893 28894 28895 28896 28897 28898 28899 28900 28901 28902 28903 28904 28905 28906 28907 28908 28909 28910 28911 28912 28913 28914 28915 28916 28917 28918 28919 28920 28921 28922 28923 28924 28925 28926 28927 28928 28929 28930 28931 28932 28933 28934 28935 28936 28937 28938 28939 28940 28941 28942 28943 28944 28945 28946 28947 28948 28949 28950 28951 28952 28953 28954 28955 28956 28957 28958 28959 28960 28961 28962 28963 28964 28965 28966 28967 28968 28969 28970 28971 28972 28973 28974 28975 28976 28977 28978 28979 28980 28981 28982 28983 28984 28985 28986 28987 28988 28989 28990 28991 28992 28993 28994 28995 28996 28997 28998 28999 29000 29001 29002 29003 29004 29005 29006 29007 29008 29009 29010 29011 29012 29013 29014 29015 29016 29017 29018 29019 29020 29021 29022 29023 29024 29025 29026 29027 29028 29029 29030 29031 29032 29033 29034 29035 29036 29037 29038 29039 29040 29041 29042 29043 29044 29045 29046 29047 29048 29049 29050 29051 29052 29053 29054 29055 29056 29057 29058 29059 29060 29061 29062 29063 29064 29065 29066 29067 29068 29069 29070 29071 29072 29073 29074 29075 29076 29077 29078 29079 29080 29081 29082 29083 29084 29085 29086 29087 29088 29089 29090 29091 29092 29093 29094 29095 29096 29097 29098 29099 29100 29101 29102 29103 29104 29105 29106 29107 29108 29109 29110 29111 29112 29113 29114 29115 29116 29117 29118 29119 29120 29121 29122 29123 29124 29125 29126 29127 29128 29129 29130 29131 29132 29133 29134 29135 29136 29137 29138 29139 29140 29141 29142 29143 29144 29145 29146 29147 29148 29149 29150 29151 29152 29153 29154 29155 29156 29157 29158 29159 29160 29161 29162 29163 29164 29165 29166 29167 29168 29169 29170 29171 29172 29173 29174 29175 29176 29177 29178 29179 29180 29181 29182 29183 29184 29185 29186 29187 29188 29189 29190 29191 29192 29193 29194 29195 29196 29197 29198 29199 29200 29201 29202 29203 29204 29205 29206 29207 29208 29209 29210 29211 29212 29213 29214 29215 29216 29217 29218 29219 29220 29221 29222 29223 29224 29225 29226 29227 29228 29229 29230 29231 29232 29233 29234 29235 29236 29237 29238 29239 29240 29241 29242 29243 29244 29245 29246 29247 29248 29249 29250 29251 29252 29253 29254 29255 29256 29257 29258 29259 29260 29261 29262 29263 29264 29265 29266 29267 29268 29269 29270 29271 29272 29273 29274 29275 29276 29277 29278 29279 29280 29281 29282 29283 29284 29285 29286 29287 29288 29289 29290 29291 29292 29293 29294 29295 29296 29297 29298 29299 29300 29301 29302 29303 29304 29305 29306 29307 29308 29309 29310 29311 29312 29313 29314 29315 29316 29317 29318 29319 29320 29321 29322 29323 29324 29325 29326 29327 29328 29329 29330 29331 29332 29333 29334 29335 29336 29337 29338 29339 29340 29341 29342 29343 29344 29345 29346 29347 29348 29349 29350 29351 29352 29353 29354 29355 29356 29357 29358 29359 29360 29361 29362 29363 29364 29365 29366 29367 29368 29369 29370 29371 29372 29373 29374 29375 29376 29377 29378 29379 29380 29381 29382 29383 29384 29385 29386 29387 29388 29389 29390 29391 29392 29393 29394 29395 29396 29397 29398 29399 29400 29401 29402 29403 29404 29405 29406 29407 29408 29409 29410 29411 29412 29413 29414 29415 29416 29417 29418 29419 29420 29421 29422 29423 29424 29425 29426 29427 29428 29429 29430 29431 29432 29433 29434 29435 29436 29437 29438 29439 29440 29441 29442 29443 29444 29445 29446 29447 29448 29449 29450 29451 29452 29453 29454 29455 29456 29457 29458 29459 29460 29461 29462 29463 29464 29465 29466 29467 29468 29469 29470 29471 29472 29473 29474 29475 29476 29477 29478 29479 29480 29481 29482 29483 29484 29485 29486 29487 29488 29489 29490 29491 29492 29493 29494 29495 29496 29497 29498 29499 29500 29501 29502 29503 29504 29505 29506 29507 29508 29509 29510 29511 29512 29513 29514 29515 29516 29517 29518 29519 29520 29521 29522 29523 29524 29525 29526 29527 29528 29529 29530 29531 29532 29533 29534 29535 29536 29537 29538 29539 29540 29541 29542 29543 29544 29545 29546 29547 29548 29549 29550 29551 29552 29553 29554 29555 29556 29557 29558 29559 29560 29561 29562 29563 29564 29565 29566 29567 29568 29569 29570 29571 29572 29573 29574 29575 29576 29577 29578 29579 29580 29581 29582 29583 29584 29585 29586 29587 29588 29589 29590 29591 29592 29593 29594 29595 29596 29597 29598 29599 29600 29601 29602 29603 29604 29605 29606 29607 29608 29609 29610 29611 29612 29613 29614 29615 29616 29617 29618 29619 29620 29621 29622 29623 29624 29625 29626 29627 29628 29629 29630 29631 29632 29633 29634 29635 29636 29637 29638 29639 29640 29641 29642 29643 29644 29645 29646 29647 29648 29649 29650 29651 29652 29653 29654 29655 29656 29657 29658 29659 29660 29661 29662 29663 29664 29665 29666 29667 29668 29669 29670 29671 29672 29673 29674 29675 29676 29677 29678 29679 29680 29681 29682 29683 29684 29685 29686 29687 29688 29689 29690 29691 29692 29693 29694 29695 29696 29697 29698 29699 29700 29701 29702 29703 29704 29705 29706 29707 29708 29709 29710 29711 29712 29713 29714 29715 29716 29717 29718 29719 29720 29721 29722 29723 29724 29725 29726 29727 29728 29729 29730 29731 29732 29733 29734 29735 29736 29737 29738 29739 29740 29741 29742 29743 29744 29745 29746 29747 29748 29749 29750 29751 29752 29753 29754 29755 29756 29757 29758 29759 29760 29761 29762 29763 29764 29765 29766 29767 29768 29769 29770 29771 29772 29773 29774 29775 29776 29777 29778 29779 29780 29781 29782 29783 29784 29785 29786 29787 29788 29789 29790 29791 29792 29793 29794 29795 29796 29797 29798 29799 29800 29801 29802 29803 29804 29805 29806 29807 29808 29809 29810 29811 29812 29813 29814 29815 29816 29817 29818 29819 29820 29821 29822 29823 29824 29825 29826 29827 29828 29829 29830 29831 29832 29833 29834 29835 29836 29837 29838 29839 29840 29841 29842 29843 29844 29845 29846 29847 29848 29849 29850 29851 29852 29853 29854 29855 29856 29857 29858 29859 29860 29861 29862 29863 29864 29865 29866 29867 29868 29869 29870 29871 29872 29873 29874 29875 29876 29877 29878 29879 29880 29881 29882 29883 29884 29885 29886 29887 29888 29889 29890 29891 29892 29893 29894 29895 29896 29897 29898 29899 29900 29901 29902 29903 29904 29905 29906 29907 29908 29909 29910 29911 29912 29913 29914 29915 29916 29917 29918 29919 29920 29921 29922 29923 29924 29925 29926 29927 29928 29929 29930 29931 29932 29933 29934 29935 29936 29937 29938 29939 29940 29941 29942 29943 29944 29945 29946 29947 29948 29949 29950 29951 29952 29953 29954 29955 29956 29957 29958 29959 29960 29961 29962 29963 29964 29965 29966 29967 29968 29969 29970 29971 29972 29973 29974 29975 29976 29977 29978 29979 29980 29981 29982 29983 29984 29985 29986 29987 29988 29989 29990 29991 29992 29993 29994 29995 29996 29997 29998 29999 30000 30001 30002 30003 30004 30005 30006 30007 30008 30009 30010 30011 30012 30013 30014 30015 30016 30017 30018 30019 30020 30021 30022 30023 30024 30025 30026 30027 30028 30029 30030 30031 30032 30033 30034 30035 30036 30037 30038 30039 30040 30041 30042 30043 30044 30045 30046 30047 30048 30049 30050 30051 30052 30053 30054 30055 30056 30057 30058 30059 30060 30061 30062 30063 30064 30065 30066 30067 30068 30069 30070 30071 30072 30073 30074 30075 30076 30077 30078 30079 30080 30081 30082 30083 30084 30085 30086 30087 30088 30089 30090 30091 30092 30093 30094 30095 30096 30097 30098 30099 30100 30101 30102 30103 30104 30105 30106 30107 30108 30109 30110 30111 30112 30113 30114 30115 30116 30117 30118 30119 30120 30121 30122 30123 30124 30125 30126 30127 30128 30129 30130 30131 30132 30133 30134 30135 30136 30137 30138 30139 30140 30141 30142 30143 30144 30145 30146 30147 30148 30149 30150 30151 30152 30153 30154 30155 30156 30157 30158 30159 30160 30161 30162 30163 30164 30165 30166 30167 30168 30169 30170 30171 30172 30173 30174 30175 30176 30177 30178 30179 30180 30181 30182 30183 30184 30185 30186 30187 30188 30189 30190 30191 30192 30193 30194 30195 30196 30197 30198 30199 30200 30201 30202 30203 30204 30205 30206 30207 30208 30209 30210 30211 30212 30213 30214 30215 30216 30217 30218 30219 30220 30221 30222 30223 30224 30225 30226 30227 30228 30229 30230 30231 30232 30233 30234 30235 30236 30237 30238 30239 30240 30241 30242 30243 30244 30245 30246 30247 30248 30249 30250 30251 30252 30253 30254 30255 30256 30257 30258 30259 30260 30261 30262 30263 30264 30265 30266 30267 30268 30269 30270 30271 30272 30273 30274 30275 30276 30277 30278 30279 30280 30281 30282 30283 30284 30285 30286 30287 30288 30289 30290 30291 30292 30293 30294 30295 30296 30297 30298 30299 30300 30301 30302 30303 30304 30305 30306 30307 30308 30309 30310 30311 30312 30313 30314 30315 30316 30317 30318 30319 30320 30321 30322 30323 30324 30325 30326 30327 30328 30329 30330 30331 30332 30333 30334 30335 30336 30337 30338 30339 30340 30341 30342 30343 30344 30345 30346 30347 30348 30349 30350 30351 30352 30353 30354 30355 30356 30357 30358 30359 30360 30361 30362 30363 30364 30365 30366 30367 30368 30369 30370 30371 30372 30373 30374 30375 30376 30377 30378 30379 30380 30381 30382 30383 30384 30385 30386 30387 30388 30389 30390 30391 30392 30393 30394 30395 30396 30397 30398 30399 30400 30401 30402 30403 30404 30405 30406 30407 30408 30409 30410 30411 30412 30413 30414 30415 30416 30417 30418 30419 30420 30421 30422 30423 30424 30425 30426 30427 30428 30429 30430 30431 30432 30433 30434 30435 30436 30437 30438 30439 30440 30441 30442 30443 30444 30445 30446 30447 30448 30449 30450 30451 30452 30453 30454 30455 30456 30457 30458 30459 30460 30461 30462 30463 30464 30465 30466 30467 30468 30469 30470 30471 30472 30473 30474 30475 30476 30477 30478 30479 30480 30481 30482 30483 30484 30485 30486 30487 30488 30489 30490 30491 30492 30493 30494 30495 30496 30497 30498 30499 30500 30501 30502 30503 30504 30505 30506 30507 30508 30509 30510 30511 30512 30513 30514 30515 30516 30517 30518 30519 30520 30521 30522 30523 30524 30525 30526 30527 30528 30529 30530 30531 30532 30533 30534 30535 30536 30537 30538 30539 30540 30541 30542 30543 30544 30545 30546 30547 30548 30549 30550 30551 30552 30553 30554 30555 30556 30557 30558 30559 30560 30561 30562 30563 30564 30565 30566 30567 30568 30569 30570 30571 30572 30573 30574 30575 30576 30577 
</DataArray>
<DataArray type="UInt32" Name="offsets" format="ascii">
3 6 9 12 15 18 20 23 26 29 31 34 37 40 42 45 48 51 54 57 60 62 64 67 70 73 76 78 80 83 85 87 90 92 95 98 101 103 106 109 111 114 117 120 123 126 129 132 134 137 140 143 146 149 152 155 158 160 163 166 168 171 173 176 178 181 183 186 189 192 195 198 201 204 207 210 213 216 219 222 225 228 231 233 236 239 242 245 248 251 254 257 259 262 265 267 269 272 275 278 281 284 287 290 293 296 299 302 305 307 310 313 316 319 322 324 327 330 332 335 338 341 344 347 350 353 356 359 362 365 368 371 374 377 380 383 386 389 391 394 397 400 403 406 408 411 414 417 420 423 426 429 432 435 438 441 444 447 450 453 456 459 462 465 468 471 474 477 480 482 485 487 490 493 496 498 501 504 507 509 512 515 518 520 522 525 528 530 533 536 539 542 544 547 550 553 556 559 561 564 567 570 573 575 578 580 583 586 588 591 594 597 599 602 605 607 610 613 616 619 622 625 628 631 634 637 639 642 645 647 650 653 656 659 662 665 668 670 673 676 679 682 685 688 691 694 697 700 703 706 709 712 715 718 721 724 727 730 733 735 738 740 743 746 749 752 755 757 760 763 766 769 772 775 778 781 783 786 789 792 794 797 800 802 805 808 811 814 816 819 822 824 827 830 833 836 839 841 844 846 849 852 855 858 861 864 867 870 873 876 879 882 885 888 891 894 897 900 902 905 908 911 914 917 919 921 924 927 930 933 936 939 942 945 948 951 953 956 959 962 965 968 971 974 977 980 982 985 988 990 992 995 998 1001 1003 1006 1009 1011 1014 1017 1020 1023 1026 1029 1032 1035 1038 1041 1044 1047 1050 1053 1056 1058 1061 1064 1067 1070 1073 1076 1079 1082 1084 1087 1090 1092 1095 1098 1101 1104 1106 1109 1112 1115 1118 1121 1124 1127 1130 1133 1136 1139 1142 1145 1148 1150 1152 1155 1158 1160 1162 1165 1167 1170 1172 1175 1177 1180 1183 1185 1188 1191 1194 1197 1200 1203 1206 1209 1212 1214 1216 1219 1222 1224 1227 1230 1233 1236 1239 1241 1244 1247 1249 1252 1255 1258 1261 1263 1266 1269 1272 1274 1277 1280 1283 1285 1288 1290 1293 1296 1298 1301 1304 1307 1310 1313 1316 1319 1322 1325 1328 1331 1333 1336 1339 1342 1345 1348 1351 1353 1356 1359 1362 1364 1367 1370 1373 1376 1379 1382 1385 1387 1390 1393 1396 1399 1402 1404 1407 1409 1412 1415 1418 1421 1424 1426 1428 1431 1434 1437 1439 1441 1444 1446 1449 1452 1455 1458 1461 1464 1467 1469 1472 1475 1478 1481 1484 1487 1490 1493 1496 1499 1502 1505 1508 1511 1513 1516 1519 1521 1524 1526 1529 1532 1535 1538 1541 1544 1547 1550 1553 1556 1559 1562 1565 1568 1570 1573 1576 1579 1582 1585 1588 1591 1594 1597 1600 1603 1606 1609 1612 1615 1618 1620 1623 1626 1629 1632 1635 1638 1641 1644 1647 1650 1653 1655 1657 1660 1663 1666 1669 1672 1675 1678 1681 1684 1687 1690 1693 1696 1699 1702 1705 1707 1710 1713 1716 1719 1722 1725 1728 1730 1733 1736 1739 1742 1745 1748 1751 1754 1756 1759 1762 1765 1767 1770 1773 1776 1779 1782 1785 1788 1791 1794 1797 1800 1803 1806 1809 1812 1815 1818 1821 1824 1827 1830 1833 1836 1839 1842 1845 1848 1851 1853 1856 1858 1861 1864 1867 1870 1873 1876 1879 1882 1885 1888 1891 1894 1897 1899 1902 1905 1908 1910 1913 1916 1919 1922 1925 1928 1931 1934 1937 1940 1943 1946 1949 1951 1953 1956 1959 1962 1965 1968 1971 1974 1976 1979 1982 1985 1988 1991 1994 1997 2000 2003 2006 2009 2011 2014 2017 2020 2023 2026 2029 2032 2034 2037 2040 2043 2046 2049 2052 2055 2058 2061 2064 2067 2070 2073 2076 2079 2082 2085 2087 2090 2093 2096 2099 2102 2105 2108 2111 2114 2117 2119 2122 2125 2128 2131 2134 2136 2139 2142 2145 2147 2150 2153 2156 2159 2161 2164 2167 2170 2173 2176 2179 2182 2184 2187 2189 2192 2195 2197 2200 2202 2205 2208 2211 2214 2217 2220 2223 2226 2229 2232 2235 2238 2241 2244 2247 2250 2253 2256 2259 2262 2265 2268 2271 2274 2277 2280 2283 2286 2289 2292 2295 2298 2301 2304 2307 2309 2312 2314 2316 2319 2322 2325 2328 2331 2334 2337 2340 2343 2346 2349 2351 2354 2357 2360 2363 2366 2369 2372 2374 2377 2379 2382 2384 2387 2390 2393 2396 2399 2402 2404 2407 2409 2411 2414 2417 2420 2423 2426 2429 2432 2435 2438 2441 2444 2447 2450 2453 2456 2459 2462 2464 2467 2470 2473 2476 2479 2482 2485 2488 2491 2494 2497 2500 2503 2506 2508 2511 2514 2517 2520 2523 2526 2529 2532 2535 2538 2541 2544 2547 2549 2552 2555 2558 2561 2564 2567 2570 2573 2576 2578 2581 2584 2587 2590 2593 2595 2597 2600 2603 2606 2609 2611 2613 2616 2619 2622 2625 2628 2631 2634 2637 2640 2643 2646 2648 2651 2654 2657 2660 2662 2665 2668 2671 2674 2677 2680 2682 2685 2688 2690 2693 2695 2698 2701 2704 2706 2709 2712 2715 2718 2721 2724 2727 2729 2732 2735 2738 2741 2743 2745 2748 2751 2753 2756 2759 2762 2764 2766 2768 2770 2773 2776 2778 2781 2784 2787 2790 2793 2796 2799 2802 2804 2806 2809 2812 2815 2818 2821 2824 2826 2829 2831 2834 2837 2840 2842 2845 2848 2851 2854 2857 2860 2863 2866 2869 2872 2875 2878 2881 2884 2887 2890 2893 2896 2899 2902 2905 2908 2911 2914 2917 2920 2923 2926 2928 2931 2934 2937 2940 2943 2946 2949 2952 2955 2958 2961 2964 2967 2970 2973 2976 2979 2982 2985 2988 2991 2993 2996 2999 3002 3005 3008 3011 3014 3017 3020 3022 3025 3028 3031 3034 3037 3040 3042 3045 3048 3051 3054 3057 3059 3062 3065 3068 3071 3074 3076 3079 3082 3085 3088 3091 3094 3097 3100 3103 3106 3108 3111 3114 3117 3120 3122 3124 3127 3130 3132 3135 3138 3141 3144 3146 3149 3152 3154 3157 3160 3163 3166 3169 3171 3173 3176 3179 3182 3185 3188 3191 3193 3196 3199 3202 3205 3208 3211 3214 3216 3218 3221 3224 3227 3229 3232 3235 3238 3240 3243 3246 3248 3251 3253 3256 3259 3262 3264 3267 3270 3272 3274 3277 3280 3283 3286 3289 3292 3294 3297 3299 3302 3304 3307 3310 3313 3315 3317 3320 3322 3325 3328 3331 3334 3337 3340 3343 3346 3349 3352 3355 3358 3361 3364 3367 3370 3372 3375 3378 3381 3384 3387 3390 3393 3395 3398 3401 3404 3407 3410 3412 3415 3418 3421 3423 3426 3429 3432 3435 3437 3440 3442 3445 3447 3450 3453 3456 3459 3461 3464 3467 3469 3472 3475 3478 3481 3484 3487 3490 3493 3496 3499 3502 3504 3507 3510 3513 3516 3518 3521 3524 3527 3530 3532 3535 3538 3541 3544 3547 3550 3552 3555 3558 3561 3563 3566 3568 3570 3573 3576 3579 3582 3585 3588 3591 3594 3597 3600 3603 3606 3609 3612 3615 3618 3621 3624 3627 3630 3633 3636 3639 3642 3645 3648 3651 3654 3656 3659 3662 3664 3666 3669 3671 3674 3677 3680 3683 3685 3688 3691 3693 3696 3699 3702 3705 3708 3711 3714 3717 3720 3723 3726 3729 3732 3735 3738 3741 3744 3747 3750 3753 3756 3759 3762 3765 3768 3771 3774 3777 3779 3782 3785 3788 3791 3794 3797 3800 3803 3805 3808 3811 3814 3817 3820 3823 3826 3828 3831 3833 3836 3839 3842 3844 3847 3850 3853 3856 3859 3862 3865 3867 3870 3872 3875 3878 3881 3884 3887 3889 3892 3895 3898 3901 3904 3907 3910 3913 3916 3919 3922 3925 3928 3931 3934 3937 3940 3943 3946 3949 3952 3955 3958 3961 3964 3967 3970 3973 3976 3979 3982 3985 3988 3991 3994 3997 4000 4003 4006 4008 4010 4013 4016 4018 4021 4024 4027 4029 4032 4035 4038 4040 4042 4045 4048 4050 4053 4056 4059 4062 4065 4068 4071 4074 4077 4080 4083 4086 4089 4092 4095 4098 4101 4104 4107 4110 4113 4115 4118 4120 4123 4126 4129 4132 4135 4138 4141 4144 4147 4150 4153 4156 4159 4162 4165 4168 4171 4174 4177 4180 4183 4186 4189 4192 4195 4198 4201 4204 4207 4210 4213 4216 4219 4222 4225 4228 4231 4234 4237 4240 4243 4246 4249 4252 4255 4257 4260 4262 4265 4267 4270 4273 4275 4278 4281 4284 4287 4290 4293 4296 4299 4302 4305 4308 4311 4314 4317 4320 4323 4326 4329 4332 4335 4338 4341 4344 4347 4350 4353 4356 4358 4361 4364 4367 4370 4373 4376 4379 4382 4385 4388 4391 4394 4397 4400 4403 4406 4409 4412 4415 4418 4421 4424 4427 4430 4433 4436 4439 4442 4445 4448 4451 4454 4457 4460 4463 4466 4469 4472 4475 4478 4481 4484 4487 4490 4493 4496 4499 4502 4505 4507 4510 4513 4516 4519 4521 4524 4527 4530 4533 4536 4539 4542 4545 4547 4550 4553 4556 4559 4562 4564 4566 4568 4571 4574 4577 4580 4582 4584 4587 4590 4592 4595 4598 4601 4604 4607 4610 4613 4616 4619 4622 4625 4628 4631 4634 4636 4638 4641 4643 4646 4649 4652 4655 4658 4661 4664 4667 4670 4673 4676 4679 4682 4685 4688 4691 4694 4697 4699 4702 4705 4708 4711 4714 4717 4719 4722 4725 4728 4731 4734 4737 4740 4743 4746 4749 4752 4755 4758 4761 4764 4767 4770 4773 4775 4778 4781 4784 4787 4790 4793 4796 4799 4802 4804 4807 4810 4812 4815 4818 4821 4824 4827 4830 4833 4836 4839 4842 4845 4848 4851 4854 4857 4860 4862 4865 4867 4870 4873 4876 4879 4881 4884 4886 4889 4892 4894 4896 4899 4902 4904 4907 4910 4913 4915 4918 4921 4924 4927 4930 4933 4935 4938 4941 4944 4946 4949 4952 4955 4958 4960 4963 4966 4969 4972 4975 4978 4981 4983 4986 4989 4992 4995 4998 5000 5003 5006 5008 5011 5014 5017 5020 5023 5026 5029 5031 5034 5037 5040 5042 5044 5047 5050 5053 5055 5058 5061 5064 5067 5070 5072 5074 5076 5079 5082 5085 5088 5091 5094 5097 5100 5103 5105 5107 5110 5112 5115 5118 5121 5124 5127 5129 5132 5135 5137 5140 5142 5145 5148 5151 5153 5156 5159 5161 5164 5167 5170 5173 5176 5179 5182 5184 5187 5190 5192 5194 5197 5200 5202 5205 5207 5210 5213 5215 5218 5221 5223 5226 5228 5231 5234 5237 5239 5242 5245 5247 5250 5252 5255 5258 5260 5263 5265 5268 5271 5274 5277 5279 5281 5284 5287 5290 5293 5296 5299 5302 5305 5308 5310 5313 5316 5319 5322 5325 5328 5331 5334 5337 5340 5343 5346 5349 5352 5355 5358 5361 5364 5366 5368 5371 5374 5377 5379 5382 5385 5388 5391 5393 5396 5399 5401 5404 5407 5410 5412 5415 5418 5420 5423 5426 5429 5432 5434 5437 5440 5443 5446 5449 5451 5454 5457 5460 5462 5464 5467 5470 5472 5475 5478 5481 5484 5487 5489 5491 5494 5497 5500 5503 5505 5508 5511 5514 5517 5519 5522 5525 5528 5531 5534 5537 5540 5543 5546 5549 5552 5555 5558 5561 5564 5567 5570 5573 5576 5579 5582 5585 5588 5591 5594 5597 5600 5603 5605 5608 5611 5614 5617 5620 5623 5626 5629 5632 5635 5638 5640 5643 5646 5649 5652 5654 5657 5660 5663 5665 5668 5671 5673 5676 5679 5682 5685 5688 5690 5693 5696 5699 5702 5705 5708 5711 5714 5717 5720 5723 5726 5729 5732 5735 5738 5741 5744 5747 5750 5752 5755 5758 5761 5764 5767 5769 5772 5775 5778 5781 5784 5787 5790 5792 5795 5798 5801 5804 5807 5810 5813 5816 5819 5822 5825 5828 5831 5833 5836 5839 5842 5845 5848 5850 5852 5855 5858 5861 5864 5866 5869 5871 5874 5877 5880 5882 5884 5887 5890 5892 5895 5898 5901 5903 5906 5909 5912 5915 5917 5920 5923 5925 5927 5930 5933 5936 5939 5942 5945 5947 5950 5953 5955 5958 5961 5964 5967 5969 5972 5975 5978 5981 5984 5987 5990 5993 5996 5999 6002 6005 6008 6011 6014 6017 6020 6023 6026 6028 6031 6033 6036 6039 6042 6044 6047 6049 6052 6054 6057 6060 6062 6065 6068 6070 6072 6074 6077 6080 6083 6085 6088 6091 6094 6097 6100 6103 6105 6108 6111 6114 6117 6120 6123 6126 6128 6131 6133 6136 6139 6142 6145 6148 6151 6154 6156 6159 6162 6165 6168 6171 6174 6177 6180 6183 6186 6189 6191 6194 6197 6199 6202 6205 6208 6211 6214 6217 6220 6223 6226 6229 6232 6235 6238 6241 6244 6247 6249 6252 6255 6258 6261 6264 6267 6270 6273 6276 6279 6282 6285 6288 6291 6294 6297 6300 6303 6306 6309 6312 6314 6317 6320 6323 6325 6328 6331 6334 6337 6340 6343 6346 6349 6352 6355 6357 6360 6363 6366 6369 6372 6375 6378 6381 6384 6387 6389 6392 6395 6398 6401 6404 6407 6409 6412 6415 6418 6420 6423 6426 6429 6432 6435 6438 6441 6444 6447 6450 6453 6456 6459 6462 6465 6468 6471 6474 6477 6480 6483 6485 6488 6491 6494 6497 6500 6502 6505 6508 6510 6513 6516 6519 6522 6525 6528 6530 6533 6536 6539 6542 6544 6547 6550 6553 6556 6559 6562 6565 6568 6571 6574 6577 6580 6583 6586 6589 6592 6595 6598 6600 6603 6606 6609 6612 6615 6617 6620 6623 6626 6628 6631 6633 6636 6639 6642 6645 6648 6651 6654 6656 6659 6662 6665 6667 6669 6672 6675 6678 6681 6684 6686 6689 6692 6695 6697 6700 6703 6706 6709 6712 6715 6718 6721 6724 6727 6730 6733 6736 6739 6742 6744 6747 6750 6753 6756 6759 6762 6764 6767 6770 6773 6776 6779 6782 6785 6788 6791 6794 6797 6799 6802 6805 6808 6811 6814 6817 6820 6823 6826 6828 6831 6834 6837 6840 6842 6844 6847 6850 6853 6856 6859 6862 6865 6868 6870 6872 6875 6877 6880 6883 6886 6889 6892 6894 6897 6900 6903 6906 6909 6912 6914 6917 6919 6922 6925 6928 6931 6934 6937 6940 6943 6946 6949 6951 6954 6957 6960 6963 6966 6969 6971 6974 6977 6980 6983 6986 6989 6992 6995 6997 7000 7003 7006 7009 7012 7014 7017 7020 7022 7025 7028 7031 7034 7037 7040 7042 7045 7048 7051 7054 7057 7060 7063 7066 7068 7071 7074 7077 7080 7082 7085 7088 7091 7094 7097 7100 7103 7106 7109 7112 7114 7117 7120 7123 7126 7129 7132 7135 7138 7141 7143 7146 7149 7152 7155 7157 7160 7163 7166 7169 7172 7175 7178 7181 7183 7186 7188 7191 7194 7197 7199 7202 7205 7208 7211 7214 7217 7220 7223 7225 7228 7231 7234 7236 7239 7242 7245 7247 7250 7253 7255 7258 7261 7264 7267 7270 7273 7276 7279 7282 7285 7288 7291 7294 7297 7300 7303 7306 7309 7312 7315 7318 7321 7324 7327 7330 7333 7336 7339 7342 7345 7348 7351 7354 7357 7360 7363 7366 7369 7372 7375 7378 7381 7384 7387 7390 7393 7396 7399 7402 7405 7408 7411 7414 7416 7419 7422 7425 7427 7430 7433 7436 7439 7442 7445 7447 7450 7452 7455 7458 7461 7464 7466 7468 7471 7474 7477 7480 7483 7486 7489 7492 7495 7498 7501 7504 7507 7510 7513 7516 7519 7522 7525 7528 7531 7534 7536 7539 7542 7544 7547 7550 7553 7555 7558 7561 7564 7567 7570 7573 7576 7579 7582 7585 7588 7591 7594 7597 7599 7602 7604 7607 7609 7612 7615 7618 7621 7624 7627 7630 7633 7636 7639 7642 7645 7648 7651 7654 7657 7660 7662 7665 7668 7671 7674 7677 7680 7683 7686 7689 7692 7695 7698 7701 7704 7707 7710 7713 7716 7719 7722 7725 7728 7731 7734 7737 7740 7743 7746 7749 7752 7755 7758 7761 7763 7766 7769 7772 7775 7778 7781 7783 7786 7789 7791 7794 7796 7799 7802 7804 7807 7810 7813 7815 7818 7821 7824 7827 7830 7833 7836 7839 7842 7845 7848 7851 7854 7857 7860 7863 7866 7869 7872 7875 7878 7881 7884 7887 7890 7892 7895 7898 7901 7904 7906 7909 7912 7914 7917 7920 7923 7926 7929 7932 7935 7938 7941 7944 7947 7950 7953 7956 7959 7962 7965 7968 7971 7974 7977 7980 7983 7986 7989 7992 7995 7998 8001 8004 8006 8009 8012 8015 8017 8020 8023 8026 8029 8031 8034 8037 8040 8043 8046 8048 8051 8054 8057 8060 8062 8065 8068 8071 8074 8077 8080 8083 8086 8089 8092 8095 8098 8101 8104 8106 8108 8111 8113 8116 8118 8121 8124 8127 8130 8133 8136 8139 8142 8145 8148 8151 8154 8157 8160 8163 8166 8169 8172 8175 8178 8181 8184 8187 8190 8193 8195 8197 8200 8203 8205 8208 8211 8213 8216 8219 8222 8225 8228 8231 8234 8237 8240 8243 8246 8248 8251 8254 8256 8259 8262 8265 8268 8271 8274 8277 8280 8283 8286 8289 8292 8295 8298 8300 8302 8305 8307 8309 8312 8315 8318 8321 8323 8326 8329 8332 8334 8336 8339 8342 8345 8348 8351 8354 8357 8359 8362 8365 8368 8371 8374 8377 8380 8383 8386 8389 8392 8395 8398 8401 8404 8407 8409 8412 8415 8418 8421 8423 8426 8429 8432 8435 8438 8441 8444 8446 8449 8452 8455 8458 8461 8464 8467 8469 8472 8475 8477 8480 8483 8486 8489 8492 8495 8498 8501 8504 8507 8510 8513 8516 8519 8522 8524 8527 8530 8533 8536 8539 8542 8545 8548 8550 8553 8556 8559 8562 8565 8568 8571 8573 8576 8579 8582 8585 8588 8590 8593 8596 8599 8602 8604 8607 8610 8613 8616 8619 8622 8625 8628 8631 8634 8637 8640 8642 8645 8648 8651 8654 8657 8660 8663 8666 8669 8672 8675 8678 8681 8684 8686 8689 8692 8695 8698 8701 8704 8707 8710 8713 8716 8719 8722 8725 8727 8729 8732 8735 8737 8740 8743 8746 8749 8751 8754 8757 8760 8762 8765 8768 8770 8773 8776 8779 8782 8784 8787 8790 8793 8796 8799 8802 8805 8808 8811 8814 8817 8820 8823 8826 8829 8832 8835 8838 8841 8844 8847 8850 8853 8856 8859 8862 8865 8868 8871 8874 8877 8880 8883 8886 8888 8891 8894 8897 8899 8902 8904 8907 8910 8913 8916 8919 8922 8925 8928 8931 8934 8937 8940 8943 8946 8948 8951 8954 8957 8960 8963 8966 8969 8972 8974 8977 8980 8983 8985 8988 8991 8994 8997 9000 9003 9006 9008 9011 9013 9016 9019 9022 9025 9028 9031 9034 9037 9040 9043 9046 9049 9052 9055 9057 9060 9063 9065 9068 9071 9074 9077 9080 9083 9086 9088 9091 9094 9097 9100 9103 9106 9109 9112 9115 9118 9121 9124 9127 9130 9133 9136 9139 9142 9145 9148 9151 9154 9157 9160 9163 9166 9169 9171 9174 9177 9179 9182 9185 9188 9190 9193 9196 9198 9201 9204 9207 9210 9213 9216 9219 9222 9225 9228 9231 9234 9237 9240 9243 9246 9249 9252 9255 9257 9260 9263 9266 9269 9272 9275 9278 9281 9284 9287 9290 9293 9296 9298 9301 9304 9307 9310 9313 9316 9319 9322 9325 9328 9331 9334 9337 9340 9343 9346 9349 9352 9355 9357 9360 9363 9366 9369 9372 9375 9378 9381 9384 9387 9390 9393 9396 9399 9402 9405 9407 9410 9413 9415 9418 9421 9424 9426 9429 9432 9434 9437 9440 9443 9446 9449 9452 9455 9458 9461 9464 9467 9470 9473 9476 9478 9481 9484 9486 9489 9492 9495 9498 9501 9504 9507 9510 9513 9516 9519 9522 9525 9528 9531 9534 9537 9540 9543 9546 9549 9552 9555 9558 9561 9564 9567 9570 9573 9576 9579 9582 9585 9588 9591 9594 9596 9599 9602 9605 9608 9610 9613 9616 9619 9622 9625 9628 9631 9634 9637 9640 9643 9646 9649 9652 9655 9657 9660 9662 9664 9667 9670 9672 9675 9677 9680 9683 9686 9689 9692 9695 9698 9701 9703 9706 9709 9711 9714 9717 9720 9723 9725 9727 9730 9732 9735 9738 9741 9744 9747 9750 9753 9756 9759 9762 9765 9768 9771 9774 9777 9780 9783 9786 9789 9792 9795 9797 9800 9803 9806 9809 9812 9815 9818 9821 9824 9827 9830 9833 9836 9839 9842 9845 9848 9851 9854 9857 9860 9863 9866 9869 9872 9874 9877 9880 9883 9886 9889 9891 9894 9897 9900 9903 9906 9909 9912 9915 9918 9920 9923 9926 9929 9932 9935 9938 9941 9944 9947 9950 9953 9956 9959 9962 9965 9968 9971 9973 9975 9978 9981 9983 9986 9989 9992 9994 9997 10000 10003 10006 10009 10012 10015 10018 10021 10024 10026 10029 10032 10034 10037 10039 10042 10045 10048 10051 10053 10056 10059 10062 10064 10067 10070 10073 10076 10079 10082 10084 10087 10090 10093 10096 10099 10102 10104 10107 10110 10113 10116 10119 10122 10125 10128 10131 10134 10137 10140 10143 10146 10148 10151 10154 10156 10159 10162 10165 10167 10169 10172 10175 10178 10181 10184 10187 10190 10193 10196 10199 10201 10204 10207 10210 10212 10215 10218 10221 10224 10226 10229 10232 10235 10238 10241 10244 10247 10250 10252 10255 10258 10261 10264 10267 10269 10271 10274 10277 10280 10282 10285 10287 10289 10292 10295 10298 10301 10304 10306 10309 10312 10315 10318 10321 10324 10326 10329 10332 10335 10338 10341 10344 10347 10349 10352 10355 10357 10360 10363 10365 10368 10371 10374 10377 10380 10383 10386 10389 10392 10395 10398 10401 10404 10407 10409 10412 10415 10418 10420 10423 10426 10428 10431 10434 10437 10440 10442 10445 10448 10451 10454 10457 10460 10463 10466 10468 10471 10474 10477 10480 10482 10485 10488 10491 10494 10497 10500 10503 10506 10508 10511 10514 10517 10520 10523 10526 10529 10532 10535 10537 10540 10543 10546 10548 10551 10554 10556 10559 10562 10564 10567 10570 10573 10576 10579 10582 10585 10588 10591 10593 10596 10599 10602 10605 10608 10611 10614 10617 10620 10623 10626 10629 10632 10635 10638 10641 10643 10646 10649 10652 10655 10658 10661 10664 10667 10670 10673 10676 10679 10682 10685 10688 10691 10694 10697 10700 10703 10706 10709 10712 10715 10718 10721 10723 10726 10728 10731 10734 10737 10740 10743 10746 10749 10752 10755 10758 10760 10763 10766 10768 10771 10774 10777 10780 10783 10786 10789 10792 10795 10798 10801 10804 10807 10810 10813 10816 10819 10822 10825 10828 10831 10833 10836 10839 10842 10845 10848 10851 10854 10857 10860 10862 10865 10867 10870 10873 10876 10879 10882 10885 10888 10890 10893 10895 10898 10901 10904 10907 10910 10913 10916 10919 10922 10925 10928 10930 10933 10936 10939 10942 10944 10947 10949 10952 10955 10958 10961 10964 10967 10969 10972 10975 10977 10980 10983 10985 10988 10991 10994 10996 10998 11000 11003 11006 11009 11012 11015 11018 11021 11024 11027 11030 11033 11036 11039 11041 11044 11047 11050 11053 11056 11059 11062 11064 11067 11069 11072 11074 11077 11080 11082 11084 11087 11090 11093 11096 11099 11102 11104 11107 11110 11113 11116 11118 11121 11123 11126 11128 11131 11133 11136 11139 11142 11145 11147 11150 11153 11156 11159 11162 11164 11167 11170 11173 11176 11179 11182 11185 11188 11191 11194 11197 11200 11203 11206 11208 11211 11214 11217 11220 11223 11225 11228 11231 11234 11236 11239 11242 11245 11248 11251 11254 11257 11260 11263 11266 11269 11272 11275 11278 11281 11284 11287 11289 11292 11295 11298 11301 11303 11306 11309 11312 11315 11318 11321 11323 11326 11329 11332 11335 11338 11341 11344 11347 11350 11353 11355 11358 11361 11363 11366 11368 11371 11374 11377 11380 11383 11386 11389 11392 11395 11398 11401 11403 11406 11409 11412 11415 11418 11421 11423 11426 11428 11430 11433 11435 11438 11441 11444 11447 11450 11453 11456 11458 11461 11464 11467 11470 11473 11476 11479 11482 11485 11488 11491 11494 11497 11500 11503 11506 11508 11511 11514 11517 11520 11523 11526 11529 11532 11535 11538 11540 11543 11546 11549 11552 11555 11558 11561 11564 11567 11570 11572 11575 11578 11581 11584 11586 11589 11592 11595 11598 11601 11603 11606 11609 11612 11615 11617 11620 11623 11626 11629 11632 11635 11638 11641 11644 11647 11650 11653 11656 11659 11662 11665 11668 11671 11673 11676 11679 11682 11685 11688 11691 11694 11697 11699 11702 11704 11706 11709 11712 11715 11718 11721 11723 11726 11729 11732 11735 11738 11741 11744 11747 11750 11753 11756 11759 11762 11765 11767 11770 11773 11775 11778 11780 11782 11785 11788 11791 11794 11797 11800 11802 11805 11808 11811 11814 11816 11819 11821 11824 11827 11829 11832 11835 11838 11841 11844 11847 11849 11851 11854 11857 11860 11863 11866 11869 11872 11875 11878 11881 11884 11887 11890 11893 11896 11898 11901 11904 11907 11910 11913 11916 11919 11921 11924 11926 11929 11932 11935 11937 11940 11942 11945 11948 11951 11954 11957 11960 11963 11966 11968 11971 11974 11977 11980 11983 11985 11988 11990 11993 11996 11999 12002 12004 12007 12010 12013 12016 12019 12021 12024 12027 12030 12033 12036 12039 12042 12045 12048 12051 12054 12057 12060 12063 12066 12069 12072 12075 12078 12081 12084 12087 12090 12093 12095 12098 12101 12104 12106 12109 12111 12114 12117 12120 12122 12125 12128 12131 12134 12137 12140 12143 12146 12149 12152 12155 12158 12161 12164 12167 12170 12173 12175 12177 12179 12181 12184 12187 12190 12193 12196 12199 12201 12204 12207 12210 12212 12215 12218 12221 12224 12227 12230 12233 12236 12239 12242 12244 12246 12248 12251 12254 12256 12258 12261 12264 12267 12270 12273 12276 12279 12282 12285 12287 12290 12293 12296 12299 12302 12305 12308 12311 12313 12315 12318 12321 12324 12326 12329 12332 12335 12338 12341 12344 12347 12350 12353 12356 12359 12361 12364 12366 12369 12372 12375 12378 12381 12383 12385 12388 12391 12393 12395 12398 12401 12404 12407 12410 12413 12416 12419 12422 12425 12428 12431 12434 12437 12440 12443 12446 12449 12452 12455 12458 12461 12464 12467 12470 12473 12476 12479 12482 12485 12488 12491 12494 12497 12500 12503 12506 12509 12512 12515 12518 12521 12523 12525 12528 12531 12534 12537 12540 12543 12546 12549 12552 12555 12558 12561 12564 12567 12570 12573 12576 12579 12582 12585 12587 12590 12593 12596 12599 12602 12605 12608 12611 12614 12617 12620 12623 12626 12629 12632 12635 12637 12640 12642 12645 12648 12651 12654 12657 12660 12663 12666 12668 12671 12674 12677 12680 12683 12686 12689 12692 12695 12698 12701 12703 12706 12709 12711 12714 12717 12719 12722 12725 12728 12731 12733 12736 12739 12742 12745 12747 12750 12753 12755 12758 12760 12763 12766 12769 12772 12775 12777 12780 12783 12786 12789 12792 12795 12798 12800 12803 12806 12809 12812 12815 12818 12821 12824 12827 12830 12833 12836 12839 12842 12845 12848 12851 12854 12857 12860 12863 12866 12869 12872 12874 12877 12880 12883 12885 12888 12891 12893 12896 12899 12902 12904 12907 12910 12913 12916 12918 12921 12923 12926 12929 12932 12935 12938 12941 12944 12947 12949 12952 12955 12958 12961 12964 12967 12970 12973 12976 12979 12981 12984 12987 12989 12992 12995 12997 13000 13003 13005 13007 13010 13013 13016 13019 13022 13025 13028 13030 13032 13035 13038 13041 13043 13046 13049 13051 13053 13056 13059 13062 13064 13066 13069 13071 13074 13077 13079 13082 13085 13088 13091 13093 13096 13098 13100 13103 13106 13109 13111 13114 13116 13118 13121 13123 13125 13127 13129 13132 13134 13137 13139 13142 13144 13147 13150 13153 13155 13158 13161 13163 13166 13168 13170 13173 13176 13179 13182 13184 13187 13189 13191 13194 13197 13200 13202 13204 13207 13210 13212 13214 13217 13220 13223 13226 13228 13231 13234 13237 13240 13242 13245 13248 13251 13254 13256 13259 13261 13264 13266 13269 13271 13274 13276 13279 13281 13284 13287 13290 13293 13296 13298 13301 13304 13306 13308 13310 13313 13316 13318 13320 13323 13325 13328 13331 13333 13336 13339 13342 13345 13348 13351 13353 13356 13359 13361 13364 13366 13369 13372 13375 13378 13380 13383 13385 13388 13390 13393 13396 13399 13401 13404 13407 13409 13412 13414 13417 13419 13422 13425 13428 13431 13434 13436 13439 13442 13445 13448 13451 13454 13457 13460 13463 13466 13468 13471 13474 13477 13480 13482 13485 13488 13490 13493 13496 13499 13502 13505 13507 13510 13513 13515 13518 13521 13524 13526 13529 13531 13534 13537 13540 13542 13545 13548 13551 13554 13556 13559 13562 13565 13568 13570 13572 13575 13578 13581 13584 13587 13590 13592 13595 13598 13600 13603 13606 13609 13612 13615 13618 13621 13624 13627 13630 13633 13636 13639 13642 13645 13648 13651 13654 13657 13660 13663 13666 13669 13672 13675 13678 13681 13684 13687 13690 13693 13696 13699 13702 13705 13708 13711 13714 13717 13720 13723 13726 13729 13732 13735 13738 13741 13744 13747 13750 13753 13756 13759 13762 13765 13768 13771 13774 13776 13779 13782 13785 13788 13791 13794 13797 13800 13803 13806 13809 13812 13814 13817 13820 13822 13825 13828 13831 13833 13836 13839 13842 13845 13848 13851 13854 13857 13860 13863 13866 13869 13872 13875 13878 13880 13883 13886 13889 13892 13895 13898 13901 13904 13907 13910 13913 13916 13919 13922 13925 13928 13930 13933 13936 13939 13942 13945 13948 13951 13954 13957 13960 13963 13966 13969 13971 13974 13977 13979 13982 13985 13987 13990 13992 13995 13998 14001 14004 14007 14010 14013 14015 14018 14021 14024 14027 14030 14033 14036 14039 14042 14045 14048 14051 14053 14056 14059 14062 14064 14067 14070 14073 14076 14079 14082 14085 14088 14091 14093 14096 14099 14102 14105 14108 14111 14113 14116 14119 14122 14125 14128 14131 14133 14136 14139 14142 14144 14147 14150 14153 14156 14159 14162 14165 14167 14170 14173 14176 14179 14182 14185 14188 14191 14194 14197 14199 14202 14205 14208 14211 14214 14217 14220 14223 14226 14229 14232 14235 14238 14241 14244 14247 14249 14252 14254 14257 14260 14263 14266 14269 14272 14275 14278 14281 14284 14286 14289 14291 14294 14297 14300 14303 14306 14309 14312 14315 14318 14321 14324 14326 14329 14332 14335 14338 14341 14344 14347 14350 14353 14356 14359 14361 14364 14367 14370 14373 14376 14379 14382 14384 14387 14390 14393 14396 14399 14402 14405 14407 14410 14413 14416 14419 14422 14425 14428 14431 14434 14437 14440 14442 14445 14448 14451 14454 14457 14460 14463 14466 14468 14471 14473 14476 14479 14482 14485 14488 14491 14494 14497 14500 14503 14505 14508 14511 14514 14516 14519 14522 14525 14528 14531 14534 14537 14540 14543 14545 14548 14551 14554 14557 14560 14563 14566 14569 14572 14575 14578 14581 14584 14587 14590 14593 14595 14598 14601 14604 14607 14610 14613 14616 14619 14622 14625 14628 14631 14634 14637 14640 14643 14646 14649 14651 14654 14657 14659 14662 14665 14667 14670 14673 14676 14679 14682 14684 14687 14690 14693 14696 14699 14702 14705 14708 14711 14714 14717 14720 14723 14726 14729 14732 14735 14738 14741 14744 14747 14750 14753 14756 14759 14762 14765 14768 14771 14774 14777 14780 14783 14786 14789 14792 14795 14798 14801 14804 14807 14810 14813 14816 14819 14822 14825 14828 14831 14834 14837 14840 14843 14846 14849 14852 14855 14858 14861 14863 14866 14869 14871 14874 14877 14880 14883 14886 14889 14892 14895 14898 14901 14904 14907 14910 14913 14916 14919 14922 14925 14928 14931 14934 14937 14940 14943 14945 14947 14950 14953 14956 14959 14962 14965 14968 14971 14974 14977 14980 14983 14986 14989 14992 14995 14997 14999 15002 15005 15008 15011 15014 15017 15020 15022 15025 15027 15030 15033 15035 15037 15040 15043 15046 15049 15052 15055 15058 15061 15064 15067 15070 15072 15075 15077 15080 15083 15086 15088 15091 15094 15097 15099 15102 15104 15107 15110 15113 15116 15119 15121 15123 15126 15129 15132 15135 15138 15141 15144 15147 15150 15153 15156 15159 15162 15165 15168 15171 15174 15177 15180 15183 15186 15189 15192 15195 15198 15201 15204 15207 15210 15213 15216 15219 15222 15225 15228 15231 15234 15237 15240 15243 15246 15249 15252 15255 15258 15261 15264 15267 15270 15273 15276 15279 15282 15285 15288 15291 15294 15297 15300 15303 15306 15309 15312 15315 15318 15321 15324 15327 15330 15333 15336 15339 15342 15345 15348 15351 15354 15357 15360 15363 15366 15369 15372 15375 15378 15381 15384 15387 15390 15393 15396 15399 15402 15405 15408 15411 15414 15417 15420 15423 15426 15429 15432 15435 15437 15439 15442 15444 15447 15449 15452 15455 15457 15460 15463 15466 15469 15471 15474 15477 15480 15483 15486 15489 15492 15494 15496 15498 15501 15504 15507 15510 15513 15515 15517 15520 15523 15526 15529 15532 15535 15538 15541 15544 15547 15550 15553 15556 15559 15562 15565 15568 15571 15574 15577 15580 15583 15586 15589 15592 15595 15598 15601 15604 15607 15610 15613 15616 15619 15621 15624 15627 15629 15632 15635 15638 15641 15644 15647 15650 15653 15656 15659 15662 15664 15667 15670 15673 15676 15679 15682 15685 15687 15690 15693 15696 15699 15702 15705 15708 15711 15714 15717 15720 15723 15726 15729 15732 15735 15737 15740 15743 15745 15748 15751 15754 15757 15760 15763 15766 15769 15772 15775 15778 15781 15784 15787 15790 15793 15796 15799 15802 15805 15808 15811 15814 15816 15819 15822 15824 15827 15830 15832 15835 15838 15841 15844 15847 15850 15853 15855 15858 15861 15864 15867 15870 15873 15875 15878 15881 15883 15886 15889 15892 15895 15897 15900 15902 15905 15908 15910 15913 15916 15919 15922 15924 15927 15929 15932 15935 15937 15940 15943 15946 15949 15952 15955 15958 15961 15964 15967 15970 15973 15975 15978 15981 15984 15986 15989 15992 15994 15997 16000 16003 16006 16008 16011 16014 16017 16020 16023 16026 16029 16032 16035 16038 16040 16043 16046 16049 16052 16055 16058 16061 16064 16067 16070 16072 16075 16078 16081 16084 16087 16090 16093 16096 16099 16102 16105 16108 16110 16113 16116 16118 16121 16124 16127 16130 16133 16136 16139 16142 16145 16148 16150 16153 16156 16159 16162 16165 16167 16170 16172 16174 16177 16180 16182 16185 16188 16191 16194 16197 16200 16203 16206 16209 16211 16213 16216 16219 16222 16225 16228 16231 16233 16236 16239 16242 16245 16248 16251 16254 16257 16260 16263 16266 16269 16272 16275 16278 16281 16284 16287 16290 16293 16296 16299 16302 16305 16308 16310 16313 16316 16319 16322 16325 16328 16331 16334 16337 16340 16343 16346 16349 16352 16355 16358 16361 16364 16367 16370 16373 16376 16379 16382 16385 16388 16391 16394 16397 16400 16403 16406 16409 16412 16415 16418 16421 16424 16427 16430 16432 16435 16438 16441 16444 16447 16450 16453 16456 16459 16462 16464 16467 16470 16473 16475 16478 16480 16483 16486 16489 16491 16494 16497 16500 16502 16505 16507 16510 16512 16515 16517 16519 16522 16525 16527 16530 16533 16536 16538 16541 16544 16547 16550 16553 16555 16558 16561 16564 16567 16569 16572 16575 16578 16580 16583 16586 16589 16592 16594 16597 16599 16602 16605 16608 16611 16614 16617 16620 16623 16626 16629 16632 16635 16638 16641 16643 16646 16649 16652 16655 16657 16660 16663 16665 16668 16671 16673 16675 16678 16681 16683 16686 16688 16691 16694 16697 16699 16701 16703 16705 16708 16711 16713 16716 16719 16722 16725 16727 16730 16732 16735 16738 16740 16742 16744 16747 16749 16752 16755 16757 16759 16761 16764 16767 16770 16773 16776 16779 16782 16785 16788 16790 16792 16795 16798 16801 16804 16806 16808 16811 16814 16817 16819 16822 16824 16827 16830 16833 16836 16839 16842 16845 16848 16851 16854 16857 16859 16862 16865 16868 16871 16874 16877 16880 16883 16886 16889 16892 16895 16898 16901 16904 16907 16910 16913 16916 16919 16922 16925 16928 16930 16933 16936 16939 16942 16945 16948 16951 16954 16957 16960 16963 16966 16969 16972 16975 16978 16980 16983 16986 16988 16991 16994 16997 17000 17003 17006 17009 17012 17015 17017 17020 17023 17026 17028 17030 17033 17036 17038 17041 17044 17047 17050 17053 17055 17058 17060 17063 17066 17069 17071 17074 17077 17080 17083 17086 17089 17092 17094 17097 17100 17102 17105 17108 17111 17114 17116 17119 17122 17125 17127 17129 17132 17135 17137 17140 17143 17146 17148 17151 17154 17157 17160 17163 17166 17169 17171 17174 17177 17179 17182 17184 17186 17188 17191 17193 17196 17198 17200 17203 17206 17209 17212 17215 17218 17220 17223 17226 17228 17231 17234 17237 17240 17243 17246 17249 17252 17255 17258 17261 17264 17267 17270 17273 17276 17279 17282 17285 17288 17291 17294 17297 17300 17303 17306 17309 17312 17315 17318 17321 17324 17327 17330 17333 17335 17337 17340 17343 17346 17349 17352 17355 17358 17361 17363 17365 17367 17369 17372 17375 17377 17380 17383 17386 17389 17392 17395 17398 17401 17403 17406 17409 17411 17414 17417 17420 17422 17425 17428 17431 17434 17436 17439 17442 17445 17448 17451 17454 17457 17460 17463 17466 17469 17472 17475 17478 17480 17483 17486 17489 17492 17495 17497 17500 17503 17506 17509 17512 17515 17518 17521 17523 17526 17529 17532 17534 17536 17539 17542 17544 17546 17549 17552 17555 17558 17561 17563 17566 17569 17572 17575 17578 17581 17583 17586 17588 17591 17594 17597 17600 17603 17606 17609 17612 17614 17616 17619 17621 17623 17625 17628 17630 17633 17636 17639 17642 17645 17648 17650 17653 17656 17659 17662 17665 17668 17671 17673 17676 17679 17682 17685 17688 17691 17694 17697 17700 17703 17706 17709 17712 17715 17718 17721 17724 17727 17730 17733 17736 17739 17742 17745 17748 17751 17754 17757 17760 17763 17766 17769 17772 17775 17778 17781 17784 17787 17790 17793 17796 17799 17802 17805 17808 17811 17814 17817 17820 17823 17826 17829 17832 17835 17838 17841 17844 17846 17849 17852 17855 17858 17861 17864 17867 17869 17872 17875 17877 17880 17883 17886 17888 17891 17893 17896 17899 17901 17904 17907 17910 17913 17916 17919 17922 17924 17927 17930 17933 17935 17938 17941 17944 17947 17950 17953 17956 17958 17961 17963 17966 17969 17972 17975 17978 17981 17984 17987 17990 17993 17996 17999 18002 18005 18008 18011 18014 18017 18020 18023 18026 18029 18032 18035 18038 18040 18042 18045 18047 18050 18053 18056 18059 18062 18065 18068 18070 18073 18075 18078 18080 18082 18084 18087 18090 18092 18095 18098 18100 18103 18106 18109 18111 18114 18117 18120 18123 18126 18129 18132 18134 18136 18139 18142 18144 18147 18150 18153 18155 18158 18161 18164 18167 18169 18172 18174 18177 18180 18183 18186 18189 18192 18194 18197 18199 18202 18205 18208 18211 18214 18216 18219 18222 18224 18227 18230 18233 18236 18239 18242 18245 18248 18251 18254 18257 18260 18263 18266 18269 18272 18274 18277 18280 18282 18284 18287 18289 18292 18295 18298 18301 18304 18307 18310 18313 18315 18318 18321 18324 18327 18330 18333 18336 18339 18342 18345 18348 18351 18354 18357 18360 18363 18365 18368 18371 18374 18376 18379 18382 18384 18387 18390 18393 18396 18399 18402 18404 18407 18410 18413 18416 18419 18422 18425 18428 18431 18434 18437 18440 18443 18446 18449 18452 18455 18458 18461 18463 18465 18468 18471 18474 18477 18480 18483 18486 18488 18491 18494 18497 18499 18502 18505 18507 18510 18512 18515 18518 18520 18523 18525 18527 18530 18532 18535 18537 18540 18542 18545 18548 18551 18554 18557 18560 18563 18566 18569 18572 18575 18578 18581 18584 18587 18589 18591 18594 18597 18600 18603 18606 18609 18612 18614 18617 18620 18623 18626 18629 18632 18635 18638 18641 18644 18647 18650 18653 18656 18659 18661 18664 18666 18669 18672 18675 18678 18681 18684 18686 18689 18692 18695 18697 18700 18703 18706 18708 18711 18714 18717 18720 18723 18726 18729 18732 18735 18738 18741 18744 18747 18750 18753 18756 18759 18762 18765 18768 18771 18773 18776 18779 18782 18785 18787 18790 18793 18796 18799 18802 18804 18807 18810 18813 18815 18818 18821 18824 18827 18830 18833 18836 18839 18842 18845 18848 18851 18853 18856 18859 18862 18865 18867 18870 18873 18876 18879 18882 18885 18888 18891 18893 18896 18899 18902 18905 18908 18911 18914 18916 18919 18922 18925 18928 18930 18933 18936 18939 18942 18945 18948 18951 18954 18956 18959 18962 18965 18968 18971 18974 18977 18980 18983 18985 18988 18991 18994 18997 19000 19003 19006 19009 19012 19015 19018 19021 19024 19027 19030 19033 19036 19039 19042 19045 19048 19051 19054 19057 19060 19063 19066 19069 19071 19074 19077 19080 19083 19086 19089 19092 19094 19097 19100 19103 19106 19109 19112 19115 19118 19121 19124 19127 19130 19133 19136 19139 19142 19145 19148 19151 19154 19157 19160 19163 19166 19169 19172 19175 19178 19181 19183 19186 19189 19192 19195 19198 19201 19204 19207 19210 19213 19216 19219 19222 19225 19228 19231 19234 19237 19240 19243 19246 19249 19252 19255 19258 19261 19264 19267 19270 19273 19276 19279 19281 19284 19287 19289 19292 19295 19298 19301 19303 19306 19309 19311 19314 19317 19320 19323 19325 19328 19331 19334 19336 19339 19342 19345 19347 19350 19353 19356 19359 19362 19365 19368 19371 19374 19377 19379 19382 19385 19387 19390 19393 19396 19399 19402 19405 19407 19410 19413 19416 19419 19422 19424 19427 19430 19433 19436 19438 19441 19444 19447 19450 19453 19456 19459 19462 19465 19468 19470 19473 19476 19479 19482 19485 19488 19491 19494 19497 19499 19502 19505 19508 19511 19514 19517 19520 19523 19526 19529 19532 19535 19538 19540 19543 19546 19549 19552 19555 19558 19561 19563 19566 19569 19572 19575 19578 19580 19583 19586 19589 19592 19595 19598 19601 19604 19607 19610 19613 19616 19619 19622 19624 19627 19630 19633 19636 19639 19642 19645 19648 19650 19653 19656 19659 19662 19665 19668 19671 19674 19677 19680 19683 19686 19689 19692 19695 19698 19701 19704 19707 19710 19713 19716 19719 19722 19725 19728 19731 19734 19737 19740 19743 19746 19749 19751 19754 19757 19760 19763 19765 19767 19770 19773 19775 19778 19781 19783 19786 19789 19791 19794 19797 19800 19803 19806 19809 19812 19815 19818 19821 19824 19827 19830 19833 19836 19839 19842 19845 19848 19850 19853 19856 19859 19862 19864 19867 19870 19873 19876 19879 19882 19885 19888 19891 19894 19897 19900 19903 19906 19909 19912 19915 19918 19921 19924 19927 19930 19933 19936 19939 19942 19945 19948 19951 19954 19957 19960 19963 19966 19969 19972 19975 19978 19981 19984 19987 19990 19993 19996 19999 20002 20005 20008 20011 20014 20017 20020 20023 20026 20029 20032 20035 20038 20041 20044 20047 20050 20053 20056 20059 20062 20065 20068 20071 20074 20077 20079 20082 20085 20088 20091 20093 20096 20098 20101 20104 20106 20109 20112 20115 20118 20120 20123 20126 20128 20131 20134 20137 20140 20143 20146 20149 20152 20155 20158 20161 20164 20167 20170 20173 20176 20179 20182 20185 20188 20191 20194 20197 20200 20203 20206 20209 20212 20215 20218 20221 20224 20227 20230 20233 20236 20239 20242 20245 20248 20251 20254 20257 20260 20263 20266 20269 20272 20275 20278 20281 20284 20287 20290 20293 20296 20299 20302 20305 20308 20310 20313 20316 20319 20322 20325 20328 20331 20334 20337 20339 20342 20345 20348 20351 20354 20357 20360 20362 20365 20368 20371 20374 20377 20380 20383 20386 20389 20392 20395 20398 20401 20404 20407 20410 20413 20416 20419 20421 20423 20426 20429 20431 20434 20436 20439 20442 20445 20448 20451 20454 20457 20460 20463 20466 20469 20472 20475 20478 20481 20484 20487 20490 20493 20496 20499 20502 20505 20508 20511 20514 20517 20520 20523 20526 20529 20532 20535 20538 20541 20544 20547 20550 20553 20556 20559 20562 20565 20568 20571 20574 20577 20580 20583 20586 20589 20592 20595 20598 20601 20603 20605 20608 20611 20614 20617 20620 20623 20626 20629 20632 20635 20638 20641 20644 20647 20650 20653 20656 20659 20662 20665 20667 20670 20673 20676 20679 20682 20685 20688 20691 20694 20697 20699 20702 20705 20708 20710 20713 20716 20719 20722 20725 20728 20730 20733 20736 20739 20742 20745 20748 20751 20754 20757 20760 20763 20766 20769 20771 20774 20777 20780 20783 20786 20789 20791 20793 20796 20798 20801 20804 20806 20809 20812 20815 20817 20820 20823 20826 20828 20831 20834 20837 20840 20843 20845 20848 20850 20853 20856 20859 20862 20864 20867 20870 20873 20876 20878 20881 20883 20886 20889 20891 20893 20896 20899 20902 20905 20908 20910 20913 20916 20919 20922 20925 20927 20929 20931 20934 20936 20939 20941 20944 20947 20950 20953 20956 20958 20961 20964 20967 20970 20973 20976 20979 20982 20984 20986 20989 20992 20994 20997 21000 21003 21006 21008 21011 21014 21016 21019 21022 21024 21027 21030 21033 21036 21039 21042 21045 21048 21051 21053 21056 21059 21062 21065 21068 21071 21074 21077 21079 21082 21085 21088 21091 21094 21097 21100 21103 21106 21108 21110 21113 21116 21119 21122 21125 21128 21131 21134 21137 21140 21143 21146 21149 21152 21155 21158 21161 21164 21167 21170 21173 21176 21179 21182 21185 21188 21191 21194 21197 21200 21203 21206 21209 21212 21215 21217 21220 21223 21226 21229 21231 21234 21237 21240 21243 21246 21249 21252 21255 21258 21261 21264 21267 21270 21273 21276 21279 21281 21283 21286 21289 21292 21295 21298 21301 21304 21307 21310 21312 21315 21318 21321 21324 21326 21329 21332 21334 21337 21340 21343 21346 21349 21352 21355 21358 21361 21364 21367 21370 21373 21375 21378 21381 21384 21387 21390 21393 21396 21399 21402 21405 21408 21411 21414 21417 21420 21423 21426 21429 21432 21435 21438 21441 21444 21447 21450 21452 21455 21458 21461 21464 21467 21469 21472 21475 21478 21480 21483 21486 21489 21491 21493 21496 21499 21502 21505 21508 21511 21514 21517 21520 21523 21526 21529 21532 21535 21537 21540 21543 21546 21548 21551 21554 21557 21560 21562 21564 21567 21570 21573 21576 21579 21582 21585 21588 21591 21594 21597 21600 21603 21606 21609 21612 21615 21618 21621 21624 21627 21630 21633 21635 21638 21641 21644 21647 21650 21653 21656 21659 21662 21664 21667 21670 21673 21676 21678 21681 21683 21686 21689 21692 21695 21697 21700 21703 21706 21709 21712 21715 21718 21721 21724 21727 21730 21733 21736 21739 21742 21744 21747 21750 21752 21755 21758 21761 21764 21767 21770 21773 21776 21779 21782 21784 21786 21789 21792 21795 21798 21800 21803 21806 21809 21811 21814 21817 21820 21823 21825 21827 21830 21832 21835 21837 21840 21842 21845 21848 21850 21853 21856 21858 21861 21864 21866 21869 21872 21875 21877 21880 21883 21885 21888 21890 21893 21895 21898 21901 21903 21906 21909 21912 21915 21918 21921 21924 21927 21930 21933 21936 21939 21942 21944 21947 21950 21953 21956 21959 21962 21965 21968 21971 21974 21977 21980 21983 21986 21989 21992 21994 21996 21999 22002 22005 22008 22011 22013 22016 22019 22022 22025 22027 22030 22033 22035 22038 22041 22044 22047 22049 22052 22055 22058 22061 22064 22067 22070 22073 22076 22079 22082 22085 22088 22091 22094 22097 22100 22103 22106 22109 22112 22115 22118 22121 22124 22127 22130 22133 22136 22139 22142 22145 22148 22151 22154 22157 22160 22163 22165 22168 22171 22174 22177 22180 22183 22186 22189 22192 22195 22198 22201 22204 22206 22209 22211 22214 22217 22220 22223 22225 22228 22231 22234 22237 22240 22243 22246 22249 22252 22255 22258 22261 22264 22267 22270 22273 22276 22279 22281 22284 22286 22289 22292 22294 22297 22300 22303 22305 22308 22311 22314 22317 22320 22323 22326 22329 22332 22335 22338 22341 22344 22347 22350 22353 22356 22359 22362 22365 22368 22371 22374 22377 22380 22383 22386 22388 22391 22394 22396 22399 22402 22405 22408 22411 22414 22417 22420 22423 22426 22429 22432 22435 22438 22441 22444 22447 22450 22453 22456 22459 22462 22465 22468 22471 22474 22477 22480 22483 22486 22489 22492 22495 22498 22501 22503 22506 22508 22511 22514 22517 22520 22523 22526 22529 22532 22535 22538 22541 22544 22547 22550 22553 22556 22559 22561 22563 22566 22569 22572 22575 22578 22580 22583 22586 22589 22592 22594 22597 22600 22603 22606 22608 22611 22614 22617 22620 22623 22626 22629 22632 22635 22638 22641 22644 22647 22650 22653 22656 22659 22662 22664 22667 22670 22673 22676 22679 22682 22684 22687 22690 22692 22695 22698 22701 22704 22707 22710 22713 22716 22719 22722 22725 22728 22730 22733 22736 22738 22741 22744 22747 22750 22753 22756 22759 22762 22764 22767 22770 22773 22776 22779 22782 22784 22787 22790 22792 22795 22798 22801 22804 22807 22810 22813 22816 22819 22822 22825 22828 22831 22834 22837 22840 22843 22846 22849 22852 22855 22858 22861 22864 22867 22870 22873 22876 22879 22882 22885 22888 22891 22894 22897 22900 22902 22905 22908 22911 22913 22916 22919 22921 22924 22927 22930 22933 22936 22939 22941 22944 22947 22950 22953 22956 22958 22961 22964 22967 22970 22973 22976 22978 22981 22984 22987 22990 22992 22995 22997 23000 23003 23005 23008 23011 23014 23016 23019 23022 23025 23028 23031 23034 23037 23040 23043 23046 23049 23052 23055 23057 23060 23063 23066 23069 23072 23075 23078 23081 23084 23087 23090 23093 23096 23099 23102 23105 23108 23111 23114 23117 23120 23123 23126 23129 23131 23134 23136 23139 23141 23144 23146 23149 23152 23155 23158 23160 23163 23166 23169 23172 23174 23177 23180 23183 23186 23189 23192 23195 23198 23201 23204 23207 23210 23213 23216 23218 23221 23224 23227 23229 23232 23235 23238 23240 23243 23246 23248 23251 23254 23257 23259 23262 23265 23268 23271 23273 23276 23279 23282 23285 23287 23290 23293 23296 23299 23302 23305 23308 23311 23314 23317 23319 23322 23325 23328 23331 23334 23336 23339 23341 23344 23347 23350 23353 23356 23358 23360 23363 23366 23368 23371 23373 23376 23379 23381 23384 23387 23390 23393 23396 23399 23402 23405 23408 23411 23414 23417 23420 23422 23425 23428 23431 23434 23437 23439 23442 23445 23448 23451 23454 23457 23460 23463 23466 23469 23471 23474 23476 23479 23482 23484 23487 23490 23492 23495 23497 23500 23502 23505 23508 23511 23514 23517 23519 23521 23524 23527 23530 23533 23536 23539 23542 23545 23548 23551 23554 23556 23559 23562 23565 23568 23571 23573 23576 23579 23582 23584 23587 23589 23592 23595 23598 23601 23604 23607 23610 23613 23616 23619 23622 23625 23628 23631 23634 23636 23639 23642 23645 23648 23650 23653 23656 23659 23662 23665 23668 23671 23674 23677 23680 23683 23686 23689 23692 23695 23698 23701 23704 23707 23710 23713 23716 23719 23721 23724 23727 23729 23732 23735 23738 23741 23744 23747 23750 23752 23755 23758 23760 23763 23765 23768 23771 23774 23777 23780 23783 23786 23789 23792 23794 23797 23800 23802 23805 23808 23811 23813 23816 23819 23822 23825 23828 23831 23834 23836 23839 23842 23845 23848 23850 23852 23855 23858 23861 23864 23867 23870 23873 23876 23879 23881 23884 23887 23890 23893 23896 23899 23902 23905 23908 23911 23914 23917 23920 23923 23926 23929 23931 23934 23936 23939 23942 23945 23947 23950 23953 23956 23959 23962 23965 23968 23971 23974 23977 23980 23983 23986 23988 23991 23994 23997 24000 24003 24005 24008 24011 24014 24016 24018 24021 24024 24027 24029 24032 24035 24037 24040 24043 24046 24049 24051 24053 24056 24059 24062 24064 24067 24070 24072 24075 24078 24081 24084 24086 24089 24091 24094 24097 24100 24102 24105 24108 24111 24114 24117 24120 24123 24126 24129 24132 24135 24138 24141 24144 24147 24150 24153 24156 24159 24162 24165 24167 24170 24173 24176 24179 24182 24185 24188 24191 24194 24196 24199 24202 24205 24207 24210 24212 24215 24218 24221 24224 24227 24230 24233 24236 24239 24242 24245 24247 24250 24253 24256 24259 24262 24264 24267 24270 24273 24276 24279 24281 24284 24287 24290 24293 24296 24299 24302 24305 24308 24311 24314 24317 24320 24323 24326 24329 24331 24334 24337 24340 24343 24346 24349 24352 24355 24358 24360 24363 24366 24369 24372 24375 24378 24381 24384 24387 24390 24393 24396 24399 24402 24405 24407 24410 24413 24416 24419 24422 24425 24428 24431 24434 24437 24440 24443 24446 24449 24452 24455 24458 24461 24464 24467 24470 24473 24476 24479 24482 24485 24488 24491 24494 24496 24499 24502 24505 24508 24510 24513 24515 24517 24520 24523 24526 24529 24532 24535 24537 24540 24542 24545 24548 24551 24553 24556 24559 24561 24564 24567 24570 24573 24576 24579 24581 24584 24587 24590 24593 24596 24599 24602 24604 24607 24610 24613 24616 24618 24621 24624 24627 24630 24633 24636 24638 24641 24644 24647 24650 24653 24656 24659 24662 24665 24668 24671 24674 24676 24679 24681 24684 24687 24690 24693 24696 24699 24702 24704 24706 24709 24712 24715 24718 24721 24724 24727 24730 24732 24735 24738 24741 24743 24746 24749 24751 24754 24757 24760 24763 24766 24769 24772 24775 24778 24781 24784 24787 24790 24793 24796 24799 24802 24805 24808 24811 24814 24817 24820 24823 24826 24828 24831 24834 24836 24839 24842 24845 24848 24851 24853 24856 24859 24861 24864 24866 24869 24872 24875 24877 24880 24883 24886 24889 24891 24894 24897 24899 24901 24904 24907 24910 24913 24916 24918 24921 24924 24926 24929 24932 24935 24938 24941 24943 24946 24949 24952 24955 24958 24961 24964 24967 24970 24972 24975 24978 24981 24984 24986 24989 24992 24995 24998 25001 25004 25006 25009 25011 25014 25017 25020 25022 25025 25027 25030 25033 25035 25038 25040 25043 25046 25049 25051 25054 25057 25060 25063 25066 25069 25072 25075 25078 25081 25084 25087 25090 25092 25095 25098 25101 25104 25106 25109 25112 25115 25118 25121 25124 25126 25129 25132 25135 25138 25141 25144 25147 25149 25152 25155 25158 25161 25164 25167 25169 25172 25175 25178 25181 25184 25187 25190 25192 25195 25198 25200 25203 25206 25209 25212 25215 25218 25221 25224 25227 25229 25231 25234 25237 25240 25243 25246 25249 25252 25255 25258 25261 25264 25267 25269 25272 25275 25278 25281 25284 25287 25290 25292 25295 25298 25301 25303 25306 25308 25311 25314 25316 25319 25322 25325 25328 25331 25333 25336 25339 25342 25344 25347 25350 25353 25356 25358 25361 25364 25367 25369 25372 25375 25378 25381 25384 25387 25390 25392 25395 25398 25400 25403 25406 25409 25411 25414 25417 25420 25422 25425 25428 25431 25434 25436 25439 25442 25445 25447 25450 25453 25456 25459 25462 25465 25468 25471 25474 25476 25479 25482 25485 25488 25491 25494 25497 25500 25503 25505 25508 25511 25514 25517 25519 25522 25525 25527 25530 25533 25536 25539 25542 25545 25548 25551 25554 25557 25560 25563 25566 25569 25572 25575 25578 25581 25584 25587 25590 25593 25596 25599 25602 25605 25607 25610 25613 25616 25619 25622 25625 25628 25631 25634 25637 25640 25642 25645 25648 25651 25653 25656 25659 25662 25665 25668 25671 25673 25676 25679 25682 25685 25688 25691 25694 25697 25700 25703 25706 25709 25712 25715 25718 25721 25724 25727 25730 25733 25736 25739 25742 25745 25748 25751 25753 25756 25758 25761 25764 25766 25768 25771 25774 25777 25780 25783 25786 25789 25792 25795 25798 25801 25804 25807 25810 25813 25816 25819 25821 25824 25827 25830 25833 25836 25839 25842 25845 25848 25851 25854 25857 25860 25863 25866 25869 25872 25875 25878 25881 25884 25887 25890 25893 25896 25899 25902 25905 25908 25911 25914 25917 25920 25923 25926 25929 25932 25935 25938 25941 25944 25947 25950 25953 25956 25959 25962 25965 25968 25971 25974 25977 25980 25983 25986 25989 25992 25995 25998 26001 26004 26006 26009 26012 26014 26017 26020 26023 26026 26028 26031 26034 26037 26040 26043 26046 26049 26052 26055 26058 26060 26063 26065 26068 26071 26074 26076 26079 26082 26085 26087 26090 26092 26095 26098 26101 26103 26106 26108 26111 26113 26116 26119 26122 26124 26127 26130 26133 26136 26138 26141 26143 26146 26149 26152 26155 26158 26160 26163 26165 26167 26170 26173 26176 26179 26182 26185 26187 26190 26193 26196 26198 26201 26204 26207 26210 26213 26216 26219 26222 26225 26228 26231 26234 26237 26240 26243 26246 26249 26252 26255 26257 26260 26263 26266 26268 26270 26273 26276 26279 26282 26285 26287 26290 26293 26296 26299 26302 26305 26308 26311 26314 26317 26320 26323 26326 26329 26331 26334 26337 26339 26342 26344 26347 26350 26353 26355 26358 26360 26363 26366 26368 26371 26374 26377 26380 26383 26386 26389 26392 26395 26398 26401 26403 26406 26409 26412 26415 26418 26421 26424 26427 26430 26433 26435 26437 26440 26443 26446 26449 26452 26455 26458 26460 26463 26466 26469 26472 26475 26478 26481 26484 26487 26490 26493 26496 26499 26502 26504 26507 26510 26513 26516 26519 26522 26525 26528 26531 26534 26536 26539 26542 26545 26547 26550 26552 26554 26557 26560 26563 26566 26569 26572 26575 26578 26580 26583 26586 26589 26592 26595 26598 26601 26604 26607 26609 26612 26614 26617 26619 26622 26625 26628 26631 26634 26637 26640 26643 26645 26648 26650 26653 26656 26659 26662 26665 26668 26670 26673 26676 26678 26681 26683 26686 26689 26692 26695 26698 26701 26704 26707 26710 26713 26716 26719 26722 26725 26727 26730 26733 26736 26739 26742 26745 26748 26751 26754 26757 26759 26762 26765 26768 26771 26774 26777 26779 26782 26785 26788 26791 26794 26797 26800 26803 26806 26809 26812 26815 26818 26821 26824 26827 26830 26833 26836 26839 26842 26845 26848 26851 26854 26856 26859 26862 26865 26868 26871 26873 26876 26879 26882 26885 26888 26891 26894 26897 26900 26903 26906 26908 26911 26914 26917 26920 26922 26925 26928 26931 26934 26937 26939 26942 26945 26948 26951 26954 26956 26959 26962 26964 26967 26970 26973 26976 26979 26982 26985 26988 26991 26994 26997 27000 27003 27006 27009 27012 27015 27018 27021 27024 27027 27030 27033 27036 27039 27042 27044 27047 27050 27052 27055 27058 27061 27064 27067 27070 27073 27076 27079 27082 27085 27088 27091 27094 27097 27099 27102 27105 27108 27111 27114 27117 27120 27123 27126 27128 27131 27134 27137 27140 27143 27146 27149 27151 27154 27157 27160 27163 27166 27168 27171 27174 27177 27180 27183 27186 27188 27191 27194 27197 27200 27202 27205 27208 27211 27214 27217 27220 27223 27225 27228 27231 27233 27236 27239 27241 27244 27247 27250 27253 27255 27258 27261 27264 27267 27270 27273 27276 27279 27281 27284 27287 27289 27292 27295 27298 27301 27304 27307 27310 27313 27316 27318 27321 27324 27327 27330 27333 27335 27338 27341 27344 27347 27349 27352 27355 27358 27360 27363 27366 27369 27372 27375 27378 27381 27384 27387 27390 27393 27395 27397 27400 27403 27406 27409 27412 27415 27418 27421 27424 27427 27430 27432 27435 27438 27441 27444 27447 27449 27452 27454 27456 27459 27461 27463 27466 27469 27471 27474 27477 27480 27483 27486 27489 27491 27494 27496 27498 27501 27504 27507 27510 27513 27515 27518 27521 27524 27527 27530 27533 27536 27539 27541 27544 27547 27550 27553 27555 27558 27561 27564 27567 27570 27572 27575 27578 27580 27583 27586 27589 27592 27595 27598 27601 27603 27606 27608 27611 27614 27617 27620 27623 27626 27629 27631 27633 27636 27639 27642 27645 27648 27651 27654 27656 27659 27662 27665 27668 27671 27674 27676 27679 27682 27685 27688 27691 27694 27697 27700 27703 27706 27709 27712 27715 27718 27720 27723 27726 27728 27731 27734 27737 27740 27742 27745 27748 27751 27754 27756 27759 27762 27765 27768 27771 27774 27776 27779 27782 27785 27788 27791 27794 27797 27799 27802 27805 27808 27810 27813 27816 27819 27822 27824 27827 27830 27832 27835 27838 27841 27844 27847 27850 27853 27855 27858 27861 27864 27867 27869 27872 27874 27877 27880 27883 27886 27889 27892 27895 27898 27901 27904 27907 27910 27913 27916 27918 27921 27924 27927 27930 27933 27936 27939 27941 27944 27947 27949 27952 27955 27957 27960 27963 27966 27969 27972 27975 27978 27981 27984 27986 27989 27992 27995 27997 28000 28003 28006 28009 28012 28015 28018 28021 28024 28026 28029 28032 28035 28038 28041 28044 28047 28050 28053 28056 28059 28061 28064 28067 28070 28072 28075 28078 28081 28084 28087 28090 28093 28096 28099 28102 28105 28107 28110 28113 28116 28119 28122 28125 28128 28131 28134 28137 28139 28142 28145 28148 28151 28154 28156 28159 28162 28165 28168 28171 28174 28177 28180 28182 28185 28188 28190 28193 28196 28198 28201 28204 28207 28210 28212 28214 28217 28220 28223 28226 28228 28231 28234 28237 28240 28242 28245 28248 28250 28253 28256 28259 28262 28264 28267 28270 28272 28275 28278 28281 28284 28287 28289 28292 28295 28298 28301 28304 28307 28310 28313 28315 28318 28320 28323 28326 28329 28332 28335 28338 28341 28344 28347 28349 28351 28354 28357 28360 28363 28366 28369 28371 28374 28377 28379 28382 28385 28387 28390 28392 28395 28398 28401 28403 28406 28409 28411 28414 28417 28420 28423 28426 28429 28432 28435 28437 28439 28442 28445 28447 28449 28452 28455 28458 28461 28463 28466 28469 28472 28474 28477 28479 28482 28484 28486 28488 28491 28493 28496 28499 28502 28504 28507 28510 28513 28516 28519 28522 28525 28528 28531 28533 28536 28539 28541 28544 28547 28550 28553 28556 28559 28561 28564 28567 28570 28573 28576 28579 28581 28583 28585 28588 28591 28594 28597 28600 28603 28606 28609 28612 28615 28618 28620 28623 28626 28629 28632 28634 28637 28640 28643 28646 28649 28652 28655 28658 28660 28663 28666 28668 28671 28674 28677 28679 28682 28685 28688 28691 28694 28697 28700 28703 28706 28708 28711 28714 28717 28720 28723 28726 28729 28732 28734 28737 28740 28743 28745 28748 28751 28753 28756 28759 28762 28764 28767 28769 28772 28775 28777 28780 28782 28785 28788 28790 28793 28796 28799 28802 28805 28808 28810 28813 28816 28818 28821 28824 28827 28830 28833 28836 28839 28842 28845 28848 28851 28854 28857 28860 28863 28866 28869 28872 28875 28878 28881 28884 28887 28890 28893 28896 28899 28902 28905 28908 28911 28914 28917 28920 28923 28926 28929 28932 28935 28938 28941 28944 28947 28950 28953 28956 28959 28962 28965 28968 28971 28974 28977 28980 28983 28986 28989 28992 28995 28998 29001 29004 29007 29010 29013 29016 29019 29022 29025 29028 29031 29034 29037 29040 29043 29046 29049 29052 29055 29058 29061 29064 29067 29070 29073 29076 29079 29082 29085 29088 29091 29094 29097 29100 29103 29106 29108 29111 29114 29117 29120 29122 29125 29128 29131 29134 29137 29140 29143 29146 29149 29152 29155 29158 29160 29162 29165 29168 29171 29174 29177 29180 29183 29186 29189 29192 29195 29198 29201 29204 29207 29209 29212 29215 29218 29220 29223 29226 29229 29232 29235 29238 29241 29244 29247 29250 29252 29255 29257 29260 29263 29266 29269 29272 29275 29278 29281 29284 29287 29290 29293 29296 29299 29302 29305 29308 29311 29314 29317 29320 29323 29326 29329 29331 29334 29337 29340 29343 29345 29348 29351 29354 29357 29360 29363 29366 29369 29371 29374 29377 29380 29383 29386 29389 29392 29395 29398 29401 29404 29407 29410 29413 29416 29419 29422 29425 29428 29431 29434 29437 29440 29443 29446 29449 29452 29455 29458 29461 29464 29467 29470 29473 29476 29479 29482 29485 29488 29491 29494 29497 29500 29503 29506 29509 29512 29515 29518 29520 29523 29526 29529 29532 29535 29538 29541 29544 29547 29550 29553 29556 29559 29562 29565 29568 29571 29574 29577 29580 29583 29586 29589 29592 29595 29598 29601 29604 29607 29610 29613 29616 29618 29621 29624 29627 29630 29633 29636 29638 29641 29644 29647 29650 29653 29656 29658 29661 29664 29666 29669 29671 29674 29676 29679 29682 29685 29688 29690 29693 29696 29699 29702 29705 29707 29710 29713 29716 29718 29720 29723 29726 29729 29731 29734 29737 29740 29743 29745 29747 29750 29753 29756 29759 29762 29765 29768 29771 29774 29777 29780 29783 29786 29789 29791 29794 29797 29799 29802 29805 29807 29809 29812 29815 29818 29821 29824 29827 29830 29833 29836 29839 29841 29844 29846 29849 29852 29855 29858 29861 29864 29867 29870 29873 29876 29879 29881 29884 29887 29890 29893 29896 29899 29902 29904 29907 29910 29913 29916 29919 29922 29925 29928 29931 29934 29937 29940 29943 29946 29949 29952 29955 29958 29960 29962 29965 29968 29971 29974 29977 29980 29983 29986 29989 29992 29995 29998 30001 30004 30007 30010 30013 30015 30018 30021 30024 30027 30030 30033 30036 30039 30042 30044 30047 30050 30053 30056 30059 30062 30065 30068 30071 30074 30077 30080 30082 30085 30088 30091 30094 30096 30099 30101 30104 30107 30110 30113 30116 30119 30122 30125 30128 30130 30133 30136 30139 30142 30144 30147 30150 30153 30156 30158 30161 30163 30166 30169 30172 30175 30178 30181 30184 30187 30190 30193 30196 30199 30201 30204 30207 30210 30213 30216 30219 30222 30225 30228 30231 30234 30237 30240 30243 30246 30248 30251 30253 30256 30259 30261 30264 30267 30270 30272 30275 30277 30280 30283 30285 30288 30291 30293 30296 30298 30301 30304 30307 30310 30313 30316 30319 30321 30323 30326 30329 30332 30335 30337 30339 30342 30345 30347 30349 30352 30354 30357 30360 30362 30364 30367 30370 30372 30375 30378 30380 30383 30386 30389 30392 30395 30398 30401 30404 30406 30409 30412 30414 30417 30419 30422 30425 30428 30430 30433 30436 30439 30442 30445 30448 30451 30454 30456 30459 30462 30465 30468 30471 30474 30477 30480 30483 30486 30489 30492 30495 30498 30501 30504 30507 30510 30513 30516 30519 30522 30524 30527 30530 30533 30536 30539 30542 30545 30548 30551 30554 30557 30560 30563 30566 30569 30572 30575 30578 
</DataArray>
<DataArray type="UInt32" Name="types" format="ascii">
5 5 5 5 5 5 3 5 5 5 3 5 5 5 3 5 5 5 5 5 5 3 3 5 5 5 5 3 3 5 3 3 5 3 5 5 5 3 5 5 3 5 5 5 5 5 5 5 3 5 5 5 5 5 5 5 5 3 5 5 3 5 3 5 3 5 3 5 5 5 5 5 5 5 5 5 5 5 5 5 5 5 5 3 5 5 5 5 5 5 5 5 3 5 5 3 3 5 5 5 5 5 5 5 5 5 5 5 5 3 5 5 5 5 5 3 5 5 3 5 5 5 5 5 5 5 5 5 5 5 5 5 5 5 5 5 5 5 3 5 5 5 5 5 3 5 5 5 5 5 5 5 5 5 5 5 5 5 5 5 5 5 5 5 5 5 5 5 5 3 5 3 5 5 5 3 5 5 5 3 5 5 5 3 3 5 5 3 5 5 5 5 3 5 5 5 5 5 3 5 5 5 5 3 5 3 5 5 3 5 5 5 3 5 5 3 5 5 5 5 5 5 5 5 5 5 3 5 5 3 5 5 5 5 5 5 5 3 5 5 5 5 5 5 5 5 5 5 5 5 5 5 5 5 5 5 5 5 5 3 5 3 5 5 5 5 5 3 5 5 5 5 5 5 5 5 3 5 5 5 3 5 5 3 5 5 5 5 3 5 5 3 5 5 5 5 5 3 5 3 5 5 5 5 5 5 5 5 5 5 5 5 5 5 5 5 5 5 3 5 5 5 5 5 3 3 5 5 5 5 5 5 5 5 5 5 3 5 5 5 5 5 5 5 5 5 3 5 5 3 3 5 5 5 3 5 5 3 5 5 5 5 5 5 5 5 5 5 5 5 5 5 5 3 5 5 5 5 5 5 5 5 3 5 5 3 5 5 5 5 3 5 5 5 5 5 5 5 5 5 5 5 5 5 5 3 3 5 5 3 3 5 3 5 3 5 3 5 5 3 5 5 5 5 5 5 5 5 5 3 3 5 5 3 5 5 5 5 5 3 5 5 3 5 5 5 5 3 5 5 5 3 5 5 5 3 5 3 5 5 3 5 5 5 5 5 5 5 5 5 5 5 3 5 5 5 5 5 5 3 5 5 5 3 5 5 5 5 5 5 5 3 5 5 5 5 5 3 5 3 5 5 5 5 5 3 3 5 5 5 3 3 5 3 5 5 5 5 5 5 5 3 5 5 5 5 5 5 5 5 5 5 5 5 5 5 3 5 5 3 5 3 5 5 5 5 5 5 5 5 5 5 5 5 5 5 3 5 5 5 5 5 5 5 5 5 5 5 5 5 5 5 5 3 5 5 5 5 5 5 5 5 5 5 5 3 3 5 5 5 5 5 5 5 5 5 5 5 5 5 5 5 5 3 5 5 5 5 5 5 5 3 5 5 5 5 5 5 5 5 3 5 5 5 3 5 5 5 5 5 5 5 5 5 5 5 5 5 5 5 5 5 5 5 5 5 5 5 5 5 5 5 5 3 5 3 5 5 5 5 5 5 5 5 5 5 5 5 5 3 5 5 5 3 5 5 5 5 5 5 5 5 5 5 5 5 5 3 3 5 5 5 5 5 5 5 3 5 5 5 5 5 5 5 5 5 5 5 3 5 5 5 5 5 5 5 3 5 5 5 5 5 5 5 5 5 5 5 5 5 5 5 5 5 3 5 5 5 5 5 5 5 5 5 5 3 5 5 5 5 5 3 5 5 5 3 5 5 5 5 3 5 5 5 5 5 5 5 3 5 3 5 5 3 5 3 5 5 5 5 5 5 5 5 5 5 5 5 5 5 5 5 5 5 5 5 5 5 5 5 5 5 5 5 5 5 5 5 5 5 5 3 5 3 3 5 5 5 5 5 5 5 5 5 5 5 3 5 5 5 5 5 5 5 3 5 3 5 3 5 5 5 5 5 5 3 5 3 3 5 5 5 5 5 5 5 5 5 5 5 5 5 5 5 5 5 3 5 5 5 5 5 5 5 5 5 5 5 5 5 5 3 5 5 5 5 5 5 5 5 5 5 5 5 5 3 5 5 5 5 5 5 5 5 5 3 5 5 5 5 5 3 3 5 5 5 5 3 3 5 5 5 5 5 5 5 5 5 5 5 3 5 5 5 5 3 5 5 5 5 5 5 3 5 5 3 5 3 5 5 5 3 5 5 5 5 5 5 5 3 5 5 5 5 3 3 5 5 3 5 5 5 3 3 3 3 5 5 3 5 5 5 5 5 5 5 5 3 3 5 5 5 5 5 5 3 5 3 5 5 5 3 5 5 5 5 5 5 5 5 5 5 5 5 5 5 5 5 5 5 5 5 5 5 5 5 5 5 5 5 3 5 5 5 5 5 5 5 5 5 5 5 5 5 5 5 5 5 5 5 5 5 3 5 5 5 5 5 5 5 5 5 3 5 5 5 5 5 5 3 5 5 5 5 5 3 5 5 5 5 5 3 5 5 5 5 5 5 5 5 5 5 3 5 5 5 5 3 3 5 5 3 5 5 5 5 3 5 5 3 5 5 5 5 5 3 3 5 5 5 5 5 5 3 5 5 5 5 5 5 5 3 3 5 5 5 3 5 5 5 3 5 5 3 5 3 5 5 5 3 5 5 3 3 5 5 5 5 5 5 3 5 3 5 3 5 5 5 3 3 5 3 5 5 5 5 5 5 5 5 5 5 5 5 5 5 5 5 3 5 5 5 5 5 5 5 3 5 5 5 5 5 3 5 5 5 3 5 5 5 5 3 5 3 5 3 5 5 5 5 3 5 5 3 5 5 5 5 5 5 5 5 5 5 5 3 5 5 5 5 3 5 5 5 5 3 5 5 5 5 5 5 3 5 5 5 3 5 3 3 5 5 5 5 5 5 5 5 5 5 5 5 5 5 5 5 5 5 5 5 5 5 5 5 5 5 5 5 3 5 5 3 3 5 3 5 5 5 5 3 5 5 3 5 5 5 5 5 5 5 5 5 5 5 5 5 5 5 5 5 5 5 5 5 5 5 5 5 5 5 5 3 5 5 5 5 5 5 5 5 3 5 5 5 5 5 5 5 3 5 3 5 5 5 3 5 5 5 5 5 5 5 3 5 3 5 5 5 5 5 3 5 5 5 5 5 5 5 5 5 5 5 5 5 5 5 5 5 5 5 5 5 5 5 5 5 5 5 5 5 5 5 5 5 5 5 5 5 5 5 3 3 5 5 3 5 5 5 3 5 5 5 3 3 5 5 3 5 5 5 5 5 5 5 5 5 5 5 5 5 5 5 5 5 5 5 5 5 3 5 3 5 5 5 5 5 5 5 5 5 5 5 5 5 5 5 5 5 5 5 5 5 5 5 5 5 5 5 5 5 5 5 5 5 5 5 5 5 5 5 5 5 5 5 5 5 3 5 3 5 3 5 5 3 5 5 5 5 5 5 5 5 5 5 5 5 5 5 5 5 5 5 5 5 5 5 5 5 5 5 5 3 5 5 5 5 5 5 5 5 5 5 5 5 5 5 5 5 5 5 5 5 5 5 5 5 5 5 5 5 5 5 5 5 5 5 5 5 5 5 5 5 5 5 5 5 5 5 5 5 5 3 5 5 5 5 3 5 5 5 5 5 5 5 5 3 5 5 5 5 5 3 3 3 5 5 5 5 3 3 5 5 3 5 5 5 5 5 5 5 5 5 5 5 5 5 5 3 3 5 3 5 5 5 5 5 5 5 5 5 5 5 5 5 5 5 5 5 5 3 5 5 5 5 5 5 3 5 5 5 5 5 5 5 5 5 5 5 5 5 5 5 5 5 5 3 5 5 5 5 5 5 5 5 5 3 5 5 3 5 5 5 5 5 5 5 5 5 5 5 5 5 5 5 5 3 5 3 5 5 5 5 3 5 3 5 5 3 3 5 5 3 5 5 5 3 5 5 5 5 5 5 3 5 5 5 3 5 5 5 5 3 5 5 5 5 5 5 5 3 5 5 5 5 5 3 5 5 3 5 5 5 5 5 5 5 3 5 5 5 3 3 5 5 5 3 5 5 5 5 5 3 3 3 5 5 5 5 5 5 5 5 5 3 3 5 3 5 5 5 5 5 3 5 5 3 5 3 5 5 5 3 5 5 3 5 5 5 5 5 5 5 3 5 5 3 3 5 5 3 5 3 5 5 3 5 5 3 5 3 5 5 5 3 5 5 3 5 3 5 5 3 5 3 5 5 5 5 3 3 5 5 5 5 5 5 5 5 5 3 5 5 5 5 5 5 5 5 5 5 5 5 5 5 5 5 5 5 3 3 5 5 5 3 5 5 5 5 3 5 5 3 5 5 5 3 5 5 3 5 5 5 5 3 5 5 5 5 5 3 5 5 5 3 3 5 5 3 5 5 5 5 5 3 3 5 5 5 5 3 5 5 5 5 3 5 5 5 5 5 5 5 5 5 5 5 5 5 5 5 5 5 5 5 5 5 5 5 5 5 5 5 5 3 5 5 5 5 5 5 5 5 5 5 5 3 5 5 5 5 3 5 5 5 3 5 5 3 5 5 5 5 5 3 5 5 5 5 5 5 5 5 5 5 5 5 5 5 5 5 5 5 5 5 3 5 5 5 5 5 3 5 5 5 5 5 5 5 3 5 5 5 5 5 5 5 5 5 5 5 5 5 3 5 5 5 5 5 3 3 5 5 5 5 3 5 3 5 5 5 3 3 5 5 3 5 5 5 3 5 5 5 5 3 5 5 3 3 5 5 5 5 5 5 3 5 5 3 5 5 5 5 3 5 5 5 5 5 5 5 5 5 5 5 5 5 5 5 5 5 5 5 3 5 3 5 5 5 3 5 3 5 3 5 5 3 5 5 3 3 3 5 5 5 3 5 5 5 5 5 5 3 5 5 5 5 5 5 5 3 5 3 5 5 5 5 5 5 5 3 5 5 5 5 5 5 5 5 5 5 5 3 5 5 3 5 5 5 5 5 5 5 5 5 5 5 5 5 5 5 5 3 5 5 5 5 5 5 5 5 5 5 5 5 5 5 5 5 5 5 5 5 5 3 5 5 5 3 5 5 5 5 5 5 5 5 5 5 3 5 5 5 5 5 5 5 5 5 5 3 5 5 5 5 5 5 3 5 5 5 3 5 5 5 5 5 5 5 5 5 5 5 5 5 5 5 5 5 5 5 5 5 3 5 5 5 5 5 3 5 5 3 5 5 5 5 5 5 3 5 5 5 5 3 5 5 5 5 5 5 5 5 5 5 5 5 5 5 5 5 5 5 3 5 5 5 5 5 3 5 5 5 3 5 3 5 5 5 5 5 5 5 3 5 5 5 3 3 5 5 5 5 5 3 5 5 5 3 5 5 5 5 5 5 5 5 5 5 5 5 5 5 5 3 5 5 5 5 5 5 3 5 5 5 5 5 5 5 5 5 5 5 3 5 5 5 5 5 5 5 5 5 3 5 5 5 5 3 3 5 5 5 5 5 5 5 5 3 3 5 3 5 5 5 5 5 3 5 5 5 5 5 5 3 5 3 5 5 5 5 5 5 5 5 5 5 3 5 5 5 5 5 5 3 5 5 5 5 5 5 5 5 3 5 5 5 5 5 3 5 5 3 5 5 5 5 5 5 3 5 5 5 5 5 5 5 5 3 5 5 5 5 3 5 5 5 5 5 5 5 5 5 5 3 5 5 5 5 5 5 5 5 5 3 5 5 5 5 3 5 5 5 5 5 5 5 5 3 5 3 5 5 5 3 5 5 5 5 5 5 5 5 3 5 5 5 3 5 5 5 3 5 5 3 5 5 5 5 5 5 5 5 5 5 5 5 5 5 5 5 5 5 5 5 5 5 5 5 5 5 5 5 5 5 5 5 5 5 5 5 5 5 5 5 5 5 5 5 5 5 5 5 5 5 5 5 5 3 5 5 5 3 5 5 5 5 5 5 3 5 3 5 5 5 5 3 3 5 5 5 5 5 5 5 5 5 5 5 5 5 5 5 5 5 5 5 5 5 5 3 5 5 3 5 5 5 3 5 5 5 5 5 5 5 5 5 5 5 5 5 5 3 5 3 5 3 5 5 5 5 5 5 5 5 5 5 5 5 5 5 5 5 5 3 5 5 5 5 5 5 5 5 5 5 5 5 5 5 5 5 5 5 5 5 5 5 5 5 5 5 5 5 5 5 5 5 5 3 5 5 5 5 5 5 3 5 5 3 5 3 5 5 3 5 5 5 3 5 5 5 5 5 5 5 5 5 5 5 5 5 5 5 5 5 5 5 5 5 5 5 5 5 3 5 5 5 5 3 5 5 3 5 5 5 5 5 5 5 5 5 5 5 5 5 5 5 5 5 5 5 5 5 5 5 5 5 5 5 5 5 5 3 5 5 5 3 5 5 5 5 3 5 5 5 5 5 3 5 5 5 5 3 5 5 5 5 5 5 5 5 5 5 5 5 5 5 3 3 5 3 5 3 5 5 5 5 5 5 5 5 5 5 5 5 5 5 5 5 5 5 5 5 5 5 5 5 5 3 3 5 5 3 5 5 3 5 5 5 5 5 5 5 5 5 5 5 3 5 5 3 5 5 5 5 5 5 5 5 5 5 5 5 5 5 3 3 5 3 3 5 5 5 5 3 5 5 5 3 3 5 5 5 5 5 5 5 3 5 5 5 5 5 5 5 5 5 5 5 5 5 5 5 5 3 5 5 5 5 3 5 5 5 5 5 5 5 3 5 5 5 5 5 5 5 3 5 5 3 5 5 5 5 5 5 5 5 5 5 5 5 5 5 5 3 5 5 5 5 5 5 5 5 3 5 5 5 5 5 5 5 3 5 5 5 5 5 3 5 5 5 5 3 5 5 5 5 5 5 5 5 5 5 5 5 3 5 5 5 5 5 5 5 5 5 5 5 5 5 5 3 5 5 5 5 5 5 5 5 5 5 5 5 5 3 3 5 5 3 5 5 5 5 3 5 5 5 3 5 5 3 5 5 5 5 3 5 5 5 5 5 5 5 5 5 5 5 5 5 5 5 5 5 5 5 5 5 5 5 5 5 5 5 5 5 5 5 5 5 5 3 5 5 5 3 5 3 5 5 5 5 5 5 5 5 5 5 5 5 5 5 3 5 5 5 5 5 5 5 5 3 5 5 5 3 5 5 5 5 5 5 5 3 5 3 5 5 5 5 5 5 5 5 5 5 5 5 5 5 3 5 5 3 5 5 5 5 5 5 5 3 5 5 5 5 5 5 5 5 5 5 5 5 5 5 5 5 5 5 5 5 5 5 5 5 5 5 5 3 5 5 3 5 5 5 3 5 5 3 5 5 5 5 5 5 5 5 5 5 5 5 5 5 5 5 5 5 5 3 5 5 5 5 5 5 5 5 5 5 5 5 5 3 5 5 5 5 5 5 5 5 5 5 5 5 5 5 5 5 5 5 5 3 5 5 5 5 5 5 5 5 5 5 5 5 5 5 5 5 3 5 5 3 5 5 5 3 5 5 3 5 5 5 5 5 5 5 5 5 5 5 5 5 5 3 5 5 3 5 5 5 5 5 5 5 5 5 5 5 5 5 5 5 5 5 5 5 5 5 5 5 5 5 5 5 5 5 5 5 5 5 5 5 5 3 5 5 5 5 3 5 5 5 5 5 5 5 5 5 5 5 5 5 5 5 3 5 3 3 5 5 3 5 3 5 5 5 5 5 5 5 5 3 5 5 3 5 5 5 5 3 3 5 3 5 5 5 5 5 5 5 5 5 5 5 5 5 5 5 5 5 5 5 5 5 3 5 5 5 5 5 5 5 5 5 5 5 5 5 5 5 5 5 5 5 5 5 5 5 5 5 3 5 5 5 5 5 3 5 5 5 5 5 5 5 5 5 3 5 5 5 5 5 5 5 5 5 5 5 5 5 5 5 5 5 3 3 5 5 3 5 5 5 3 5 5 5 5 5 5 5 5 5 5 3 5 5 3 5 3 5 5 5 5 3 5 5 5 3 5 5 5 5 5 5 3 5 5 5 5 5 5 3 5 5 5 5 5 5 5 5 5 5 5 5 5 5 3 5 5 3 5 5 5 3 3 5 5 5 5 5 5 5 5 5 5 3 5 5 5 3 5 5 5 5 3 5 5 5 5 5 5 5 5 3 5 5 5 5 5 3 3 5 5 5 3 5 3 3 5 5 5 5 5 3 5 5 5 5 5 5 3 5 5 5 5 5 5 5 3 5 5 3 5 5 3 5 5 5 5 5 5 5 5 5 5 5 5 5 5 3 5 5 5 3 5 5 3 5 5 5 5 3 5 5 5 5 5 5 5 5 3 5 5 5 5 3 5 5 5 5 5 5 5 5 3 5 5 5 5 5 5 5 5 5 3 5 5 5 3 5 5 3 5 5 3 5 5 5 5 5 5 5 5 5 3 5 5 5 5 5 5 5 5 5 5 5 5 5 5 5 5 3 5 5 5 5 5 5 5 5 5 5 5 5 5 5 5 5 5 5 5 5 5 5 5 5 5 5 3 5 3 5 5 5 5 5 5 5 5 5 5 3 5 5 3 5 5 5 5 5 5 5 5 5 5 5 5 5 5 5 5 5 5 5 5 5 3 5 5 5 5 5 5 5 5 5 3 5 3 5 5 5 5 5 5 5 3 5 3 5 5 5 5 5 5 5 5 5 5 5 3 5 5 5 5 3 5 3 5 5 5 5 5 5 3 5 5 3 5 5 3 5 5 5 3 3 3 5 5 5 5 5 5 5 5 5 5 5 5 5 3 5 5 5 5 5 5 5 3 5 3 5 3 5 5 3 3 5 5 5 5 5 5 3 5 5 5 5 3 5 3 5 3 5 3 5 5 5 5 3 5 5 5 5 5 3 5 5 5 5 5 5 5 5 5 5 5 5 5 5 3 5 5 5 5 5 3 5 5 5 3 5 5 5 5 5 5 5 5 5 5 5 5 5 5 5 5 5 3 5 5 5 5 3 5 5 5 5 5 5 3 5 5 5 5 5 5 5 5 5 5 3 5 5 3 5 3 5 5 5 5 5 5 5 5 5 5 5 3 5 5 5 5 5 5 3 5 3 3 5 3 5 5 5 5 5 5 5 3 5 5 5 5 5 5 5 5 5 5 5 5 5 5 5 5 3 5 5 5 5 5 5 5 5 5 5 3 5 5 5 5 5 5 5 5 5 5 3 5 5 5 5 3 5 5 5 5 5 3 5 5 5 5 3 5 5 5 5 5 5 5 5 5 5 5 5 5 5 5 5 5 5 3 5 5 5 5 5 5 5 5 3 5 3 3 5 5 5 5 5 3 5 5 5 5 5 5 5 5 5 5 5 5 5 5 3 5 5 3 5 3 3 5 5 5 5 5 5 3 5 5 5 5 3 5 3 5 5 3 5 5 5 5 5 5 3 3 5 5 5 5 5 5 5 5 5 5 5 5 5 5 5 3 5 5 5 5 5 5 5 3 5 3 5 5 5 3 5 3 5 5 5 5 5 5 5 5 3 5 5 5 5 5 3 5 3 5 5 5 5 3 5 5 5 5 5 3 5 5 5 5 5 5 5 5 5 5 5 5 5 5 5 5 5 5 5 5 5 5 5 5 3 5 5 5 3 5 3 5 5 5 3 5 5 5 5 5 5 5 5 5 5 5 5 5 5 5 5 5 3 3 3 3 5 5 5 5 5 5 3 5 5 5 3 5 5 5 5 5 5 5 5 5 5 3 3 3 5 5 3 3 5 5 5 5 5 5 5 5 5 3 5 5 5 5 5 5 5 5 3 3 5 5 5 3 5 5 5 5 5 5 5 5 5 5 5 3 5 3 5 5 5 5 5 3 3 5 5 3 3 5 5 5 5 5 5 5 5 5 5 5 5 5 5 5 5 5 5 5 5 5 5 5 5 5 5 5 5 5 5 5 5 5 5 5 5 5 5 5 5 5 5 3 3 5 5 5 5 5 5 5 5 5 5 5 5 5 5 5 5 5 5 5 5 3 5 5 5 5 5 5 5 5 5 5 5 5 5 5 5 5 3 5 3 5 5 5 5 5 5 5 5 3 5 5 5 5 5 5 5 5 5 5 5 3 5 5 3 5 5 3 5 5 5 5 3 5 5 5 5 3 5 5 3 5 3 5 5 5 5 5 3 5 5 5 5 5 5 5 3 5 5 5 5 5 5 5 5 5 5 5 5 5 5 5 5 5 5 5 5 5 5 5 5 3 5 5 5 3 5 5 3 5 5 5 3 5 5 5 5 3 5 3 5 5 5 5 5 5 5 5 3 5 5 5 5 5 5 5 5 5 5 3 5 5 3 5 5 3 5 5 3 3 5 5 5 5 5 5 5 3 3 5 5 5 3 5 5 3 3 5 5 5 3 3 5 3 5 5 3 5 5 5 5 3 5 3 3 5 5 5 3 5 3 3 5 3 3 3 3 5 3 5 3 5 3 5 5 5 3 5 5 3 5 3 3 5 5 5 5 3 5 3 3 5 5 5 3 3 5 5 3 3 5 5 5 5 3 5 5 5 5 3 5 5 5 5 3 5 3 5 3 5 3 5 3 5 3 5 5 5 5 5 3 5 5 3 3 3 5 5 3 3 5 3 5 5 3 5 5 5 5 5 5 3 5 5 3 5 3 5 5 5 5 3 5 3 5 3 5 5 5 3 5 5 3 5 3 5 3 5 5 5 5 5 3 5 5 5 5 5 5 5 5 5 5 3 5 5 5 5 3 5 5 3 5 5 5 5 5 3 5 5 3 5 5 5 3 5 3 5 5 5 3 5 5 5 5 3 5 5 5 5 3 3 5 5 5 5 5 5 3 5 5 3 5 5 5 5 5 5 5 5 5 5 5 5 5 5 5 5 5 5 5 5 5 5 5 5 5 5 5 5 5 5 5 5 5 5 5 5 5 5 5 5 5 5 5 5 5 5 5 5 5 5 5 5 5 5 5 5 5 5 3 5 5 5 5 5 5 5 5 5 5 5 5 3 5 5 3 5 5 5 3 5 5 5 5 5 5 5 5 5 5 5 5 5 5 5 3 5 5 5 5 5 5 5 5 5 5 5 5 5 5 5 5 3 5 5 5 5 5 5 5 5 5 5 5 5 5 3 5 5 3 5 5 3 5 3 5 5 5 5 5 5 5 3 5 5 5 5 5 5 5 5 5 5 5 5 3 5 5 5 3 5 5 5 5 5 5 5 5 5 3 5 5 5 5 5 5 3 5 5 5 5 5 5 3 5 5 5 3 5 5 5 5 5 5 5 3 5 5 5 5 5 5 5 5 5 5 3 5 5 5 5 5 5 5 5 5 5 5 5 5 5 5 5 3 5 3 5 5 5 5 5 5 5 5 5 5 3 5 3 5 5 5 5 5 5 5 5 5 5 5 3 5 5 5 5 5 5 5 5 5 5 5 3 5 5 5 5 5 5 5 3 5 5 5 5 5 5 5 3 5 5 5 5 5 5 5 5 5 5 5 3 5 5 5 5 5 5 5 5 3 5 3 5 5 5 5 5 5 5 5 5 5 3 5 5 5 3 5 5 5 5 5 5 5 5 5 3 5 5 5 5 5 5 5 5 5 5 5 5 5 5 5 5 3 5 5 5 5 5 5 5 5 5 5 5 5 5 5 5 5 5 5 3 5 5 3 5 5 3 5 5 5 5 5 3 5 5 5 5 5 5 5 5 5 5 5 5 5 5 5 5 5 5 5 5 5 5 5 5 5 5 5 5 5 5 5 5 5 5 5 5 5 5 5 5 5 5 5 5 5 5 5 5 5 5 5 5 5 5 5 5 5 5 5 3 5 5 3 5 5 5 5 5 5 5 5 5 5 5 5 5 5 5 5 5 5 5 5 5 5 5 5 3 3 5 5 5 5 5 5 5 5 5 5 5 5 5 5 5 5 3 3 5 5 5 5 5 5 5 3 5 3 5 5 3 3 5 5 5 5 5 5 5 5 5 5 5 3 5 3 5 5 5 3 5 5 5 3 5 3 5 5 5 5 5 3 3 5 5 5 5 5 5 5 5 5 5 5 5 5 5 5 5 5 5 5 5 5 5 5 5 5 5 5 5 5 5 5 5 5 5 5 5 5 5 5 5 5 5 5 5 5 5 5 5 5 5 5 5 5 5 5 5 5 5 5 5 5 5 5 5 5 5 5 5 5 5 5 5 5 5 5 5 5 5 5 5 5 5 5 5 5 5 5 5 5 5 5 5 5 5 5 5 5 5 5 5 5 5 5 5 3 3 5 3 5 3 5 5 3 5 5 5 5 3 5 5 5 5 5 5 5 3 3 3 5 5 5 5 5 3 3 5 5 5 5 5 5 5 5 5 5 5 5 5 5 5 5 5 5 5 5 5 5 5 5 5 5 5 5 5 5 5 5 5 5 3 5 5 3 5 5 5 5 5 5 5 5 5 5 5 3 5 5 5 5 5 5 5 3 5 5 5 5 5 5 5 5 5 5 5 5 5 5 5 5 3 5 5 3 5 5 5 5 5 5 5 5 5 5 5 5 5 5 5 5 5 5 5 5 5 5 5 3 5 5 3 5 5 3 5 5 5 5 5 5 5 3 5 5 5 5 5 5 3 5 5 3 5 5 5 5 3 5 3 5 5 3 5 5 5 5 3 5 3 5 5 3 5 5 5 5 5 5 5 5 5 5 5 5 3 5 5 5 3 5 5 3 5 5 5 5 3 5 5 5 5 5 5 5 5 5 5 3 5 5 5 5 5 5 5 5 5 5 3 5 5 5 5 5 5 5 5 5 5 5 5 3 5 5 3 5 5 5 5 5 5 5 5 5 5 3 5 5 5 5 5 3 5 3 3 5 5 3 5 5 5 5 5 5 5 5 5 3 3 5 5 5 5 5 5 3 5 5 5 5 5 5 5 5 5 5 5 5 5 5 5 5 5 5 5 5 5 5 5 5 5 3 5 5 5 5 5 5 5 5 5 5 5 5 5 5 5 5 5 5 5 5 5 5 5 5 5 5 5 5 5 5 5 5 5 5 5 5 5 5 5 5 3 5 5 5 5 5 5 5 5 5 5 3 5 5 5 3 5 3 5 5 5 3 5 5 5 3 5 3 5 3 5 3 3 5 5 3 5 5 5 3 5 5 5 5 5 3 5 5 5 5 3 5 5 5 3 5 5 5 5 3 5 3 5 5 5 5 5 5 5 5 5 5 5 5 5 5 3 5 5 5 5 3 5 5 3 5 5 3 3 5 5 3 5 3 5 5 5 3 3 3 3 5 5 3 5 5 5 5 3 5 3 5 5 3 3 3 5 3 5 5 3 3 3 5 5 5 5 5 5 5 5 5 3 3 5 5 5 5 3 3 5 5 5 3 5 3 5 5 5 5 5 5 5 5 5 5 5 3 5 5 5 5 5 5 5 5 5 5 5 5 5 5 5 5 5 5 5 5 5 5 5 3 5 5 5 5 5 5 5 5 5 5 5 5 5 5 5 5 3 5 5 3 5 5 5 5 5 5 5 5 5 3 5 5 5 3 3 5 5 3 5 5 5 5 5 3 5 3 5 5 5 3 5 5 5 5 5 5 5 3 5 5 3 5 5 5 5 3 5 5 5 3 3 5 5 3 5 5 5 3 5 5 5 5 5 5 5 3 5 5 3 5 3 3 3 5 3 5 3 3 5 5 5 5 5 5 3 5 5 3 5 5 5 5 5 5 5 5 5 5 5 5 5 5 5 5 5 5 5 5 5 5 5 5 5 5 5 5 5 5 5 5 5 5 5 3 3 5 5 5 5 5 5 5 5 3 3 3 3 5 5 3 5 5 5 5 5 5 5 5 3 5 5 3 5 5 5 3 5 5 5 5 3 5 5 5 5 5 5 5 5 5 5 5 5 5 5 3 5 5 5 5 5 3 5 5 5 5 5 5 5 5 3 5 5 5 3 3 5 5 3 3 5 5 5 5 5 3 5 5 5 5 5 5 3 5 3 5 5 5 5 5 5 5 5 3 3 5 3 3 3 5 3 5 5 5 5 5 5 3 5 5 5 5 5 5 5 3 5 5 5 5 5 5 5 5 5 5 5 5 5 5 5 5 5 5 5 5 5 5 5 5 5 5 5 5 5 5 5 5 5 5 5 5 5 5 5 5 5 5 5 5 5 5 5 5 5 5 5 5 5 5 5 5 5 3 5 5 5 5 5 5 5 3 5 5 3 5 5 5 3 5 3 5 5 3 5 5 5 5 5 5 5 3 5 5 5 3 5 5 5 5 5 5 5 3 5 3 5 5 5 5 5 5 5 5 5 5 5 5 5 5 5 5 5 5 5 5 5 5 5 5 5 3 3 5 3 5 5 5 5 5 5 5 3 5 3 5 3 3 3 5 5 3 5 5 3 5 5 5 3 5 5 5 5 5 5 5 3 3 5 5 3 5 5 5 3 5 5 5 5 3 5 3 5 5 5 5 5 5 3 5 3 5 5 5 5 5 3 5 5 3 5 5 5 5 5 5 5 5 5 5 5 5 5 5 5 5 3 5 5 3 3 5 3 5 5 5 5 5 5 5 5 3 5 5 5 5 5 5 5 5 5 5 5 5 5 5 5 5 3 5 5 5 3 5 5 3 5 5 5 5 5 5 3 5 5 5 5 5 5 5 5 5 5 5 5 5 5 5 5 5 5 5 3 3 5 5 5 5 5 5 5 3 5 5 5 3 5 5 3 5 3 5 5 3 5 3 3 5 3 5 3 5 3 5 5 5 5 5 5 5 5 5 5 5 5 5 5 5 3 3 5 5 5 5 5 5 5 3 5 5 5 5 5 5 5 5 5 5 5 5 5 5 5 3 5 3 5 5 5 5 5 5 3 5 5 5 3 5 5 5 3 5 5 5 5 5 5 5 5 5 5 5 5 5 5 5 5 5 5 5 5 5 3 5 5 5 5 3 5 5 5 5 5 3 5 5 5 3 5 5 5 5 5 5 5 5 5 5 5 5 3 5 5 5 5 3 5 5 5 5 5 5 5 5 3 5 5 5 5 5 5 5 3 5 5 5 5 3 5 5 5 5 5 5 5 5 3 5 5 5 5 5 5 5 5 5 3 5 5 5 5 5 5 5 5 5 5 5 5 5 5 5 5 5 5 5 5 5 5 5 5 5 5 5 5 3 5 5 5 5 5 5 5 3 5 5 5 5 5 5 5 5 5 5 5 5 5 5 5 5 5 5 5 5 5 5 5 5 5 5 5 5 5 3 5 5 5 5 5 5 5 5 5 5 5 5 5 5 5 5 5 5 5 5 5 5 5 5 5 5 5 5 5 5 5 5 3 5 5 3 5 5 5 5 3 5 5 3 5 5 5 5 3 5 5 5 3 5 5 5 3 5 5 5 5 5 5 5 5 5 5 3 5 5 3 5 5 5 5 5 5 3 5 5 5 5 5 3 5 5 5 5 3 5 5 5 5 5 5 5 5 5 5 3 5 5 5 5 5 5 5 5 5 3 5 5 5 5 5 5 5 5 5 5 5 5 5 3 5 5 5 5 5 5 5 3 5 5 5 5 5 3 5 5 5 5 5 5 5 5 5 5 5 5 5 5 3 5 5 5 5 5 5 5 5 3 5 5 5 5 5 5 5 5 5 5 5 5 5 5 5 5 5 5 5 5 5 5 5 5 5 5 5 5 5 5 5 5 5 3 5 5 5 5 3 3 5 5 3 5 5 3 5 5 3 5 5 5 5 5 5 5 5 5 5 5 5 5 5 5 5 5 5 5 3 5 5 5 5 3 5 5 5 5 5 5 5 5 5 5 5 5 5 5 5 5 5 5 5 5 5 5 5 5 5 5 5 5 5 5 5 5 5 5 5 5 5 5 5 5 5 5 5 5 5 5 5 5 5 5 5 5 5 5 5 5 5 5 5 5 5 5 5 5 5 5 5 5 5 5 5 3 5 5 5 5 3 5 3 5 5 3 5 5 5 5 3 5 5 3 5 5 5 5 5 5 5 5 5 5 5 5 5 5 5 5 5 5 5 5 5 5 5 5 5 5 5 5 5 5 5 5 5 5 5 5 5 5 5 5 5 5 5 5 5 5 5 5 5 5 5 5 5 5 5 5 5 5 5 5 3 5 5 5 5 5 5 5 5 5 3 5 5 5 5 5 5 5 3 5 5 5 5 5 5 5 5 5 5 5 5 5 5 5 5 5 5 5 3 3 5 5 3 5 3 5 5 5 5 5 5 5 5 5 5 5 5 5 5 5 5 5 5 5 5 5 5 5 5 5 5 5 5 5 5 5 5 5 5 5 5 5 5 5 5 5 5 5 5 5 5 5 5 5 5 5 5 5 5 5 3 3 5 5 5 5 5 5 5 5 5 5 5 5 5 5 5 5 5 5 5 5 3 5 5 5 5 5 5 5 5 5 5 3 5 5 5 3 5 5 5 5 5 5 3 5 5 5 5 5 5 5 5 5 5 5 5 5 3 5 5 5 5 5 5 3 3 5 3 5 5 3 5 5 5 3 5 5 5 3 5 5 5 5 5 3 5 3 5 5 5 5 3 5 5 5 5 3 5 3 5 5 3 3 5 5 5 5 5 3 5 5 5 5 5 3 3 3 5 3 5 3 5 5 5 5 5 3 5 5 5 5 5 5 5 5 3 3 5 5 3 5 5 5 5 3 5 5 3 5 5 3 5 5 5 5 5 5 5 5 5 3 5 5 5 5 5 5 5 5 3 5 5 5 5 5 5 5 5 5 3 3 5 5 5 5 5 5 5 5 5 5 5 5 5 5 5 5 5 5 5 5 5 5 5 5 5 5 5 5 5 5 5 5 5 5 5 3 5 5 5 5 3 5 5 5 5 5 5 5 5 5 5 5 5 5 5 5 5 3 3 5 5 5 5 5 5 5 5 5 3 5 5 5 5 3 5 5 3 5 5 5 5 5 5 5 5 5 5 5 5 5 3 5 5 5 5 5 5 5 5 5 5 5 5 5 5 5 5 5 5 5 5 5 5 5 5 5 3 5 5 5 5 5 3 5 5 5 3 5 5 5 3 3 5 5 5 5 5 5 5 5 5 5 5 5 5 5 3 5 5 5 3 5 5 5 5 3 3 5 5 5 5 5 5 5 5 5 5 5 5 5 5 5 5 5 5 5 5 5 5 5 3 5 5 5 5 5 5 5 5 5 3 5 5 5 5 3 5 3 5 5 5 5 3 5 5 5 5 5 5 5 5 5 5 5 5 5 5 5 3 5 5 3 5 5 5 5 5 5 5 5 5 5 3 3 5 5 5 5 3 5 5 5 3 5 5 5 5 3 3 5 3 5 3 5 3 5 5 3 5 5 3 5 5 3 5 5 5 3 5 5 3 5 3 5 3 5 5 3 5 5 5 5 5 5 5 5 5 5 5 5 5 3 5 5 5 5 5 5 5 5 5 5 5 5 5 5 5 5 3 3 5 5 5 5 5 3 5 5 5 5 3 5 5 3 5 5 5 5 3 5 5 5 5 5 5 5 5 5 5 5 5 5 5 5 5 5 5 5 5 5 5 5 5 5 5 5 5 5 5 5 5 5 5 5 5 5 5 3 5 5 5 5 5 5 5 5 5 5 5 5 5 3 5 3 5 5 5 5 3 5 5 5 5 5 5 5 5 5 5 5 5 5 5 5 5 5 5 3 5 3 5 5 3 5 5 5 3 5 5 5 5 5 5 5 5 5 5 5 5 5 5 5 5 5 5 5 5 5 5 5 5 5 5 5 3 5 5 3 5 5 5 5 5 5 5 5 5 5 5 5 5 5 5 5 5 5 5 5 5 5 5 5 5 5 5 5 5 5 5 5 5 5 5 3 5 3 5 5 5 5 5 5 5 5 5 5 5 5 5 5 5 5 5 3 3 5 5 5 5 5 3 5 5 5 5 3 5 5 5 5 3 5 5 5 5 5 5 5 5 5 5 5 5 5 5 5 5 5 5 3 5 5 5 5 5 5 3 5 5 3 5 5 5 5 5 5 5 5 5 5 5 5 3 5 5 3 5 5 5 5 5 5 5 5 3 5 5 5 5 5 5 3 5 5 3 5 5 5 5 5 5 5 5 5 5 5 5 5 5 5 5 5 5 5 5 5 5 5 5 5 5 5 5 5 5 5 5 5 5 5 5 3 5 5 5 3 5 5 3 5 5 5 5 5 5 3 5 5 5 5 5 3 5 5 5 5 5 5 3 5 5 5 5 3 5 3 5 5 3 5 5 5 3 5 5 5 5 5 5 5 5 5 5 5 5 5 3 5 5 5 5 5 5 5 5 5 5 5 5 5 5 5 5 5 5 5 5 5 5 5 5 3 5 3 5 3 5 3 5 5 5 5 3 5 5 5 5 3 5 5 5 5 5 5 5 5 5 5 5 5 5 5 3 5 5 5 3 5 5 5 3 5 5 3 5 5 5 3 5 5 5 5 3 5 5 5 5 3 5 5 5 5 5 5 5 5 5 5 3 5 5 5 5 5 3 5 3 5 5 5 5 5 3 3 5 5 3 5 3 5 5 3 5 5 5 5 5 5 5 5 5 5 5 5 5 3 5 5 5 5 5 3 5 5 5 5 5 5 5 5 5 5 3 5 3 5 5 3 5 5 3 5 3 5 3 5 5 5 5 5 3 3 5 5 5 5 5 5 5 5 5 5 5 3 5 5 5 5 5 3 5 5 5 3 5 3 5 5 5 5 5 5 5 5 5 5 5 5 5 5 5 3 5 5 5 5 3 5 5 5 5 5 5 5 5 5 5 5 5 5 5 5 5 5 5 5 5 5 5 5 3 5 5 3 5 5 5 5 5 5 5 3 5 5 3 5 3 5 5 5 5 5 5 5 5 5 3 5 5 3 5 5 5 3 5 5 5 5 5 5 5 3 5 5 5 5 3 3 5 5 5 5 5 5 5 5 5 3 5 5 5 5 5 5 5 5 5 5 5 5 5 5 5 5 3 5 3 5 5 5 3 5 5 5 5 5 5 5 5 5 5 5 5 5 3 5 5 5 5 5 3 5 5 5 3 3 5 5 5 3 5 5 3 5 5 5 5 3 3 5 5 5 3 5 5 3 5 5 5 5 3 5 3 5 5 5 3 5 5 5 5 5 5 5 5 5 5 5 5 5 5 5 5 5 5 5 5 5 3 5 5 5 5 5 5 5 5 5 3 5 5 5 3 5 3 5 5 5 5 5 5 5 5 5 5 5 3 5 5 5 5 5 3 5 5 5 5 5 3 5 5 5 5 5 5 5 5 5 5 5 5 5 5 5 5 3 5 5 5 5 5 5 5 5 5 3 5 5 5 5 5 5 5 5 5 5 5 5 5 5 5 3 5 5 5 5 5 5 5 5 5 5 5 5 5 5 5 5 5 5 5 5 5 5 5 5 5 5 5 5 5 3 5 5 5 5 3 5 3 3 5 5 5 5 5 5 3 5 3 5 5 5 3 5 5 3 5 5 5 5 5 5 3 5 5 5 5 5 5 5 3 5 5 5 5 3 5 5 5 5 5 5 3 5 5 5 5 5 5 5 5 5 5 5 5 3 5 3 5 5 5 5 5 5 5 3 3 5 5 5 5 5 5 5 5 3 5 5 5 3 5 5 3 5 5 5 5 5 5 5 5 5 5 5 5 5 5 5 5 5 5 5 5 5 5 5 5 5 3 5 5 3 5 5 5 5 5 3 5 5 3 5 3 5 5 5 3 5 5 5 5 3 5 5 3 3 5 5 5 5 5 3 5 5 3 5 5 5 5 5 3 5 5 5 5 5 5 5 5 5 3 5 5 5 5 3 5 5 5 5 5 5 3 5 3 5 5 5 3 5 3 5 5 3 5 3 5 5 5 3 5 5 5 5 5 5 5 5 5 5 5 5 5 3 5 5 5 5 3 5 5 5 5 5 5 3 5 5 5 5 5 5 5 3 5 5 5 5 5 5 3 5 5 5 5 5 5 5 3 5 5 3 5 5 5 5 5 5 5 5 5 3 3 5 5 5 5 5 5 5 5 5 5 5 5 3 5 5 5 5 5 5 5 3 5 5 5 3 5 3 5 5 3 5 5 5 5 5 3 5 5 5 3 5 5 5 5 3 5 5 5 3 5 5 5 5 5 5 5 3 5 5 3 5 5 5 3 5 5 5 3 5 5 5 5 3 5 5 5 3 5 5 5 5 5 5 5 5 5 3 5 5 5 5 5 5 5 5 5 3 5 5 5 5 3 5 5 3 5 5 5 5 5 5 5 5 5 5 5 5 5 5 5 5 5 5 5 5 5 5 5 5 5 5 3 5 5 5 5 5 5 5 5 5 5 5 3 5 5 5 3 5 5 5 5 5 5 3 5 5 5 5 5 5 5 5 5 5 5 5 5 5 5 5 5 5 5 5 5 5 5 5 5 5 3 5 3 5 5 3 3 5 5 5 5 5 5 5 5 5 5 5 5 5 5 5 5 5 3 5 5 5 5 5 5 5 5 5 5 5 5 5 5 5 5 5 5 5 5 5 5 5 5 5 5 5 5 5 5 5 5 5 5 5 5 5 5 5 5 5 5 5 5 5 5 5 5 5 5 5 5 5 5 5 5 5 5 5 5 5 3 5 5 3 5 5 5 5 3 5 5 5 5 5 5 5 5 5 5 3 5 3 5 5 5 3 5 5 5 3 5 3 5 5 5 3 5 3 5 3 5 5 5 3 5 5 5 5 3 5 3 5 5 5 5 5 3 5 3 3 5 5 5 5 5 5 3 5 5 5 3 5 5 5 5 5 5 5 5 5 5 5 5 5 5 5 5 5 5 5 3 5 5 5 3 3 5 5 5 5 5 3 5 5 5 5 5 5 5 5 5 5 5 5 5 5 3 5 5 3 5 3 5 5 5 3 5 3 5 5 3 5 5 5 5 5 5 5 5 5 5 5 3 5 5 5 5 5 5 5 5 5 5 3 3 5 5 5 5 5 5 5 3 5 5 5 5 5 5 5 5 5 5 5 5 5 5 3 5 5 5 5 5 5 5 5 5 5 3 5 5 5 3 5 3 3 5 5 5 5 5 5 5 5 3 5 5 5 5 5 5 5 5 5 3 5 3 5 3 5 5 5 5 5 5 5 5 3 5 3 5 5 5 5 5 5 3 5 5 3 5 3 5 5 5 5 5 5 5 5 5 5 5 5 5 5 3 5 5 5 5 5 5 5 5 5 5 3 5 5 5 5 5 5 3 5 5 5 5 5 5 5 5 5 5 5 5 5 5 5 5 5 5 5 5 5 5 5 5 5 3 5 5 5 5 5 3 5 5 5 5 5 5 5 5 5 5 5 3 5 5 5 5 3 5 5 5 5 5 3 5 5 5 5 5 3 5 5 3 5 5 5 5 5 5 5 5 5 5 5 5 5 5 5 5 5 5 5 5 5 5 5 5 5 5 3 5 5 3 5 5 5 5 5 5 5 5 5 5 5 5 5 5 5 3 5 5 5 5 5 5 5 5 5 3 5 5 5 5 5 5 5 3 5 5 5 5 5 3 5 5 5 5 5 5 3 5 5 5 5 3 5 5 5 5 5 5 5 3 5 5 3 5 5 3 5 5 5 5 3 5 5 5 5 5 5 5 5 3 5 5 3 5 5 5 5 5 5 5 5 5 3 5 5 5 5 5 3 5 5 5 5 3 5 5 5 3 5 5 5 5 5 5 5 5 5 5 5 3 3 5 5 5 5 5 5 5 5 5 5 5 3 5 5 5 5 5 3 5 3 3 5 3 3 5 5 3 5 5 5 5 5 5 3 5 3 3 5 5 5 5 5 3 5 5 5 5 5 5 5 5 3 5 5 5 5 3 5 5 5 5 5 3 5 5 3 5 5 5 5 5 5 5 3 5 3 5 5 5 5 5 5 5 3 3 5 5 5 5 5 5 5 3 5 5 5 5 5 5 3 5 5 5 5 5 5 5 5 5 5 5 5 5 5 3 5 5 3 5 5 5 5 3 5 5 5 5 3 5 5 5 5 5 5 3 5 5 5 5 5 5 5 3 5 5 5 3 5 5 5 5 3 5 5 3 5 5 5 5 5 5 5 3 5 5 5 5 3 5 3 5 5 5 5 5 5 5 5 5 5 5 5 5 5 3 5 5 5 5 5 5 5 3 5 5 3 5 5 3 5 5 5 5 5 5 5 5 5 3 5 5 5 3 5 5 5 5 5 5 5 5 5 3 5 5 5 5 5 5 5 5 5 5 5 3 5 5 5 3 5 5 5 5 5 5 5 5 5 5 5 3 5 5 5 5 5 5 5 5 5 5 3 5 5 5 5 5 3 5 5 5 5 5 5 5 5 3 5 5 3 5 5 3 5 5 5 5 3 3 5 5 5 5 3 5 5 5 5 3 5 5 3 5 5 5 5 3 5 5 3 5 5 5 5 5 3 5 5 5 5 5 5 5 5 3 5 3 5 5 5 5 5 5 5 5 5 3 3 5 5 5 5 5 5 3 5 5 3 5 5 3 5 3 5 5 5 3 5 5 3 5 5 5 5 5 5 5 5 3 3 5 5 3 3 5 5 5 5 3 5 5 5 3 5 3 5 3 3 3 5 3 5 5 5 3 5 5 5 5 5 5 5 5 5 3 5 5 3 5 5 5 5 5 5 3 5 5 5 5 5 5 3 3 3 5 5 5 5 5 5 5 5 5 5 5 3 5 5 5 5 3 5 5 5 5 5 5 5 5 3 5 5 3 5 5 5 3 5 5 5 5 5 5 5 5 5 3 5 5 5 5 5 5 5 5 3 5 5 5 3 5 5 3 5 5 5 3 5 3 5 5 3 5 3 5 5 3 5 5 5 5 5 5 3 5 5 3 5 5 5 5 5 5 5 5 5 5 5 5 5 5 5 5 5 5 5 5 5 5 5 5 5 5 5 5 5 5 5 5 5 5 5 5 5 5 5 5 5 5 5 5 5 5 5 5 5 5 5 5 5 5 5 5 5 5 5 5 5 5 5 5 5 5 5 5 5 5 5 5 5 5 5 5 5 5 5 5 5 5 5 5 5 5 5 5 5 5 5 5 5 5 5 5 3 5 5 5 5 3 5 5 5 5 5 5 5 5 5 5 5 5 3 3 5 5 5 5 5 5 5 5 5 5 5 5 5 5 5 3 5 5 5 3 5 5 5 5 5 5 5 5 5 5 3 5 3 5 5 5 5 5 5 5 5 5 5 5 5 5 5 5 5 5 5 5 5 5 5 5 5 3 5 5 5 5 3 5 5 5 5 5 5 5 5 3 5 5 5 5 5 5 5 5 5 5 5 5 5 5 5 5 5 5 5 5 5 5 5 5 5 5 5 5 5 5 5 5 5 5 5 5 5 5 5 5 5 5 5 5 5 5 5 5 5 3 5 5 5 5 5 5 5 5 5 5 5 5 5 5 5 5 5 5 5 5 5 5 5 5 5 5 5 5 5 5 5 5 3 5 5 5 5 5 5 3 5 5 5 5 5 5 3 5 5 3 5 3 5 3 5 5 5 5 3 5 5 5 5 5 3 5 5 5 3 3 5 5 5 3 5 5 5 5 3 3 5 5 5 5 5 5 5 5 5 5 5 5 5 5 3 5 5 3 5 5 3 3 5 5 5 5 5 5 5 5 5 5 3 5 3 5 5 5 5 5 5 5 5 5 5 5 3 5 5 5 5 5 5 5 3 5 5 5 5 5 5 5 5 5 5 5 5 5 5 5 5 5 5 3 3 5 5 5 5 5 5 5 5 5 5 5 5 5 5 5 5 5 3 5 5 5 5 5 5 5 5 5 3 5 5 5 5 5 5 5 5 5 5 5 5 3 5 5 5 5 3 5 3 5 5 5 5 5 5 5 5 5 3 5 5 5 5 3 5 5 5 5 3 5 3 5 5 5 5 5 5 5 5 5 5 5 5 3 5 5 5 5 5 5 5 5 5 5 5 5 5 5 5 3 5 3 5 5 3 5 5 5 3 5 3 5 5 3 5 5 3 5 3 5 5 5 5 5 5 5 3 3 5 5 5 5 3 3 5 5 3 3 5 3 5 5 3 3 5 5 3 5 5 3 5 5 5 5 5 5 5 5 3 5 5 3 5 3 5 5 5 3 5 5 5 5 5 5 5 5 3 5 5 5 5 5 5 5 5 5 5 5 5 5 5 5 5 5 5 5 5 5 5 3 5 5 5 5 5 5 5 5 5 5 5 5 5 5 5 5 5 5 
</DataArray>
</Cells>
<PointData Scalars="" Vectors="displacement," Tensors="">
<DataArray type="Float64" Name="displacement" NumberOfComponents="3" format="ascii">
0.054995802458053002 1.6740021098965392e-06 0 0.053356015449990635 0.00020696184949145328 0 0.054997878658161803 -3.6051847965587385e-07 0 0.054995802458053002 1.6740021098965392e-06 0 0.053356015449990635 0.00020696184949145328 0 0.048082607127480741 -2.9778207742733514e-06 0 0.053356015449990635 0.00020696184949145328 0 0.052446902706115892 2.9126773888205045e-06 0 0.048082607127480741 -2.9778207742733514e-06 0 0.053356015449990635 0.00020696184949145328 0 0.052446902706115892 2.9126773888205045e-06 0 0.053453820183156343 5.1627270353184845e-05 0 0.052446902706115892 2.9126773888205045e-06 0 0.052982961182144121 -0.00072793683649306946 0 0.053453820183156343 5.1627270353184845e-05 0 0.052446902706115892 2.9126773888205045e-06 0 0.052982961182144121 -0.00072793683649306946 0 0.048082607127480741 -2.9778207742733514e-06 0 0.049475773461833419 -0.00041686516555387046 0 0.048073380662433295 -2.4926354687187165e-07 0 0.046545881572862303 0.00035740356847119417 0 0.046855004720207614 -0.00025249276033801184 0 0.046152684314711957 -0.00027164216183224742 0 0.052982961182144121 -0.00072793683649306946 0 0.052932753959715813 0.00079852131912257305 0 0.053453820183156343 5.1627270353184845e-05 0 0.04595955505850071 -0.00042273026159109168 0 0.046545881572862303 0.00035740356847119417 0 0.046152684314711957 -0.00027164216183224742 0 0.049475773461833419 -0.00041686516555387046 0 0.04965473455500781 0.00046904145840973781 0 0.053453820183156343 5.1627270353184845e-05 0 0.053870597977274282 -0.0004806660763617478 0 0.052308287089665145 -0.00019595938031581478 0 0.052932753959715813 0.00079852131912257305 0 0.053453820183156343 5.1627270353184845e-05 0 0.052308287089665145 -0.00019595938031581478 0 0.053870597977274282 -0.0004806660763617478 0 0.050961220203224966 -0.0017932541813279806 0 0.052308287089665145 -0.00019595938031581478 0 0.053802936127472362 -0.00059890068432973576 0 0.052709745227696933 -0.0010272550087932761 0 0.053356015449990635 0.00020696184949145328 0 0.053870597977274282 -0.0004806660763617478 0 0.054997878658161803 -3.6051847965587385e-07 0 0.053356015449990635 0.00020696184949145328 0 0.053453820183156343 5.1627270353184845e-05 0 0.053870597977274282 -0.0004806660763617478 0 0.053870597977274282 -0.0004806660763617478 0 0.054997878658161803 -3.6051847965587385e-07 0 0.054836277833859713 -0.00028291139234671583 0 0.054997878658161803 -3.6051847965587385e-07 0 0.054992986764007434 -1.6044380076003508e-05 0 0.054836277833859713 -0.00028291139234671583 0 0.054997878658161803 -3.6051847965587385e-07 0 0.054992986764007434 -1.6044380076003508e-05 0 0.055000975866440836 8.3894868664552691e-08 0 0.054992986764007434 -1.6044380076003508e-05 0 0.055140599093147107 -0.00023402405417862409 0 0.054836277833859713 -0.00028291139234671583 0 0.055597477081621348 -0.00031693526806080908 0 0.052558971684380604 -0.00025612629723742773 0 0.052558971684380604 -0.00025612629723742773 0 0.052709745227696933 -0.0010272550087932761 0 0.048373927847321557 -0.0018395163235725657 0 0.050961220203224966 -0.0017932541813279806 0 0.04860207497414315 0.00048312654553322505 0 0.054992986764007434 -1.6044380076003508e-05 0 0.054984987797482086 -1.1414925652358201e-05 0 0.055000975866440836 8.3894868664552691e-08 0 0.055000033826758513 2.5454539047549962e-08 0 0.055011588960311435 3.1792986673307737e-05 0 0.05498729886998472 2.9282579229874841e-05 0 0.054984987797482086 -1.1414925652358201e-05 0 0.055000975866440836 8.3894868664552691e-08 0 0.054993626856995159 -6.5247650039729706e-06 0 0.054639455038153546 0.00027101348043342087 0 0.055092196854461699 5.4056422129794809e-05 0 0.054999944173809344 -6.8287096063469144e-08 0 0.054639455038153546 0.00027101348043342087 0 0.052333605715231137 0.00014640248234949055 0 0.052875524784262141 0.00023020433791216621 0 0.052688208799154646 -0.00022598739972510529 0 0.052558971684380604 -0.00025612629723742773 0 0.054639455038153546 0.00027101348043342087 0 0.052558971684380604 -0.00025612629723742773 0 0.050604141231721821 8.888120360980487e-05 0 0.055003226331789085 5.2152571171940919e-05 0 0.054992078286954529 8.2293639001558162e-05 0 0.055004323227288189 0.0001007130226496012 0 0.054639455038153546 0.00027101348043342087 0 0.050604141231721821 8.888120360980487e-05 0 0.055003226331789085 5.2152571171940919e-05 0 0.054992078286954529 8.2293639001558162e-05 0 0.05498729886998472 2.9282579229874841e-05 0 0.048365585482467256 0.00090162934284215227 0 0.048389877705562412 0.00047130210251485001 0 0.04873489627508594 0.00053728076021071285 0 0.054992078286954529 8.2293639001558162e-05 0 0.055004323227288189 0.0001007130226496012 0 0.054980689317122473 0.00015504806972282495 0 0.050604141231721821 8.888120360980487e-05 0 0.052111479141802905 0.00015320143272717094 0 0.048373927847321557 -0.0018395163235725657 0 0.047411977739352379 -0.0002825497285689576 0 0.04860207497414315 0.00048312654553322505 0 0.047411977739352379 -0.0002825497285689576 0 0.04811251893444795 0.00032333826771535086 0 0.04860207497414315 0.00048312654553322505 0 0.050604141231721821 8.888120360980487e-05 0 0.047446950694764747 0.00019923466025533192 0 0.048365585482467256 0.00090162934284215227 0 0.04811251893444795 0.00032333826771535086 0 0.048389877705562412 0.00047130210251485001 0 0.04811251893444795 0.00032333826771535086 0 0.048231571452418208 0.00024014027350757075 0 0.048389877705562412 0.00047130210251485001 0 0.048563690642549645 0.00029066890158293814 0 0.04873489627508594 0.00053728076021071285 0 0.049141530241638601 0.00014366338356967912 0 0.048389877705562412 0.00047130210251485001 0 0.048563690642549645 0.00029066890158293814 0 0.04873489627508594 0.00053728076021071285 0 0.048231571452418208 0.00024014027350757075 0 0.048563690642549645 0.00029066890158293814 0 0.048423546391124582 -3.6788594022731707e-05 0 0.048231571452418208 0.00024014027350757075 0 0.048389877705562412 0.00047130210251485001 0 0.048563690642549645 0.00029066890158293814 0 0.050961220203224966 -0.0017932541813279806 0 0.052308287089665145 -0.00019595938031581478 0 0.04860207497414315 0.00048312654553322505 0 0.04965473455500781 0.00046904145840973781 0 0.048631883279585585 0.00048999362854268479 0 0.052932753959715813 0.00079852131912257305 0 0.052308287089665145 -0.00019595938031581478 0 0.04860207497414315 0.00048312654553322505 0 0.04811251893444795 0.00032333826771535086 0 0.04860207497414315 0.00048312654553322505 0 0.047698923097168965 4.2029816388926608e-05 0 0.046545881572862303 0.00035740356847119417 0 0.04860207497414315 0.00048312654553322505 0 0.047698923097168965 4.2029816388926608e-05 0 0.046545881572862303 0.00035740356847119417 0 0.047698923097168965 4.2029816388926608e-05 0 0.046855004720207614 -0.00025249276033801184 0 0.046855004720207614 -0.00025249276033801184 0 0.047548170104081432 -0.00052537554354990768 0 0.046411568381012451 -0.00076647863467009872 0 0.047698923097168965 4.2029816388926608e-05 0 0.046855004720207614 -0.00025249276033801184 0 0.047548170104081432 -0.00052537554354990768 0 0.04811251893444795 0.00032333826771535086 0 0.047698923097168965 4.2029816388926608e-05 0 0.047548170104081432 -0.00052537554354990768 0 0.035871107331166358 0.0043415465997236899 0 0.036338255498198219 0.003884311114128704 0 0.035483374321092685 0.0034719988650317932 0 0.041469289021430933 0.0018102156284314518 0 0.040538019603092564 0.0017839959751515017 0 0.035871107331166358 0.0043415465997236899 0 0.035483374321092685 0.0034719988650317932 0 0.034927095534140827 0.0040080434372934187 0 0.048563690642549645 0.00029066890158293814 0 0.048423546391124582 -3.6788594022731707e-05 0 0.049141530241638601 0.00014366338356967912 0 0.043734794127884863 0.0026899359550398346 0 0.051249017050998678 0.0011383714932048749 0 0.048231571452418208 0.00024014027350757075 0 0.047548170104081432 -0.00052537554354990768 0 0.048287514697287745 -0.00012609986630128108 0 0.041469289021430933 0.0018102156284314518 0 0.043734794127884863 0.0026899359550398346 0 0.04811251893444795 0.00032333826771535086 0 0.048231571452418208 0.00024014027350757075 0 0.047548170104081432 -0.00052537554354990768 0 0.048420759106155654 -0.00096244532742165059 0 0.043734794127884863 0.0026899359550398346 0 0.035871107331166358 0.0043415465997236899 0 0.036817277830340507 0.0045935021861484709 0 0.036338255498198219 0.003884311114128704 0 0.043734794127884863 0.0026899359550398346 0 0.041354203076699243 0.0031481434976797112 0 0.036817277830340507 0.0045935021861484709 0 0.036338255498198219 0.003884311114128704 0 0.037139932927537402 0.0037984882610991189 0 0.036338255498198219 0.003884311114128704 0 0.036777082517133755 0.0032180033917280464 0 0.037139932927537402 0.0037984882610991189 0 0.036338255498198219 0.003884311114128704 0 0.036777082517133755 0.0032180033917280464 0 0.036098926710758296 0.0032555414025154362 0 0.036338255498198219 0.003884311114128704 0 0.036098926710758296 0.0032555414025154362 0 0.035483374321092685 0.0034719988650317932 0 0.036098926710758296 0.0032555414025154362 0 0.035519232953418661 0.002777260185228181 0 0.036023724083918914 0.0022250555280288404 0 0.036777082517133755 0.0032180033917280464 0 0.036990007318185629 0.0025552034979248912 0 0.036023724083918914 0.0022250555280288404 0 0.036777082517133755 0.0032180033917280464 0 0.036098926710758296 0.0032555414025154362 0 0.036023724083918914 0.0022250555280288404 0 0.035483374321092685 0.0034719988650317932 0 0.034714816529026367 0.0032101587759927621 0 0.034927095534140827 0.0040080434372934187 0 0.035483374321092685 0.0034719988650317932 0 0.034977091592986613 0.0027004812807256634 0 0.034714816529026367 0.0032101587759927621 0 0.036098926710758296 0.0032555414025154362 0 0.035483374321092685 0.0034719988650317932 0 0.035519232953418661 0.002777260185228181 0 0.035483374321092685 0.0034719988650317932 0 0.035519232953418661 0.002777260185228181 0 0.034977091592986613 0.0027004812807256634 0 0.035519232953418661 0.002777260185228181 0 0.034977091592986613 0.0027004812807256634 0 0.03509628384231999 0.0022014539276175127 0 0.034977091592986613 0.0027004812807256634 0 0.034714816529026367 0.0032101587759927621 0 0.034406361454429338 0.0023553772858847227 0 0.034714816529026367 0.0032101587759927621 0 0.034028282338207282 0.0027762555207653233 0 0.034406361454429338 0.0023553772858847227 0 0.034455302918416711 0.0034308500499410067 0 0.034714816529026367 0.0032101587759927621 0 0.034028282338207282 0.0027762555207653233 0 0.034455302918416711 0.0034308500499410067 0 0.034714816529026367 0.0032101587759927621 0 0.034927095534140827 0.0040080434372934187 0 0.034239843655763755 0.0015525659329041505 0 0.041043320690285275 0.00030888000411310822 0 0.036077817484785508 5.0256550099983226e-05 0 0.038482464873590326 -0.0011505113865141854 0 0.037773356691253986 -0.0031949678191826856 0 0.034455302918416711 0.0034308500499410067 0 0.034028282338207282 0.0027762555207653233 0 0.03415696692560035 0.0037220350361866906 0 0.036077817484785508 5.0256550099983226e-05 0 0.03807270298571265 -2.0822099988311232e-05 0 0.038482464873590326 -0.0011505113865141854 0 0.03807270298571265 -2.0822099988311232e-05 0 0.040463517249181499 -0.00019612772305792236 0 0.038832757688873926 0.00028801670180195481 0 0.03807270298571265 -2.0822099988311232e-05 0 0.040463517249181499 -0.00019612772305792236 0 0.038482464873590326 -0.0011505113865141854 0 0.041249824869292837 2.126932141019483e-06 0 0.040463517249181499 -0.00019612772305792236 0 0.044148785592683246 -6.3511299477889175e-06 0 0.041249824869292837 2.126932141019483e-06 0 0.040463517249181499 -0.00019612772305792236 0 0.038832757688873926 0.00028801670180195481 0 0.040463517249181499 -0.00019612772305792236 0 0.044148785592683246 -6.3511299477889175e-06 0 0.040233833272540133 -0.002445875775141743 0 0.044153636788728794 -6.5648458591014195e-07 0 0.043042568299149202 -0.0010082382877688403 0 0.040233833272540133 -0.002445875775141743 0 0.038482464873590326 -0.0011505113865141854 0 0.037773356691253986 -0.0031949678191826856 0 0.040463517249181499 -0.00019612772305792236 0 0.040233833272540133 -0.002445875775141743 0 0.038482464873590326 -0.0011505113865141854 0 0.043042568299149202 -0.0010082382877688403 0 0.041043320690285275 0.00030888000411310822 0 0.046449875827826066 -0.00075992011380544909 0 0.041043320690285275 0.00030888000411310822 0 0.046327281768183071 0.00016689587197650253 0 0.045975103266620465 -8.686462748848271e-05 0 0.045891356795799941 0.00022651166950361266 0 0.0459567485937558 0.00010916918648272999 0 0.046327281768183071 0.00016689587197650253 0 0.045891356795799941 0.00022651166950361266 0 0.0459567485937558 0.00010916918648272999 0 0.046327281768183071 0.00016689587197650253 0 0.046113792327945664 1.5115930367805999e-06 0 0.044157451682144779 -1.6222649346191036e-06 0 0.0459567485937558 0.00010916918648272999 0 0.046113792327945664 1.5115930367805999e-06 0 0.046327281768183071 0.00016689587197650253 0 0.046113792327945664 1.5115930367805999e-06 0 0.048068291329914282 -1.4933174512650108e-06 0 0.046327281768183071 0.00016689587197650253 0 0.048068291329914282 -1.4933174512650108e-06 0 0.045975103266620465 -8.686462748848271e-05 0 0.04595955505850071 -0.00042273026159109168 0 0.048068291329914282 -1.4933174512650108e-06 0 0.045975103266620465 -8.686462748848271e-05 0 0.045975103266620465 -8.686462748848271e-05 0 0.046032161235347896 -0.00043176733280327452 0 0.046152684314711957 -0.00027164216183224742 0 0.04595955505850071 -0.00042273026159109168 0 0.045975103266620465 -8.686462748848271e-05 0 0.046152684314711957 -0.00027164216183224742 0 0.046855004720207614 -0.00025249276033801184 0 0.046152684314711957 -0.00027164216183224742 0 0.046411568381012451 -0.00076647863467009872 0 0.046032161235347896 -0.00043176733280327452 0 0.046152684314711957 -0.00027164216183224742 0 0.046411568381012451 -0.00076647863467009872 0 0.046032161235347896 -0.00043176733280327452 0 0.046411568381012451 -0.00076647863467009872 0 0.045718972650855089 -0.00070116211920761369 0 0.040538019603092564 0.0017839959751515017 0 0.041043320690285275 0.00030888000411310822 0 0.034455302918416711 0.0034308500499410067 0 0.034927095534140827 0.0040080434372934187 0 0.03415696692560035 0.0037220350361866906 0 0.045975103266620465 -8.686462748848271e-05 0 0.046032161235347896 -0.00043176733280327452 0 0.045718972650855089 -0.00070116211920761369 0 0.054526842252274103 -0.00026968324532120053 0 0.05459275909519809 -0.00061016503097307477 0 0.054766424574814454 -0.00029782357537927532 0 0.05426240471328337 -0.00055288290672081397 0 0.054526842252274103 -0.00026968324532120053 0 0.05459275909519809 -0.00061016503097307477 0 0.054841291608954526 -7.47619601261972e-05 0 0.05485217891969265 1.7813546191902555e-06 0 0.05493604150386263 -5.1323786741222537e-06 0 0.054521846457222072 -0.00035296417917258247 0 0.054737439592177986 -0.00013169398925163037 0 0.05485217891969265 1.7813546191902555e-06 0 0.054945385433031464 2.1811416608848454e-05 0 0.054860789146477427 2.5783830561814508e-05 0 0.05485217891969265 1.7813546191902555e-06 0 0.05493604150386263 -5.1323786741222537e-06 0 0.054945385433031464 2.1811416608848454e-05 0 0.054737439592177986 -0.00013169398925163037 0 0.054882941693614976 -2.9956610415896427e-05 0 0.05493604150386263 -5.1323786741222537e-06 0 0.054945385433031464 2.1811416608848454e-05 0 0.054983597491193824 1.0564658114955704e-05 0 0.054977258041166321 1.3852889489727839e-05 0 0.054945385433031464 2.1811416608848454e-05 0 0.054983597491193824 1.0564658114955704e-05 0 0.054977258041166321 1.3852889489727839e-05 0 0.054999958748478447 -6.7023211723820267e-09 0 0.054999916286747282 3.6884137989259396e-08 0 0.054977258041166321 1.3852889489727839e-05 0 0.054999958748478447 -6.7023211723820267e-09 0 0.054989412748627078 7.318064893995372e-06 0 0.054977258041166321 1.3852889489727839e-05 0 0.054999916286747282 3.6884137989259396e-08 0 0.054945385433031464 2.1811416608848454e-05 0 0.054999916286747282 3.6884137989259396e-08 0 0.054945385433031464 2.1811416608848454e-05 0 0.054939266644823223 2.0376626657751748e-05 0 0.054945385433031464 2.1811416608848454e-05 0 0.054860789146477427 2.5783830561814508e-05 0 0.054939266644823223 2.0376626657751748e-05 0 0.054860789146477427 2.5783830561814508e-05 0 0.054939266644823223 2.0376626657751748e-05 0 0.054886144954604518 2.7830463860012944e-05 0 0.054999916286747282 3.6884137989259396e-08 0 0.054939266644823223 2.0376626657751748e-05 0 0.054999837931251551 2.8288110121804708e-08 0 0.054939266644823223 2.0376626657751748e-05 0 0.054999837931251551 2.8288110121804708e-08 0 0.054886144954604518 2.7830463860012944e-05 0 0.054999837931251551 2.8288110121804708e-08 0 0.054886144954604518 2.7830463860012944e-05 0 0.054999849379522459 -7.9894651639306066e-10 0 0.054860789146477427 2.5783830561814508e-05 0 0.054886144954604518 2.7830463860012944e-05 0 0.054724975537897513 1.2934163697035783e-05 0 0.054886144954604518 2.7830463860012944e-05 0 0.054724975537897513 1.2934163697035783e-05 0 0.054849539250089188 3.9942315858971124e-05 0 0.05485217891969265 1.7813546191902555e-06 0 0.054860789146477427 2.5783830561814508e-05 0 0.054724975537897513 1.2934163697035783e-05 0 0.05485217891969265 1.7813546191902555e-06 0 0.054724975537897513 1.2934163697035783e-05 0 0.054645046341311274 -4.201823269399028e-05 0 0.054841291608954526 -7.47619601261972e-05 0 0.05485217891969265 1.7813546191902555e-06 0 0.054645046341311274 -4.201823269399028e-05 0 0.054724975537897513 1.2934163697035783e-05 0 0.054645046341311274 -4.201823269399028e-05 0 0.054505060510208612 -5.8768434141689331e-05 0 0.054505060510208612 -5.8768434141689331e-05 0 0.05459722220752454 -2.1426119342445158e-05 0 0.054426183894643383 -0.00010246656308039461 0 0.054724975537897513 1.2934163697035783e-05 0 0.054505060510208612 -5.8768434141689331e-05 0 0.05459722220752454 -2.1426119342445158e-05 0 0.054695775085127081 6.5042845608831375e-05 0 0.054619478836787978 7.4525461850033406e-05 0 0.054785840504553568 0.00016058770883082104 0 0.054835162845483794 0.00021572831830193068 0 0.054873555831769248 0.00011562957801814752 0 0.054835162845483794 0.00021572831830193068 0 0.054873555831769248 0.00011562957801814752 0 0.054894793539172961 0.00016658024433201452 0 0.054785840504553568 0.00016058770883082104 0 0.054835162845483794 0.00021572831830193068 0 0.054737126889591356 0.00029696487752580792 0 0.054724975537897513 1.2934163697035783e-05 0 0.05459722220752454 -2.1426119342445158e-05 0 0.054849539250089188 3.9942315858971124e-05 0 0.054785840504553568 0.00016058770883082104 0 0.054873555831769248 0.00011562957801814752 0 0.054849539250089188 3.9942315858971124e-05 0 0.054695775085127081 6.5042845608831375e-05 0 0.054815844950344826 3.1165472534717332e-05 0 0.054886144954604518 2.7830463860012944e-05 0 0.054849539250089188 3.9942315858971124e-05 0 0.054999849379522459 -7.9894651639306066e-10 0 0.054849539250089188 3.9942315858971124e-05 0 0.054999849379522459 -7.9894651639306066e-10 0 0.054937334310327025 3.4235505735832607e-05 0 0.054999849379522459 -7.9894651639306066e-10 0 0.054937334310327025 3.4235505735832607e-05 0 0.054999943408949731 2.0436037289908356e-08 0 0.054873555831769248 0.00011562957801814752 0 0.054937334310327025 3.4235505735832607e-05 0 0.054928172317799798 9.9270787619045725e-05 0 0.054873555831769248 0.00011562957801814752 0 0.054849539250089188 3.9942315858971124e-05 0 0.054937334310327025 3.4235505735832607e-05 0 0.054937334310327025 3.4235505735832607e-05 0 0.054963297211679696 4.5372995668243849e-05 0 0.054928172317799798 9.9270787619045725e-05 0 0.054963297211679696 4.5372995668243849e-05 0 0.054966549644957001 9.3669897022432639e-05 0 0.054928172317799798 9.9270787619045725e-05 0 0.054963297211679696 4.5372995668243849e-05 0 0.054999943408949731 2.0436037289908356e-08 0 0.05498729886998472 2.9282579229874841e-05 0 0.054937334310327025 3.4235505735832607e-05 0 0.054963297211679696 4.5372995668243849e-05 0 0.054999943408949731 2.0436037289908356e-08 0 0.055000033826758513 2.5454539047549962e-08 0 0.054999943408949731 2.0436037289908356e-08 0 0.05498729886998472 2.9282579229874841e-05 0 0.054992078286954529 8.2293639001558162e-05 0 0.05498729886998472 2.9282579229874841e-05 0 0.054966549644957001 9.3669897022432639e-05 0 0.054963297211679696 4.5372995668243849e-05 0 0.05498729886998472 2.9282579229874841e-05 0 0.054966549644957001 9.3669897022432639e-05 0 0.054980689317122473 0.00015504806972282495 0 0.054966549644957001 9.3669897022432639e-05 0 0.054939549970848593 0.00015854008800227247 0 0.054992078286954529 8.2293639001558162e-05 0 0.054980689317122473 0.00015504806972282495 0 0.054966549644957001 9.3669897022432639e-05 0 0.054966549644957001 9.3669897022432639e-05 0 0.054928172317799798 9.9270787619045725e-05 0 0.054939549970848593 0.00015854008800227247 0 0.054873555831769248 0.00011562957801814752 0 0.054928172317799798 9.9270787619045725e-05 0 0.054894793539172961 0.00016658024433201452 0 0.054928172317799798 9.9270787619045725e-05 0 0.054894793539172961 0.00016658024433201452 0 0.054939549970848593 0.00015854008800227247 0 0.054910294386257254 0.00019240273123070212 0 0.054894793539172961 0.00016658024433201452 0 0.054939549970848593 0.00015854008800227247 0 0.054910294386257254 0.00019240273123070212 0 0.054894793539172961 0.00016658024433201452 0 0.054880016868945378 0.00021456638382706526 0 0.054835162845483794 0.00021572831830193068 0 0.054880016868945378 0.00021456638382706526 0 0.054857465781301115 0.00026318024450160441 0 0.054880016868945378 0.00021456638382706526 0 0.054904067328031041 0.00023412929502856608 0 0.054857465781301115 0.00026318024450160441 0 0.054835162845483794 0.00021572831830193068 0 0.054894793539172961 0.00016658024433201452 0 0.054880016868945378 0.00021456638382706526 0 0.054910294386257254 0.00019240273123070212 0 0.054880016868945378 0.00021456638382706526 0 0.054904067328031041 0.00023412929502856608 0 0.054910294386257254 0.00019240273123070212 0 0.054904067328031041 0.00023412929502856608 0 0.054929426975909627 0.00023663546974252782 0 0.054305634867553167 0.0011811459217555551 0 0.051249017050998678 0.0011383714932048749 0 0.054910294386257254 0.00019240273123070212 0 0.054939549970848593 0.00015854008800227247 0 0.054929426975909627 0.00023663546974252782 0 0.052111479141802905 0.00015320143272717094 0 0.051249017050998678 0.0011383714932048749 0 0.054980689317122473 0.00015504806972282495 0 0.054939549970848593 0.00015854008800227247 0 0.054929426975909627 0.00023663546974252782 0 0.045341264869967514 0.0037274923585303857 0 0.047473581528089719 0.0042688650049360812 0 0.046709003936416818 0.0018150366688030192 0 0.054904067328031041 0.00023412929502856608 0 0.054928363809080845 0.00024613916780278445 0 0.054853753361453775 0.00035801293885894317 0 0.051249017050998678 0.0011383714932048749 0 0.051744143667855173 0.001779444733952112 0 0.054904067328031041 0.00023412929502856608 0 0.054857465781301115 0.00026318024450160441 0 0.054853753361453775 0.00035801293885894317 0 0.048952023744458957 0.002760603087109295 0 0.046709003936416818 0.0018150366688030192 0 0.048191825112007328 0.001262135165516081 0 0.047473581528089719 0.0042688650049360812 0 0.048952023744458957 0.002760603087109295 0 0.046709003936416818 0.0018150366688030192 0 0.041354203076699243 0.0031481434976797112 0 0.043669763669950346 0.0018517539497545396 0 0.046709003936416818 0.0018150366688030192 0 0.04808098333957106 -0.00012255661065874258 0 0.048191825112007328 0.001262135165516081 0 0.036777082517133755 0.0032180033917280464 0 0.037139932927537402 0.0037984882610991189 0 0.037743111373870472 0.0029501202851822256 0 0.036777082517133755 0.0032180033917280464 0 0.036990007318185629 0.0025552034979248912 0 0.037743111373870472 0.0029501202851822256 0 0.036051603559459008 0.0023536926071847505 0 0.043669763669950346 0.0018517539497545396 0 0.043669763669950346 0.0018517539497545396 0 0.046219201030654793 0.001331515713968174 0 0.052603528333620801 0.0011253609184474448 0 0.052968941632734294 0.0012502724714933175 0 0.053263188933593719 0.00093956553238923476 0 0.052603528333620801 0.0011253609184474448 0 0.053263188933593719 0.00093956553238923476 0 0.052997456626808791 0.00074845457927187175 0 0.043669763669950346 0.0018517539497545396 0 0.05159482324198586 0.0013404975184768786 0 0.048952023744458957 0.002760603087109295 0 0.048191825112007328 0.001262135165516081 0 0.049277084652501926 0.0005489252533090774 0 0.04808098333957106 -0.00012255661065874258 0 0.048191825112007328 0.001262135165516081 0 0.049277084652501926 0.0005489252533090774 0 0.048952023744458957 0.002760603087109295 0 0.050464585339402734 0.0012283200486339139 0 0.049277084652501926 0.0005489252533090774 0 0.053348452146528058 0.0014556277118337891 0 0.053348220904787969 0.0011198076003805682 0 0.052968941632734294 0.0012502724714933175 0 0.05318353832718957 0.000764640935921117 0 0.05159482324198586 0.0013404975184768786 0 0.053348220904787969 0.0011198076003805682 0 0.052968941632734294 0.0012502724714933175 0 0.053263188933593719 0.00093956553238923476 0 0.053263188933593719 0.00093956553238923476 0 0.053715372237451119 0.00094612297562659132 0 0.053453564666984546 0.00083705057728435063 0 0.053715372237451119 0.00094612297562659132 0 0.053592334774383771 0.00086375492595746532 0 0.053453564666984546 0.00083705057728435063 0 0.053348220904787969 0.0011198076003805682 0 0.053263188933593719 0.00093956553238923476 0 0.053715372237451119 0.00094612297562659132 0 0.053715372237451119 0.00094612297562659132 0 0.05399849048286226 0.00056795617893646904 0 0.053731791855590738 0.00073940480090837828 0 0.05318353832718957 0.000764640935921117 0 0.053817110518897759 0.00088830250118914888 0 0.05437172541646873 0.00056244570884039964 0 0.053715372237451119 0.00094612297562659132 0 0.054156806964584685 0.00061189483414012143 0 0.053715372237451119 0.00094612297562659132 0 0.054156806964584685 0.00061189483414012143 0 0.05399849048286226 0.00056795617893646904 0 0.053348452146528058 0.0014556277118337891 0 0.053348220904787969 0.0011198076003805682 0 0.053715372237451119 0.00094612297562659132 0 0.05437172541646873 0.00056244570884039964 0 0.054156806964584685 0.00061189483414012143 0 0.054152541184703779 0.00041619314657983879 0 0.054157244197414009 0.00058239104329077128 0 0.054157883387238488 0.00060522567021565688 0 0.054156806964584685 0.00061189483414012143 0 0.054165513511817164 0.00050910661081978099 0 0.05399849048286226 0.00056795617893646904 0 0.05318353832718957 0.000764640935921117 0 0.054157883387238488 0.00060522567021565688 0 0.05399849048286226 0.00056795617893646904 0 0.054120577819809501 0.00035270139557920575 0 0.053859590496553297 0.0004740326330131445 0 0.054165513511817164 0.00050910661081978099 0 0.05399849048286226 0.00056795617893646904 0 0.054120577819809501 0.00035270139557920575 0 0.054157883387238488 0.00060522567021565688 0 0.054619478836787978 7.4525461850033406e-05 0 0.054120577819809501 0.00035270139557920575 0 0.054426183894643383 -0.00010246656308039461 0 0.054098959062710589 0.00017502259370318041 0 0.054326147247359444 0.00047717813044772806 0 0.054120577819809501 0.00035270139557920575 0 0.054426183894643383 -0.00010246656308039461 0 0.054713407889113774 0.00046080770970995387 0 0.054771725252634948 0.00037807304906303698 0 0.054737126889591356 0.00029696487752580792 0 0.054157883387238488 0.00060522567021565688 0 0.054104399572251438 0.00045407737249626018 0 0.054742860708755621 0.00048006556944017915 0 0.054713407889113774 0.00046080770970995387 0 0.054771725252634948 0.00037807304906303698 0 0.054853753361453775 0.00035801293885894317 0 0.054742860708755621 0.00048006556944017915 0 0.054771725252634948 0.00037807304906303698 0 0.051744143667855173 0.001779444733952112 0 0.05318353832718957 0.000764640935921117 0 0.054853753361453775 0.00035801293885894317 0 0.054771725252634948 0.00037807304906303698 0 0.054812635427109513 0.00030107919110099131 0 0.054771725252634948 0.00037807304906303698 0 0.054812635427109513 0.00030107919110099131 0 0.054737126889591356 0.00029696487752580792 0 0.054857465781301115 0.00026318024450160441 0 0.054853753361453775 0.00035801293885894317 0 0.054812635427109513 0.00030107919110099131 0 0.054835162845483794 0.00021572831830193068 0 0.054857465781301115 0.00026318024450160441 0 0.054812635427109513 0.00030107919110099131 0 0.054835162845483794 0.00021572831830193068 0 0.054812635427109513 0.00030107919110099131 0 0.054737126889591356 0.00029696487752580792 0 0.054505060510208612 -5.8768434141689331e-05 0 0.054426183894643383 -0.00010246656308039461 0 0.054240938937260091 -7.7834789029971474e-05 0 0.054426183894643383 -0.00010246656308039461 0 0.054240938937260091 -7.7834789029971474e-05 0 0.054098959062710589 0.00017502259370318041 0 0.054645046341311274 -4.201823269399028e-05 0 0.054240938937260091 -7.7834789029971474e-05 0 0.054660829292689526 -0.00024879472959472263 0 0.054645046341311274 -4.201823269399028e-05 0 0.054505060510208612 -5.8768434141689331e-05 0 0.054240938937260091 -7.7834789029971474e-05 0 0.054841291608954526 -7.47619601261972e-05 0 0.054645046341311274 -4.201823269399028e-05 0 0.054660829292689526 -0.00024879472959472263 0 0.054521846457222072 -0.00035296417917258247 0 0.054490315325056098 -0.00037467730133154529 0 0.053429722221317262 0.00014969596735196436 0 0.053385625478002137 0.00019770636717813579 0 0.053429552058606194 0.00029520688249053595 0 0.053401115071252739 0.00011045645549217509 0 0.053429722221317262 0.00014969596735196436 0 0.053385625478002137 0.00019770636717813579 0 0.054490315325056098 -0.00037467730133154529 0 0.054357192594444152 -0.00037272061754676697 0 0.053401115071252739 0.00011045645549217509 0 0.053385625478002137 0.00019770636717813579 0 0.053285212373787375 0.00025041165806137132 0 0.053285212373787375 0.00025041165806137132 0 0.053344593253381339 0.0004210736871027137 0 0.053162162376699851 0.0004533673973430365 0 0.053385625478002137 0.00019770636717813579 0 0.053285212373787375 0.00025041165806137132 0 0.053429552058606194 0.00029520688249053595 0 0.053285212373787375 0.00025041165806137132 0 0.053344593253381339 0.0004210736871027137 0 0.053429552058606194 0.00029520688249053595 0 0.053429722221317262 0.00014969596735196436 0 0.053429552058606194 0.00029520688249053595 0 0.053673165740166465 0.00027022498622610974 0 0.053344593253381339 0.0004210736871027137 0 0.053429552058606194 0.00029520688249053595 0 0.053495316199201698 0.00046570851488668755 0 0.053429552058606194 0.00029520688249053595 0 0.053673165740166465 0.00027022498622610974 0 0.053495316199201698 0.00046570851488668755 0 0.05402516560559343 -3.2036201563186453e-05 0 0.054490315325056098 -0.00037467730133154529 0 0.054240938937260091 -7.7834789029971474e-05 0 0.053429722221317262 0.00014969596735196436 0 0.053673165740166465 0.00027022498622610974 0 0.054240938937260091 -7.7834789029971474e-05 0 0.05334873000412875 3.9503501645791012e-05 0 0.053429722221317262 0.00014969596735196436 0 0.053690244695128189 0.00042539994078033436 0 0.053673165740166465 0.00027022498622610974 0 0.053495316199201698 0.00046570851488668755 0 0.053690244695128189 0.00042539994078033436 0 0.053673165740166465 0.00027022498622610974 0 0.05389222761638969 0.00026639549157181976 0 0.054240938937260091 -7.7834789029971474e-05 0 0.053673165740166465 0.00027022498622610974 0 0.05389222761638969 0.00026639549157181976 0 0.054240938937260091 -7.7834789029971474e-05 0 0.054098959062710589 0.00017502259370318041 0 0.05389222761638969 0.00026639549157181976 0 0.054120577819809501 0.00035270139557920575 0 0.054098959062710589 0.00017502259370318041 0 0.053859590496553297 0.0004740326330131445 0 0.054098959062710589 0.00017502259370318041 0 0.05389222761638969 0.00026639549157181976 0 0.053859590496553297 0.0004740326330131445 0 0.053690244695128189 0.00042539994078033436 0 0.05389222761638969 0.00026639549157181976 0 0.053859590496553297 0.0004740326330131445 0 0.05399849048286226 0.00056795617893646904 0 0.053859590496553297 0.0004740326330131445 0 0.053731791855590738 0.00073940480090837828 0 0.053859590496553297 0.0004740326330131445 0 0.05360148278547823 0.00064750347112169364 0 0.053731791855590738 0.00073940480090837828 0 0.053690244695128189 0.00042539994078033436 0 0.053859590496553297 0.0004740326330131445 0 0.05360148278547823 0.00064750347112169364 0 0.053690244695128189 0.00042539994078033436 0 0.05360148278547823 0.00064750347112169364 0 0.053495316199201698 0.00046570851488668755 0 0.05360148278547823 0.00064750347112169364 0 0.053731791855590738 0.00073940480090837828 0 0.053592334774383771 0.00086375492595746532 0 0.053715372237451119 0.00094612297562659132 0 0.053731791855590738 0.00073940480090837828 0 0.053592334774383771 0.00086375492595746532 0 0.053592334774383771 0.00086375492595746532 0 0.053371355573437813 0.00066815543902017159 0 0.053302869319398614 0.00094141826990965687 0 0.05360148278547823 0.00064750347112169364 0 0.053592334774383771 0.00086375492595746532 0 0.053371355573437813 0.00066815543902017159 0 0.05360148278547823 0.00064750347112169364 0 0.053371355573437813 0.00066815543902017159 0 0.053495316199201698 0.00046570851488668755 0 0.053344593253381339 0.0004210736871027137 0 0.053371355573437813 0.00066815543902017159 0 0.053495316199201698 0.00046570851488668755 0 0.053344593253381339 0.0004210736871027137 0 0.053371355573437813 0.00066815543902017159 0 0.053162162376699851 0.0004533673973430365 0 0.053162162376699851 0.0004533673973430365 0 0.053046408867981738 0.00066978230164516268 0 0.052800846716501704 0.0002487694294387539 0 0.047792741863816858 -0.00063943331050932237 0 0.050498324574142266 -0.00062753230655628533 0 0.053371355573437813 0.00066815543902017159 0 0.053162162376699851 0.0004533673973430365 0 0.053046408867981738 0.00066978230164516268 0 0.047792741863816858 -0.00063943331050932237 0 0.046479160993087514 0.0024018274817134994 0 0.053371355573437813 0.00066815543902017159 0 0.053046408867981738 0.00066978230164516268 0 0.053302869319398614 0.00094141826990965687 0 0.042917667764943122 -0.0010203016580157054 0 0.043144670906293925 0.00036870937639655915 0 0.043430266794646163 0.00054694424004976224 0 0.042917667764943122 -0.0010203016580157054 0 0.042366969371907107 0.00037577188158040666 0 0.041899445499011208 -0.00023397098872559915 0 0.042917667764943122 -0.0010203016580157054 0 0.042366969371907107 0.00037577188158040666 0 0.043144670906293925 0.00036870937639655915 0 0.042366969371907107 0.00037577188158040666 0 0.043144670906293925 0.00036870937639655915 0 0.042861912112782501 0.00064224390918128226 0 0.044753979784840983 0.001420050236508227 0 0.046479160993087514 0.0024018274817134994 0 0.041899445499011208 -0.00023397098872559915 0 0.041322505488685803 0.00050559171706367244 0 0.040948132811658197 -0.00014460658923577956 0 0.042366969371907107 0.00037577188158040666 0 0.041899445499011208 -0.00023397098872559915 0 0.041322505488685803 0.00050559171706367244 0 0.041899445499011208 -0.00023397098872559915 0 0.041814372536824379 -0.001095824785703702 0 0.040948132811658197 -0.00014460658923577956 0 0.041814372536824379 -0.001095824785703702 0 0.040661178014874184 -0.0009668864962920318 0 0.040948132811658197 -0.00014460658923577956 0 0.042917667764943122 -0.0010203016580157054 0 0.041814372536824379 -0.001095824785703702 0 0.042544468380295519 -0.0026830861042679496 0 0.041814372536824379 -0.001095824785703702 0 0.042544468380295519 -0.0026830861042679496 0 0.040651791192049196 -0.0022672623042415806 0 0.042917667764943122 -0.0010203016580157054 0 0.041899445499011208 -0.00023397098872559915 0 0.041814372536824379 -0.001095824785703702 0 0.053599821845381507 0.001477045606353248 0 0.053125271929718443 0.00024027041138021256 0 0.051969228464387819 0.002084126388109031 0 0.050498324574142266 -0.00062753230655628533 0 0.045880630807084329 -2.8943488879480213e-05 0 0.053401115071252739 0.00011045645549217509 0 0.053285212373787375 0.00025041165806137132 0 0.052800846716501704 0.0002487694294387539 0 0.053285212373787375 0.00025041165806137132 0 0.053162162376699851 0.0004533673973430365 0 0.052800846716501704 0.0002487694294387539 0 0.05402692192172661 -0.00084491189952314927 0 0.054408912735719905 -0.00093630463589297283 0 0.054299083565025198 -0.00075071425302130853 0 0.054490315325056098 -0.00037467730133154529 0 0.050498324574142266 -0.00062753230655628533 0 0.05426240471328337 -0.00055288290672081397 0 0.054299083565025198 -0.00075071425302130853 0 0.05459275909519809 -0.00061016503097307477 0 0.05426240471328337 -0.00055288290672081397 0 0.05402692192172661 -0.00084491189952314927 0 0.054299083565025198 -0.00075071425302130853 0 0.050498324574142266 -0.00062753230655628533 0 0.05439676022120904 7.9476873949174039e-05 0 0.054408912735719905 -0.00093630463589297283 0 0.054299083565025198 -0.00075071425302130853 0 0.05459275909519809 -0.00061016503097307477 0 0.053599821845381507 0.001477045606353248 0 0.053286081658140215 9.8884574032618718e-05 0 0.053125271929718443 0.00024027041138021256 0 0.03835219417638449 0.0027980032426790412 0 0.038308520343620998 0.0028279500080012144 0 0.03832758230547214 0.0027293131172405239 0 0.03835219417638449 0.0027980032426790412 0 0.038308520343620998 0.0028279500080012144 0 0.03838412123816079 0.0028402743082256887 0 0.040053235770833008 0.003127067495131359 0 0.036238826738912003 0.0022941295872864515 0 0.03835219417638449 0.0027980032426790412 0 0.03838412123816079 0.0028402743082256887 0 0.038398530302350332 0.0027921085494983355 0 0.03835219417638449 0.0027980032426790412 0 0.03832758230547214 0.0027293131172405239 0 0.038398530302350332 0.0027921085494983355 0 0.036238826738912003 0.0022941295872864515 0 0.037540511456387746 0.0024489464448358834 0 0.036593513958461103 0.0017335218157078355 0 0.036171299970869535 0.0016512023869423643 0 0.036638230276038859 0.0020519817930476133 0 0.0368701913414737 0.0023474294205973953 0 0.036901218755264371 0.0023794566137931017 0 0.036893197918700424 0.0023373515567412673 0 0.0368701913414737 0.0023474294205973953 0 0.036901218755264371 0.0023794566137931017 0 0.036848783083179008 0.0023685234183634775 0 0.042396426737216636 0.0042272158146048821 0 0.041817304991788914 0.0034223484981186583 0 0.042915073059356532 0.0028368512721490702 0 0.042746211861159275 0.0029771954988969365 0 0.043010685549379334 0.0023006051361069814 0 0.043314193609436676 0.002801794200906242 0 0.040053235770833008 0.003127067495131359 0 0.042970437094328275 0.0024621486307435372 0 0.043010685549379334 0.0023006051361069814 0 0.043456776242426089 0.0023072730043223982 0 0.043314193609436676 0.002801794200906242 0 0.040053235770833008 0.003127067495131359 0 0.039874297017100414 0.0034647885647509148 0 0.042396426737216636 0.0042272158146048821 0 0.041817304991788914 0.0034223484981186583 0 0.041001482292608596 0.0040618983279826649 0 0.041817304991788914 0.0034223484981186583 0 0.041614907999355528 0.0024733919398592492 0 0.040571916540288314 0.0030711307464986858 0 0.041817304991788914 0.0034223484981186583 0 0.041001482292608596 0.0040618983279826649 0 0.040571916540288314 0.0030711307464986858 0 0.041614907999355528 0.0024733919398592492 0 0.040562060072507636 0.0021381363125661675 0 0.040571916540288314 0.0030711307464986858 0 0.041614907999355528 0.0024733919398592492 0 0.041303213722169801 0.0017585635782591434 0 0.042289130350820756 0.0017796164231050522 0 0.041614907999355528 0.0024733919398592492 0 0.041303213722169801 0.0017585635782591434 0 0.040562060072507636 0.0021381363125661675 0 0.041303213722169801 0.0017585635782591434 0 0.040681632034555465 0.0012713752706028255 0 0.040562060072507636 0.0021381363125661675 0 0.041303213722169801 0.0017585635782591434 0 0.041795456756480096 0.0011363146543247253 0 0.040681632034555465 0.0012713752706028255 0 0.041303213722169801 0.0017585635782591434 0 0.041795456756480096 0.0011363146543247253 0 0.042289130350820756 0.0017796164231050522 0 0.042366969371907107 0.00037577188158040666 0 0.041795456756480096 0.0011363146543247253 0 0.041322505488685803 0.00050559171706367244 0 0.041795456756480096 0.0011363146543247253 0 0.041322505488685803 0.00050559171706367244 0 0.040681632034555465 0.0012713752706028255 0 0.042861912112782501 0.00064224390918128226 0 0.042689866713517217 0.0010773680776206989 0 0.043406053509740312 0.0005914230024505699 0 0.043144670906293925 0.00036870937639655915 0 0.042861912112782501 0.00064224390918128226 0 0.043406053509740312 0.0005914230024505699 0 0.042366969371907107 0.00037577188158040666 0 0.042861912112782501 0.00064224390918128226 0 0.042689866713517217 0.0010773680776206989 0 0.042366969371907107 0.00037577188158040666 0 0.041795456756480096 0.0011363146543247253 0 0.042689866713517217 0.0010773680776206989 0 0.041795456756480096 0.0011363146543247253 0 0.042689866713517217 0.0010773680776206989 0 0.042289130350820756 0.0017796164231050522 0 0.042689866713517217 0.0010773680776206989 0 0.042289130350820756 0.0017796164231050522 0 0.043329789474216687 0.0014897198763930304 0 0.042689866713517217 0.0010773680776206989 0 0.043329789474216687 0.0014897198763930304 0 0.043406053509740312 0.0005914230024505699 0 0.042970437094328275 0.0024621486307435372 0 0.043281694091907408 0.0016610011149833439 0 0.042289130350820756 0.0017796164231050522 0 0.042915073059356532 0.0028368512721490702 0 0.043329789474216687 0.0014897198763930304 0 0.043010685549379334 0.0023006051361069814 0 0.043456776242426089 0.0023072730043223982 0 0.043329789474216687 0.0014897198763930304 0 0.041614907999355528 0.0024733919398592492 0 0.042289130350820756 0.0017796164231050522 0 0.042915073059356532 0.0028368512721490702 0 0.041817304991788914 0.0034223484981186583 0 0.041614907999355528 0.0024733919398592492 0 0.042915073059356532 0.0028368512721490702 0 0.043456776242426089 0.0023072730043223982 0 0.043854672143861774 0.0021344264820661765 0 0.043329789474216687 0.0014897198763930304 0 0.046479160993087514 0.0024018274817134994 0 0.048979639036507074 0.00288778863867043 0 0.043754572750560709 0.00269470408936116 0 0.046479160993087514 0.0024018274817134994 0 0.043854672143861774 0.0021344264820661765 0 0.043329789474216687 0.0014897198763930304 0 0.043406053509740312 0.0005914230024505699 0 0.053592334774383771 0.00086375492595746532 0 0.053302869319398614 0.00094141826990965687 0 0.053536022017621768 0.00082141787576966746 0 0.043685056315183365 0.0028356310819509381 0 0.045004796418706659 0.0056148369538872658 0 0.042298680253433502 0.004190409915854002 0 0.053592334774383771 0.00086375492595746532 0 0.053536022017621768 0.00082141787576966746 0 0.053453564666984546 0.00083705057728435063 0 0.042298680253433502 0.004190409915854002 0 0.042396529556476506 0.0029195851320037258 0 0.041219032255334721 0.0024977762709648618 0 0.043685056315183365 0.0028356310819509381 0 0.042298680253433502 0.004190409915854002 0 0.042396529556476506 0.0029195851320037258 0 0.043685056315183365 0.0028356310819509381 0 0.042396529556476506 0.0029195851320037258 0 0.042025316780131446 0.0017852346761442345 0 0.042396529556476506 0.0029195851320037258 0 0.042025316780131446 0.0017852346761442345 0 0.041219032255334721 0.0024977762709648618 0 0.043685056315183365 0.0028356310819509381 0 0.042025316780131446 0.0017852346761442345 0 0.042328917478847747 -2.8345627889611961e-05 0 0.042025316780131446 0.0017852346761442345 0 0.041575193027582384 0.00072067349274528296 0 0.042328917478847747 -2.8345627889611961e-05 0 0.043754572750560709 0.00269470408936116 0 0.041333422156745708 0.0010824462658093807 0 0.042025316780131446 0.0017852346761442345 0 0.041575193027582384 0.00072067349274528296 0 0.040968192603327534 0.0014724425403837417 0 0.043854672143861774 0.0021344264820661765 0 0.043731261067718991 0.0026558202751762864 0 0.044173553179459417 0.0031516616169031354 0 0.042746211861159275 0.0029771954988969365 0 0.043314193609436676 0.002801794200906242 0 0.043810784249579508 0.0031013783495001139 0 0.043456776242426089 0.0023072730043223982 0 0.043854672143861774 0.0021344264820661765 0 0.043731261067718991 0.0026558202751762864 0 0.043456776242426089 0.0023072730043223982 0 0.043731261067718991 0.0026558202751762864 0 0.043314193609436676 0.002801794200906242 0 0.043314193609436676 0.002801794200906242 0 0.043654697126214233 0.0028757088709999621 0 0.043810784249579508 0.0031013783495001139 0 0.043731261067718991 0.0026558202751762864 0 0.043314193609436676 0.002801794200906242 0 0.043654697126214233 0.0028757088709999621 0 0.043731261067718991 0.0026558202751762864 0 0.043828235977321606 0.0030006668823313412 0 0.044173553179459417 0.0031516616169031354 0 0.043731261067718991 0.0026558202751762864 0 0.043654697126214233 0.0028757088709999621 0 0.043828235977321606 0.0030006668823313412 0 0.039727478967619856 0.0022683104407292326 0 0.033283753253913341 0.0019470110128248356 0 0.036612186713632297 0.0019325843546071863 0 0.03616356412283947 0.0018617363392536958 0 0.036796606468816835 0.00094357262921353582 0 0.0368701913414737 0.0023474294205973953 0 0.036848783083179008 0.0023685234183634775 0 0.036824546410217769 0.002318505227676966 0 0.040053235770833008 0.003127067495131359 0 0.039727478967619856 0.0022683104407292326 0 0.039727478967619856 0.0022683104407292326 0 0.039960324443800328 0.0022914710947741861 0 0.043654697126214233 0.0028757088709999621 0 0.043810784249579508 0.0031013783495001139 0 0.043828235977321606 0.0030006668823313412 0 0.04196697567555048 -8.543518506476501e-05 0 0.042323627689113817 -2.9636838712973847e-05 0 0.041041592007063442 -0.0027216865215891331 0 0.041575193027582384 0.00072067349274528296 0 0.04196697567555048 -8.543518506476501e-05 0 0.041042614833396586 4.7288800165269024e-05 0 0.041528095768143883 0.00099457552047489098 0 0.041333422156745708 0.0010824462658093807 0 0.041575193027582384 0.00072067349274528296 0 0.04196697567555048 -8.543518506476501e-05 0 0.042328917478847747 -2.8345627889611961e-05 0 0.043805411007374659 0.0030841122181978751 0 0.043828235977321606 0.0030006668823313412 0 0.044173553179459417 0.0031516616169031354 0 0.039727478967619856 0.0022683104407292326 0 0.041333422156745708 0.0010824462658093807 0 0.04196697567555048 -8.543518506476501e-05 0 0.040692856251213078 -0.00082802632231509436 0 0.041041592007063442 -0.0027216865215891331 0 0.040304704915236834 -0.00013267269623100513 0 0.039387844060364725 0.00084864400091321554 0 0.040670110142106773 0.00055968611413673229 0 0.040304704915236834 -0.00013267269623100513 0 0.039572944268224386 -0.00055695878895235253 0 0.039387844060364725 0.00084864400091321554 0 0.040304704915236834 -0.00013267269623100513 0 0.041042614833396586 4.7288800165269024e-05 0 0.040670110142106773 0.00055968611413673229 0 0.04196697567555048 -8.543518506476501e-05 0 0.041042614833396586 4.7288800165269024e-05 0 0.040692856251213078 -0.00082802632231509436 0 0.041575193027582384 0.00072067349274528296 0 0.041042614833396586 4.7288800165269024e-05 0 0.040670110142106773 0.00055968611413673229 0 0.040304704915236834 -0.00013267269623100513 0 0.041042614833396586 4.7288800165269024e-05 0 0.040692856251213078 -0.00082802632231509436 0 0.040304704915236834 -0.00013267269623100513 0 0.040692856251213078 -0.00082802632231509436 0 0.039572944268224386 -0.00055695878895235253 0 0.040692856251213078 -0.00082802632231509436 0 0.039572944268224386 -0.00055695878895235253 0 0.039797984610863299 -0.0016531595109556963 0 0.039572944268224386 -0.00055695878895235253 0 0.038646836071465483 -0.0013345942055477114 0 0.039797984610863299 -0.0016531595109556963 0 0.039572944268224386 -0.00055695878895235253 0 0.038264910644919457 -0.00022127054375177145 0 0.038646836071465483 -0.0013345942055477114 0 0.038264910644919457 -0.00022127054375177145 0 0.037308530340915157 -0.0012827893021478754 0 0.038646836071465483 -0.0013345942055477114 0 0.039572944268224386 -0.00055695878895235253 0 0.038264910644919457 -0.00022127054375177145 0 0.039387844060364725 0.00084864400091321554 0 0.039387844060364725 0.00084864400091321554 0 0.039481918298013056 0.0027476552472161025 0 0.036582911987174088 0.0011639118478169277 0 0.038264910644919457 -0.00022127054375177145 0 0.039387844060364725 0.00084864400091321554 0 0.036582911987174088 0.0011639118478169277 0 0.04372222314053599 0.0012101139495434188 0 0.036228149552880271 0.00089154940156454534 0 0.039387844060364725 0.00084864400091321554 0 0.040096610318344286 0.0018869081118148138 0 0.039481918298013056 0.0027476552472161025 0 0.040096610318344286 0.0018869081118148138 0 0.040282092584683564 0.0011925359279812751 0 0.040968192603327534 0.0014724425403837417 0 0.039387844060364725 0.00084864400091321554 0 0.040096610318344286 0.0018869081118148138 0 0.040282092584683564 0.0011925359279812751 0 0.039387844060364725 0.00084864400091321554 0 0.040282092584683564 0.0011925359279812751 0 0.040670110142106773 0.00055968611413673229 0 0.040282092584683564 0.0011925359279812751 0 0.040670110142106773 0.00055968611413673229 0 0.040968192603327534 0.0014724425403837417 0 0.041575193027582384 0.00072067349274528296 0 0.040670110142106773 0.00055968611413673229 0 0.040968192603327534 0.0014724425403837417 0 0.042025316780131446 0.0017852346761442345 0 0.040968192603327534 0.0014724425403837417 0 0.041219032255334721 0.0024977762709648618 0 0.040096610318344286 0.0018869081118148138 0 0.040968192603327534 0.0014724425403837417 0 0.041219032255334721 0.0024977762709648618 0 0.048979639036507074 0.00288778863867043 0 0.04372222314053599 0.0012101139495434188 0 0.042298680253433502 0.004190409915854002 0 0.041219032255334721 0.0024977762709648618 0 0.039531934898623132 0.0027168936339284329 0 0.040096610318344286 0.0018869081118148138 0 0.041219032255334721 0.0024977762709648618 0 0.039531934898623132 0.0027168936339284329 0 0.040817552319983061 0.0029376060509609049 0 0.04372222314053599 0.0012101139495434188 0 0.053536022017621768 0.00082141787576966746 0 0.053453564666984546 0.00083705057728435063 0 0.053229608747593742 0.00052913847498935206 0 0.053263188933593719 0.00093956553238923476 0 0.053453564666984546 0.00083705057728435063 0 0.052997456626808791 0.00074845457927187175 0 0.053453564666984546 0.00083705057728435063 0 0.052997456626808791 0.00074845457927187175 0 0.053229608747593742 0.00052913847498935206 0 0.03918217702151721 0.0013559293503884438 0 0.038216729131179628 0.0015698626129288949 0 0.037798409633684318 0.00067150914074549733 0 0.046219201030654793 0.001331515713968174 0 0.04372222314053599 0.0012101139495434188 0 0.038462703529599365 0.0023180522588178358 0 0.03918217702151721 0.0013559293503884438 0 0.038216729131179628 0.0015698626129288949 0 0.038462703529599365 0.0023180522588178358 0 0.038216729131179628 0.0015698626129288949 0 0.037414025422070958 0.0019271752623847337 0 0.038216729131179628 0.0015698626129288949 0 0.037414025422070958 0.0019271752623847337 0 0.037798409633684318 0.00067150914074549733 0 0.037777946002333328 0.0032461715163899937 0 0.038462703529599365 0.0023180522588178358 0 0.037414025422070958 0.0019271752623847337 0 0.036820900004586696 0.0027619352977885088 0 0.037777946002333328 0.0032461715163899937 0 0.037414025422070958 0.0019271752623847337 0 0.036820900004586696 0.0027619352977885088 0 0.037414025422070958 0.0019271752623847337 0 0.036282640698409356 0.0017086053872874161 0 0.037414025422070958 0.0019271752623847337 0 0.036872735441799372 0.001244508568451058 0 0.036282640698409356 0.0017086053872874161 0 0.037414025422070958 0.0019271752623847337 0 0.036872735441799372 0.001244508568451058 0 0.037798409633684318 0.00067150914074549733 0 0.036872735441799372 0.001244508568451058 0 0.037798409633684318 0.00067150914074549733 0 0.03626976925498801 0.00082531003985005175 0 0.037798409633684318 0.00067150914074549733 0 0.03626976925498801 0.00082531003985005175 0 0.036311699084182684 -5.6762332891677883e-05 0 0.038264910644919457 -0.00022127054375177145 0 0.036582911987174088 0.0011639118478169277 0 0.037308530340915157 -0.0012827893021478754 0 0.036582911987174088 0.0011639118478169277 0 0.035665122939188602 -0.00077596553089966493 0 0.037308530340915157 -0.0012827893021478754 0 0.035665122939188602 -0.00077596553089966493 0 0.034938229362709128 -0.0025914546912469915 0 0.033838860309119374 -0.00037285589346006484 0 0.036582911987174088 0.0011639118478169277 0 0.035665122939188602 -0.00077596553089966493 0 0.033838860309119374 -0.00037285589346006484 0 0.036228149552880271 0.00089154940156454534 0 0.035787743161935039 -0.000392317302131345 0 0.034054337885950026 -0.0022326056819753385 0 0.035787743161935039 -0.000392317302131345 0 0.034637952597278282 -0.0027117975820115069 0 0.037308530340915157 -0.0012827893021478754 0 0.034941082106933127 -0.0033223263266628999 0 0.035665122939188602 -0.00077596553089966493 0 0.034938229362709128 -0.0025914546912469915 0 0.037308530340915157 -0.0012827893021478754 0 0.034054337885950026 -0.0022326056819753385 0 0.030316766358291232 -0.0024601833342222713 0 0.034054337885950026 -0.0022326056819753385 0 0.029935849076213147 -0.0036003145880413676 0 0.037308530340915157 -0.0012827893021478754 0 0.034941082106933127 -0.0033223263266628999 0 0.038084235600840274 -0.0030243459584506993 0 0.034054337885950026 -0.0022326056819753385 0 0.037385418047960348 -0.0013995383558401983 0 0.029958570727001827 -0.00098522014002421355 0 0.030264902311574384 -0.0016439403384747497 0 0.030617750217744474 -0.0013513228327184891 0 0.030316766358291232 -0.0024601833342222713 0 0.035308600909486711 -0.0020647730683641357 0 0.029958570727001827 -0.00098522014002421355 0 0.030617750217744474 -0.0013513228327184891 0 0.030640390281378927 -0.00089960027442648736 0 0.030316766358291232 -0.0024601833342222713 0 0.026001136798876036 -0.0032339905538661695 0 0.023544826436685418 -0.0057975533474518273 0 0.023270091114859892 -0.0049238982893812658 0 0.022737328226247817 -0.0042991625699558477 0 0.023544826436685418 -0.0057975533474518273 0 0.023953330876971705 -0.0052023329041615178 0 0.024634012897229024 -0.0056261416657827209 0 0.030316766358291232 -0.0024601833342222713 0 0.029935849076213147 -0.0036003145880413676 0 0.03198438815039735 -0.0025333227334733022 0 0.032326558423148251 -0.003228770424997543 0 0.030428955928761103 -0.0034093284925273601 0 0.023544826436685418 -0.0057975533474518273 0 0.023953330876971705 -0.0052023329041615178 0 0.023270091114859892 -0.0049238982893812658 0 0.023953330876971705 -0.0052023329041615178 0 0.023270091114859892 -0.0049238982893812658 0 0.02426288572386116 -0.0045650028413352049 0 0.023270091114859892 -0.0049238982893812658 0 0.023228127266314309 -0.0041296443946350504 0 0.02426288572386116 -0.0045650028413352049 0 0.023270091114859892 -0.0049238982893812658 0 0.023228127266314309 -0.0041296443946350504 0 0.022036049440528383 -0.0038820730558484732 0 0.023228127266314309 -0.0041296443946350504 0 0.023741466991416885 -0.0037095659080463709 0 0.02426288572386116 -0.0045650028413352049 0 0.023228127266314309 -0.0041296443946350504 0 0.023741466991416885 -0.0037095659080463709 0 0.022752149358783256 -0.0034953625032660622 0 0.023228127266314309 -0.0041296443946350504 0 0.022752149358783256 -0.0034953625032660622 0 0.022036049440528383 -0.0038820730558484732 0 0.023741466991416885 -0.0037095659080463709 0 0.022752149358783256 -0.0034953625032660622 0 0.023371305950489259 -0.0029680598417985283 0 0.022167676226596138 -0.0037742161661635121 0 0.023561545611963337 -0.0020910956094043706 0 0.026001136798876036 -0.0032339905538661695 0 0.026489521850081309 -0.0015713944772609775 0 0.022703786189444661 -0.0037689444139410639 0 0.022737328226247817 -0.0042991625699558477 0 0.022118042328503618 -0.0027747987525211459 0 0.022752149358783256 -0.0034953625032660622 0 0.022036049440528383 -0.0038820730558484732 0 0.021877102339657596 -0.0030795253754701221 0 0.023192005976229595 -0.0048621461777647928 0 0.022167676226596138 -0.0037742161661635121 0 0.023270091114859892 -0.0049238982893812658 0 0.022703786189444661 -0.0037689444139410639 0 0.022737328226247817 -0.0042991625699558477 0 0.030617750217744474 -0.0013513228327184891 0 0.030807638289990502 -0.001818935607426266 0 0.03108089677204022 -0.0013314723061000223 0 0.030264902311574384 -0.0016439403384747497 0 0.030617750217744474 -0.0013513228327184891 0 0.030807638289990502 -0.001818935607426266 0 0.027097937081039691 0.00023729480584837017 0 0.027123803351416516 -0.00033985908623390129 0 0.027452625407180756 -0.00042589524165031686 0 0.027097937081039691 0.00023729480584837017 0 0.02687633109153208 -0.00040577455208456369 0 0.027123803351416516 -0.00033985908623390129 0 0.029180208710542058 -0.00059408471566420545 0 0.026489521850081309 -0.0015713944772609775 0 0.030264902311574384 -0.0016439403384747497 0 0.030807638289990502 -0.001818935607426266 0 0.030548141885755338 -0.0022891983854048813 0 0.027097937081039691 0.00023729480584837017 0 0.027728417580842823 0.00014255219092220231 0 0.027452625407180756 -0.00042589524165031686 0 0.029180208710542058 -0.00059408471566420545 0 0.028930426217768802 -0.00031126441635493394 0 0.027728417580842823 0.00014255219092220231 0 0.027422736965677114 0.00098985902137761956 0 0.028234645626223093 0.00062399974331009747 0 0.027097937081039691 0.00023729480584837017 0 0.027728417580842823 0.00014255219092220231 0 0.027422736965677114 0.00098985902137761956 0 0.027422736965677114 0.00098985902137761956 0 0.027806899540421471 0.0017510005185067698 0 0.028033354677303026 0.0011455463970367161 0 0.03108089677204022 -0.0013314723061000223 0 0.030640390281378927 -0.00089960027442648736 0 0.031352022500803968 -0.00081339198351943007 0 0.028930426217768802 -0.00031126441635493394 0 0.033748945637386236 -0.00019576177783989994 0 0.030617750217744474 -0.0013513228327184891 0 0.03108089677204022 -0.0013314723061000223 0 0.030640390281378927 -0.00089960027442648736 0 0.037308530340915157 -0.0012827893021478754 0 0.038084235600840274 -0.0030243459584506993 0 0.038646836071465483 -0.0013345942055477114 0 0.038084235600840274 -0.0030243459584506993 0 0.038646836071465483 -0.0013345942055477114 0 0.039797984610863299 -0.0016531595109556963 0 0.035308600909486711 -0.0020647730683641357 0 0.033748945637386236 -0.00019576177783989994 0 0.038084235600840274 -0.0030243459584506993 0 0.039797984610863299 -0.0016531595109556963 0 0.041041592007063442 -0.0027216865215891331 0 0.040692856251213078 -0.00082802632231509436 0 0.039797984610863299 -0.0016531595109556963 0 0.041041592007063442 -0.0027216865215891331 0 0.03616356412283947 0.0018617363392536958 0 0.035662230454526017 0.00082689720258932102 0 0.036796606468816835 0.00094357262921353582 0 0.033748945637386236 -0.00019576177783989994 0 0.033283753253913341 0.0019470110128248356 0 0.027806899540421471 0.0017510005185067698 0 0.0288339403634679 0.0018501248779055235 0 0.02833414526595035 0.0014593131553904827 0 0.041333422156745708 0.0010824462658093807 0 0.033748945637386236 -0.00019576177783989994 0 0.0288339403634679 0.0018501248779055235 0 0.028697170423411147 0.0013730120020558774 0 0.02833414526595035 0.0014593131553904827 0 0.0288339403634679 0.0018501248779055235 0 0.028697170423411147 0.0013730120020558774 0 0.02893365814487624 0.0012727877735123239 0 0.033283753253913341 0.0019470110128248356 0 0.030059474477337856 0.0013339653285127052 0 0.028697170423411147 0.0013730120020558774 0 0.02893365814487624 0.0012727877735123239 0 0.028488108250243938 0.0010452198732424157 0 0.028697170423411147 0.0013730120020558774 0 0.028488108250243938 0.0010452198732424157 0 0.02833414526595035 0.0014593131553904827 0 0.028488108250243938 0.0010452198732424157 0 0.02833414526595035 0.0014593131553904827 0 0.028033354677303026 0.0011455463970367161 0 0.027806899540421471 0.0017510005185067698 0 0.02833414526595035 0.0014593131553904827 0 0.028033354677303026 0.0011455463970367161 0 0.027422736965677114 0.00098985902137761956 0 0.028033354677303026 0.0011455463970367161 0 0.028234645626223093 0.00062399974331009747 0 0.028488108250243938 0.0010452198732424157 0 0.028033354677303026 0.0011455463970367161 0 0.028234645626223093 0.00062399974331009747 0 0.027728417580842823 0.00014255219092220231 0 0.028389203964650871 8.4365165547352624e-05 0 0.027816605564956871 -0.00055356451286525112 0 0.027728417580842823 0.00014255219092220231 0 0.028234645626223093 0.00062399974331009747 0 0.028389203964650871 8.4365165547352624e-05 0 0.028389203964650871 8.4365165547352624e-05 0 0.02875116180883085 -0.00018285821528252135 0 0.029103537821603073 0.00053908470388983141 0 0.02875116180883085 -0.00018285821528252135 0 0.029103537821603073 0.00053908470388983141 0 0.029399219685619458 -0.0003175731182124545 0 0.028234645626223093 0.00062399974331009747 0 0.028389203964650871 8.4365165547352624e-05 0 0.029103537821603073 0.00053908470388983141 0 0.030059474477337856 0.0013339653285127052 0 0.029134135452523646 0.00063119889552491488 0 0.028488108250243938 0.0010452198732424157 0 0.028234645626223093 0.00062399974331009747 0 0.029103537821603073 0.00053908470388983141 0 0.02893365814487624 0.0012727877735123239 0 0.028488108250243938 0.0010452198732424157 0 0.029103537821603073 0.00053908470388983141 0 0.029264635776612667 0.00066030247556146443 0 0.029579809377971996 0.0012427808874702218 0 0.030086228001512928 0.0010137907051194937 0 0.029081727642746698 0.0016284979949081661 0 0.029264635776612667 0.00066030247556146443 0 0.029579809377971996 0.0012427808874702218 0 0.029264635776612667 0.00066030247556146443 0 0.029894067156652642 0.00035011954275336658 0 0.030086228001512928 0.0010137907051194937 0 0.029579809377971996 0.0012427808874702218 0 0.030086228001512928 0.0010137907051194937 0 0.029887321140020996 0.0016681905220276461 0 0.029134135452523646 0.00063119889552491488 0 0.029389188418083422 -0.00026881278480826292 0 0.029264635776612667 0.00066030247556146443 0 0.029894067156652642 0.00035011954275336658 0 0.029399219685619458 -0.0003175731182124545 0 0.029894067156652642 0.00035011954275336658 0 0.030171378173503297 -8.8660526486979808e-05 0 0.029399219685619458 -0.0003175731182124545 0 0.030665663571209738 8.1750855502776159e-05 0 0.030395113486849649 0.00052270844596351545 0 0.030987763171934402 0.00094962644952118304 0 0.030605913158830347 0.00013699724227875368 0 0.033276071483081572 0.0003193658593503371 0 0.030665663571209738 8.1750855502776159e-05 0 0.030171378173503297 -8.8660526486979808e-05 0 0.030337610858874584 -0.00064656642042847903 0 0.030665663571209738 8.1750855502776159e-05 0 0.030171378173503297 -8.8660526486979808e-05 0 0.030395113486849649 0.00052270844596351545 0 0.029894067156652642 0.00035011954275336658 0 0.030171378173503297 -8.8660526486979808e-05 0 0.030395113486849649 0.00052270844596351545 0 0.030086228001512928 0.0010137907051194937 0 0.030696628045950844 0.0017266555997045574 0 0.030987763171934402 0.00094962644952118304 0 0.030395113486849649 0.00052270844596351545 0 0.030086228001512928 0.0010137907051194937 0 0.030987763171934402 0.00094962644952118304 0 0.029894067156652642 0.00035011954275336658 0 0.030395113486849649 0.00052270844596351545 0 0.030086228001512928 0.0010137907051194937 0 0.030696628045950844 0.0017266555997045574 0 0.030227399028591603 0.0020408062510218379 0 0.029887321140020996 0.0016681905220276461 0 0.033563006967935849 0.0013431250947165691 0 0.033276071483081572 0.0003193658593503371 0 0.030086228001512928 0.0010137907051194937 0 0.030696628045950844 0.0017266555997045574 0 0.029887321140020996 0.0016681905220276461 0 0.030696628045950844 0.0017266555997045574 0 0.030227399028591603 0.0020408062510218379 0 0.030413353819369566 0.0025059444151904961 0 0.030227399028591603 0.0020408062510218379 0 0.029887321140020996 0.0016681905220276461 0 0.029987154527614333 0.0024697535473360947 0 0.029081727642746698 0.0016284979949081661 0 0.029579809377971996 0.0012427808874702218 0 0.029887321140020996 0.0016681905220276461 0 0.029081727642746698 0.0016284979949081661 0 0.029887321140020996 0.0016681905220276461 0 0.029987154527614333 0.0024697535473360947 0 0.030059474477337856 0.0013339653285127052 0 0.033881825159762159 0.0020690901716608032 0 0.0368701913414737 0.0023474294205973953 0 0.036824546410217769 0.002318505227676966 0 0.036872969718404237 0.0023229875096970223 0 0.033283753253913341 0.0019470110128248356 0 0.033881825159762159 0.0020690901716608032 0 0.031855964568498402 0.0021296923752613431 0 0.032071532234770779 0.0011184233859952127 0 0.033276373647173646 0.0022594479992262351 0 0.0368701913414737 0.0023474294205973953 0 0.036872969718404237 0.0023229875096970223 0 0.036893197918700424 0.0023373515567412673 0 0.034581052710211599 0.0019538344628468431 0 0.035096559974284895 0.0024441346889850835 0 0.035262608346036714 0.0020170868091410081 0 0.036438452609230322 0.00090736529051611912 0 0.036383529825404902 0.0014738984957097393 0 0.03664073065619123 0.0012620579772369591 0 0.036438452609230322 0.00090736529051611912 0 0.036238027505160572 0.0014625454685265986 0 0.036383529825404902 0.0014738984957097393 0 0.033881825159762159 0.0020690901716608032 0 0.036238826738912003 0.0022941295872864515 0 0.036238826738912003 0.0022941295872864515 0 0.034381575946703193 0.0023498952829570782 0 0.036171299970869535 0.0016512023869423643 0 0.036241604326405594 0.0014630743352244597 0 0.036383529825404902 0.0014738984957097393 0 0.036593513958461103 0.0017335218157078355 0 0.036171299970869535 0.0016512023869423643 0 0.036383529825404902 0.0014738984957097393 0 0.036593513958461103 0.0017335218157078355 0 0.036383529825404902 0.0014738984957097393 0 0.036616329725781022 0.0015016463134669218 0 0.034381575946703193 0.0023498952829570782 0 0.035227842638848116 0.0022743913256127852 0 0.033563006967935849 0.0013431250947165691 0 0.034381575946703193 0.0023498952829570782 0 0.036383529825404902 0.0014738984957097393 0 0.03664073065619123 0.0012620579772369591 0 0.036616329725781022 0.0015016463134669218 0 0.033881825159762159 0.0020690901716608032 0 0.034381575946703193 0.0023498952829570782 0 0.030227399028591603 0.0020408062510218379 0 0.029987154527614333 0.0024697535473360947 0 0.030413353819369566 0.0025059444151904961 0 0.033394868812652315 0.0013027767041563759 0 0.033299253392337594 0.0014110901595768297 0 0.033923109228237276 0.0016045833382759211 0 0.033717277112614713 0.0014528586453276782 0 0.033311127784633257 0.00098185982000421239 0 0.033888855126264682 0.0012660392883051673 0 0.033394868812652315 0.0013027767041563759 0 0.033717277112614713 0.0014528586453276782 0 0.033311127784633257 0.00098185982000421239 0 0.033394868812652315 0.0013027767041563759 0 0.033923109228237276 0.0016045833382759211 0 0.033717277112614713 0.0014528586453276782 0 0.033394868812652315 0.0013027767041563759 0 0.033311127784633257 0.00098185982000421239 0 0.032896007262139947 0.00093941057868765401 0 0.033311127784633257 0.00098185982000421239 0 0.032896007262139947 0.00093941057868765401 0 0.032661252141118827 0.00055343924590160786 0 0.034221172485854059 0.00087409225864714746 0 0.032501096506472475 0.00063246879973220739 0 0.033299253392337594 0.0014110901595768297 0 0.032896007262139947 0.00093941057868765401 0 0.032099563841993965 0.00048048215528804681 0 0.03525569164653973 0.00023060035787144 0 0.034197533920447803 0.00037099846739594675 0 0.032099563841993965 0.00048048215528804681 0 0.033394868812652315 0.0013027767041563759 0 0.033299253392337594 0.0014110901595768297 0 0.032896007262139947 0.00093941057868765401 0 0.03525569164653973 0.00023060035787144 0 0.034197533920447803 0.00037099846739594675 0 0.035688985626426514 0.00019014378411931243 0 0.034197533920447803 0.00037099846739594675 0 0.035688985626426514 0.00019014378411931243 0 0.034237149992420328 0.00030717496819306973 0 0.035443206154505802 5.9474397480094774e-07 0 0.035688985626426514 0.00019014378411931243 0 0.034237149992420328 0.00030717496819306973 0 0.035443206154505802 5.9474397480094774e-07 0 0.035688985626426514 0.00019014378411931243 0 0.038345832444776559 1.5849621152718583e-07 0 0.035688985626426514 0.00019014378411931243 0 0.037090820473517326 0.00018757795925617584 0 0.038345832444776559 1.5849621152718583e-07 0 0.03525569164653973 0.00023060035787144 0 0.035688985626426514 0.00019014378411931243 0 0.037090820473517326 0.00018757795925617584 0 0.03525569164653973 0.00023060035787144 0 0.037460198834461278 0.0002834308969588576 0 0.037090820473517326 0.00018757795925617584 0 0.037460198834461278 0.0002834308969588576 0 0.037090820473517326 0.00018757795925617584 0 0.038832757688873926 0.00028801670180195481 0 0.037090820473517326 0.00018757795925617584 0 0.038345832444776559 1.5849621152718583e-07 0 0.038832757688873926 0.00028801670180195481 0 0.041249824869292837 2.126932141019483e-06 0 0.038345832444776559 1.5849621152718583e-07 0 0.038832757688873926 0.00028801670180195481 0 0.03807270298571265 -2.0822099988311232e-05 0 0.037460198834461278 0.0002834308969588576 0 0.038832757688873926 0.00028801670180195481 0 0.037801902857497037 -7.9893920499349991e-05 0 0.036410489123671452 0.00087552941344590566 0 0.036077817484785508 5.0256550099983226e-05 0 0.03807270298571265 -2.0822099988311232e-05 0 0.035378911881975318 0.0016670367537121018 0 0.036077817484785508 5.0256550099983226e-05 0 0.035378911881975318 0.0016670367537121018 0 0.03402173261203368 0.0016615507799176213 0 0.034239843655763755 0.0015525659329041505 0 0.034378811929811154 0.0016464357137588239 0 0.033923109228237276 0.0016045833382759211 0 0.035378911881975318 0.0016670367537121018 0 0.03402173261203368 0.0016615507799176213 0 0.034221172485854059 0.00087409225864714746 0 0.036410489123671452 0.00087552941344590566 0 0.033299253392337594 0.0014110901595768297 0 0.033923109228237276 0.0016045833382759211 0 0.035378911881975318 0.0016670367537121018 0 0.033717277112614713 0.0014528586453276782 0 0.03402173261203368 0.0016615507799176213 0 0.034161380308648862 0.0017026466778463777 0 0.033923109228237276 0.0016045833382759211 0 0.033717277112614713 0.0014528586453276782 0 0.03402173261203368 0.0016615507799176213 0 0.03402173261203368 0.0016615507799176213 0 0.034406361454429338 0.0023553772858847227 0 0.034161380308648862 0.0017026466778463777 0 0.034028282338207282 0.0027762555207653233 0 0.03402173261203368 0.0016615507799176213 0 0.034406361454429338 0.0023553772858847227 0 0.034977091592986613 0.0027004812807256634 0 0.034406361454429338 0.0023553772858847227 0 0.034610926253093421 0.0021022692027174248 0 0.034406361454429338 0.0023553772858847227 0 0.034610926253093421 0.0021022692027174248 0 0.034161380308648862 0.0017026466778463777 0 0.034977091592986613 0.0027004812807256634 0 0.034610926253093421 0.0021022692027174248 0 0.03509628384231999 0.0022014539276175127 0 0.034610926253093421 0.0021022692027174248 0 0.03509628384231999 0.0022014539276175127 0 0.03451310810659778 0.0016608115443832226 0 0.03509628384231999 0.0022014539276175127 0 0.03451310810659778 0.0016608115443832226 0 0.035201285063897809 0.0016831713004819874 0 0.03451310810659778 0.0016608115443832226 0 0.035201285063897809 0.0016831713004819874 0 0.034481191220136431 0.0010953865061619054 0 0.03451310810659778 0.0016608115443832226 0 0.034161380308648862 0.0017026466778463777 0 0.033888855126264682 0.0012660392883051673 0 0.033717277112614713 0.0014528586453276782 0 0.034161380308648862 0.0017026466778463777 0 0.033888855126264682 0.0012660392883051673 0 0.034610926253093421 0.0021022692027174248 0 0.03451310810659778 0.0016608115443832226 0 0.034161380308648862 0.0017026466778463777 0 0.036051603559459008 0.0023536926071847505 0 0.036417541167288091 0.0024170046595664227 0 0.036820900004586696 0.0027619352977885088 0 0.036023724083918914 0.0022250555280288404 0 0.036282640698409356 0.0017086053872874161 0 0.03509628384231999 0.0022014539276175127 0 0.036023724083918914 0.0022250555280288404 0 0.035201285063897809 0.0016831713004819874 0 0.035519232953418661 0.002777260185228181 0 0.03509628384231999 0.0022014539276175127 0 0.036023724083918914 0.0022250555280288404 0 0.035201285063897809 0.0016831713004819874 0 0.036282640698409356 0.0017086053872874161 0 0.035437581488615193 0.0011863123813040056 0 0.036023724083918914 0.0022250555280288404 0 0.035201285063897809 0.0016831713004819874 0 0.036282640698409356 0.0017086053872874161 0 0.036872735441799372 0.001244508568451058 0 0.036282640698409356 0.0017086053872874161 0 0.03626976925498801 0.00082531003985005175 0 0.036282640698409356 0.0017086053872874161 0 0.03626976925498801 0.00082531003985005175 0 0.035437581488615193 0.0011863123813040056 0 0.03626976925498801 0.00082531003985005175 0 0.035403593474736726 0.00051938126974686739 0 0.035855168411999268 0.00024124800702320174 0 0.03626976925498801 0.00082531003985005175 0 0.035437581488615193 0.0011863123813040056 0 0.035403593474736726 0.00051938126974686739 0 0.035437581488615193 0.0011863123813040056 0 0.035403593474736726 0.00051938126974686739 0 0.034481191220136431 0.0010953865061619054 0 0.035403593474736726 0.00051938126974686739 0 0.034481191220136431 0.0010953865061619054 0 0.034028494476870917 0.00032485745385889964 0 0.035201285063897809 0.0016831713004819874 0 0.035437581488615193 0.0011863123813040056 0 0.034481191220136431 0.0010953865061619054 0 0.035403593474736726 0.00051938126974686739 0 0.035367050242663192 -0.00053696633256760664 0 0.034028494476870917 0.00032485745385889964 0 0.035403593474736726 0.00051938126974686739 0 0.035855168411999268 0.00024124800702320174 0 0.035367050242663192 -0.00053696633256760664 0 0.035367050242663192 -0.00053696633256760664 0 0.036121495667313895 -0.00010590289390752208 0 0.035867955942186204 -0.001315780680524017 0 0.035855168411999268 0.00024124800702320174 0 0.035367050242663192 -0.00053696633256760664 0 0.036311699084182684 -5.6762332891677883e-05 0 0.035641379760911578 -0.00040882233825610974 0 0.035787743161935039 -0.000392317302131345 0 0.03626976925498801 0.00082531003985005175 0 0.035855168411999268 0.00024124800702320174 0 0.036311699084182684 -5.6762332891677883e-05 0 0.033311127784633257 0.00098185982000421239 0 0.033888855126264682 0.0012660392883051673 0 0.033796180840048623 0.00079541528914278974 0 0.03451310810659778 0.0016608115443832226 0 0.033888855126264682 0.0012660392883051673 0 0.034481191220136431 0.0010953865061619054 0 0.033888855126264682 0.0012660392883051673 0 0.034481191220136431 0.0010953865061619054 0 0.033796180840048623 0.00079541528914278974 0 0.034481191220136431 0.0010953865061619054 0 0.034028494476870917 0.00032485745385889964 0 0.033796180840048623 0.00079541528914278974 0 0.034028494476870917 0.00032485745385889964 0 0.033374383427673536 0.00045457833374589455 0 0.033796180840048623 0.00079541528914278974 0 0.033311127784633257 0.00098185982000421239 0 0.033374383427673536 0.00045457833374589455 0 0.032661252141118827 0.00055343924590160786 0 0.033311127784633257 0.00098185982000421239 0 0.033374383427673536 0.00045457833374589455 0 0.033796180840048623 0.00079541528914278974 0 0.033374383427673536 0.00045457833374589455 0 0.032618053165460327 0.00011087090621894083 0 0.03347110301749253 7.3255631881028732e-05 0 0.033374383427673536 0.00045457833374589455 0 0.032618053165460327 0.00011087090621894083 0 0.032661252141118827 0.00055343924590160786 0 0.034028494476870917 0.00032485745385889964 0 0.033374383427673536 0.00045457833374589455 0 0.03347110301749253 7.3255631881028732e-05 0 0.033863211683175652 0.00017986128457684754 0 0.033623244687372482 -0.00081621490091821525 0 0.033623244687372482 -0.00081621490091821525 0 0.031216652275232352 -0.002979344916070689 0 0.033375106110108514 -0.0019801540705297045 0 0.034462748031604457 -0.0032306478959396724 0 0.033187993846346166 -0.0039130453339383305 0 0.03347110301749253 7.3255631881028732e-05 0 0.032489545844121025 -0.00047957379416017931 0 0.033123507381298559 -0.0010076139254596927 0 0.032618053165460327 0.00011087090621894083 0 0.03347110301749253 7.3255631881028732e-05 0 0.032489545844121025 -0.00047957379416017931 0 0.032489545844121025 -0.00047957379416017931 0 0.03165969441405473 -0.00084053430518620117 0 0.031952069725360008 -0.00028443786780190218 0 0.032618053165460327 0.00011087090621894083 0 0.032489545844121025 -0.00047957379416017931 0 0.031952069725360008 -0.00028443786780190218 0 0.036921419928670617 -0.0018159866689619964 0 0.036121495667313895 -0.00010590289390752208 0 0.035867955942186204 -0.001315780680524017 0 0.036921419928670617 -0.0018159866689619964 0 0.035922871943271588 -0.0020492189004540466 0 0.035867955942186204 -0.001315780680524017 0 0.036921419928670617 -0.0018159866689619964 0 0.035922871943271588 -0.0020492189004540466 0 0.035833375660191555 -0.0024694500338858466 0 0.035367050242663192 -0.00053696633256760664 0 0.035867955942186204 -0.001315780680524017 0 0.034768466456829156 -0.0016161819600674868 0 0.035922871943271588 -0.0020492189004540466 0 0.035867955942186204 -0.001315780680524017 0 0.035296616700863037 -0.0021627154341332696 0 0.035867955942186204 -0.001315780680524017 0 0.034768466456829156 -0.0016161819600674868 0 0.035296616700863037 -0.0021627154341332696 0 0.035367050242663192 -0.00053696633256760664 0 0.034028494476870917 0.00032485745385889964 0 0.034768466456829156 -0.0016161819600674868 0 0.034028494476870917 0.00032485745385889964 0 0.033375106110108514 -0.0019801540705297045 0 0.034768466456829156 -0.0016161819600674868 0 0.034768466456829156 -0.0016161819600674868 0 0.034462748031604457 -0.0032306478959396724 0 0.035296616700863037 -0.0021627154341332696 0 0.033375106110108514 -0.0019801540705297045 0 0.034768466456829156 -0.0016161819600674868 0 0.034462748031604457 -0.0032306478959396724 0 0.025530612230119726 -0.0050644636672927262 0 0.024603742157769646 -0.0051120191804475967 0 0.024634012897229024 -0.0056261416657827209 0 0.029717932578769184 -0.0043208276773912041 0 0.029935849076213147 -0.0036003145880413676 0 0.034462748031604457 -0.0032306478959396724 0 0.035296616700863037 -0.0021627154341332696 0 0.035833375660191555 -0.0024694500338858466 0 0.025530612230119726 -0.0050644636672927262 0 0.024603742157769646 -0.0051120191804475967 0 0.02426288572386116 -0.0045650028413352049 0 0.023953330876971705 -0.0052023329041615178 0 0.024603742157769646 -0.0051120191804475967 0 0.02426288572386116 -0.0045650028413352049 0 0.023953330876971705 -0.0052023329041615178 0 0.024603742157769646 -0.0051120191804475967 0 0.024634012897229024 -0.0056261416657827209 0 0.035922871943271588 -0.0020492189004540466 0 0.035296616700863037 -0.0021627154341332696 0 0.035833375660191555 -0.0024694500338858466 0 0.025530612230119726 -0.0050644636672927262 0 0.02426288572386116 -0.0045650028413352049 0 0.025308233364326589 -0.0041644646785985989 0 0.02426288572386116 -0.0045650028413352049 0 0.025308233364326589 -0.0041644646785985989 0 0.02454089924370129 -0.0039029986694243115 0 0.029717932578769184 -0.0043208276773912041 0 0.031216652275232352 -0.002979344916070689 0 0.025530612230119726 -0.0050644636672927262 0 0.025308233364326589 -0.0041644646785985989 0 0.026283664459113582 -0.0046399009276894302 0 0.025308233364326589 -0.0041644646785985989 0 0.024858568379162945 -0.0031157444922244445 0 0.026332689879686153 -0.0033935921046017239 0 0.025308233364326589 -0.0041644646785985989 0 0.024858568379162945 -0.0031157444922244445 0 0.02454089924370129 -0.0039029986694243115 0 0.023741466991416885 -0.0037095659080463709 0 0.024858568379162945 -0.0031157444922244445 0 0.02454089924370129 -0.0039029986694243115 0 0.023741466991416885 -0.0037095659080463709 0 0.024858568379162945 -0.0031157444922244445 0 0.023371305950489259 -0.0029680598417985283 0 0.023741466991416885 -0.0037095659080463709 0 0.02426288572386116 -0.0045650028413352049 0 0.02454089924370129 -0.0039029986694243115 0 0.031864819713252279 -0.0014574262366072606 0 0.03165969441405473 -0.00084053430518620117 0 0.03089987818345815 -0.0014366119654459887 0 0.032489545844121025 -0.00047957379416017931 0 0.031864819713252279 -0.0014574262366072606 0 0.03165969441405473 -0.00084053430518620117 0 0.031216652275232352 -0.002979344916070689 0 0.028899766539337193 -0.0026807708617781582 0 0.032489545844121025 -0.00047957379416017931 0 0.031864819713252279 -0.0014574262366072606 0 0.033123507381298559 -0.0010076139254596927 0 0.031864819713252279 -0.0014574262366072606 0 0.03207793917816993 -0.0013604977777108059 0 0.031829767479950796 -0.0020156696147801702 0 0.025308233364326589 -0.0041644646785985989 0 0.026283664459113582 -0.0046399009276894302 0 0.026332689879686153 -0.0033935921046017239 0 0.03256602685785065 -0.0012292343561191724 0 0.031216652275232352 -0.002979344916070689 0 0.031864819713252279 -0.0014574262366072606 0 0.031214290155942716 -0.00187157999264981 0 0.03089987818345815 -0.0014366119654459887 0 0.031829767479950796 -0.0020156696147801702 0 0.031214290155942716 -0.00187157999264981 0 0.030815593151734849 -0.0024903189855630015 0 0.031864819713252279 -0.0014574262366072606 0 0.031829767479950796 -0.0020156696147801702 0 0.031214290155942716 -0.00187157999264981 0 0.031214290155942716 -0.00187157999264981 0 0.030495315238683835 -0.0020795059293592455 0 0.030815593151734849 -0.0024903189855630015 0 0.030495315238683835 -0.0020795059293592455 0 0.029651601220951229 -0.0021152071640954642 0 0.029880366308716731 -0.0025737893375613005 0 0.030495315238683835 -0.0020795059293592455 0 0.029651601220951229 -0.0021152071640954642 0 0.03089987818345815 -0.0014366119654459887 0 0.029651601220951229 -0.0021152071640954642 0 0.030151531512913981 -0.0013553970575895657 0 0.03089987818345815 -0.0014366119654459887 0 0.031214290155942716 -0.00187157999264981 0 0.030495315238683835 -0.0020795059293592455 0 0.03089987818345815 -0.0014366119654459887 0 0.028777517400227191 -0.0023768006645073655 0 0.029651601220951229 -0.0021152071640954642 0 0.02891901784716111 -0.0018648937961457954 0 0.029651601220951229 -0.0021152071640954642 0 0.030151531512913981 -0.0013553970575895657 0 0.02891901784716111 -0.0018648937961457954 0 0.030021908045032596 -0.00078775208643580227 0 0.030151531512913981 -0.0013553970575895657 0 0.02891901784716111 -0.0018648937961457954 0 0.030021908045032596 -0.00078775208643580227 0 0.030151531512913981 -0.0013553970575895657 0 0.031164577009996246 -0.00061009132184843007 0 0.030151531512913981 -0.0013553970575895657 0 0.03089987818345815 -0.0014366119654459887 0 0.031164577009996246 -0.00061009132184843007 0 0.03165969441405473 -0.00084053430518620117 0 0.03089987818345815 -0.0014366119654459887 0 0.031164577009996246 -0.00061009132184843007 0 0.032618053165460327 0.00011087090621894083 0 0.031952069725360008 -0.00028443786780190218 0 0.031933422735451703 0.00012985540645147524 0 0.03165969441405473 -0.00084053430518620117 0 0.031952069725360008 -0.00028443786780190218 0 0.031164577009996246 -0.00061009132184843007 0 0.031952069725360008 -0.00028443786780190218 0 0.031164577009996246 -0.00061009132184843007 0 0.031933422735451703 0.00012985540645147524 0 0.030021908045032596 -0.00078775208643580227 0 0.031164235963400774 -5.1007891469648733e-05 0 0.030348281039734661 0.00028400442312722415 0 0.030021908045032596 -0.00078775208643580227 0 0.031164577009996246 -0.00061009132184843007 0 0.031164235963400774 -5.1007891469648733e-05 0 0.031164577009996246 -0.00061009132184843007 0 0.031164235963400774 -5.1007891469648733e-05 0 0.031933422735451703 0.00012985540645147524 0 0.031164235963400774 -5.1007891469648733e-05 0 0.032099563841993965 0.00048048215528804681 0 0.031933422735451703 0.00012985540645147524 0 0.032896007262139947 0.00093941057868765401 0 0.032099563841993965 0.00048048215528804681 0 0.032661252141118827 0.00055343924590160786 0 0.031164235963400774 -5.1007891469648733e-05 0 0.032099563841993965 0.00048048215528804681 0 0.030348281039734661 0.00028400442312722415 0 0.032618053165460327 0.00011087090621894083 0 0.032661252141118827 0.00055343924590160786 0 0.031933422735451703 0.00012985540645147524 0 0.032099563841993965 0.00048048215528804681 0 0.032661252141118827 0.00055343924590160786 0 0.031933422735451703 0.00012985540645147524 0 0.034237149992420328 0.00030717496819306973 0 0.033163461626566526 0.00024238750225084592 0 0.032539888936536136 5.9796778520871502e-07 0 0.035443206154505802 5.9474397480094774e-07 0 0.034237149992420328 0.00030717496819306973 0 0.032539888936536136 5.9796778520871502e-07 0 0.034197533920447803 0.00037099846739594675 0 0.032099563841993965 0.00048048215528804681 0 0.030348281039734661 0.00028400442312722415 0 0.033763175949413242 0.00032062193089710164 0 0.031773053296139546 0.0001525492946702305 0 0.034197533920447803 0.00037099846739594675 0 0.034237149992420328 0.00030717496819306973 0 0.033163461626566526 0.00024238750225084592 0 0.031773053296139546 0.0001525492946702305 0 0.029546762971921537 -0.00051251739034315741 0 0.033163461626566526 0.00024238750225084592 0 0.031742670590438227 0.00010366181116105072 0 0.030521866444247321 -4.7765989546404989e-05 0 0.033163461626566526 0.00024238750225084592 0 0.031742670590438227 0.00010366181116105072 0 0.032539888936536136 5.9796778520871502e-07 0 0.031742670590438227 0.00010366181116105072 0 0.032539888936536136 5.9796778520871502e-07 0 0.029636945948090226 2.2405990413974784e-09 0 0.031742670590438227 0.00010366181116105072 0 0.029636945948090226 2.2405990413974784e-09 0 0.030521866444247321 -4.7765989546404989e-05 0 0.030021908045032596 -0.00078775208643580227 0 0.030348281039734661 0.00028400442312722415 0 0.028091703370159923 -0.0013623286332924112 0 0.030021908045032596 -0.00078775208643580227 0 0.028091703370159923 -0.0013623286332924112 0 0.02891901784716111 -0.0018648937961457954 0 0.028091703370159923 -0.0013623286332924112 0 0.02891901784716111 -0.0018648937961457954 0 0.02773203079508893 -0.0023664093416100843 0 0.02891901784716111 -0.0018648937961457954 0 0.02773203079508893 -0.0023664093416100843 0 0.028099380976536262 -0.0024905961768012562 0 0.028777517400227191 -0.0023768006645073655 0 0.02891901784716111 -0.0018648937961457954 0 0.028099380976536262 -0.0024905961768012562 0 0.029636945948090226 2.2405990413974784e-09 0 0.030521866444247321 -4.7765989546404989e-05 0 0.028393195356569312 -5.9577889718083824e-05 0 0.029636945948090226 2.2405990413974784e-09 0 0.028393195356569312 -5.9577889718083824e-05 0 0.026733323108253493 -4.5797562473488021e-07 0 0.030521866444247321 -4.7765989546404989e-05 0 0.028393195356569312 -5.9577889718083824e-05 0 0.027501869261685061 -0.00022295964507170935 0 0.028091703370159923 -0.0013623286332924112 0 0.02773203079508893 -0.0023664093416100843 0 0.026850337521220655 -0.0031125464768621686 0 0.029546762971921537 -0.00051251739034315741 0 0.025796123471611056 -0.0019058288254562247 0 0.028393195356569312 -5.9577889718083824e-05 0 0.026733323108253493 -4.5797562473488021e-07 0 0.027693467942147228 -0.00012085295432738371 0 0.028393195356569312 -5.9577889718083824e-05 0 0.027693467942147228 -0.00012085295432738371 0 0.027501869261685061 -0.00022295964507170935 0 0.026733323108253493 -4.5797562473488021e-07 0 0.027693467942147228 -0.00012085295432738371 0 0.02709985605656906 -5.1610471680446731e-05 0 0.026063358330631576 -0.0010938361177958073 0 0.025796123471611056 -0.0019058288254562247 0 0.026850337521220655 -0.0031125464768621686 0 0.02735127695342783 -0.002955012282931518 0 0.027107300905119019 -0.0034526328058835736 0 0.02773203079508893 -0.0023664093416100843 0 0.026850337521220655 -0.0031125464768621686 0 0.02735127695342783 -0.002955012282931518 0 0.02773203079508893 -0.0023664093416100843 0 0.028099380976536262 -0.0024905961768012562 0 0.02735127695342783 -0.002955012282931518 0 0.02735127695342783 -0.002955012282931518 0 0.027841366598005676 -0.0028406369803950305 0 0.027392768627684264 -0.0031844553715745104 0 0.028777517400227191 -0.0023768006645073655 0 0.028099380976536262 -0.0024905961768012562 0 0.027841366598005676 -0.0028406369803950305 0 0.028099380976536262 -0.0024905961768012562 0 0.02735127695342783 -0.002955012282931518 0 0.027841366598005676 -0.0028406369803950305 0 0.027841366598005676 -0.0028406369803950305 0 0.027392768627684264 -0.0031844553715745104 0 0.027213249888226758 -0.0033942522804070981 0 0.027392768627684264 -0.0031844553715745104 0 0.027213249888226758 -0.0033942522804070981 0 0.027107300905119019 -0.0034526328058835736 0 0.02735127695342783 -0.002955012282931518 0 0.027392768627684264 -0.0031844553715745104 0 0.027107300905119019 -0.0034526328058835736 0 0.027107300905119019 -0.0034526328058835736 0 0.026295077102921682 -0.0040122051326663861 0 0.026992767114253122 -0.0036126805543487536 0 0.026850337521220655 -0.0031125464768621686 0 0.027107300905119019 -0.0034526328058835736 0 0.026992767114253122 -0.0036126805543487536 0 0.027213249888226758 -0.0033942522804070981 0 0.027107300905119019 -0.0034526328058835736 0 0.026295077102921682 -0.0040122051326663861 0 0.026733323108253493 -4.5797562473488021e-07 0 0.02709985605656906 -5.1610471680446731e-05 0 0.023829847271810329 -7.0000731277367751e-08 0 0.025796123471611056 -0.0019058288254562247 0 0.02382900393158335 -2.6212445277577002e-07 0 0.025796123471611056 -0.0019058288254562247 0 0.023915491834179129 -0.0025303980046910268 0 0.022698978813235082 -0.0040853533350122193 0 0.021116895831432208 -0.0008160802630059811 0 0.023824317021805323 -3.2085241888853946e-06 0 0.029880366308716731 -0.0025737893375613005 0 0.028607466097411837 -0.0030205546268030426 0 0.030244861266306131 -0.0033012912074295579 0 0.029651601220951229 -0.0021152071640954642 0 0.029880366308716731 -0.0025737893375613005 0 0.028607466097411837 -0.0030205546268030426 0 0.030495315238683835 -0.0020795059293592455 0 0.029880366308716731 -0.0025737893375613005 0 0.030815593151734849 -0.0024903189855630015 0 0.028777517400227191 -0.0023768006645073655 0 0.029651601220951229 -0.0021152071640954642 0 0.028607466097411837 -0.0030205546268030426 0 0.028777517400227191 -0.0023768006645073655 0 0.027841366598005676 -0.0028406369803950305 0 0.028607466097411837 -0.0030205546268030426 0 0.027841366598005676 -0.0028406369803950305 0 0.027213249888226758 -0.0033942522804070981 0 0.028607466097411837 -0.0030205546268030426 0 0.026045255441738562 -0.003902393317186312 0 0.025545387578421074 -0.0039607631862633242 0 0.026295077102921682 -0.0040122051326663861 0 0.028607466097411837 -0.0030205546268030426 0 0.02949457462362931 -0.0041297745460040928 0 0.027213249888226758 -0.0033942522804070981 0 0.026295077102921682 -0.0040122051326663861 0 0.028607466097411837 -0.0030205546268030426 0 0.028607466097411837 -0.0030205546268030426 0 0.02949457462362931 -0.0041297745460040928 0 0.030244861266306131 -0.0033012912074295579 0 0.021004028591587977 -0.0033204966215126005 0 0.023695936905697573 -0.0023235911629658403 0 0.020052228932954566 -0.00037049840670607147 0 0.026295077102921682 -0.0040122051326663861 0 0.021004028591587977 -0.0033204966215126005 0 0.023695936905697573 -0.0023235911629658403 0 0.023695936905697573 -0.0023235911629658403 0 0.020052228932954566 -0.00037049840670607147 0 0.023922938829201674 -0.00098520940279146763 0 0.020052228932954566 -0.00037049840670607147 0 0.023922938829201674 -0.00098520940279146763 0 0.019861754237330519 0.00050481966732001868 0 0.021353074331800403 0.00018831052858252881 0 0.023824317021805323 -3.2085241888853946e-06 0 0.021030598727699815 1.7891062342408292e-06 0 0.021116895831432208 -0.0008160802630059811 0 0.021353074331800403 0.00018831052858252881 0 0.023824317021805323 -3.2085241888853946e-06 0 0.026295077102921682 -0.0040122051326663861 0 0.026992767114253122 -0.0036126805543487536 0 0.023695936905697573 -0.0023235911629658403 0 0.021116895831432208 -0.0008160802630059811 0 0.021353074331800403 0.00018831052858252881 0 0.020066898700778837 0.00040286813466034518 0 0.023915491834179129 -0.0025303980046910268 0 0.021971365037649637 -0.00038357420510974578 0 0.026992767114253122 -0.0036126805543487536 0 0.023695936905697573 -0.0023235911629658403 0 0.023922938829201674 -0.00098520940279146763 0 0.021353074331800403 0.00018831052858252881 0 0.020066898700778837 0.00040286813466034518 0 0.019621323810693439 0.00041646052417347579 0 0.021353074331800403 0.00018831052858252881 0 0.021030598727699815 1.7891062342408292e-06 0 0.019621323810693439 0.00041646052417347579 0 0.021030598727699815 1.7891062342408292e-06 0 0.018231512013177287 5.6703658712067369e-07 0 0.019621323810693439 0.00041646052417347579 0 0.018231512013177287 5.6703658712067369e-07 0 0.019621323810693439 0.00041646052417347579 0 0.017808638064495237 0.00037513443740767866 0 0.019621323810693439 0.00041646052417347579 0 0.019861754237330519 0.00050481966732001868 0 0.017808638064495237 0.00037513443740767866 0 0.020066898700778837 0.00040286813466034518 0 0.019621323810693439 0.00041646052417347579 0 0.019861754237330519 0.00050481966732001868 0 0.021971365037649637 -0.00038357420510974578 0 0.02027319397023503 0.00039594061578946532 0 0.020052228932954566 -0.00037049840670607147 0 0.019861754237330519 0.00050481966732001868 0 0.018566815277674762 0.00046359982013109751 0 0.019861754237330519 0.00050481966732001868 0 0.018511752324729642 0.00056516465956230261 0 0.018566815277674762 0.00046359982013109751 0 0.019861754237330519 0.00050481966732001868 0 0.018511752324729642 0.00056516465956230261 0 0.017808638064495237 0.00037513443740767866 0 0.018511752324729642 0.00056516465956230261 0 0.017337959634842633 0.00050996406780451603 0 0.017808638064495237 0.00037513443740767866 0 0.018511752324729642 0.00056516465956230261 0 0.017337959634842633 0.00050996406780451603 0 0.017732905704983641 0.00061887962865315776 0 0.018511752324729642 0.00056516465956230261 0 0.017732905704983641 0.00061887962865315776 0 0.018566815277674762 0.00046359982013109751 0 0.017337959634842633 0.00050996406780451603 0 0.016977770243211732 0.00046333849468134877 0 0.017732905704983641 0.00061887962865315776 0 0.016977770243211732 0.00046333849468134877 0 0.017732905704983641 0.00061887962865315776 0 0.017122321328351557 0.00033765769123931351 0 0.017337959634842633 0.00050996406780451603 0 0.016977770243211732 0.00046333849468134877 0 0.016268373701973919 0.00035490394767599329 0 0.017337959634842633 0.00050996406780451603 0 0.016268373701973919 0.00035490394767599329 0 0.015566759238321168 0.00030388499343636944 0 0.015566759238321168 0.00030388499343636944 0 0.015434459725548565 3.03849802007214e-07 0 0.012634512377775683 1.7204643291790178e-06 0 0.018231512013177287 5.6703658712067369e-07 0 0.015434459725548565 3.03849802007214e-07 0 0.017808638064495237 0.00037513443740767866 0 0.015566759238321168 0.00030388499343636944 0 0.015434459725548565 3.03849802007214e-07 0 0.017808638064495237 0.00037513443740767866 0 0.017337959634842633 0.00050996406780451603 0 0.015566759238321168 0.00030388499343636944 0 0.017808638064495237 0.00037513443740767866 0 0.017774629065758562 0.00039673653235488187 0 0.017618440595890121 0.00039543149774409758 0 0.017673546470813834 0.00046740923687451302 0 0.017618440595890121 0.00039543149774409758 0 0.017682077922645496 0.00050329924646076046 0 0.017673546470813834 0.00046740923687451302 0 0.017774629065758562 0.00039673653235488187 0 0.017673546470813834 0.00046740923687451302 0 0.017771739784437947 0.00047058547713962868 0 0.017400594715859447 0.00017335739584425932 0 0.017459132229158333 0.00012577206700149242 0 0.017774629065758562 0.00039673653235488187 0 0.017618440595890121 0.00039543149774409758 0 0.017464507269737726 0.00011398291300680981 0 0.017618440595890121 0.00039543149774409758 0 0.017444921645637931 0.00033095999220215223 0 0.017682077922645496 0.00050329924646076046 0 0.017618440595890121 0.00039543149774409758 0 0.017444921645637931 0.00033095999220215223 0 0.017464507269737726 0.00011398291300680981 0 0.017444921645637931 0.00033095999220215223 0 0.017732905704983641 0.00061887962865315776 0 0.017122321328351557 0.00033765769123931351 0 0.017444921645637931 0.00033095999220215223 0 0.017732905704983641 0.00061887962865315776 0 0.017682077922645496 0.00050329924646076046 0 0.017732905704983641 0.00061887962865315776 0 0.018566815277674762 0.00046359982013109751 0 0.017891905802868011 0.00054709875098683369 0 0.017732905704983641 0.00061887962865315776 0 0.017682077922645496 0.00050329924646076046 0 0.017891905802868011 0.00054709875098683369 0 0.017682077922645496 0.00050329924646076046 0 0.017891905802868011 0.00054709875098683369 0 0.017673546470813834 0.00046740923687451302 0 0.017751390710416936 0.00033412589663475701 0 0.017891905802868011 0.00054709875098683369 0 0.017673546470813834 0.00046740923687451302 0 0.017751390710416936 0.00033412589663475701 0 0.018566815277674762 0.00046359982013109751 0 0.017891905802868011 0.00054709875098683369 0 0.01820772455226994 0.00028886678124624438 0 0.018563457026682134 0.00044101500629435887 0 0.020052228932954566 -0.00037049840670607147 0 0.018566815277674762 0.00046359982013109751 0 0.018973932212664024 4.6357168945887157e-05 0 0.018618005931614202 0.0001889969466060078 0 0.018566815277674762 0.00046359982013109751 0 0.018973932212664024 4.6357168945887157e-05 0 0.018618005931614202 0.0001889969466060078 0 0.018543023483778748 -0.00017436470720685938 0 0.018279837385695181 0.00011238593264117715 0 0.018618005931614202 0.0001889969466060078 0 0.018973932212664024 4.6357168945887157e-05 0 0.018543023483778748 -0.00017436470720685938 0 0.018543023483778748 -0.00017436470720685938 0 0.018279837385695181 0.00011238593264117715 0 0.018418032387931119 -0.0001367283701920526 0 0.01820772455226994 0.00028886678124624438 0 0.017993217034295617 0.00028645328423418251 0 0.017751390710416936 0.00033412589663475701 0 0.017712880140623662 0.00045926157053935559 0 0.017673546470813834 0.00046740923687451302 0 0.017712880140623662 0.00045926157053935559 0 0.017673546470813834 0.00046740923687451302 0 0.017771739784437947 0.00047058547713962868 0 0.017712880140623662 0.00045926157053935559 0 0.017771739784437947 0.00047058547713962868 0 0.017798696827168579 0.00051561647938581066 0 0.017993217034295617 0.00028645328423418251 0 0.017899651673404543 0.00036952784418871657 0 0.018279837385695181 0.00011238593264117715 0 0.018239927017663474 -0.00012975309288351837 0 0.018016732989110041 0.00022725296780645696 0 0.018279837385695181 0.00011238593264117715 0 0.018418032387931119 -0.0001367283701920526 0 0.018239927017663474 -0.00012975309288351837 0 0.024346451136126487 0.00029929418720136029 0 0.026493426605223691 -0.00027233917635553404 0 0.025009965615710263 -0.0015335140242022172 0 0.018418032387931119 -0.0001367283701920526 0 0.018239927017663474 -0.00012975309288351837 0 0.01855238953814688 -0.00027574560990882026 0 0.02105380222341742 0.00029589283772519278 0 0.023486188261127316 -0.0015049144795927548 0 0.024346451136126487 0.00029929418720136029 0 0.023388708937373298 -0.0010794761271139982 0 0.022626084045683396 -0.00023504040456575291 0 0.024346451136126487 0.00029929418720136029 0 0.025009965615710263 -0.0015335140242022172 0 0.023388708937373298 -0.0010794761271139982 0 0.018973932212664024 4.6357168945887157e-05 0 0.018543023483778748 -0.00017436470720685938 0 0.019374503262059049 -0.0011897875542198845 0 0.020052228932954566 -0.00037049840670607147 0 0.018973932212664024 4.6357168945887157e-05 0 0.019374503262059049 -0.0011897875542198845 0 0.021004028591587977 -0.0033204966215126005 0 0.020052228932954566 -0.00037049840670607147 0 0.019374503262059049 -0.0011897875542198845 0 0.018543023483778748 -0.00017436470720685938 0 0.018418032387931119 -0.0001367283701920526 0 0.01855238953814688 -0.00027574560990882026 0 0.018543023483778748 -0.00017436470720685938 0 0.019374503262059049 -0.0011897875542198845 0 0.018823670901199699 -0.0023435732020827935 0 0.017566839535599486 -0.00016901892963448389 0 0.023486188261127316 -0.0015049144795927548 0 0.021004028591587977 -0.0033204966215126005 0 0.019374503262059049 -0.0011897875542198845 0 0.018823670901199699 -0.0023435732020827935 0 0.025545387578421074 -0.0039607631862633242 0 0.023486188261127316 -0.0015049144795927548 0 0.02949457462362931 -0.0041297745460040928 0 0.030309783469418938 -0.0039595733154773795 0 0.030244861266306131 -0.0033012912074295579 0 0.026493426605223691 -0.00027233917635553404 0 0.026425357739115841 -0.0019118345339238943 0 0.025009965615710263 -0.0015335140242022172 0 0.023486188261127316 -0.0015049144795927548 0 0.02910546261744229 -0.0025742294234125779 0 0.030309783469418938 -0.0039595733154773795 0 0.030244861266306131 -0.0033012912074295579 0 0.031124412660855024 -0.0031783940033772058 0 0.028899766539337193 -0.0026807708617781582 0 0.02910546261744229 -0.0025742294234125779 0 0.026332689879686153 -0.0033935921046017239 0 0.026425357739115841 -0.0019118345339238943 0 0.025661571331484386 -0.002501494927518205 0 0.031829767479950796 -0.0020156696147801702 0 0.031124412660855024 -0.0031783940033772058 0 0.030815593151734849 -0.0024903189855630015 0 0.030244861266306131 -0.0033012912074295579 0 0.031124412660855024 -0.0031783940033772058 0 0.030815593151734849 -0.0024903189855630015 0 0.029880366308716731 -0.0025737893375613005 0 0.030244861266306131 -0.0033012912074295579 0 0.030815593151734849 -0.0024903189855630015 0 0.025009965615710263 -0.0015335140242022172 0 0.023678334309690994 -0.0021393384405195255 0 0.023388708937373298 -0.0010794761271139982 0 0.024858568379162945 -0.0031157444922244445 0 0.025009965615710263 -0.0015335140242022172 0 0.025661571331484386 -0.002501494927518205 0 0.024858568379162945 -0.0031157444922244445 0 0.026332689879686153 -0.0033935921046017239 0 0.025661571331484386 -0.002501494927518205 0 0.026425357739115841 -0.0019118345339238943 0 0.025009965615710263 -0.0015335140242022172 0 0.025661571331484386 -0.002501494927518205 0 0.024858568379162945 -0.0031157444922244445 0 0.023678334309690994 -0.0021393384405195255 0 0.023371305950489259 -0.0029680598417985283 0 0.024858568379162945 -0.0031157444922244445 0 0.025009965615710263 -0.0015335140242022172 0 0.023678334309690994 -0.0021393384405195255 0 0.022752149358783256 -0.0034953625032660622 0 0.023371305950489259 -0.0029680598417985283 0 0.022329124432722312 -0.0028603613537854047 0 0.023371305950489259 -0.0029680598417985283 0 0.022329124432722312 -0.0028603613537854047 0 0.022760413661663551 -0.0024270389339744779 0 0.022760413661663551 -0.0024270389339744779 0 0.02250040615141698 -0.0017617446975812185 0 0.022123372317804132 -0.0023316638640855048 0 0.022329124432722312 -0.0028603613537854047 0 0.022760413661663551 -0.0024270389339744779 0 0.022123372317804132 -0.0023316638640855048 0 0.023678334309690994 -0.0021393384405195255 0 0.022760413661663551 -0.0024270389339744779 0 0.02250040615141698 -0.0017617446975812185 0 0.023678334309690994 -0.0021393384405195255 0 0.023371305950489259 -0.0029680598417985283 0 0.022760413661663551 -0.0024270389339744779 0 0.023678334309690994 -0.0021393384405195255 0 0.02250040615141698 -0.0017617446975812185 0 0.023388708937373298 -0.0010794761271139982 0 0.02250040615141698 -0.0017617446975812185 0 0.022073242880097526 -0.0010753291691809337 0 0.021656780025269884 -0.0018684020295592447 0 0.02250040615141698 -0.0017617446975812185 0 0.022073242880097526 -0.0010753291691809337 0 0.023388708937373298 -0.0010794761271139982 0 0.022073242880097526 -0.0010753291691809337 0 0.020642314990654009 -0.0012818110757333735 0 0.021656780025269884 -0.0018684020295592447 0 0.02250040615141698 -0.0017617446975812185 0 0.021656780025269884 -0.0018684020295592447 0 0.022123372317804132 -0.0023316638640855048 0 0.020642314990654009 -0.0012818110757333735 0 0.021201070058955922 -0.0020950797739872915 0 0.020761397589020181 -0.0023939559409646739 0 0.020642314990654009 -0.0012818110757333735 0 0.021656780025269884 -0.0018684020295592447 0 0.021201070058955922 -0.0020950797739872915 0 0.022036049440528383 -0.0038820730558484732 0 0.021877102339657596 -0.0030795253754701221 0 0.020726078855449012 -0.0026168194036543329 0 0.021656780025269884 -0.0018684020295592447 0 0.021201070058955922 -0.0020950797739872915 0 0.021504442073170166 -0.002522450669095469 0 0.022703786189444661 -0.0037689444139410639 0 0.022118042328503618 -0.0027747987525211459 0 0.022196329570456391 -0.0026120248859668135 0 0.021504442073170166 -0.002522450669095469 0 0.020761397589020181 -0.0023939559409646739 0 0.020726078855449012 -0.0026168194036543329 0 0.021201070058955922 -0.0020950797739872915 0 0.021504442073170166 -0.002522450669095469 0 0.020761397589020181 -0.0023939559409646739 0 0.021656780025269884 -0.0018684020295592447 0 0.021504442073170166 -0.002522450669095469 0 0.022123372317804132 -0.0023316638640855048 0 0.022329124432722312 -0.0028603613537854047 0 0.021504442073170166 -0.002522450669095469 0 0.022123372317804132 -0.0023316638640855048 0 0.022329124432722312 -0.0028603613537854047 0 0.021504442073170166 -0.002522450669095469 0 0.021877102339657596 -0.0030795253754701221 0 0.022752149358783256 -0.0034953625032660622 0 0.022329124432722312 -0.0028603613537854047 0 0.021877102339657596 -0.0030795253754701221 0 0.021504442073170166 -0.002522450669095469 0 0.021877102339657596 -0.0030795253754701221 0 0.020726078855449012 -0.0026168194036543329 0 0.02687633109153208 -0.00040577455208456369 0 0.027123803351416516 -0.00033985908623390129 0 0.026949588577245793 -0.00051054452834342721 0 0.027123803351416516 -0.00033985908623390129 0 0.02722742087626356 -0.00060151969617864502 0 0.026949588577245793 -0.00051054452834342721 0 0.023046035095436603 -0.0025107617633483049 0 0.023561545611963337 -0.0020910956094043706 0 0.026900150361954419 -0.00042827330939202053 0 0.026866678113124053 -0.00049677924933092237 0 0.026949588577245793 -0.00051054452834342721 0 0.026489521850081309 -0.0015713944772609775 0 0.023561545611963337 -0.0020910956094043706 0 0.026489521850081309 -0.0015713944772609775 0 0.026446339133976166 -0.0011868366760678488 0 0.027728417580842823 0.00014255219092220231 0 0.027452625407180756 -0.00042589524165031686 0 0.027816605564956871 -0.00055356451286525112 0 0.027123803351416516 -0.00033985908623390129 0 0.02722742087626356 -0.00060151969617864502 0 0.027452625407180756 -0.00042589524165031686 0 0.02722742087626356 -0.00060151969617864502 0 0.027452625407180756 -0.00042589524165031686 0 0.027407467255316651 -0.00074724433619909243 0 0.027452625407180756 -0.00042589524165031686 0 0.027407467255316651 -0.00074724433619909243 0 0.027638059565509382 -0.00071141079485004114 0 0.027452625407180756 -0.00042589524165031686 0 0.027816605564956871 -0.00055356451286525112 0 0.027638059565509382 -0.00071141079485004114 0 0.027407467255316651 -0.00074724433619909243 0 0.027638059565509382 -0.00071141079485004114 0 0.027552531401154001 -0.00088590311652661773 0 0.02722742087626356 -0.00060151969617864502 0 0.027407467255316651 -0.00074724433619909243 0 0.027220532700486844 -0.00089205406521081037 0 0.027407467255316651 -0.00074724433619909243 0 0.027220532700486844 -0.00089205406521081037 0 0.027467442459771993 -0.00089944249200873028 0 0.027407467255316651 -0.00074724433619909243 0 0.027467442459771993 -0.00089944249200873028 0 0.027552531401154001 -0.00088590311652661773 0 0.020642314990654009 -0.0012818110757333735 0 0.020761397589020181 -0.0023939559409646739 0 0.019219886770646805 -0.0010981676891541115 0 0.02722742087626356 -0.00060151969617864502 0 0.026949588577245793 -0.00051054452834342721 0 0.027220532700486844 -0.00089205406521081037 0 0.023561545611963337 -0.0020910956094043706 0 0.023231106712120895 -0.00089553610868095882 0 0.026866678113124053 -0.00049677924933092237 0 0.026949588577245793 -0.00051054452834342721 0 0.027220532700486844 -0.00089205406521081037 0 0.020761397589020181 -0.0023939559409646739 0 0.020654447355517438 -0.0026893818783879763 0 0.019219886770646805 -0.0010981676891541115 0 0.020642314990654009 -0.0012818110757333735 0 0.019219886770646805 -0.0010981676891541115 0 0.01990234274329743 -5.0206374969684466e-05 0 0.019219886770646805 -0.0010981676891541115 0 0.018874411371123126 0.00023093893166521148 0 0.01990234274329743 -5.0206374969684466e-05 0 0.027467442459771993 -0.00089944249200873028 0 0.027353765175418758 -0.00099012916444197237 0 0.02736796701925908 -0.0010017365378126341 0 0.027220532700486844 -0.00089205406521081037 0 0.027467442459771993 -0.00089944249200873028 0 0.02736796701925908 -0.0010017365378126341 0 0.019219886770646805 -0.0010981676891541115 0 0.018874411371123126 0.00023093893166521148 0 0.018121004568686729 0.00046573442785895246 0 0.023231106712120895 -0.00089553610868095882 0 0.022547196189522629 -0.00022553002251304356 0 0.027467442459771993 -0.00089944249200873028 0 0.027421811282503754 -0.00051660645371937259 0 0.027349207436451896 -0.00072039411443627389 0 0.027434830981921125 -0.00081465811943403222 0 0.027464657790945299 -0.00091605439134643217 0 0.027353765175418758 -0.00099012916444197237 0 0.02736796701925908 -0.0010017365378126341 0 0.02730234254407389 -0.00086559738898303379 0 0.022547196189522629 -0.00022553002251304356 0 0.024847077920833575 0.00018817905207025155 0 0.018121004568686729 0.00046573442785895246 0 0.018296214957375476 0.00082876240875235513 0 0.017978312512596427 0.00068480432763112309 0 0.018874411371123126 0.00023093893166521148 0 0.018121004568686729 0.00046573442785895246 0 0.018296214957375476 0.00082876240875235513 0 0.018874411371123126 0.00023093893166521148 0 0.01990234274329743 -5.0206374969684466e-05 0 0.018296214957375476 0.00082876240875235513 0 0.01990234274329743 -5.0206374969684466e-05 0 0.018296214957375476 0.00082876240875235513 0 0.020325036292086426 0.00040037456927952879 0 0.018296214957375476 0.00082876240875235513 0 0.017956134613652724 0.00048987637628729861 0 0.01797531324559367 0.00060102306405071233 0 0.018296214957375476 0.00082876240875235513 0 0.017956134613652724 0.00048987637628729861 0 0.017890900096876335 0.00032740175558926428 0 0.018427117922717992 0.00084338651131284407 0 0.019915528841624532 0.00057887744704749472 0 0.018296214957375476 0.00082876240875235513 0 0.020325036292086426 0.00040037456927952879 0 0.021789029113682964 0.00098458620670682242 0 0.017935850329333758 0.00046040516439931295 0 0.017899651673404543 0.00036952784418871657 0 0.02105380222341742 0.00029589283772519278 0 0.019915528841624532 0.00057887744704749472 0 0.018239927017663474 -0.00012975309288351837 0 0.017890900096876335 0.00032740175558926428 0 0.018016732989110041 0.00022725296780645696 0 0.017956134613652724 0.00048987637628729861 0 0.017890900096876335 0.00032740175558926428 0 0.018016732989110041 0.00022725296780645696 0 0.024346451136126487 0.00029929418720136029 0 0.021789029113682964 0.00098458620670682242 0 0.022626084045683396 -0.00023504040456575291 0 0.021789029113682964 0.00098458620670682242 0 0.022626084045683396 -0.00023504040456575291 0 0.021312031906361481 -0.00022280429313463818 0 0.022073242880097526 -0.0010753291691809337 0 0.023388708937373298 -0.0010794761271139982 0 0.022626084045683396 -0.00023504040456575291 0 0.022073242880097526 -0.0010753291691809337 0 0.022626084045683396 -0.00023504040456575291 0 0.021312031906361481 -0.00022280429313463818 0 0.022073242880097526 -0.0010753291691809337 0 0.020642314990654009 -0.0012818110757333735 0 0.021312031906361481 -0.00022280429313463818 0 0.020642314990654009 -0.0012818110757333735 0 0.01990234274329743 -5.0206374969684466e-05 0 0.021312031906361481 -0.00022280429313463818 0 0.01990234274329743 -5.0206374969684466e-05 0 0.020325036292086426 0.00040037456927952879 0 0.021312031906361481 -0.00022280429313463818 0 0.020325036292086426 0.00040037456927952879 0 0.021789029113682964 0.00098458620670682242 0 0.021312031906361481 -0.00022280429313463818 0 0.028476532826112001 -0.00076390601864268696 0 0.028431409088085585 -0.00093685937967469561 0 0.028668875099889073 -0.00089599386393314799 0 0.028476532826112001 -0.00076390601864268696 0 0.028290638980925677 -0.00083736638101209165 0 0.028431409088085585 -0.00093685937967469561 0 0.028476532826112001 -0.00076390601864268696 0 0.028679034488724327 -0.00067137743650363491 0 0.028668875099889073 -0.00089599386393314799 0 0.028476532826112001 -0.00076390601864268696 0 0.028479403037694251 -0.00054821857314534851 0 0.028679034488724327 -0.00067137743650363491 0 0.030665663571209738 8.1750855502776159e-05 0 0.030337610858874584 -0.00064656642042847903 0 0.030955461070005522 -0.00024151944584631797 0 0.028476532826112001 -0.00076390601864268696 0 0.028479403037694251 -0.00054821857314534851 0 0.028294915783637648 -0.0006916097612927137 0 0.028479403037694251 -0.00054821857314534851 0 0.028294915783637648 -0.0006916097612927137 0 0.028095448405616914 -0.00057450487369628685 0 0.029458109701026948 -0.00063608532891796339 0 0.028553441209013208 -0.00060826029536750997 0 0.030337610858874584 -0.00064656642042847903 0 0.029399219685619458 -0.0003175731182124545 0 0.029038889077379629 -0.00067212850568542423 0 0.030171378173503297 -8.8660526486979808e-05 0 0.030337610858874584 -0.00064656642042847903 0 0.029399219685619458 -0.0003175731182124545 0 0.028294915783637648 -0.0006916097612927137 0 0.028131342638494976 -0.00073931482849366086 0 0.028095448405616914 -0.00057450487369628685 0 0.028294915783637648 -0.0006916097612927137 0 0.028290638980925677 -0.00083736638101209165 0 0.028131342638494976 -0.00073931482849366086 0 0.028476532826112001 -0.00076390601864268696 0 0.028294915783637648 -0.0006916097612927137 0 0.028290638980925677 -0.00083736638101209165 0 0.028290638980925677 -0.00083736638101209165 0 0.028130964625822694 -0.00090868925726046333 0 0.028131342638494976 -0.00073931482849366086 0 0.028130964625822694 -0.00090868925726046333 0 0.027998666671090522 -0.00080507952509031172 0 0.028131342638494976 -0.00073931482849366086 0 0.028130964625822694 -0.00090868925726046333 0 0.027998666671090522 -0.00080507952509031172 0 0.027958160902984381 -0.00097284130721288665 0 0.027998666671090522 -0.00080507952509031172 0 0.02787213294055027 -0.00082477820227117829 0 0.027958160902984381 -0.00097284130721288665 0 0.027998666671090522 -0.00080507952509031172 0 0.02801593337351168 -0.00066964182153866339 0 0.027894871756282497 -0.00071057497324599904 0 0.027998666671090522 -0.00080507952509031172 0 0.027894871756282497 -0.00071057497324599904 0 0.02787213294055027 -0.00082477820227117829 0 0.027998666671090522 -0.00080507952509031172 0 0.02801593337351168 -0.00066964182153866339 0 0.028131342638494976 -0.00073931482849366086 0 0.02875116180883085 -0.00018285821528252135 0 0.029038889077379629 -0.00067212850568542423 0 0.027816605564956871 -0.00055356451286525112 0 0.02801593337351168 -0.00066964182153866339 0 0.028095448405616914 -0.00057450487369628685 0 0.027816605564956871 -0.00055356451286525112 0 0.028553441209013208 -0.00060826029536750997 0 0.027877527379703504 -0.00057435814479234095 0 0.02801593337351168 -0.00066964182153866339 0 0.028131342638494976 -0.00073931482849366086 0 0.028095448405616914 -0.00057450487369628685 0 0.02875116180883085 -0.00018285821528252135 0 0.029399219685619458 -0.0003175731182124545 0 0.029038889077379629 -0.00067212850568542423 0 0.028389203964650871 8.4365165547352624e-05 0 0.02875116180883085 -0.00018285821528252135 0 0.027816605564956871 -0.00055356451286525112 0 0.02801593337351168 -0.00066964182153866339 0 0.027816605564956871 -0.00055356451286525112 0 0.027894871756282497 -0.00071057497324599904 0 0.027816605564956871 -0.00055356451286525112 0 0.027638059565509382 -0.00071141079485004114 0 0.027792896306365538 -0.00072305623727509749 0 0.027638059565509382 -0.00071141079485004114 0 0.027792896306365538 -0.00072305623727509749 0 0.027729022128482092 -0.00082125062641835809 0 0.027816605564956871 -0.00055356451286525112 0 0.027894871756282497 -0.00071057497324599904 0 0.027792896306365538 -0.00072305623727509749 0 0.027894871756282497 -0.00071057497324599904 0 0.027792896306365538 -0.00072305623727509749 0 0.02787213294055027 -0.00082477820227117829 0 0.027792896306365538 -0.00072305623727509749 0 0.02787213294055027 -0.00082477820227117829 0 0.027729022128482092 -0.00082125062641835809 0 0.02787213294055027 -0.00082477820227117829 0 0.027729022128482092 -0.00082125062641835809 0 0.027806140637999674 -0.00093267035798667603 0 0.02787213294055027 -0.00082477820227117829 0 0.027806140637999674 -0.00093267035798667603 0 0.027958160902984381 -0.00097284130721288665 0 0.027552531401154001 -0.00088590311652661773 0 0.027729022128482092 -0.00082125062641835809 0 0.027806140637999674 -0.00093267035798667603 0 0.027638059565509382 -0.00071141079485004114 0 0.027552531401154001 -0.00088590311652661773 0 0.027729022128482092 -0.00082125062641835809 0 0.027504854908615955 -0.00087112719172781187 0 0.027486021040909137 -0.00092035519588219337 0 0.027467442459771993 -0.00089944249200873028 0 0.027386822620723263 -0.00080984946955806232 0 0.027349207436451896 -0.00072039411443627389 0 0.027552531401154001 -0.00088590311652661773 0 0.027386822620723263 -0.00080984946955806232 0 0.027087660209701946 -0.00073163871871271809 0 0.027467442459771993 -0.00089944249200873028 0 0.027552531401154001 -0.00088590311652661773 0 0.027386822620723263 -0.00080984946955806232 0 0.027806140637999674 -0.00093267035798667603 0 0.027843877972776827 -0.0011087175560023429 0 0.027958160902984381 -0.00097284130721288665 0 0.027552531401154001 -0.00088590311652661773 0 0.027806140637999674 -0.00093267035798667603 0 0.027843877972776827 -0.0011087175560023429 0 0.027087660209701946 -0.00073163871871271809 0 0.027257351361523928 -0.00058802034152166736 0 0.027074712711708138 -0.00052758967055306942 0 0.027421811282503754 -0.00051660645371937259 0 0.027349207436451896 -0.00072039411443627389 0 0.027257351361523928 -0.00058802034152166736 0 0.027386822620723263 -0.00080984946955806232 0 0.027087660209701946 -0.00073163871871271809 0 0.027349207436451896 -0.00072039411443627389 0 0.027087660209701946 -0.00073163871871271809 0 0.027349207436451896 -0.00072039411443627389 0 0.027257351361523928 -0.00058802034152166736 0 0.027464657790945299 -0.00091605439134643217 0 0.024847077920833575 0.00018817905207025155 0 0.027421811282503754 -0.00051660645371937259 0 0.027257351361523928 -0.00058802034152166736 0 0.027172715928626037 -0.00032043609814242188 0 0.027421811282503754 -0.00051660645371937259 0 0.027172715928626037 -0.00032043609814242188 0 0.027279719889780542 1.7471082142224154e-05 0 0.027172715928626037 -0.00032043609814242188 0 0.026956885729399294 -0.00022603372100014657 0 0.027046323627757732 1.0560831969310751e-05 0 0.027172715928626037 -0.00032043609814242188 0 0.026956885729399294 -0.00022603372100014657 0 0.027074712711708138 -0.00052758967055306942 0 0.027257351361523928 -0.00058802034152166736 0 0.027172715928626037 -0.00032043609814242188 0 0.027074712711708138 -0.00052758967055306942 0 0.027486021040909137 -0.00092035519588219337 0 0.027164500690400419 -0.0007930242195379175 0 0.026867725010001973 -0.00045918254081117203 0 0.027164500690400419 -0.0007930242195379175 0 0.027087660209701946 -0.00073163871871271809 0 0.027074712711708138 -0.00052758967055306942 0 0.026767299111617245 -0.00036674546499131528 0 0.027843877972776827 -0.0011087175560023429 0 0.028012185228600463 -0.0012963491483671023 0 0.028005416187233439 -0.001142016912249879 0 0.026956885729399294 -0.00022603372100014657 0 0.026676546138926206 -0.00034034312351022695 0 0.026815751504874977 3.9631336464608393e-05 0 0.026956885729399294 -0.00022603372100014657 0 0.027074712711708138 -0.00052758967055306942 0 0.026676546138926206 -0.00034034312351022695 0 0.027164500690400419 -0.0007930242195379175 0 0.026657923343071949 2.1630229582412805e-05 0 0.027164500690400419 -0.0007930242195379175 0 0.02476556591397773 0.00050450005117324138 0 0.028012185228600463 -0.0012963491483671023 0 0.028005416187233439 -0.001142016912249879 0 0.028176304782377683 -0.0011835300694661424 0 0.028104649180616073 -0.0010607332508015771 0 0.028005416187233439 -0.001142016912249879 0 0.028176304782377683 -0.0011835300694661424 0 0.028104649180616073 -0.0010607332508015771 0 0.028005416187233439 -0.001142016912249879 0 0.027958160902984381 -0.00097284130721288665 0 0.027843877972776827 -0.0011087175560023429 0 0.028005416187233439 -0.001142016912249879 0 0.027958160902984381 -0.00097284130721288665 0 0.028130964625822694 -0.00090868925726046333 0 0.028104649180616073 -0.0010607332508015771 0 0.027958160902984381 -0.00097284130721288665 0 0.028284503968055812 -0.0010284501703534679 0 0.028176304782377683 -0.0011835300694661424 0 0.028438151509462564 -0.0011564951785286662 0 0.028290638980925677 -0.00083736638101209165 0 0.028130964625822694 -0.00090868925726046333 0 0.028284503968055812 -0.0010284501703534679 0 0.028130964625822694 -0.00090868925726046333 0 0.028104649180616073 -0.0010607332508015771 0 0.028284503968055812 -0.0010284501703534679 0 0.028290638980925677 -0.00083736638101209165 0 0.028284503968055812 -0.0010284501703534679 0 0.028431409088085585 -0.00093685937967469561 0 0.028104649180616073 -0.0010607332508015771 0 0.028284503968055812 -0.0010284501703534679 0 0.028176304782377683 -0.0011835300694661424 0 0.028176304782377683 -0.0011835300694661424 0 0.028438151509462564 -0.0011564951785286662 0 0.028210072983435849 -0.0014031755492175341 0 0.028082994887224485 -0.00075679700975871231 0 0.026657923343071949 2.1630229582412805e-05 0 0.027493991678786113 -0.00015236199014137124 0 0.027501988296856419 -0.00030159000240242956 0 0.027633821780783979 -0.00012362872713558902 0 0.028012185228600463 -0.0012963491483671023 0 0.028176304782377683 -0.0011835300694661424 0 0.028210072983435849 -0.0014031755492175341 0 0.027493991678786113 -0.00015236199014137124 0 0.027501988296856419 -0.00030159000240242956 0 0.027365373480541359 -0.00023562785885785915 0 0.028438151509462564 -0.0011564951785286662 0 0.028431409088085585 -0.00093685937967469561 0 0.028668875099889073 -0.00089599386393314799 0 0.028082994887224485 -0.00075679700975871231 0 0.027995029636956797 -0.00074706546417402538 0 0.027501988296856419 -0.00030159000240242956 0 0.027365373480541359 -0.00023562785885785915 0 0.027348924969239873 -0.00048802965541016631 0 0.028284503968055812 -0.0010284501703534679 0 0.028438151509462564 -0.0011564951785286662 0 0.028431409088085585 -0.00093685937967469561 0 0.025365241722133922 0.0010614686807010087 0 0.025446096765548914 0.0012532003527867285 0 0.025198485311036613 0.0013018812371755862 0 0.025365241722133922 0.0010614686807010087 0 0.025446096765548914 0.0012532003527867285 0 0.025577264008230783 0.0010248571119193044 0 0.027493991678786113 -0.00015236199014137124 0 0.027443301291493267 -8.65353390143232e-06 0 0.027365373480541359 -0.00023562785885785915 0 0.027493991678786113 -0.00015236199014137124 0 0.027443301291493267 -8.65353390143232e-06 0 0.027633821780783979 -0.00012362872713558902 0 0.026377030804196691 0.0007035439350377015 0 0.026657923343071949 2.1630229582412805e-05 0 0.025446096765548914 0.0012532003527867285 0 0.025242323069503584 0.0013483047879347405 0 0.025198485311036613 0.0013018812371755862 0 0.02681198326120756 -0.00076984273547170661 0 0.025544946473645108 -7.3736760114792032e-05 0 0.025918145418323307 0.00037610165908486795 0 0.026657923343071949 2.1630229582412805e-05 0 0.02476556591397773 0.00050450005117324138 0 0.022476592005900756 0.00082069085212422286 0 0.022545401059019497 0.00076547492353402934 0 0.022520156096016274 0.00081690812322451141 0 0.024024810964370064 0.001070734847195698 0 0.02476556591397773 0.00050450005117324138 0 0.022520156096016274 0.00081690812322451141 0 0.022558611900499764 0.00080538271218688314 0 0.022524775077707573 0.0008508399645286394 0 0.022545401059019497 0.00076547492353402934 0 0.022520156096016274 0.00081690812322451141 0 0.022558611900499764 0.00080538271218688314 0 0.026738402537152942 0.00040721618234760843 0 0.026815751504874977 3.9631336464608393e-05 0 0.026968230010364851 0.00036879957357276465 0 0.02476556591397773 0.00050450005117324138 0 0.024958122649612981 0.00083424010808381673 0 0.02640009528911904 1.3713847966603338e-05 0 0.026738402537152942 0.00040721618234760843 0 0.026815751504874977 3.9631336464608393e-05 0 0.026676546138926206 -0.00034034312351022695 0 0.02640009528911904 1.3713847966603338e-05 0 0.026815751504874977 3.9631336464608393e-05 0 0.026815751504874977 3.9631336464608393e-05 0 0.027046323627757732 1.0560831969310751e-05 0 0.026968230010364851 0.00036879957357276465 0 0.027046323627757732 1.0560831969310751e-05 0 0.02714677948667724 0.00018639477083123255 0 0.026968230010364851 0.00036879957357276465 0 0.026956885729399294 -0.00022603372100014657 0 0.026815751504874977 3.9631336464608393e-05 0 0.027046323627757732 1.0560831969310751e-05 0 0.027172715928626037 -0.00032043609814242188 0 0.027046323627757732 1.0560831969310751e-05 0 0.027279719889780542 1.7471082142224154e-05 0 0.027046323627757732 1.0560831969310751e-05 0 0.027279719889780542 1.7471082142224154e-05 0 0.02714677948667724 0.00018639477083123255 0 0.024847077920833575 0.00018817905207025155 0 0.025949292108603052 -0.00031878881099887653 0 0.027238911942268965 3.8135081388631457e-05 0 0.02714677948667724 0.00018639477083123255 0 0.027044776188371554 0.00075445426448881561 0 0.026738402537152942 0.00040721618234760843 0 0.026968230010364851 0.00036879957357276465 0 0.0270015137786901 0.00076584007295576529 0 0.02714677948667724 0.00018639477083123255 0 0.026968230010364851 0.00036879957357276465 0 0.027044776188371554 0.00075445426448881561 0 0.026968230010364851 0.00036879957357276465 0 0.027044776188371554 0.00075445426448881561 0 0.0270015137786901 0.00076584007295576529 0 0.024847077920833575 0.00018817905207025155 0 0.020238958362672903 0.00034098702395524079 0 0.024958122649612981 0.00083424010808381673 0 0.021273169863412822 0.00069382404743004752 0 0.017308874402043203 0.00020800127660374929 0 0.01729394912278075 0.00020791042642275009 0 0.017138836259587561 0.00019580014653373579 0 0.018584984209949744 0.00059724987000533394 0 0.018564370269823192 0.00056490789896071318 0 0.0185905289170092 0.00058647595605616104 0 0.020238958362672903 0.00034098702395524079 0 0.017121230861185083 0.00056345547710618673 0 0.017295119738578373 0.0001636335158853618 0 0.01729394912278075 0.00020791042642275009 0 0.017400963571008683 0.00021476625188713531 0 0.017295119738578373 0.0001636335158853618 0 0.01728755496100463 0.00018382774726406062 0 0.01729394912278075 0.00020791042642275009 0 0.020308980663364767 -0.00018588163766414985 0 0.020108670728488862 0.001132125938909995 0 0.01925157293799044 0.00010417094609137178 0 0.020238958362672903 0.00034098702395524079 0 0.019867294996427292 0.0002238794586724069 0 0.020238958362672903 0.00034098702395524079 0 0.021273169863412822 0.00069382404743004752 0 0.019867294996427292 0.0002238794586724069 0 0.021273169863412822 0.00069382404743004752 0 0.019867294996427292 0.0002238794586724069 0 0.01932722435638997 -9.3456411153338068e-05 0 0.018584984209949744 0.00059724987000533394 0 0.018588251992992612 0.00059945677896549384 0 0.0185905289170092 0.00058647595605616104 0 0.01729394912278075 0.00020791042642275009 0 0.017193025498861137 0.00019491140863200663 0 0.017400963571008683 0.00021476625188713531 0 0.019867294996427292 0.0002238794586724069 0 0.01781242895715543 0.0004968102850432584 0 0.01729394912278075 0.00020791042642275009 0 0.017193025498861137 0.00019491140863200663 0 0.017138836259587561 0.00019580014653373579 0 0.018564370269823192 0.00056490789896071318 0 0.0185905289170092 0.00058647595605616104 0 0.018577934900895765 0.00054689994599255664 0 0.017193025498861137 0.00019491140863200663 0 0.017138836259587561 0.00019580014653373579 0 0.017023311653903851 0.00014595556882067526 0 0.018615562300171366 0.00059697481197197371 0 0.0185905289170092 0.00058647595605616104 0 0.018614287088126267 0.00057174107235323979 0 0.0185905289170092 0.00058647595605616104 0 0.018614287088126267 0.00057174107235323979 0 0.018577934900895765 0.00054689994599255664 0 0.018614287088126267 0.00057174107235323979 0 0.018608988234311508 0.00054134752833160543 0 0.018577934900895765 0.00054689994599255664 0 0.022558611900499764 0.00080538271218688314 0 0.022566730652878651 0.00083550380490710128 0 0.022524775077707573 0.0008508399645286394 0 0.018588251992992612 0.00059945677896549384 0 0.018615562300171366 0.00059697481197197371 0 0.0185905289170092 0.00058647595605616104 0 0.021273169863412822 0.00069382404743004752 0 0.020502247951254344 0.00073316286922227953 0 0.020502247951254344 0.00073316286922227953 0 0.02025423955136223 0.0008068459637526809 0 0.022520156096016274 0.00081690812322451141 0 0.022524775077707573 0.0008508399645286394 0 0.022470487377517272 0.00086773390825783947 0 0.022476592005900756 0.00082069085212422286 0 0.022520156096016274 0.00081690812322451141 0 0.022470487377517272 0.00086773390825783947 0 0.018614287088126267 0.00057174107235323979 0 0.018643080520657693 0.00055735491317785541 0 0.018662613431439802 0.00059741210813592878 0 0.018615562300171366 0.00059697481197197371 0 0.018614287088126267 0.00057174107235323979 0 0.018662613431439802 0.00059741210813592878 0 0.018614287088126267 0.00057174107235323979 0 0.018643080520657693 0.00055735491317785541 0 0.018608988234311508 0.00054134752833160543 0 0.018662613431439802 0.00059741210813592878 0 0.018690994861783793 0.00057502777966271805 0 0.01872590699811669 0.00061090308259838732 0 0.02025423955136223 0.0008068459637526809 0 0.022305127130097753 0.00047279950023562938 0 0.018643080520657693 0.00055735491317785541 0 0.018662613431439802 0.00059741210813592878 0 0.018690994861783793 0.00057502777966271805 0 0.024024810964370064 0.001070734847195698 0 0.022305127130097753 0.00047279950023562938 0 0.022476592005900756 0.00082069085212422286 0 0.022470487377517272 0.00086773390825783947 0 0.022413574417162494 0.00088109131589285189 0 0.017851927121903834 0.00049225923766437927 0 0.017755254613585084 0.0005336137796736342 0 0.017832833308250907 0.00046217174023223482 0 0.017755254613585084 0.0005336137796736342 0 0.017329912255559344 0.00020677365799833683 0 0.016997804146472787 0.00018592072759473648 0 0.017714552982599909 0.00051692426155178813 0 0.017431254324606793 0.00031763611948523664 0 0.017771739784437947 0.00047058547713962868 0 0.017851927121903834 0.00049225923766437927 0 0.017832833308250907 0.00046217174023223482 0 0.017771739784437947 0.00047058547713962868 0 0.017798696827168579 0.00051561647938581066 0 0.017851927121903834 0.00049225923766437927 0 0.017956134613652724 0.00048987637628729861 0 0.017798696827168579 0.00051561647938581066 0 0.017851927121903834 0.00049225923766437927 0 0.017851927121903834 0.00049225923766437927 0 0.017755254613585084 0.0005336137796736342 0 0.01797531324559367 0.00060102306405071233 0 0.017956134613652724 0.00048987637628729861 0 0.017851927121903834 0.00049225923766437927 0 0.01797531324559367 0.00060102306405071233 0 0.018296214957375476 0.00082876240875235513 0 0.017755254613585084 0.0005336137796736342 0 0.01797531324559367 0.00060102306405071233 0 0.018296214957375476 0.00082876240875235513 0 0.017755254613585084 0.0005336137796736342 0 0.017790480557908585 0.00052431673457281353 0 0.018296214957375476 0.00082876240875235513 0 0.017978312512596427 0.00068480432763112309 0 0.017790480557908585 0.00052431673457281353 0 0.017978312512596427 0.00068480432763112309 0 0.017818809491101189 0.00022233622621986007 0 0.017790480557908585 0.00052431673457281353 0 0.017818809491101189 0.00022233622621986007 0 0.017790480557908585 0.00052431673457281353 0 0.017584209938748981 0.00024182472995804111 0 0.017790480557908585 0.00052431673457281353 0 0.017584209938748981 0.00024182472995804111 0 0.017390112129683551 0.00019780058405083231 0 0.017755254613585084 0.0005336137796736342 0 0.017790480557908585 0.00052431673457281353 0 0.017329912255559344 0.00020677365799833683 0 0.017790480557908585 0.00052431673457281353 0 0.017329912255559344 0.00020677365799833683 0 0.017390112129683551 0.00019780058405083231 0 0.017329912255559344 0.00020677365799833683 0 0.017390112129683551 0.00019780058405083231 0 0.017070924242905263 0.00010559995107818305 0 0.017390112129683551 0.00019780058405083231 0 0.01723550733825828 0.00017201417220113891 0 0.017070924242905263 0.00010559995107818305 0 0.017584209938748981 0.00024182472995804111 0 0.017390112129683551 0.00019780058405083231 0 0.017400963571008683 0.00021476625188713531 0 0.017295119738578373 0.0001636335158853618 0 0.017584209938748981 0.00024182472995804111 0 0.017400963571008683 0.00021476625188713531 0 0.017390112129683551 0.00019780058405083231 0 0.017400963571008683 0.00021476625188713531 0 0.01723550733825828 0.00017201417220113891 0 0.017193025498861137 0.00019491140863200663 0 0.017400963571008683 0.00021476625188713531 0 0.01723550733825828 0.00017201417220113891 0 0.017193025498861137 0.00019491140863200663 0 0.01723550733825828 0.00017201417220113891 0 0.017028027295772057 0.0001363505430011701 0 0.01723550733825828 0.00017201417220113891 0 0.017028027295772057 0.0001363505430011701 0 0.017070924242905263 0.00010559995107818305 0 0.017028027295772057 0.0001363505430011701 0 0.017070924242905263 0.00010559995107818305 0 0.016895845574772091 8.379684219991622e-05 0 0.017193025498861137 0.00019491140863200663 0 0.017028027295772057 0.0001363505430011701 0 0.017023311653903851 0.00014595556882067526 0 0.017070924242905263 0.00010559995107818305 0 0.016949065327790024 6.4495481441528217e-06 0 0.016734276664473961 2.0493384327690741e-05 0 0.017329912255559344 0.00020677365799833683 0 0.017070924242905263 0.00010559995107818305 0 0.016949065327790024 6.4495481441528217e-06 0 0.017329912255559344 0.00020677365799833683 0 0.016949065327790024 6.4495481441528217e-06 0 0.016997804146472787 0.00018592072759473648 0 0.017012354888885667 -6.7742333650022598e-05 0 0.016949065327790024 6.4495481441528217e-06 0 0.016997804146472787 0.00018592072759473648 0 0.017774629065758562 0.00039673653235488187 0 0.017771739784437947 0.00047058547713962868 0 0.017832833308250907 0.00046217174023223482 0 0.017400594715859447 0.00017335739584425932 0 0.017431254324606793 0.00031763611948523664 0 0.017012354888885667 -6.7742333650022598e-05 0 0.016949065327790024 6.4495481441528217e-06 0 0.016926700047204705 -6.1978138280118178e-06 0 0.016926700047204705 -6.1978138280118178e-06 0 0.01686375476533027 9.8289807293240619e-05 0 0.017116531343902983 5.2253703768845801e-05 0 0.016926700047204705 -6.1978138280118178e-06 0 0.01686375476533027 9.8289807293240619e-05 0 0.016732487910922307 3.0798362646863425e-05 0 0.01686375476533027 9.8289807293240619e-05 0 0.016866480892528488 0.00020918610829691119 0 0.016755728565042333 0.00019830307018121594 0 0.01686375476533027 9.8289807293240619e-05 0 0.01658147206980223 0.00017487346588051256 0 0.016755728565042333 0.00019830307018121594 0 0.01686375476533027 9.8289807293240619e-05 0 0.016866480892528488 0.00020918610829691119 0 0.017085081139607702 0.00013418995131247256 0 0.01658147206980223 0.00017487346588051256 0 0.016732487910922307 3.0798362646863425e-05 0 0.016416435673542375 0.000104937481741381 0 0.01686375476533027 9.8289807293240619e-05 0 0.01658147206980223 0.00017487346588051256 0 0.016732487910922307 3.0798362646863425e-05 0 0.016949065327790024 6.4495481441528217e-06 0 0.016732487910922307 3.0798362646863425e-05 0 0.016734276664473961 2.0493384327690741e-05 0 0.016949065327790024 6.4495481441528217e-06 0 0.016926700047204705 -6.1978138280118178e-06 0 0.016732487910922307 3.0798362646863425e-05 0 0.017070924242905263 0.00010559995107818305 0 0.016734276664473961 2.0493384327690741e-05 0 0.016895845574772091 8.379684219991622e-05 0 0.016734276664473961 2.0493384327690741e-05 0 0.016790524990393924 8.3189150438813824e-05 0 0.016284807524114164 -2.344848921226498e-05 0 0.016734276664473961 2.0493384327690741e-05 0 0.016895845574772091 8.379684219991622e-05 0 0.016790524990393924 8.3189150438813824e-05 0 0.017028027295772057 0.0001363505430011701 0 0.016790524990393924 8.3189150438813824e-05 0 0.017023311653903851 0.00014595556882067526 0 0.017028027295772057 0.0001363505430011701 0 0.016895845574772091 8.379684219991622e-05 0 0.016790524990393924 8.3189150438813824e-05 0 0.016790524990393924 8.3189150438813824e-05 0 0.016959827854723237 8.0965019104087664e-05 0 0.016862317217861637 2.321181303621165e-05 0 0.016790524990393924 8.3189150438813824e-05 0 0.017023311653903851 0.00014595556882067526 0 0.016959827854723237 8.0965019104087664e-05 0 0.016790524990393924 8.3189150438813824e-05 0 0.016284807524114164 -2.344848921226498e-05 0 0.016862317217861637 2.321181303621165e-05 0 0.016734276664473961 2.0493384327690741e-05 0 0.016284807524114164 -2.344848921226498e-05 0 0.016416435673542375 0.000104937481741381 0 0.016732487910922307 3.0798362646863425e-05 0 0.016734276664473961 2.0493384327690741e-05 0 0.016416435673542375 0.000104937481741381 0 0.0052943454428458839 -0.00030501811830657905 0 0.0057768092326136279 -2.0537511808336584e-06 0 0.0065237305945889338 -0.00034636845872039934 0 0.010428029496683446 0.00013568601285635364 0 0.011253714200380424 9.5335738282784619e-05 0 0.016416435673542375 0.000104937481741381 0 0.015691869678237304 0.00060586150287303409 0 0.016236516469251311 0.00042863574852170899 0 0.016284807524114164 -2.344848921226498e-05 0 0.016416435673542375 0.000104937481741381 0 0.015691869678237304 0.00060586150287303409 0 0.016284807524114164 -2.344848921226498e-05 0 0.015691869678237304 0.00060586150287303409 0 0.01516927148709806 0.00036049169573529593 0 0.0052943454428458839 -0.00030501811830657905 0 0.0049100526732348947 0.00022427110985518607 0 0.0057768092326136279 -2.0537511808336584e-06 0 0.0052943454428458839 -0.00030501811830657905 0 0.0049100526732348947 0.00022427110985518607 0 0.0049748133148918919 -6.2681757849654666e-06 0 0.0049100526732348947 0.00022427110985518607 0 0.0057768092326136279 -2.0537511808336584e-06 0 0.0058543737617650455 0.00040929055137162206 0 0.0057768092326136279 -2.0537511808336584e-06 0 0.0062799713766627597 5.8688425552370658e-06 0 0.0065237305945889338 -0.00034636845872039934 0 0.0057768092326136279 -2.0537511808336584e-06 0 0.0058543737617650455 0.00040929055137162206 0 0.0062799713766627597 5.8688425552370658e-06 0 0.0058543737617650455 0.00040929055137162206 0 0.0062799713766627597 5.8688425552370658e-06 0 0.0066386220855441016 0.00063127065194753292 0 0.0064908034677803959 -0.00027133456601591516 0 0.0064009923399641292 4.7856657283277899e-05 0 0.00633352749458396 -0.0003872753999905592 0 0.006486188987571969 -0.00030576526152465132 0 0.0063016091242335277 -0.00054866396248117529 0 0.0062799713766627597 5.8688425552370658e-06 0 0.006486188987571969 -0.00030576526152465132 0 0.0066386220855441016 0.00063127065194753292 0 0.0061286511281773946 -0.00047088368622464651 0 0.00633352749458396 -0.0003872753999905592 0 0.0063016091242335277 -0.00054866396248117529 0 0.0061286511281773946 -0.00047088368622464651 0 0.00633352749458396 -0.0003872753999905592 0 0.0063946337315824659 -0.00023837244734135378 0 0.00633352749458396 -0.0003872753999905592 0 0.0063946337315824659 -0.00023837244734135378 0 0.006486188987571969 -0.00030576526152465132 0 0.016717071779760846 0.00034245311134815693 0 0.016777309486956927 0.00037762842295216512 0 0.016236516469251311 0.00042863574852170899 0 0.014230449426101299 0.00041861681165129041 0 0.012109291524872371 -0.00030336562250450481 0 0.016854112627861025 0.00036619874114991589 0 0.016866480892528488 0.00020918610829691119 0 0.017085081139607702 0.00013418995131247256 0 0.016717071779760846 0.00034245311134815693 0 0.016854112627861025 0.00036619874114991589 0 0.016866480892528488 0.00020918610829691119 0 0.01658147206980223 0.00017487346588051256 0 0.016717071779760846 0.00034245311134815693 0 0.016755728565042333 0.00019830307018121594 0 0.016717071779760846 0.00034245311134815693 0 0.016866480892528488 0.00020918610829691119 0 0.016755728565042333 0.00019830307018121594 0 0.01658147206980223 0.00017487346588051256 0 0.016717071779760846 0.00034245311134815693 0 0.016236516469251311 0.00042863574852170899 0 0.012109291524872371 -0.00030336562250450481 0 0.011253714200380424 9.5335738282784619e-05 0 0.0063946337315824659 -0.00023837244734135378 0 0.0065237305945889338 -0.00034636845872039934 0 0.006486188987571969 -0.00030576526152465132 0 0.01658147206980223 0.00017487346588051256 0 0.016416435673542375 0.000104937481741381 0 0.016236516469251311 0.00042863574852170899 0 0.0062799713766627597 5.8688425552370658e-06 0 0.0065237305945889338 -0.00034636845872039934 0 0.006486188987571969 -0.00030576526152465132 0 0.015507729686890038 0.00047658893454082966 0 0.016514986913493648 6.7856893792745012e-06 0 0.017156885040104146 0.0006006057259416032 0 0.01866366225643069 0.00050314455111020529 0 0.018624060610669846 0.00048162555236895435 0 0.018703940942305642 0.00047162552684476805 0 0.01719858950715588 0.00053232361929155198 0 0.017909867382612413 0.00051083612366321918 0 0.015507729686890038 0.00047658893454082966 0 0.015784139616206064 -6.9196011777617462e-05 0 0.016514986913493648 6.7856893792745012e-06 0 0.01866366225643069 0.00050314455111020529 0 0.018631732234539799 0.00052021910757228131 0 0.018624060610669846 0.00048162555236895435 0 0.01866366225643069 0.00050314455111020529 0 0.018669616539494765 0.00053385234469082788 0 0.018692719244409878 0.00050716346113933183 0 0.018690994861783793 0.00057502777966271805 0 0.018669616539494765 0.00053385234469082788 0 0.018715883009228166 0.00053941665313396046 0 0.018643080520657693 0.00055735491317785541 0 0.018669616539494765 0.00053385234469082788 0 0.018631732234539799 0.00052021910757228131 0 0.018643080520657693 0.00055735491317785541 0 0.018690994861783793 0.00057502777966271805 0 0.018669616539494765 0.00053385234469082788 0 0.01866366225643069 0.00050314455111020529 0 0.018669616539494765 0.00053385234469082788 0 0.018631732234539799 0.00052021910757228131 0 0.018643080520657693 0.00055735491317785541 0 0.018631732234539799 0.00052021910757228131 0 0.018608988234311508 0.00054134752833160543 0 0.018631732234539799 0.00052021910757228131 0 0.018608988234311508 0.00054134752833160543 0 0.018588925345683335 0.00051622895995967347 0 0.015507729686890038 0.00047658893454082966 0 0.014194029993707899 0.00037900610904368585 0 0.01534646645055637 -0.00020804251112455834 0 0.01719858950715588 0.00053232361929155198 0 0.015801624350411395 -5.6951222914549088e-05 0 0.018631732234539799 0.00052021910757228131 0 0.018624060610669846 0.00048162555236895435 0 0.018588925345683335 0.00051622895995967347 0 0.015507729686890038 0.00047658893454082966 0 0.01534646645055637 -0.00020804251112455834 0 0.015784139616206064 -6.9196011777617462e-05 0 0.018552374967039029 0.00048241407785494565 0 0.018588925345683335 0.00051622895995967347 0 0.018545870079220775 0.00051802520407212907 0 0.018624060610669846 0.00048162555236895435 0 0.018552374967039029 0.00048241407785494565 0 0.018588925345683335 0.00051622895995967347 0 0.015801624350411395 -5.6951222914549088e-05 0 0.015509272166605902 -0.000304628151943826 0 0.015801624350411395 -5.6951222914549088e-05 0 0.017175333499040206 1.1776146481775747e-05 0 0.018588925345683335 0.00051622895995967347 0 0.018577934900895765 0.00054689994599255664 0 0.018545870079220775 0.00051802520407212907 0 0.018608988234311508 0.00054134752833160543 0 0.018588925345683335 0.00051622895995967347 0 0.018577934900895765 0.00054689994599255664 0 0.01781242895715543 0.0004968102850432584 0 0.017175333499040206 1.1776146481775747e-05 0 0.017138836259587561 0.00019580014653373579 0 0.017095011550419332 8.5424549836631372e-05 0 0.017023311653903851 0.00014595556882067526 0 0.018564370269823192 0.00056490789896071318 0 0.018577934900895765 0.00054689994599255664 0 0.018545870079220775 0.00051802520407212907 0 0.017095011550419332 8.5424549836631372e-05 0 0.016959827854723237 8.0965019104087664e-05 0 0.016862317217861637 2.321181303621165e-05 0 0.017095011550419332 8.5424549836631372e-05 0 0.017023311653903851 0.00014595556882067526 0 0.016959827854723237 8.0965019104087664e-05 0 0.016467495726079157 -3.6997376101005433e-05 0 0.015509272166605902 -0.000304628151943826 0 0.016284807524114164 -2.344848921226498e-05 0 0.014703255029694596 -0.00024746370354716444 0 0.01516927148709806 0.00036049169573529593 0 0.016284807524114164 -2.344848921226498e-05 0 0.016862317217861637 2.321181303621165e-05 0 0.017196669602864301 -0.00023716348884758395 0 0.017175333499040206 1.1776146481775747e-05 0 0.015509272166605902 -0.000304628151943826 0 0.016151328031422624 9.2955764630435174e-05 0 0.0163808445189173 -0.00026249038969502613 0 0.01631970189338687 0.0001003700470612299 0 0.017095011550419332 8.5424549836631372e-05 0 0.016862317217861637 2.321181303621165e-05 0 0.017196669602864301 -0.00023716348884758395 0 0.0052943454428458839 -0.00030501811830657905 0 0.0049424363719013844 -5.1765166966289776e-05 0 0.0048758328606077969 -5.70339594799351e-05 0 0.015691869678237304 0.00060586150287303409 0 0.01516927148709806 0.00036049169573529593 0 0.014591090619676082 0.00076680953842535044 0 0.014703255029694596 -0.00024746370354716444 0 0.01516927148709806 0.00036049169573529593 0 0.014591090619676082 0.00076680953842535044 0 0.010428029496683446 0.00013568601285635364 0 0.01019185449956485 0.00055401739372925294 0 0.0050531458647737181 0.00023465190064085684 0 0.0034936991952735055 -0.00020533025029954803 0 0.0049100526732348947 0.00022427110985518607 0 0.0029647175672327447 -9.9358659921738965e-05 0 0.0036221700623408422 0.0006586140487753108 0 0.0052943454428458839 -0.00030501811830657905 0 0.0049748133148918919 -6.2681757849654666e-06 0 0.0049424363719013844 -5.1765166966289776e-05 0 0.0049100526732348947 0.00022427110985518607 0 0.0049748133148918919 -6.2681757849654666e-06 0 0.0049111396027152173 -5.6157541355779789e-05 0 0.0049111396027152173 -5.6157541355779789e-05 0 0.0049424363719013844 -5.1765166966289776e-05 0 0.0049094637725248637 -5.2618973968318611e-05 0 0.0049748133148918919 -6.2681757849654666e-06 0 0.0049111396027152173 -5.6157541355779789e-05 0 0.0049424363719013844 -5.1765166966289776e-05 0 0.0049424363719013844 -5.1765166966289776e-05 0 0.0049094637725248637 -5.2618973968318611e-05 0 0.0048758328606077969 -5.70339594799351e-05 0 0.0034936991952735055 -0.00020533025029954803 0 0.0054848158576075272 0.00099667189304890368 0 0.0049094637725248637 -5.2618973968318611e-05 0 0.0049213461029081751 -5.4017737637485762e-05 0 0.0048758328606077969 -5.70339594799351e-05 0 0.0029647175672327447 -9.9358659921738965e-05 0 0.002308887234414113 0.00025513252267267037 0 0.0016359884131921709 -0.00020912936304051213 0 0.0049111396027152173 -5.6157541355779789e-05 0 0.0049578804707145216 -5.4772301375314864e-05 0 0.005037439509115756 -7.5013785105184445e-05 0 0.0049213461029081751 -5.4017737637485762e-05 0 0.0049578804707145216 -5.4772301375314864e-05 0 0.0048758328606077969 -5.70339594799351e-05 0 0.0049111396027152173 -5.6157541355779789e-05 0 0.0049213461029081751 -5.4017737637485762e-05 0 0.0049578804707145216 -5.4772301375314864e-05 0 0.0049111396027152173 -5.6157541355779789e-05 0 0.0049094637725248637 -5.2618973968318611e-05 0 0.0049213461029081751 -5.4017737637485762e-05 0 0.0029647175672327447 -9.9358659921738965e-05 0 0.002308887234414113 0.00025513252267267037 0 0.0027705316726104818 0.00065963675605555845 0 0.015801624350411395 -5.6951222914549088e-05 0 0.0099573196619906421 7.0980283934616014e-05 0 0.015509272166605902 -0.000304628151943826 0 0.01019185449956485 0.00055401739372925294 0 0.0049578804707145216 -5.4772301375314864e-05 0 0.0048758328606077969 -5.70339594799351e-05 0 0.0050293356423933532 -1.7310596313103681e-05 0 0.012587143924728563 -0.00096834291891178073 0 0.012817310430352089 0.00086441137129395895 0 0.011364718070215033 0.00093526224015229233 0 0.012587143924728563 -0.00096834291891178073 0 0.013117570568019488 -0.00094422826737927592 0 0.012817310430352089 0.00086441137129395895 0 0.01019185449956485 0.00055401739372925294 0 0.0099573196619906421 7.0980283934616014e-05 0 0.014194029993707899 0.00037900610904368585 0 0.01534646645055637 -0.00020804251112455834 0 0.014917805967485145 -0.00074954592113525358 0 0.01534646645055637 -0.00020804251112455834 0 0.015825763913799942 -0.00052918496288219155 0 0.015784139616206064 -6.9196011777617462e-05 0 0.01534646645055637 -0.00020804251112455834 0 0.015758076865795948 -0.00072017308640804072 0 0.015825763913799942 -0.00052918496288219155 0 0.0099573196619906421 7.0980283934616014e-05 0 0.013500818934030292 6.9965696758865297e-05 0 0.01534646645055637 -0.00020804251112455834 0 0.014917805967485145 -0.00074954592113525358 0 0.015758076865795948 -0.00072017308640804072 0 0.0049578804707145216 -5.4772301375314864e-05 0 0.0050293356423933532 -1.7310596313103681e-05 0 0.005037439509115756 -7.5013785105184445e-05 0 0.0054848158576075272 0.00099667189304890368 0 0.0036733800764061041 0.0012649602140830157 0 0.0016359884131921709 -0.00020912936304051213 0 0.0015561033472176928 0.00015247781016080832 0 0.0010348022410465005 0.0008364097798563352 0 0.0099573196619906421 7.0980283934616014e-05 0 0.0054848158576075272 0.00099667189304890368 0 0.0016359884131921709 -0.00020912936304051213 0 0.0015561033472176928 0.00015247781016080832 0 0.001921950805940849 0.00038555981991570987 0 0.002308887234414113 0.00025513252267267037 0 0.0016359884131921709 -0.00020912936304051213 0 0.001921950805940849 0.00038555981991570987 0 0.0084333102916967911 0.00092222694010859595 0 0.0088785702277358741 0.00020585001008979802 0 0.01007609568679757 0.00085451935728094515 0 0.0054848158576075272 0.00099667189304890368 0 0.0113967392005096 0.00098370126645574442 0 0.0088785702277358741 0.00020585001008979802 0 0.01007609568679757 0.00085451935728094515 0 0.01172016400420328 0.00078559150672792826 0 0.006273075609108841 0.0021489360002072224 0 0.0065160377372196331 0.0017522995546070069 0 0.0068490465738328754 0.0022669099529712103 0 0.013500818934030292 6.9965696758865297e-05 0 0.0113967392005096 0.00098370126645574442 0 0.015908094509842121 -0.00053979641000025677 0 0.016536122605523604 -0.00048029416737486454 0 0.015825763913799942 -0.00052918496288219155 0 0.016514986913493648 6.7856893792745012e-06 0 0.017331420953910326 -0.00040780590951042581 0 0.015825763913799942 -0.00052918496288219155 0 0.01582041015512085 -0.00058139616274087804 0 0.015842492081566274 -0.00056600813234326157 0 0.015758076865795948 -0.00072017308640804072 0 0.015825763913799942 -0.00052918496288219155 0 0.015842492081566274 -0.00056600813234326157 0 0.015825763913799942 -0.00052918496288219155 0 0.015784139616206064 -6.9196011777617462e-05 0 0.016514986913493648 6.7856893792745012e-06 0 0.0067480790047479266 0.0013524767177137316 0 0.0065160377372196331 0.0017522995546070069 0 0.0069142045604466676 0.0017210101393841681 0 0.00042990341960082461 0.0018360145668534136 0 0.0010348022410465005 0.0008364097798563352 0 0.00074774089191965596 0.0019422370665360714 0 0.0031191972642135558 0.0020385233997412869 0 0.0036733800764061041 0.0012649602140830157 0 0.0010348022410465005 0.0008364097798563352 0 0.0017420286266136946 0.0010270035957169804 0 0.00074774089191965596 0.0019422370665360714 0 0.0031191972642135558 0.0020385233997412869 0 -0.00085522027417321025 0.0024340060951953497 0 0.0065160377372196331 0.0017522995546070069 0 0.0069142045604466676 0.0017210101393841681 0 0.0068490465738328754 0.0022669099529712103 0 0.0015736032385493428 0.00028434262626140085 0 0.0016011071854427066 0.0010726127500738716 0 0.0015561033472176928 0.00015247781016080832 0 0.0010348022410465005 0.0008364097798563352 0 0.0017420286266136946 0.0010270035957169804 0 0.0015561033472176928 0.00015247781016080832 0 0.001921950805940849 0.00038555981991570987 0 0.0017080914637405888 0.0011740674716537336 0 0.001921950805940849 0.00038555981991570987 0 0.0017080914637405888 0.0011740674716537336 0 0.0020859855242704442 0.00084651185042197501 0 0.0016011071854427066 0.0010726127500738716 0 0.001914484569269477 0.00089890306689929117 0 0.0016011071854427066 0.0010726127500738716 0 -0.00085522027417321025 0.0024340060951953497 0 0.00064253362364131018 0.0011888925431937215 0 0.0008995930937277626 0.0024772031890053568 0 -0.00033761094734250421 0.0020733824550337901 0 0.0016011071854427066 0.0010726127500738716 0 0.00053995728365236644 0.0023025147551711104 0 0.0017667700785596288 0.0012604482940164914 0 0.0024118597167423739 0.0016762719227901609 0 0.0022662854192660492 0.0024296811452848284 0 0.0024118597167423739 0.0016762719227901609 0 0.0028453705834046907 0.0019031845379024325 0 0.0025535297577439389 0.0022607694881923994 0 0.0024118597167423739 0.0016762719227901609 0 0.0024300842494138744 0.0011434147134464928 0 0.0031972937811158074 0.0012773300661068541 0 0.0017667700785596288 0.0012604482940164914 0 0.0024118597167423739 0.0016762719227901609 0 0.0024300842494138744 0.0011434147134464928 0 0.0017667700785596288 0.0012604482940164914 0 0.0024300842494138744 0.0011434147134464928 0 0.0020859855242704442 0.00084651185042197501 0 0.0024300842494138744 0.0011434147134464928 0 0.0020859855242704442 0.00084651185042197501 0 0.0027705316726104818 0.00065963675605555845 0 0.002308887234414113 0.00025513252267267037 0 0.0020859855242704442 0.00084651185042197501 0 0.0027705316726104818 0.00065963675605555845 0 0.002308887234414113 0.00025513252267267037 0 0.001921950805940849 0.00038555981991570987 0 0.0020859855242704442 0.00084651185042197501 0 0.0024300842494138744 0.0011434147134464928 0 0.0027705316726104818 0.00065963675605555845 0 0.0031972937811158074 0.0012773300661068541 0 0.0027705316726104818 0.00065963675605555845 0 0.0031972937811158074 0.0012773300661068541 0 0.0036221700623408422 0.0006586140487753108 0 0.0029647175672327447 -9.9358659921738965e-05 0 0.0027705316726104818 0.00065963675605555845 0 0.0036221700623408422 0.0006586140487753108 0 0.0031972937811158074 0.0012773300661068541 0 0.0036221700623408422 0.0006586140487753108 0 0.0043362944676471641 0.0010986572833247095 0 0.0031972937811158074 0.0012773300661068541 0 0.0043362944676471641 0.0010986572833247095 0 0.0039900722409143838 0.001844890149791907 0 0.0031972937811158074 0.0012773300661068541 0 0.0028453705834046907 0.0019031845379024325 0 0.0039900722409143838 0.001844890149791907 0 0.0024118597167423739 0.0016762719227901609 0 0.0031972937811158074 0.0012773300661068541 0 0.0028453705834046907 0.0019031845379024325 0 0.0028453705834046907 0.0019031845379024325 0 0.0025248314876915451 0.0025844749263479365 0 0.0039900722409143838 0.001844890149791907 0 0.0024279085585110867 0.0026177424181155632 0 0.0020060582523210024 0.002624190479604768 0 0.0025248314876915451 0.0025844749263479365 0 0.0039900722409143838 0.001844890149791907 0 0.0045877413223294559 0.0027936451422484448 0 0.0025248314876915451 0.0025844749263479365 0 0.0017802074857486019 0.0018481045443672433 0 -0.00046418837776252252 0.0025741651142958443 0 0.0028453705834046907 0.0019031845379024325 0 0.0025248314876915451 0.0025844749263479365 0 0.0025535297577439389 0.0022607694881923994 0 0.0025248314876915451 0.0025844749263479365 0 0.0017802074857486019 0.0018481045443672433 0 0.0026690446511964758 0.0022733205692021799 0 0.00076334035015112548 0.00085814897210356852 0 0.0023925162234164016 0.0010390681358776555 0 0.00077756871120489692 -0.0012689927117738539 0 0.0017802074857486019 0.0018481045443672433 0 0.00076334035015112548 0.00085814897210356852 0 -0.00046418837776252252 0.0025741651142958443 0 0.0017802074857486019 0.0018481045443672433 0 0.00076334035015112548 0.00085814897210356852 0 0.0023925162234164016 0.0010390681358776555 0 0.00053995728365236644 0.0023025147551711104 0 -0.0071862434276059274 0.0051309800125417466 0 -0.0041256061808163892 0.0038709837403532107 0 -0.0041166327768972916 0.0043172142367529946 0 -0.004371728789227633 0.0033621563709495049 0 0.0023925162234164016 0.0010390681358776555 0 0.0035461236347361469 0.0025682032671325871 0 0.0030980845707538002 -4.1266951365928332e-05 0 0.0017802074857486019 0.0018481045443672433 0 0.0023925162234164016 0.0010390681358776555 0 0.0026690446511964758 0.0022733205692021799 0 -0.0041256061808163892 0.0038709837403532107 0 -0.0040165549929204718 0.003536087330159888 0 -0.004371728789227633 0.0033621563709495049 0 0.0024118597167423739 0.0016762719227901609 0 0.0022662854192660492 0.0024296811452848284 0 0.0025535297577439389 0.0022607694881923994 0 0.00053995728365236644 0.0023025147551711104 0 0.0027159368123073598 0.0026444170789274783 0 0.0023925162234164016 0.0010390681358776555 0 0.0035461236347361469 0.0025682032671325871 0 0.0026690446511964758 0.0022733205692021799 0 0.0025248314876915451 0.0025844749263479365 0 0.0026690446511964758 0.0022733205692021799 0 0.0025535297577439389 0.0022607694881923994 0 0.0022662854192660492 0.0024296811452848284 0 0.0026690446511964758 0.0022733205692021799 0 0.0025535297577439389 0.0022607694881923994 0 0.00053995728365236644 0.0023025147551711104 0 -0.00085522027417321025 0.0024340060951953497 0 -0.0041166327768972916 0.0043172142367529946 0 -0.0037215687344624203 0.0040371881035202607 0 -0.0030961590392775992 0.0046495261236056589 0 -0.0041256061808163892 0.0038709837403532107 0 -0.0041166327768972916 0.0043172142367529946 0 -0.0037215687344624203 0.0040371881035202607 0 -0.0079715998609489695 0.0052249480082146452 0 -0.0070316723984338711 0.0056744229068909045 0 -0.0071269537522059183 0.0048249602040362502 0 -0.003993467266315321 0.003507000158534604 0 -0.0037215687344624203 0.0040371881035202607 0 -0.0032753351259586635 0.0038345109397684169 0 -0.0079840628539277359 0.0052187320270566089 0 -0.0052216904457349743 0.0047469292959082619 0 -0.0041256061808163892 0.0038709837403532107 0 -0.003993467266315321 0.003507000158534604 0 -0.0037215687344624203 0.0040371881035202607 0 -0.0052212579506158412 0.0030875850038244563 0 -0.0079840628539277359 0.0052187320270566089 0 -0.0070316723984338711 0.0056744229068909045 0 -0.0071269537522059183 0.0048249602040362502 0 -0.0064393473289951174 0.0049923609967696611 0 -0.0052216904457349743 0.0047469292959082619 0 -0.0016895426256948044 0.0038230577073487672 0 -0.0070316723984338711 0.0056744229068909045 0 -0.0060773467159595824 0.0061181980961840304 0 -0.0064393473289951174 0.0049923609967696611 0 -0.0032753351259586635 0.0038345109397684169 0 -0.0030961590392775992 0.0046495261236056589 0 -0.0025623776436800192 0.0041667250802872903 0 -0.0037215687344624203 0.0040371881035202607 0 -0.0032753351259586635 0.0038345109397684169 0 -0.0030961590392775992 0.0046495261236056589 0 0.0012357252760181799 0.0029431765229868414 0 0.00069627557545396779 0.0027675040073997254 0 0.0015473616622413808 0.0024489625147944001 0 -0.00085522027417321025 0.0024340060951953497 0 -0.0016895426256948044 0.0038230577073487672 0 0.0065307637803825027 0.0019088027895771715 0 0.0066386220855441016 0.00063127065194753292 0 0.005429107247751184 0.0013514554148939487 0 0.0065307637803825027 0.0019088027895771715 0 0.005429107247751184 0.0013514554148939487 0 0.0057453370282737502 0.0021281299939388191 0 0.0068423131683603561 0.00044032583047573943 0 0.0064009923399641292 4.7856657283277899e-05 0 0.0060667273864105191 -0.00089170186809735068 0 0.0057860833657708364 -0.0009378128048355489 0 0.0058746191371616598 -0.00069300992687286195 0 0.0060667273864105191 -0.00089170186809735068 0 0.0063016091242335277 -0.00054866396248117529 0 0.0058746191371616598 -0.00069300992687286195 0 0.0061286511281773946 -0.00047088368622464651 0 0.0063016091242335277 -0.00054866396248117529 0 0.0058746191371616598 -0.00069300992687286195 0 0.0058543737617650455 0.00040929055137162206 0 0.0066386220855441016 0.00063127065194753292 0 0.005429107247751184 0.0013514554148939487 0 0.0049100526732348947 0.00022427110985518607 0 0.0058543737617650455 0.00040929055137162206 0 0.005429107247751184 0.0013514554148939487 0 0.0049100526732348947 0.00022427110985518607 0 0.0043362944676471641 0.0010986572833247095 0 0.005429107247751184 0.0013514554148939487 0 0.0049100526732348947 0.00022427110985518607 0 0.0036221700623408422 0.0006586140487753108 0 0.0043362944676471641 0.0010986572833247095 0 0.0043362944676471641 0.0010986572833247095 0 0.0039900722409143838 0.001844890149791907 0 0.005429107247751184 0.0013514554148939487 0 0.0039900722409143838 0.001844890149791907 0 0.005429107247751184 0.0013514554148939487 0 0.0045877413223294559 0.0027936451422484448 0 0.005429107247751184 0.0013514554148939487 0 0.0045877413223294559 0.0027936451422484448 0 0.0057453370282737502 0.0021281299939388191 0 0.0056188601933468037 0.002711009827407693 0 0.0045877413223294559 0.0027936451422484448 0 0.0057453370282737502 0.0021281299939388191 0 0.001382099711280135 0.0024819040489134671 0 0.0020060582523210024 0.002624190479604768 0 0.00076334035015112548 0.00085814897210356852 0 -0.00046418837776252252 0.0025741651142958443 0 -0.0012978038333159316 0.00023146451286406325 0 -0.0029471190495989137 0.0021015957777419081 0 -0.0039024809677411431 0.00038301981366571002 0 -0.0012978038333159316 0.00023146451286406325 0 -0.0029471190495989137 0.0021015957777419081 0 -0.00046418837776252252 0.0025741651142958443 0 -0.0012978038333159316 0.00023146451286406325 0 -0.0029471190495989137 0.0021015957777419081 0 -0.0039024809677411431 0.00038301981366571002 0 -0.0053565713216737424 0.0015756283499710007 0 0.001382099711280135 0.0024819040489134671 0 0.00021070763540913021 0.00144185312745628 0 0.0056188601933468037 0.002711009827407693 0 0.0060563682673096539 0.0023857090329142206 0 0.0057453370282737502 0.0021281299939388191 0 0.0056188601933468037 0.002711009827407693 0 0.0060563682673096539 0.0023857090329142206 0 0.0062571537175591923 0.0027860606135431216 0 0.0065307637803825027 0.0019088027895771715 0 0.0060563682673096539 0.0023857090329142206 0 0.0057453370282737502 0.0021281299939388191 0 0.0060667273864105191 -0.00089170186809735068 0 0.0057835172117978034 -0.001097989440827383 0 0.0057510809889877428 -0.001294738882827502 0 0.0068423131683603561 0.00044032583047573943 0 0.00021070763540913021 0.00144185312745628 0 0.0065307637803825027 0.0019088027895771715 0 0.0060563682673096539 0.0023857090329142206 0 0.0062571537175591923 0.0027860606135431216 0 0.0060667273864105191 -0.00089170186809735068 0 0.0057835172117978034 -0.001097989440827383 0 0.0057860833657708364 -0.0009378128048355489 0 0.0057835172117978034 -0.001097989440827383 0 0.0056927985970859941 -0.0011851919967147938 0 0.0057012426167414188 -0.0012304976497970049 0 0.0057012426167414188 -0.0012304976497970049 0 0.0056195010904025351 -0.0013045202830831207 0 0.0056410552610989149 -0.0012395025982344253 0 0.0055776441575250343 -0.0013373185985440263 0 0.0056195010904025351 -0.0013045202830831207 0 0.0057510809889877428 -0.001294738882827502 0 0.0057835172117978034 -0.001097989440827383 0 0.0057012426167414188 -0.0012304976497970049 0 0.0057510809889877428 -0.001294738882827502 0 0.00021070763540913021 0.00144185312745628 0 -0.005669954410380821 0.00044341902620831993 0 0.0056927985970859941 -0.0011851919967147938 0 0.0057012426167414188 -0.0012304976497970049 0 0.0056410552610989149 -0.0012395025982344253 0 -0.0039024809677411431 0.00038301981366571002 0 -0.0053565713216737424 0.0015756283499710007 0 -0.0058389768674035562 -0.00022616574477144551 0 -0.0070281993516367568 0.003632436151356657 0 -0.0049625555011901428 0.0041708443462756461 0 -0.0057019347748082823 0.00098932504773527959 0 0.0021036796384799076 -0.00046937029889009875 0 0.00021070763540913021 0.00144185312745628 0 0.0057012426167414188 -0.0012304976497970049 0 0.0056195010904025351 -0.0013045202830831207 0 0.0057510809889877428 -0.001294738882827502 0 0.0021036796384799076 -0.00046937029889009875 0 0.0022769098884442181 -0.00041217114825389573 0 0.0021036796384799076 -0.00046937029889009875 0 0.0065903808143655757 -0.0013167261959379419 0 0.0056526466381021344 -0.0013087654838387212 0 0.0055580087409569066 -0.0012576662348134106 0 0.0052869920901507635 -0.0013965866631453867 0 0.0055580087409569066 -0.0012576662348134106 0 0.0052869920901507635 -0.0013965866631453867 0 0.0054932519321393329 -0.0011740272084883798 0 0.0055580087409569066 -0.0012576662348134106 0 0.0056076537772801402 -0.0011855255010008116 0 0.0054932519321393329 -0.0011740272084883798 0 0.0056410552610989149 -0.0012395025982344253 0 0.0055580087409569066 -0.0012576662348134106 0 0.0056076537772801402 -0.0011855255010008116 0 0.0056927985970859941 -0.0011851919967147938 0 0.0056410552610989149 -0.0012395025982344253 0 0.0056076537772801402 -0.0011855255010008116 0 0.0056410552610989149 -0.0012395025982344253 0 0.0056271320425690108 -0.0012768681938095357 0 0.0055580087409569066 -0.0012576662348134106 0 0.0056526466381021344 -0.0013087654838387212 0 0.0056271320425690108 -0.0012768681938095357 0 0.0055580087409569066 -0.0012576662348134106 0 0.0056195010904025351 -0.0013045202830831207 0 0.0056410552610989149 -0.0012395025982344253 0 0.0056271320425690108 -0.0012768681938095357 0 0.0056526466381021344 -0.0013087654838387212 0 0.0056195010904025351 -0.0013045202830831207 0 0.0056271320425690108 -0.0012768681938095357 0 0.0052869920901507635 -0.0013965866631453867 0 0.0053133590384575905 -0.0011295523898730839 0 0.0054932519321393329 -0.0011740272084883798 0 0.0052869920901507635 -0.0013965866631453867 0 0.0053133590384575905 -0.0011295523898730839 0 0.0049750400759605885 -0.0012756776840765868 0 0.0053133590384575905 -0.0011295523898730839 0 0.0054737947565932938 -0.0010510036213682704 0 0.0053640933621517646 -0.00095511519696963177 0 0.0053133590384575905 -0.0011295523898730839 0 0.0054737947565932938 -0.0010510036213682704 0 0.0054932519321393329 -0.0011740272084883798 0 0.0054737947565932938 -0.0010510036213682704 0 0.0053640933621517646 -0.00095511519696963177 0 0.0055500180749055456 -0.00093182302404299267 0 0.0057835172117978034 -0.001097989440827383 0 0.0056927985970859941 -0.0011851919967147938 0 0.0056444683578477694 -0.0010693936363040562 0 0.0056927985970859941 -0.0011851919967147938 0 0.0056076537772801402 -0.0011855255010008116 0 0.0056444683578477694 -0.0010693936363040562 0 0.0056076537772801402 -0.0011855255010008116 0 0.0054932519321393329 -0.0011740272084883798 0 0.0056444683578477694 -0.0010693936363040562 0 0.0054737947565932938 -0.0010510036213682704 0 0.0054932519321393329 -0.0011740272084883798 0 0.0056444683578477694 -0.0010693936363040562 0 0.0054737947565932938 -0.0010510036213682704 0 0.0056444683578477694 -0.0010693936363040562 0 0.0055500180749055456 -0.00093182302404299267 0 0.0056444683578477694 -0.0010693936363040562 0 0.0057860833657708364 -0.0009378128048355489 0 0.0055500180749055456 -0.00093182302404299267 0 0.0057835172117978034 -0.001097989440827383 0 0.0056444683578477694 -0.0010693936363040562 0 0.0057860833657708364 -0.0009378128048355489 0 0.0057860833657708364 -0.0009378128048355489 0 0.0058746191371616598 -0.00069300992687286195 0 0.0055500180749055456 -0.00093182302404299267 0 0.0058746191371616598 -0.00069300992687286195 0 0.0055500180749055456 -0.00093182302404299267 0 0.0055673510210267861 -0.00074986841380550765 0 0.0055500180749055456 -0.00093182302404299267 0 0.0053612912130800048 -0.00079159018112015913 0 0.0055673510210267861 -0.00074986841380550765 0 0.0053640933621517646 -0.00095511519696963177 0 0.0055500180749055456 -0.00093182302404299267 0 0.0053612912130800048 -0.00079159018112015913 0 0.0055111662585838952 -0.00057720460598820677 0 0.0053098197076729813 -0.00067711048840871568 0 0.0053623046462092745 -0.00052585633533584818 0 0.0053612912130800048 -0.00079159018112015913 0 0.0055111662585838952 -0.00057720460598820677 0 0.0053098197076729813 -0.00067711048840871568 0 0.0053612912130800048 -0.00079159018112015913 0 0.0055673510210267861 -0.00074986841380550765 0 0.0055111662585838952 -0.00057720460598820677 0 0.0052436406420766756 -0.0003280960794612459 0 0.0090135128217695183 -0.00036428068909974057 0 0.0061286511281773946 -0.00047088368622464651 0 0.0058746191371616598 -0.00069300992687286195 0 0.0058508637765100676 -0.00058205819166851189 0 0.0058746191371616598 -0.00069300992687286195 0 0.0055673510210267861 -0.00074986841380550765 0 0.0055111662585838952 -0.00057720460598820677 0 0.0060138976411989939 -0.00078278386490904207 0 0.0052436406420766756 -0.0003280960794612459 0 0.0085051354362560266 -0.0004896970555840855 0 0.0072814251879939089 -0.000679109936386913 0 0.0052058696995080957 -0.0006310151054659235 0 0.0053098197076729813 -0.00067711048840871568 0 0.0053623046462092745 -0.00052585633533584818 0 0.0085051354362560266 -0.0004896970555840855 0 0.0090135128217695183 -0.00036428068909974057 0 0.0052058696995080957 -0.0006310151054659235 0 0.0053098197076729813 -0.00067711048840871568 0 0.0052211574026990639 -0.00085284288662600322 0 0.0053640933621517646 -0.00095511519696963177 0 0.0053612912130800048 -0.00079159018112015913 0 0.0052211574026990639 -0.00085284288662600322 0 0.0053612912130800048 -0.00079159018112015913 0 0.0053098197076729813 -0.00067711048840871568 0 0.0052211574026990639 -0.00085284288662600322 0 0.0048097923876927878 -0.00093089149656826989 0 0.0046862573924120153 -0.0010412000001647119 0 0.0046520081179575413 -0.00088832257783700555 0 0.0045305644303285878 -0.0008125097249623433 0 0.0072814251879939089 -0.000679109936386913 0 0.0052058696995080957 -0.0006310151054659235 0 0.0052211574026990639 -0.00085284288662600322 0 0.0050892203038271971 -0.0006988477319159746 0 0.0048097923876927878 -0.00093089149656826989 0 0.0046862573924120153 -0.0010412000001647119 0 0.0047382771196041147 -0.0012229616333563067 0 0.0055094298942769161 -0.0011900731447002156 0 0.0045305644303285878 -0.0008125097249623433 0 0.0048097923876927878 -0.00093089149656826989 0 0.0049750400759605885 -0.0012756776840765868 0 0.0047382771196041147 -0.0012229616333563067 0 0.0053133590384575905 -0.0011295523898730839 0 0.0053640933621517646 -0.00095511519696963177 0 0.0052211574026990639 -0.00085284288662600322 0 0.0053133590384575905 -0.0011295523898730839 0 0.0048097923876927878 -0.00093089149656826989 0 0.0049750400759605885 -0.0012756776840765868 0 0.0049750400759605885 -0.0012756776840765868 0 0.0047382771196041147 -0.0012229616333563067 0 0.0047620209265054579 -0.0014427574542101823 0 0.0046862573924120153 -0.0010412000001647119 0 0.0047382771196041147 -0.0012229616333563067 0 0.0045891220003879346 -0.0011951077768901101 0 0.0047382771196041147 -0.0012229616333563067 0 0.0045891220003879346 -0.0011951077768901101 0 0.0046021072583948032 -0.0014301000243587181 0 0.0047382771196041147 -0.0012229616333563067 0 0.0047620209265054579 -0.0014427574542101823 0 0.0046021072583948032 -0.0014301000243587181 0 0.0045891220003879346 -0.0011951077768901101 0 0.0045641147610114615 -0.0011349334825082398 0 0.0045013837789534376 -0.0013430193534525708 0 0.0045891220003879346 -0.0011951077768901101 0 0.0045641147610114615 -0.0011349334825082398 0 0.0045961286897255272 -0.00099214614998536653 0 0.0045641147610114615 -0.0011349334825082398 0 0.0044733648810651337 -0.001296488673484988 0 0.0045013837789534376 -0.0013430193534525708 0 0.0045961286897255272 -0.00099214614998536653 0 0.0046176919046367875 -0.00099198483791036523 0 0.0046041536756071203 -0.00095896025781216931 0 0.0045961286897255272 -0.00099214614998536653 0 0.0046508418441043673 -0.00085325248010056302 0 0.0046041536756071203 -0.00095896025781216931 0 0.0045641147610114615 -0.0011349334825082398 0 0.0045961286897255272 -0.00099214614998536653 0 0.0046508418441043673 -0.00085325248010056302 0 0.0046862573924120153 -0.0010412000001647119 0 0.0045891220003879346 -0.0011951077768901101 0 0.0046176919046367875 -0.00099198483791036523 0 0.0045891220003879346 -0.0011951077768901101 0 0.0045961286897255272 -0.00099214614998536653 0 0.0046176919046367875 -0.00099198483791036523 0 0.00025484733709385532 5.3209941655063692e-08 0 -2.1309195068015264e-05 -6.9598633497645434e-05 0 0.0032331754975231538 -9.5260535197644279e-05 0 0.0042508879572450689 -0.0014565924666734883 0 0.0044221279191350681 -0.001297096715980486 0 0.0043589342809511418 -0.001410876374372769 0 0.0042508879572450689 -0.0014565924666734883 0 0.0044240416449845277 -0.0011571455713619051 0 0.0044221279191350681 -0.001297096715980486 0 0.0042508879572450689 -0.0014565924666734883 0 0.0044240416449845277 -0.0011571455713619051 0 0.0042405653211554251 -0.00083247635564587404 0 0.0044240416449845277 -0.0011571455713619051 0 0.0045364931745712905 -0.001118005117772656 0 0.0045790807736304645 -0.00082322125428845169 0 0.0044240416449845277 -0.0011571455713619051 0 0.0044221279191350681 -0.001297096715980486 0 0.0045364931745712905 -0.001118005117772656 0 0.0045641147610114615 -0.0011349334825082398 0 0.0044733648810651337 -0.001296488673484988 0 0.0045364931745712905 -0.001118005117772656 0 0.0044221279191350681 -0.001297096715980486 0 0.0044733648810651337 -0.001296488673484988 0 0.0045364931745712905 -0.001118005117772656 0 0.0045641147610114615 -0.0011349334825082398 0 0.0045364931745712905 -0.001118005117772656 0 0.0046508418441043673 -0.00085325248010056302 0 0.0046508418441043673 -0.00085325248010056302 0 0.0045790807736304645 -0.00082322125428845169 0 0.0049634684930608079 -0.00062761377146127188 0 0.0045364931745712905 -0.001118005117772656 0 0.0046508418441043673 -0.00085325248010056302 0 0.0045790807736304645 -0.00082322125428845169 0 0.00025484733709385532 5.3209941655063692e-08 0 0.0032331754975231538 -9.5260535197644279e-05 0 0.0034517604612863263 -2.0622040800780548e-06 0 0.0042508879572450689 -0.0014565924666734883 0 0.0042405653211554251 -0.00083247635564587404 0 0.0032331754975231538 -9.5260535197644279e-05 0 0.0020412501198583928 -0.00054738465134912897 0 0.0029548045066374058 -1.7927189582753789e-05 0 0.0044240416449845277 -0.0011571455713619051 0 0.0045790807736304645 -0.00082322125428845169 0 0.0042405653211554251 -0.00083247635564587404 0 0.0045790807736304645 -0.00082322125428845169 0 0.0042405653211554251 -0.00083247635564587404 0 0.0041622927180779961 -0.00048588094657391284 0 0.0045790807736304645 -0.00082322125428845169 0 0.0049634684930608079 -0.00062761377146127188 0 0.0041622927180779961 -0.00048588094657391284 0 0.0041622927180779961 -0.00048588094657391284 0 0.0032331754975231538 -9.5260535197644279e-05 0 0.0034517604612863263 -2.0622040800780548e-06 0 0.0049634684930608079 -0.00062761377146127188 0 0.0041622927180779961 -0.00048588094657391284 0 0.0034517604612863263 -2.0622040800780548e-06 0 0.0042405653211554251 -0.00083247635564587404 0 0.0041622927180779961 -0.00048588094657391284 0 0.0032331754975231538 -9.5260535197644279e-05 0 0.0034517604612863263 -2.0622040800780548e-06 0 0.0064248956744105508 -7.8691238083188807e-05 0 0.0066438725245947959 1.7304877023600615e-06 0 0.0049634684930608079 -0.00062761377146127188 0 0.0034517604612863263 -2.0622040800780548e-06 0 0.0064248956744105508 -7.8691238083188807e-05 0 0.005231929958106946 -0.0007128809913796118 0 0.006072321288777177 -0.00081461010123471669 0 0.0049634684930608079 -0.00062761377146127188 0 0.0064248956744105508 -7.8691238083188807e-05 0 0.0078356014426103696 -0.00077966203758705627 0 0.0046508418441043673 -0.00085325248010056302 0 0.0049634684930608079 -0.00062761377146127188 0 0.0046041536756071203 -0.00095896025781216931 0 0.0064248956744105508 -7.8691238083188807e-05 0 0.0078356014426103696 -0.00077966203758705627 0 0.0084890331450026904 -0.0001526182679053367 0 0.0064248956744105508 -7.8691238083188807e-05 0 0.0084890331450026904 -0.0001526182679053367 0 0.0073240003108302268 0.00043364557889041881 0 0.0064248956744105508 -7.8691238083188807e-05 0 0.0066438725245947959 1.7304877023600615e-06 0 0.0073240003108302268 0.00043364557889041881 0 0.0046862573924120153 -0.0010412000001647119 0 0.0046176919046367875 -0.00099198483791036523 0 0.0046520081179575413 -0.00088832257783700555 0 0.0046176919046367875 -0.00099198483791036523 0 0.0046041536756071203 -0.00095896025781216931 0 0.0046520081179575413 -0.00088832257783700555 0 0.006072321288777177 -0.00081461010123471669 0 0.0072814251879939089 -0.000679109936386913 0 0.0078356014426103696 -0.00077966203758705627 0 0.0084890331450026904 -0.0001526182679053367 0 0.0087626639966497354 -0.00051648351852239557 0 0.009440632934516191 -0.00049633038472029361 0 0.0072814251879939089 -0.000679109936386913 0 0.011783694678001297 -0.00022701664551771819 0 0.011274667482321981 -0.0012369621891642959 0 0.011652990950371801 0.0002925354993218236 0 0.0084890331450026904 -0.0001526182679053367 0 0.011274667482321981 -0.0012369621891642959 0 0.011652990950371801 0.0002925354993218236 0 0.011652990950371801 0.0002925354993218236 0 0.012185813925641206 -0.0012868435701346586 0 0.011488151906434508 -0.0002155154325835007 0 0.011624302526209324 0.00015081095872999256 0 0.011009870115053239 -0.00028184744017934789 0 0.011652990950371801 0.0002925354993218236 0 0.013314141549129263 -0.00087860212369189096 0 0.014539685221608291 -0.0014738495613982213 0 0.0084890331450026904 -0.0001526182679053367 0 0.011652990950371801 0.0002925354993218236 0 0.0074675512997388512 0.00075623093169080371 0 0.014227663166199339 -0.0014055133668429505 0 0.014539685221608291 -0.0014738495613982213 0 0.014512265005356517 -0.00077890453807480538 0 0.013314141549129263 -0.00087860212369189096 0 0.014227663166199339 -0.0014055133668429505 0 0.014539685221608291 -0.0014738495613982213 0 0.014227663166199339 -0.0014055133668429505 0 0.015590291078913335 -0.00084045416958373087 0 0.01496651534995036 -0.00065702540139540139 0 0.014227663166199339 -0.0014055133668429505 0 0.01496651534995036 -0.00065702540139540139 0 0.014512265005356517 -0.00077890453807480538 0 0.011652990950371801 0.0002925354993218236 0 0.013314141549129263 -0.00087860212369189096 0 0.012185813925641206 -0.0012868435701346586 0 0.014382831276674351 -0.0013756656391325469 0 0.014568544275426549 -0.0010458670685227342 0 0.014227663166199339 -0.0014055133668429505 0 0.015590291078913335 -0.00084045416958373087 0 0.017152836500442387 -0.0018903030936966915 0 0.015700051058494889 -0.0013291073059781943 0 0.014568544275426549 -0.0010458670685227342 0 0.013314141549129263 -0.00087860212369189096 0 0.014227663166199339 -0.0014055133668429505 0 0.012185813925641206 -0.0012868435701346586 0 0.0066438725245947959 1.7304877023600615e-06 0 0.0073240003108302268 0.00043364557889041881 0 0.0098313535977225391 -7.1776102350172133e-07 0 0.0084890331450026904 -0.0001526182679053367 0 0.0073240003108302268 0.00043364557889041881 0 0.0074675512997388512 0.00075623093169080371 0 0.014539685221608291 -0.0014738495613982213 0 0.013092697622413439 -6.9445035860113039e-05 0 0.014512265005356517 -0.00077890453807480538 0 0.0073240003108302268 0.00043364557889041881 0 0.0074675512997388512 0.00075623093169080371 0 0.0098313535977225391 -7.1776102350172133e-07 0 0.011009870115053239 -0.00028184744017934789 0 0.0098363527341821348 -6.722094745494662e-08 0 0.014539685221608291 -0.0014738495613982213 0 0.0098430390319525288 -4.5880541101373074e-06 0 0.013092697622413439 -6.9445035860113039e-05 0 0.013092697622413439 -6.9445035860113039e-05 0 0.014170294155932076 4.499408449530793e-05 0 0.012634512377775683 1.7204643291790178e-06 0 0.0098430390319525288 -4.5880541101373074e-06 0 0.013092697622413439 -6.9445035860113039e-05 0 0.012634512377775683 1.7204643291790178e-06 0 0.013092697622413439 -6.9445035860113039e-05 0 0.014403059380712416 -0.00011739783013525211 0 0.014170294155932076 4.499408449530793e-05 0 0.013092697622413439 -6.9445035860113039e-05 0 0.014403059380712416 -0.00011739783013525211 0 0.014512265005356517 -0.00077890453807480538 0 0.016268373701973919 0.00035490394767599329 0 0.015566759238321168 0.00030388499343636944 0 0.015197355293655705 0.00013969556805681316 0 0.015566759238321168 0.00030388499343636944 0 0.015197355293655705 0.00013969556805681316 0 0.014170294155932076 4.499408449530793e-05 0 0.014403059380712416 -0.00011739783013525211 0 0.015197355293655705 0.00013969556805681316 0 0.014170294155932076 4.499408449530793e-05 0 0.015566759238321168 0.00030388499343636944 0 0.014170294155932076 4.499408449530793e-05 0 0.012634512377775683 1.7204643291790178e-06 0 0.015797821241582671 -0.00029002579148687714 0 0.016637858837951661 -0.00022210271214420565 0 0.016214611610953771 0.00016393840844064413 0 0.015590291078913335 -0.00084045416958373087 0 0.01623224401632992 -0.0009599511483770845 0 0.016637858837951661 -0.00022210271214420565 0 0.015590291078913335 -0.00084045416958373087 0 0.015797821241582671 -0.00029002579148687714 0 0.016637858837951661 -0.00022210271214420565 0 0.015797821241582671 -0.00029002579148687714 0 0.01496651534995036 -0.00065702540139540139 0 0.015151788871866054 -0.00024174741853849133 0 0.015590291078913335 -0.00084045416958373087 0 0.015797821241582671 -0.00029002579148687714 0 0.01496651534995036 -0.00065702540139540139 0 0.014403059380712416 -0.00011739783013525211 0 0.014512265005356517 -0.00077890453807480538 0 0.015151788871866054 -0.00024174741853849133 0 0.01496651534995036 -0.00065702540139540139 0 0.014512265005356517 -0.00077890453807480538 0 0.015151788871866054 -0.00024174741853849133 0 0.014403059380712416 -0.00011739783013525211 0 0.015197355293655705 0.00013969556805681316 0 0.015151788871866054 -0.00024174741853849133 0 0.015797821241582671 -0.00029002579148687714 0 0.015151788871866054 -0.00024174741853849133 0 0.016214611610953771 0.00016393840844064413 0 0.016268373701973919 0.00035490394767599329 0 0.015197355293655705 0.00013969556805681316 0 0.016214611610953771 0.00016393840844064413 0 0.015197355293655705 0.00013969556805681316 0 0.015151788871866054 -0.00024174741853849133 0 0.016214611610953771 0.00016393840844064413 0 0.016977770243211732 0.00046333849468134877 0 0.016268373701973919 0.00035490394767599329 0 0.016214611610953771 0.00016393840844064413 0 0.016977770243211732 0.00046333849468134877 0 0.016214611610953771 0.00016393840844064413 0 0.017122321328351557 0.00033765769123931351 0 0.016637858837951661 -0.00022210271214420565 0 0.016214611610953771 0.00016393840844064413 0 0.017122321328351557 0.00033765769123931351 0 0.016637858837951661 -0.00022210271214420565 0 0.017122321328351557 0.00033765769123931351 0 0.017307671700677287 9.4259403242471786e-06 0 0.017444921645637931 0.00033095999220215223 0 0.017122321328351557 0.00033765769123931351 0 0.017307671700677287 9.4259403242471786e-06 0 0.016637858837951661 -0.00022210271214420565 0 0.017307671700677287 9.4259403242471786e-06 0 0.017267381187838826 -0.00041015925116983141 0 0.017307671700677287 9.4259403242471786e-06 0 0.01736639837978839 2.8766774594309889e-05 0 0.017267381187838826 -0.00041015925116983141 0 0.017307671700677287 9.4259403242471786e-06 0 0.017464507269737726 0.00011398291300680981 0 0.01736639837978839 2.8766774594309889e-05 0 0.017444921645637931 0.00033095999220215223 0 0.017307671700677287 9.4259403242471786e-06 0 0.017464507269737726 0.00011398291300680981 0 0.017464507269737726 0.00011398291300680981 0 0.017116531343902983 5.2253703768845801e-05 0 0.01736639837978839 2.8766774594309889e-05 0 0.017012354888885667 -6.7742333650022598e-05 0 0.016926700047204705 -6.1978138280118178e-06 0 0.017116531343902983 5.2253703768845801e-05 0 0.017012354888885667 -6.7742333650022598e-05 0 0.017464507269737726 0.00011398291300680981 0 0.017116531343902983 5.2253703768845801e-05 0 0.017116531343902983 5.2253703768845801e-05 0 0.017085081139607702 0.00013418995131247256 0 0.01736639837978839 2.8766774594309889e-05 0 0.01686375476533027 9.8289807293240619e-05 0 0.017116531343902983 5.2253703768845801e-05 0 0.017085081139607702 0.00013418995131247256 0 0.017085081139607702 0.00013418995131247256 0 0.01736639837978839 2.8766774594309889e-05 0 0.017298941373670104 9.5031822679492582e-05 0 0.012046736692075514 -0.00087865655527911795 0 0.011852490007238743 -0.00049416726559367173 0 0.012566741694442397 -0.00060270680899063116 0 0.01736639837978839 2.8766774594309889e-05 0 0.017298941373670104 9.5031822679492582e-05 0 0.017267381187838826 -0.00041015925116983141 0 0.016854112627861025 0.00036619874114991589 0 0.017085081139607702 0.00013418995131247256 0 0.017298941373670104 9.5031822679492582e-05 0 0.011144771823484445 -0.00080696095926583767 0 0.012046736692075514 -0.00087865655527911795 0 0.011852490007238743 -0.00049416726559367173 0 0.012109291524872371 -0.00030336562250450481 0 0.015033313816096268 -0.00040460710078903318 0 0.012109291524872371 -0.00030336562250450481 0 0.0083395382118473128 -0.00059194359008624391 0 0.0061286511281773946 -0.00047088368622464651 0 0.0063946337315824659 -0.00023837244734135378 0 0.0059395647984449296 -0.00035693259629052256 0 0.0061286511281773946 -0.00047088368622464651 0 0.0058508637765100676 -0.00058205819166851189 0 0.0059395647984449296 -0.00035693259629052256 0 0.0083395382118473128 -0.00059194359008624391 0 0.0090135128217695183 -0.00036428068909974057 0 0.0058508637765100676 -0.00058205819166851189 0 0.0059395647984449296 -0.00035693259629052256 0 0.0057275016613372743 -0.000471683295245684 0 0.011852490007238743 -0.00049416726559367173 0 0.012566741694442397 -0.00060270680899063116 0 0.012613251589526326 -0.00013102186646772024 0 0.011783694678001297 -0.00022701664551771819 0 0.011602447975916237 -0.00022164354869411672 0 0.011488151906434508 -0.0002155154325835007 0 0.0090135128217695183 -0.00036428068909974057 0 0.012681943671013603 -0.0005364159242589613 0 0.012566741694442397 -0.00060270680899063116 0 0.012613251589526326 -0.00013102186646772024 0 0.013336263151605262 -0.00055704395648250346 0 0.011783694678001297 -0.00022701664551771819 0 0.011652990950371801 0.0002925354993218236 0 0.011488151906434508 -0.0002155154325835007 0 0.01623224401632992 -0.0009599511483770845 0 0.016637858837951661 -0.00022210271214420565 0 0.017267381187838826 -0.00041015925116983141 0 0.014568544275426549 -0.0010458670685227342 0 0.012681943671013603 -0.0005364159242589613 0 0.014568544275426549 -0.0010458670685227342 0 0.015143693442971663 -0.00067690766572164028 0 0.014073933008196595 -0.0010160537001997719 0 0.013336263151605262 -0.00055704395648250346 0 0.013031728577053852 -0.00095330045386120418 0 0.012566741694442397 -0.00060270680899063116 0 0.013336263151605262 -0.00055704395648250346 0 0.013031728577053852 -0.00095330045386120418 0 0.015033313816096268 -0.00040460710078903318 0 0.015143693442971663 -0.00067690766572164028 0 0.012046736692075514 -0.00087865655527911795 0 0.012566741694442397 -0.00060270680899063116 0 0.013031728577053852 -0.00095330045386120418 0 0.010480475422873278 -0.0028524111359402677 0 0.010414639054019452 -0.0019488020412200867 0 0.011366926048100861 -0.0032388764443636014 0 0.010480475422873278 -0.0028524111359402677 0 0.0093096553815074368 -0.0020529189811428041 0 0.010414639054019452 -0.0019488020412200867 0 0.0093096553815074368 -0.0020529189811428041 0 0.01059538283259363 -0.0038401637127230747 0 0.006132976950468748 -0.0027985242796930974 0 0.010480475422873278 -0.0028524111359402677 0 0.0093096553815074368 -0.0020529189811428041 0 0.01059538283259363 -0.0038401637127230747 0 0.0093096553815074368 -0.0020529189811428041 0 0.0077139407385219431 -0.0010312295257128559 0 0.0088012595850311629 -0.00070633507861814595 0 0.0077139407385219431 -0.0010312295257128559 0 0.0088012595850311629 -0.00070633507861814595 0 0.0075368717642930808 0.00014724299764346348 0 0.0088012595850311629 -0.00070633507861814595 0 0.0095198590626841863 -0.00090310330668752188 0 0.0096309948357084316 -0.0014483608356420706 0 0.0093096553815074368 -0.0020529189811428041 0 0.0088012595850311629 -0.00070633507861814595 0 0.0096309948357084316 -0.0014483608356420706 0 0.0093096553815074368 -0.0020529189811428041 0 0.0096309948357084316 -0.0014483608356420706 0 0.010414639054019452 -0.0019488020412200867 0 0.010414639054019452 -0.0019488020412200867 0 0.010195406144219763 -0.0014274808736808187 0 0.010968104707837439 -0.0016498249742048705 0 0.0096309948357084316 -0.0014483608356420706 0 0.010414639054019452 -0.0019488020412200867 0 0.010195406144219763 -0.0014274808736808187 0 0.0095198590626841863 -0.00090310330668752188 0 0.010195406144219763 -0.0014274808736808187 0 0.0094863997724530143 5.5157524914765172e-05 0 0.0095198590626841863 -0.00090310330668752188 0 0.0096309948357084316 -0.0014483608356420706 0 0.010195406144219763 -0.0014274808736808187 0 0.010968104707837439 -0.0016498249742048705 0 0.011448132676585647 -0.0011171745103068188 0 0.011445770495577157 -0.0020826234532898358 0 0.010414639054019452 -0.0019488020412200867 0 0.010968104707837439 -0.0016498249742048705 0 0.011445770495577157 -0.0020826234532898358 0 0.010195406144219763 -0.0014274808736808187 0 0.010732066421394723 -0.0010921260834713558 0 0.010968104707837439 -0.0016498249742048705 0 0.010732066421394723 -0.0010921260834713558 0 0.010968104707837439 -0.0016498249742048705 0 0.011448132676585647 -0.0011171745103068188 0 0.011448132676585647 -0.0011171745103068188 0 0.011445770495577157 -0.0020826234532898358 0 0.012254044450360074 -0.0015276531574516603 0 0.011448132676585647 -0.0011171745103068188 0 0.012085723421725683 -0.0008896208125530506 0 0.012254044450360074 -0.0015276531574516603 0 0.011445770495577157 -0.0020826234532898358 0 0.012684008951433963 -0.0023877401420571904 0 0.012254044450360074 -0.0015276531574516603 0 0.011457524108433507 -0.0024098923855806367 0 0.013984200967548727 -0.00094877940193457792 0 0.012030192193401465 -0.0025021331883073629 0 0.012024462078050078 -0.0031025571024517451 0 0.01258552713741967 -0.0027867064519948924 0 0.010583081163116159 -0.0019565838147852883 0 0.011457524108433507 -0.0024098923855806367 0 0.010414639054019452 -0.0019488020412200867 0 0.012030192193401465 -0.0025021331883073629 0 0.011366926048100861 -0.0032388764443636014 0 0.012030192193401465 -0.0025021331883073629 0 0.011366926048100861 -0.0032388764443636014 0 0.012024462078050078 -0.0031025571024517451 0 0.011366926048100861 -0.0032388764443636014 0 0.012024462078050078 -0.0031025571024517451 0 0.012076503814049368 -0.0032482074848840014 0 0.012024462078050078 -0.0031025571024517451 0 0.012091601367770577 -0.0032688447193339153 0 0.01258552713741967 -0.0027867064519948924 0 0.012091601367770577 -0.0032688447193339153 0 0.012076503814049368 -0.0032482074848840014 0 0.012811495705847636 -0.0027148423507338164 0 0.012024462078050078 -0.0031025571024517451 0 0.012091601367770577 -0.0032688447193339153 0 0.012076503814049368 -0.0032482074848840014 0 0.011366926048100861 -0.0032388764443636014 0 0.012076503814049368 -0.0032482074848840014 0 0.011902403596423871 -0.0033449816427832233 0 0.011366926048100861 -0.0032388764443636014 0 0.011902403596423871 -0.0033449816427832233 0 0.01059538283259363 -0.0038401637127230747 0 0.010480475422873278 -0.0028524111359402677 0 0.011366926048100861 -0.0032388764443636014 0 0.01059538283259363 -0.0038401637127230747 0 0.011902403596423871 -0.0033449816427832233 0 0.01059538283259363 -0.0038401637127230747 0 0.012117271236372107 -0.0033835981124715792 0 0.01059538283259363 -0.0038401637127230747 0 0.012117271236372107 -0.0033835981124715792 0 0.012744988002822963 -0.0036607112171325581 0 0.012117271236372107 -0.0033835981124715792 0 0.012744988002822963 -0.0036607112171325581 0 0.013294947336094357 -0.003490630816592281 0 0.013479359938749597 -0.0037413830351121571 0 0.013972188056645239 -0.003776021373054069 0 0.013294947336094357 -0.003490630816592281 0 0.012744988002822963 -0.0036607112171325581 0 0.013479359938749597 -0.0037413830351121571 0 0.013294947336094357 -0.003490630816592281 0 0.013479359938749597 -0.0037413830351121571 0 0.013549222778330849 -0.0040966356960215524 0 0.013882233147170185 -0.0039413360834782184 0 0.012744988002822963 -0.0036607112171325581 0 0.013479359938749597 -0.0037413830351121571 0 0.013549222778330849 -0.0040966356960215524 0 0.012744988002822963 -0.0036607112171325581 0 0.013549222778330849 -0.0040966356960215524 0 0.013073830177026536 -0.0048096109594403828 0 0.013549222778330849 -0.0040966356960215524 0 0.01387617546759725 -0.0043609027937873404 0 0.013073830177026536 -0.0048096109594403828 0 0.01059538283259363 -0.0038401637127230747 0 0.012744988002822963 -0.0036607112171325581 0 0.013073830177026536 -0.0048096109594403828 0 0.014496048407368753 -0.0040278462784511275 0 0.014390974213379067 -0.0038666025567537033 0 0.014636834233144682 -0.0040225065257803883 0 0.014496048407368753 -0.0040278462784511275 0 0.014230104972871194 -0.0039840962579954856 0 0.014390974213379067 -0.0038666025567537033 0 0.014496048407368753 -0.0040278462784511275 0 0.014230104972871194 -0.0039840962579954856 0 0.014414459691189613 -0.0041044669601552923 0 0.014230104972871194 -0.0039840962579954856 0 0.013972188056645239 -0.003776021373054069 0 0.014390974213379067 -0.0038666025567537033 0 0.013479359938749597 -0.0037413830351121571 0 0.013972188056645239 -0.003776021373054069 0 0.013882233147170185 -0.0039413360834782184 0 0.014230104972871194 -0.0039840962579954856 0 0.013972188056645239 -0.003776021373054069 0 0.013882233147170185 -0.0039413360834782184 0 0.013549222778330849 -0.0040966356960215524 0 0.013882233147170185 -0.0039413360834782184 0 0.014086787878578028 -0.0041414417504934955 0 0.013549222778330849 -0.0040966356960215524 0 0.014086787878578028 -0.0041414417504934955 0 0.01387617546759725 -0.0043609027937873404 0 0.014086787878578028 -0.0041414417504934955 0 0.014274537596465648 -0.0042372381945191264 0 0.01387617546759725 -0.0043609027937873404 0 0.014230104972871194 -0.0039840962579954856 0 0.014086787878578028 -0.0041414417504934955 0 0.014414459691189613 -0.0041044669601552923 0 0.014230104972871194 -0.0039840962579954856 0 0.013882233147170185 -0.0039413360834782184 0 0.014086787878578028 -0.0041414417504934955 0 0.014086787878578028 -0.0041414417504934955 0 0.014414459691189613 -0.0041044669601552923 0 0.014274537596465648 -0.0042372381945191264 0 0.014414459691189613 -0.0041044669601552923 0 0.014471233428932124 -0.0041076269896702169 0 0.014562514312463049 -0.0040650998873181044 0 0.014414459691189613 -0.0041044669601552923 0 0.014562514312463049 -0.0040650998873181044 0 0.014538243249458642 -0.0040847970474259193 0 0.014496048407368753 -0.0040278462784511275 0 0.014414459691189613 -0.0041044669601552923 0 0.014538243249458642 -0.0040847970474259193 0 0.014490756924046666 -0.0040223730190789382 0 0.014471233428932124 -0.0041076269896702169 0 0.014382517158720295 -0.0042035453223319801 0 0.014471233428932124 -0.0041076269896702169 0 0.014274537596465648 -0.0042372381945191264 0 0.014382517158720295 -0.0042035453223319801 0 0.014414459691189613 -0.0041044669601552923 0 0.014471233428932124 -0.0041076269896702169 0 0.014274537596465648 -0.0042372381945191264 0 0.014274537596465648 -0.0042372381945191264 0 0.014382517158720295 -0.0042035453223319801 0 0.014223979899234863 -0.0044381599719271357 0 0.014274537596465648 -0.0042372381945191264 0 0.01387617546759725 -0.0043609027937873404 0 0.014223979899234863 -0.0044381599719271357 0 0.0047090091820652727 -0.0011061806075492329 0 0.0041755481650939709 -0.0014727686933081728 0 0.0052791543781888954 -0.0015209886586285198 0 0.0047090091820652727 -0.0011061806075492329 0 0.0042477242394085551 -0.0013658291648920933 0 0.0045548573710410024 -0.00041387200480401322 0 0.0047090091820652727 -0.0011061806075492329 0 0.0042477242394085551 -0.0013658291648920933 0 0.0041755481650939709 -0.0014727686933081728 0 0.014382517158720295 -0.0042035453223319801 0 0.014223979899234863 -0.0044381599719271357 0 0.014599180842275723 -0.0036675948100525243 0 0.014490756924046666 -0.0040223730190789382 0 0.014382517158720295 -0.0042035453223319801 0 0.014599180842275723 -0.0036675948100525243 0 0.0041755481650939709 -0.0014727686933081728 0 0.0047176032410833693 -0.0016586915361704324 0 0.0051811624771468893 -0.0014073546732460212 0 0.0041870345715432156 -0.001333051781604511 0 0.0039767420137003275 -0.0012244229127298366 0 0.0042477242394085551 -0.0013658291648920933 0 0.0041755481650939709 -0.0014727686933081728 0 0.0047176032410833693 -0.0016586915361704324 0 0.0091628112117022181 -0.0029462197912301391 0 0.010052022973478198 -0.0026445500825368457 0 0.0093096553815074368 -0.0020529189811428041 0 0.0077139407385219431 -0.0010312295257128559 0 0.006132976950468748 -0.0027985242796930974 0 0.010485683479829285 -0.0038770965896209905 0 0.0096356935704542141 -0.0037244439106039638 0 0.0041755481650939709 -0.0014727686933081728 0 0.006132976950468748 -0.0027985242796930974 0 0.0052791543781888954 -0.0015209886586285198 0 0.01387617546759725 -0.0043609027937873404 0 0.014223979899234863 -0.0044381599719271357 0 0.013073830177026536 -0.0048096109594403828 0 0.0091628112117022181 -0.0029462197912301391 0 0.0096356935704542141 -0.0037244439106039638 0 0.0052791543781888954 -0.0015209886586285198 0 0.0064601616237343123 -0.00055670005478838046 0 0.0054521478536328685 -0.0003209744832760821 0 0.006132976950468748 -0.0027985242796930974 0 0.0052791543781888954 -0.0015209886586285198 0 0.0064601616237343123 -0.00055670005478838046 0 0.0047090091820652727 -0.0011061806075492329 0 0.0052791543781888954 -0.0015209886586285198 0 0.0054521478536328685 -0.0003209744832760821 0 0.0077139407385219431 -0.0010312295257128559 0 0.006132976950468748 -0.0027985242796930974 0 0.0064601616237343123 -0.00055670005478838046 0 0.0063908511332973561 0.00021114408615237345 0 0.0064601616237343123 -0.00055670005478838046 0 0.0075368717642930808 0.00014724299764346348 0 0.0077139407385219431 -0.0010312295257128559 0 0.0064601616237343123 -0.00055670005478838046 0 0.0075368717642930808 0.00014724299764346348 0 0.0063908511332973561 0.00021114408615237345 0 0.0064633292298442247 0.00081606009904824201 0 0.0075368717642930808 0.00014724299764346348 0 0.0063908511332973561 0.00021114408615237345 0 0.0054521478536328685 -0.0003209744832760821 0 0.0056538218443352101 0.00054841058887621801 0 0.0063908511332973561 0.00021114408615237345 0 0.0064601616237343123 -0.00055670005478838046 0 0.0054521478536328685 -0.0003209744832760821 0 0.0047090091820652727 -0.0011061806075492329 0 0.0054521478536328685 -0.0003209744832760821 0 0.0045548573710410024 -0.00041387200480401322 0 0.0054521478536328685 -0.0003209744832760821 0 0.0049200355085100133 0.00015394684211306764 0 0.0045548573710410024 -0.00041387200480401322 0 0.0054521478536328685 -0.0003209744832760821 0 0.0049200355085100133 0.00015394684211306764 0 0.0056538218443352101 0.00054841058887621801 0 0.0048743715335864682 0.00085227681262036305 0 0.0057815006111964339 0.0011330886279487971 0 0.0056538218443352101 0.00054841058887621801 0 0.0049200355085100133 0.00015394684211306764 0 0.0048743715335864682 0.00085227681262036305 0 0.0056538218443352101 0.00054841058887621801 0 0.0057815006111964339 0.0011330886279487971 0 0.0064633292298442247 0.00081606009904824201 0 0.0064002506696352783 0.0014393504923705665 0 0.0057815006111964339 0.0011330886279487971 0 0.0064633292298442247 0.00081606009904824201 0 0.0056538218443352101 0.00054841058887621801 0 0.0063908511332973561 0.00021114408615237345 0 0.0064633292298442247 0.00081606009904824201 0 0.0056538218443352101 0.00054841058887621801 0 0.0042477242394085551 -0.0013658291648920933 0 0.0030767310034913909 -0.00068990270701873332 0 0.0038558031069227663 -0.00054846224750109589 0 0.0030564065733258033 7.0744633153054073e-05 0 0.0030767310034913909 -0.00068990270701873332 0 0.0038558031069227663 -0.00054846224750109589 0 0.0030564065733258033 7.0744633153054073e-05 0 0.0038558031069227663 -0.00054846224750109589 0 0.0039783074103054861 0.00026840375596308798 0 0.0038558031069227663 -0.00054846224750109589 0 0.0045548573710410024 -0.00041387200480401322 0 0.0039783074103054861 0.00026840375596308798 0 0.0042477242394085551 -0.0013658291648920933 0 0.0038558031069227663 -0.00054846224750109589 0 0.0045548573710410024 -0.00041387200480401322 0 0.0049200355085100133 0.00015394684211306764 0 0.0045548573710410024 -0.00041387200480401322 0 0.0039783074103054861 0.00026840375596308798 0 0.0049200355085100133 0.00015394684211306764 0 0.0048743715335864682 0.00085227681262036305 0 0.0039783074103054861 0.00026840375596308798 0 0.0048743715335864682 0.00085227681262036305 0 0.0039783074103054861 0.00026840375596308798 0 0.0039384380134189993 0.00098693741381223081 0 0.0039783074103054861 0.00026840375596308798 0 0.0034097334157313355 0.00058183641656332839 0 0.0039384380134189993 0.00098693741381223081 0 0.0031322292162546481 9.603531696789419e-05 0 0.0039783074103054861 0.00026840375596308798 0 0.0034097334157313355 0.00058183641656332839 0 0.0029801117856559948 2.3166836096645915e-05 0 0.0038994330914000654 0.00024886468140561987 0 0.0034097334157313355 0.00058183641656332839 0 0.0031875686425114759 0.001048289931642462 0 0.0028022301521738974 0.0005854170342629155 0 0.0031322292162546481 9.603531696789419e-05 0 0.0034097334157313355 0.00058183641656332839 0 0.0028022301521738974 0.0005854170342629155 0 0.0031875686425114759 0.001048289931642462 0 0.0039384380134189993 0.00098693741381223081 0 0.0034490446047087077 0.0015676007073973388 0 0.0031875686425114759 0.001048289931642462 0 0.0034490446047087077 0.0015676007073973388 0 0.0027698526416567275 0.0015647395360381851 0 0.0034097334157313355 0.00058183641656332839 0 0.0031875686425114759 0.001048289931642462 0 0.0039384380134189993 0.00098693741381223081 0 0.0048743715335864682 0.00085227681262036305 0 0.0039384380134189993 0.00098693741381223081 0 0.0043303009084737663 0.0015320907161382054 0 0.0039384380134189993 0.00098693741381223081 0 0.0043303009084737663 0.0015320907161382054 0 0.0034490446047087077 0.0015676007073973388 0 0.0043303009084737663 0.0015320907161382054 0 0.0036511155768507043 0.002048638160166935 0 0.0043356282423611774 0.002082025408269962 0 0.0043303009084737663 0.0015320907161382054 0 0.0034490446047087077 0.0015676007073973388 0 0.0036511155768507043 0.002048638160166935 0 0.0034490446047087077 0.0015676007073973388 0 0.0028006642808962321 0.0020230732571339793 0 0.0036511155768507043 0.002048638160166935 0 0.0034490446047087077 0.0015676007073973388 0 0.0027698526416567275 0.0015647395360381851 0 0.0028006642808962321 0.0020230732571339793 0 0.0057815006111964339 0.0011330886279487971 0 0.0056457657220446754 0.0017408195494274356 0 0.0051193773290143952 0.0014501110412280655 0 0.0057815006111964339 0.0011330886279487971 0 0.0056457657220446754 0.0017408195494274356 0 0.0064002506696352783 0.0014393504923705665 0 0.0048743715335864682 0.00085227681262036305 0 0.0043303009084737663 0.0015320907161382054 0 0.0051193773290143952 0.0014501110412280655 0 0.0048743715335864682 0.00085227681262036305 0 0.0057815006111964339 0.0011330886279487971 0 0.0051193773290143952 0.0014501110412280655 0 0.0043303009084737663 0.0015320907161382054 0 0.004911923836410469 0.0018395884059234733 0 0.0043356282423611774 0.002082025408269962 0 0.004911923836410469 0.0018395884059234733 0 0.0043356282423611774 0.002082025408269962 0 0.0051166765118276719 0.0022538700201091381 0 0.0043303009084737663 0.0015320907161382054 0 0.0051193773290143952 0.0014501110412280655 0 0.004911923836410469 0.0018395884059234733 0 0.0056457657220446754 0.0017408195494274356 0 0.004911923836410469 0.0018395884059234733 0 0.0051166765118276719 0.0022538700201091381 0 0.0056457657220446754 0.0017408195494274356 0 0.00578032564216595 0.0020338250536657914 0 0.0051166765118276719 0.0022538700201091381 0 0.0056457657220446754 0.0017408195494274356 0 0.0051193773290143952 0.0014501110412280655 0 0.004911923836410469 0.0018395884059234733 0 0.00578032564216595 0.0020338250536657914 0 0.0060129848015906661 0.0021420429837412341 0 0.0056118362396380241 0.0023888926455310562 0 0.00578032564216595 0.0020338250536657914 0 0.0060277178202571271 0.001760103500158737 0 0.0062414017065179957 0.0018206251852531097 0 0.00578032564216595 0.0020338250536657914 0 0.0060129848015906661 0.0021420429837412341 0 0.0062414017065179957 0.0018206251852531097 0 0.0056457657220446754 0.0017408195494274356 0 0.00578032564216595 0.0020338250536657914 0 0.0060277178202571271 0.001760103500158737 0 0.0061805766185427718 0.0021418590960465681 0 0.0060129848015906661 0.0021420429837412341 0 0.0057803768845641375 0.002528636120768923 0 0.0060129848015906661 0.0021420429837412341 0 0.0063979449830434149 0.0018750497013496775 0 0.0062414017065179957 0.0018206251852531097 0 0.0061805766185427718 0.0021418590960465681 0 0.0060129848015906661 0.0021420429837412341 0 0.0063979449830434149 0.0018750497013496775 0 0.0061805766185427718 0.0021418590960465681 0 0.0063979449830434149 0.0018750497013496775 0 0.0064481377966481472 0.0019212115653517688 0 0.0063979449830434149 0.0018750497013496775 0 0.0066238872300666595 0.0016286635949391 0 0.0067270902908957222 0.0016172850581363564 0 0.0063979449830434149 0.0018750497013496775 0 0.0067270902908957222 0.0016172850581363564 0 0.0064481377966481472 0.0019212115653517688 0 0.0063979449830434149 0.0018750497013496775 0 0.0066238872300666595 0.0016286635949391 0 0.0062414017065179957 0.0018206251852531097 0 0.0066238872300666595 0.0016286635949391 0 0.0067270902908957222 0.0016172850581363564 0 0.0069765233594667403 0.0013592116147620853 0 0.0067270902908957222 0.0016172850581363564 0 0.0069765233594667403 0.0013592116147620853 0 0.0070726748579484156 0.0013583696477503029 0 0.0056457657220446754 0.0017408195494274356 0 0.0060277178202571271 0.001760103500158737 0 0.0064002506696352783 0.0014393504923705665 0 0.0060277178202571271 0.001760103500158737 0 0.0062414017065179957 0.0018206251852531097 0 0.0064002506696352783 0.0014393504923705665 0 0.0066238872300666595 0.0016286635949391 0 0.0062414017065179957 0.0018206251852531097 0 0.0064002506696352783 0.0014393504923705665 0 0.0066238872300666595 0.0016286635949391 0 0.0064002506696352783 0.0014393504923705665 0 0.0069765233594667403 0.0013592116147620853 0 0.0064633292298442247 0.00081606009904824201 0 0.0064002506696352783 0.0014393504923705665 0 0.0070280718235979272 0.0009733893878434343 0 0.0064633292298442247 0.00081606009904824201 0 0.0070280718235979272 0.0009733893878434343 0 0.0075368717642930808 0.00014724299764346348 0 0.0070280718235979272 0.0009733893878434343 0 0.007603354624838245 0.0009919487008259913 0 0.0075368717642930808 0.00014724299764346348 0 0.0064002506696352783 0.0014393504923705665 0 0.0070280718235979272 0.0009733893878434343 0 0.0069765233594667403 0.0013592116147620853 0 0.0070280718235979272 0.0009733893878434343 0 0.0069765233594667403 0.0013592116147620853 0 0.007603354624838245 0.0009919487008259913 0 0.0069765233594667403 0.0013592116147620853 0 0.0073486716255661364 0.0012162775243930151 0 0.007603354624838245 0.0009919487008259913 0 0.0069765233594667403 0.0013592116147620853 0 0.0070726748579484156 0.0013583696477503029 0 0.0073486716255661364 0.0012162775243930151 0 0.0070726748579484156 0.0013583696477503029 0 0.0073486716255661364 0.0012162775243930151 0 0.0072553647168762322 0.0012464644033166894 0 0.0077276794465225909 0.0010936524026646738 0 0.0085435881495658263 0.0005727021387721237 0 0.0076382893990552606 0.0011691409432760711 0 0.0072553647168762322 0.0012464644033166894 0 0.0077276794465225909 0.0010936524026646738 0 0.007212989384174872 0.00137382000893169 0 0.0073486716255661364 0.0012162775243930151 0 0.0072553647168762322 0.0012464644033166894 0 0.0077276794465225909 0.0010936524026646738 0 0.0077665589305758783 0.0013290571644012394 0 0.0084384930451709157 0.0013650055093535915 0 0.0073486716255661364 0.0012162775243930151 0 0.0077276794465225909 0.0010936524026646738 0 0.007603354624838245 0.0009919487008259913 0 0.0077276794465225909 0.0010936524026646738 0 0.007603354624838245 0.0009919487008259913 0 0.0085435881495658263 0.0005727021387721237 0 0.007603354624838245 0.0009919487008259913 0 0.0085435881495658263 0.0005727021387721237 0 0.0075368717642930808 0.00014724299764346348 0 0.010195406144219763 -0.0014274808736808187 0 0.0094863997724530143 5.5157524914765172e-05 0 0.010470619700863435 0.0015289856939348916 0 0.0084428206358285931 0.00080303831850905524 0 0.0084384930451709157 0.0013650055093535915 0 0.0085435881495658263 0.0005727021387721237 0 0.0094863997724530143 5.5157524914765172e-05 0 0.010000799970217198 0.0015771564863638777 0 0.0088012595850311629 -0.00070633507861814595 0 0.0095198590626841863 -0.00090310330668752188 0 0.0094863997724530143 5.5157524914765172e-05 0 0.0088012595850311629 -0.00070633507861814595 0 0.0085435881495658263 0.0005727021387721237 0 0.0094863997724530143 5.5157524914765172e-05 0 0.0088012595850311629 -0.00070633507861814595 0 0.0085435881495658263 0.0005727021387721237 0 0.0075368717642930808 0.00014724299764346348 0 0.011448132676585647 -0.0011171745103068188 0 0.01116071562953767 -0.00055963065578734119 0 0.011965764363215463 -9.9787614167654693e-05 0 0.011448132676585647 -0.0011171745103068188 0 0.012085723421725683 -0.0008896208125530506 0 0.011965764363215463 -9.9787614167654693e-05 0 0.010732066421394723 -0.0010921260834713558 0 0.01116071562953767 -0.00055963065578734119 0 0.010806351592929621 3.2711324626756925e-05 0 0.01116071562953767 -0.00055963065578734119 0 0.010806351592929621 3.2711324626756925e-05 0 0.011965764363215463 -9.9787614167654693e-05 0 0.01044681194792226 -0.0015408146593766021 0 0.0094141085776684019 0.001421477806237174 0 0.010195406144219763 -0.0014274808736808187 0 0.010732066421394723 -0.0010921260834713558 0 0.010806351592929621 3.2711324626756925e-05 0 0.010732066421394723 -0.0010921260834713558 0 0.011448132676585647 -0.0011171745103068188 0 0.01116071562953767 -0.00055963065578734119 0 0.0094863997724530143 5.5157524914765172e-05 0 0.010000799970217198 0.0015771564863638777 0 0.010470619700863435 0.0015289856939348916 0 0.0088044824094775341 0.0029845554176540943 0 0.008732797432260745 0.0028133739515654047 0 0.0082058642293559823 0.0030422476812836893 0 0.0072553647168762322 0.0012464644033166894 0 0.007212989384174872 0.00137382000893169 0 0.0070085665290115272 0.0013415485525580129 0 0.0084384930451709157 0.0013650055093535915 0 0.0094141085776684019 0.001421477806237174 0 0.0084384930451709157 0.0013650055093535915 0 0.0083601587747223222 0.0018176250690487804 0 0.0094141085776684019 0.001421477806237174 0 0.0083601587747223222 0.0018176250690487804 0 0.0087458558565508791 0.0016938257817979466 0 0.0086893849734710517 0.0016991711614098778 0 0.0086599595336517062 0.001625831413369178 0 0.0070726748579484156 0.0013583696477503029 0 0.0072553647168762322 0.0012464644033166894 0 0.0070085665290115272 0.0013415485525580129 0 0.0070726748579484156 0.0013583696477503029 0 0.0070085665290115272 0.0013415485525580129 0 0.0068852109317023291 0.0014882128971076664 0 0.008732797432260745 0.0028133739515654047 0 0.0082058642293559823 0.0030422476812836893 0 0.0079542624079788123 0.002698847540562252 0 0.0094141085776684019 0.001421477806237174 0 0.010266989205558944 0.0014252788051585701 0 0.0083601587747223222 0.0018176250690487804 0 0.0079309787242288626 0.0022752586180134326 0 0.008732797432260745 0.0028133739515654047 0 0.0081145181343066156 0.0023274984974418038 0 0.0079542624079788123 0.002698847540562252 0 0.008011705563740458 0.0022325354662112384 0 0.0076934253006567992 0.0019871576921057423 0 0.0078707213900551989 0.0018746654123012751 0 0.0083601587747223222 0.0018176250690487804 0 0.00600127739064468 0.0024143783335006134 0 0.0070085665290115272 0.0013415485525580129 0 0.0066983823282470226 0.0017014956492757412 0 0.0065133105202398837 0.0020506163080425991 0 0.0070085665290115272 0.0013415485525580129 0 0.0068852109317023291 0.0014882128971076664 0 0.0066983823282470226 0.0017014956492757412 0 0.0067270902908957222 0.0016172850581363564 0 0.0068852109317023291 0.0014882128971076664 0 0.0066983823282470226 0.0017014956492757412 0 0.0067270902908957222 0.0016172850581363564 0 0.0070726748579484156 0.0013583696477503029 0 0.0068852109317023291 0.0014882128971076664 0 0.0066983823282470226 0.0017014956492757412 0 0.0065088792272445413 0.0019802654427324108 0 0.0065133105202398837 0.0020506163080425991 0 0.0066983823282470226 0.0017014956492757412 0 0.0065088792272445413 0.0019802654427324108 0 0.0064481377966481472 0.0019212115653517688 0 0.0067270902908957222 0.0016172850581363564 0 0.0066983823282470226 0.0017014956492757412 0 0.0064481377966481472 0.0019212115653517688 0 0.0061925013546202052 0.0022322704416900302 0 0.0063878288131695316 0.0021291272374458991 0 0.005819590913910962 0.002569466217504336 0 0.0061805766185427718 0.0021418590960465681 0 0.0064481377966481472 0.0019212115653517688 0 0.0061925013546202052 0.0022322704416900302 0 0.0065088792272445413 0.0019802654427324108 0 0.0064481377966481472 0.0019212115653517688 0 0.0061925013546202052 0.0022322704416900302 0 0.0065088792272445413 0.0019802654427324108 0 0.0061925013546202052 0.0022322704416900302 0 0.0063878288131695316 0.0021291272374458991 0 0.0061805766185427718 0.0021418590960465681 0 0.0061925013546202052 0.0022322704416900302 0 0.0057803768845641375 0.002528636120768923 0 0.0076934253006567992 0.0019871576921057423 0 0.0078707213900551989 0.0018746654123012751 0 0.0075931224022335007 0.0016796192788591869 0 0.0040943748993621191 0.0032598821626441585 0 0.0038866272325532151 0.0031593908276229825 0 0.0039402824062951267 0.0030097637994344318 0 0.00600127739064468 0.0024143783335006134 0 0.0057413519251488018 0.0024291901912417918 0 0.0061742046478426606 0.0023556747844728169 0 0.00600127739064468 0.0024143783335006134 0 0.0081145181343066156 0.0023274984974418038 0 0.0073638541094000866 0.0020693120028820269 0 0.0072969759679229751 0.0016953930355449109 0 0.0079309787242288626 0.0022752586180134326 0 0.0073051726193087679 0.00167350092215707 0 0.0076934253006567992 0.0019871576921057423 0 0.0075931224022335007 0.0016796192788591869 0 0.0072969759679229751 0.0016953930355449109 0 0.0081145181343066156 0.0023274984974418038 0 0.007809131866828297 0.0025072758080030783 0 0.0075660606246906303 0.0023396551923128197 0 0.0081145181343066156 0.0023274984974418038 0 0.0075660606246906303 0.0023396551923128197 0 0.0073638541094000866 0.0020693120028820269 0 0.007809131866828297 0.0025072758080030783 0 0.0079542624079788123 0.002698847540562252 0 0.0075928369956429001 0.0026667888901786892 0 0.007809131866828297 0.0025072758080030783 0 0.0075660606246906303 0.0023396551923128197 0 0.0075928369956429001 0.0026667888901786892 0 0.0081145181343066156 0.0023274984974418038 0 0.007809131866828297 0.0025072758080030783 0 0.0079542624079788123 0.002698847540562252 0 0.0073073082761618653 0.0025392471883836022 0 0.0070199447765428857 0.0024422883728466493 0 0.0071045521377466007 0.0027015987388335182 0 0.0073073082761618653 0.0025392471883836022 0 0.0073074418736727665 0.0027784421205759562 0 0.0071045521377466007 0.0027015987388335182 0 0.0073073082761618653 0.0025392471883836022 0 0.0075660606246906303 0.0023396551923128197 0 0.0075928369956429001 0.0026667888901786892 0 0.0073073082761618653 0.0025392471883836022 0 0.0075928369956429001 0.0026667888901786892 0 0.0073074418736727665 0.0027784421205759562 0 0.0075660606246906303 0.0023396551923128197 0 0.0072436242738859605 0.0022877967815244345 0 0.0073638541094000866 0.0020693120028820269 0 0.0073073082761618653 0.0025392471883836022 0 0.0075660606246906303 0.0023396551923128197 0 0.0072436242738859605 0.0022877967815244345 0 0.0072436242738859605 0.0022877967815244345 0 0.0070553434199591989 0.0021056354199249683 0 0.0073638541094000866 0.0020693120028820269 0 0.0073073082761618653 0.0025392471883836022 0 0.0072436242738859605 0.0022877967815244345 0 0.0070199447765428857 0.0024422883728466493 0 0.0072436242738859605 0.0022877967815244345 0 0.0070199447765428857 0.0024422883728466493 0 0.0070553434199591989 0.0021056354199249683 0 0.0073638541094000866 0.0020693120028820269 0 0.0072969759679229751 0.0016953930355449109 0 0.0070546966841323394 0.0018435835655452656 0 0.0070553434199591989 0.0021056354199249683 0 0.0073638541094000866 0.0020693120028820269 0 0.0070546966841323394 0.0018435835655452656 0 0.0072969759679229751 0.0016953930355449109 0 0.0070546966841323394 0.0018435835655452656 0 0.0068197075146863642 0.0017058769692674738 0 0.0068758850302509892 0.0020431270557184581 0 0.0063067546441810353 0.0017288671774031382 0 0.0070553434199591989 0.0021056354199249683 0 0.0068197075146863642 0.0017058769692674738 0 0.0063484356768308105 0.0019321068550078263 0 0.0070553434199591989 0.0021056354199249683 0 0.0057821016892905088 0.0015168580384447401 0 0.0064470534341144782 0.0022564102931156081 0 0.0068197075146863642 0.0017058769692674738 0 0.0063484356768308105 0.0019321068550078263 0 0.0065684152822108937 0.0013960524495457546 0 0.0057821016892905088 0.0015168580384447401 0 0.0059033683220231399 0.0023141574562659723 0 0.0064470534341144782 0.0022564102931156081 0 0.0070553434199591989 0.0021056354199249683 0 0.0070546966841323394 0.0018435835655452656 0 0.0068197075146863642 0.0017058769692674738 0 0.0057821016892905088 0.0015168580384447401 0 0.0043116934953998723 0.00091014410094215957 0 0.0046983196565006363 0.0019479189176332262 0 0.0063067546441810353 0.0017288671774031382 0 0.00340399305034518 0.0023271371332205825 0 0.0063484356768308105 0.0019321068550078263 0 0.0056085734704703948 0.0016993624963587508 0 0.0060865405026373992 0.0013053082349224491 0 0.0057821016892905088 0.0015168580384447401 0 0.0053838033023175672 0.0023442956543520172 0 0.0046983196565006363 0.0019479189176332262 0 0.0053838033023175672 0.0023442956543520172 0 0.0046983196565006363 0.0019479189176332262 0 0.0047025662626351532 0.0027153048911935131 0 0.0057821016892905088 0.0015168580384447401 0 0.0053838033023175672 0.0023442956543520172 0 0.0059033683220231399 0.0023141574562659723 0 0.0053838033023175672 0.0023442956543520172 0 0.0059033683220231399 0.0023141574562659723 0 0.0057054185279911875 0.002780204773948382 0 0.0053838033023175672 0.0023442956543520172 0 0.0057054185279911875 0.002780204773948382 0 0.0052229127944119135 0.0030025493340554493 0 0.0057054185279911875 0.002780204773948382 0 0.0060343236213340782 0.0032319845138932351 0 0.0055843621673494059 0.0032602503866608753 0 0.0057054185279911875 0.002780204773948382 0 0.0052229127944119135 0.0030025493340554493 0 0.0055843621673494059 0.0032602503866608753 0 0.0052229127944119135 0.0030025493340554493 0 0.004830180566303746 0.0033099343614072466 0 0.0047025662626351532 0.0027153048911935131 0 0.0053838033023175672 0.0023442956543520172 0 0.0052229127944119135 0.0030025493340554493 0 0.0047025662626351532 0.0027153048911935131 0 0.0070199447765428857 0.0024422883728466493 0 0.0065340322975671414 0.0025699522593756225 0 0.0064470534341144782 0.0022564102931156081 0 0.0070199447765428857 0.0024422883728466493 0 0.0070553434199591989 0.0021056354199249683 0 0.0064470534341144782 0.0022564102931156081 0 0.0059033683220231399 0.0023141574562659723 0 0.0064470534341144782 0.0022564102931156081 0 0.0061837698142468579 0.0026643825606596874 0 0.0059033683220231399 0.0023141574562659723 0 0.0057054185279911875 0.002780204773948382 0 0.0061837698142468579 0.0026643825606596874 0 0.0065340322975671414 0.0025699522593756225 0 0.0064470534341144782 0.0022564102931156081 0 0.0061837698142468579 0.0026643825606596874 0 0.0065340322975671414 0.0025699522593756225 0 0.0061837698142468579 0.0026643825606596874 0 0.0064862318073248227 0.0029213159251771682 0 0.0057054185279911875 0.002780204773948382 0 0.0061837698142468579 0.0026643825606596874 0 0.0060343236213340782 0.0032319845138932351 0 0.0061837698142468579 0.0026643825606596874 0 0.0064862318073248227 0.0029213159251771682 0 0.0060343236213340782 0.0032319845138932351 0 0.007037875674061363 0.0024659560121717502 0 0.0066400475948271863 0.0034626464508821044 0 0.0070199447765428857 0.0024422883728466493 0 0.0064862318073248227 0.0029213159251771682 0 0.0065470324994394728 0.0035481604364287827 0 0.0070199447765428857 0.0024422883728466493 0 0.0069173844420816902 0.0028536111377162818 0 0.0071045521377466007 0.0027015987388335182 0 0.0070199447765428857 0.0024422883728466493 0 0.0065340322975671414 0.0025699522593756225 0 0.0064862318073248227 0.0029213159251771682 0 0.0069173844420816902 0.0028536111377162818 0 0.0071045521377466007 0.0027015987388335182 0 0.0070959451330972487 0.0028731714141267597 0 0.0069173844420816902 0.0028536111377162818 0 0.00698487037959814 0.0030070060533188086 0 0.0070959451330972487 0.0028731714141267597 0 0.0065470324994394728 0.0035481604364287827 0 0.0060343236213340782 0.0032319845138932351 0 0.0059930816339908545 0.0038598833988642165 0 0.0064862318073248227 0.0029213159251771682 0 0.0065470324994394728 0.0035481604364287827 0 0.0060343236213340782 0.0032319845138932351 0 0.0065470324994394728 0.0035481604364287827 0 0.0059930816339908545 0.0038598833988642165 0 0.0060196493526814823 0.0045550197831508545 0 0.0069173844420816902 0.0028536111377162818 0 0.00698487037959814 0.0030070060533188086 0 0.006782414081004242 0.0032029398292277526 0 0.0066400475948271863 0.0034626464508821044 0 0.008697972437194626 0.0029242164164215963 0 0.00698487037959814 0.0030070060533188086 0 0.0070959451330972487 0.0028731714141267597 0 0.00720341506699096 0.0030192200159639723 0 0.00698487037959814 0.0030070060533188086 0 0.0070984859445845372 0.0032282950626514859 0 0.00720341506699096 0.0030192200159639723 0 0.0082293875130868468 0.0024272813913506761 0 0.009662949814500733 0.0025341121462205238 0 0.004830180566303746 0.0033099343614072466 0 0.0052831597061393119 0.0034940754294891193 0 0.0050204413976635952 0.0037780739629582403 0 0.0052229127944119135 0.0030025493340554493 0 0.004830180566303746 0.0033099343614072466 0 0.0052831597061393119 0.0034940754294891193 0 0.0060343236213340782 0.0032319845138932351 0 0.0059930816339908545 0.0038598833988642165 0 0.0056757522638029041 0.0036762483873452232 0 0.0052831597061393119 0.0034940754294891193 0 0.0056757522638029041 0.0036762483873452232 0 0.0053948018924062108 0.0039468043253839463 0 0.0052831597061393119 0.0034940754294891193 0 0.0055843621673494059 0.0032602503866608753 0 0.0056757522638029041 0.0036762483873452232 0 0.0052229127944119135 0.0030025493340554493 0 0.0052831597061393119 0.0034940754294891193 0 0.0055843621673494059 0.0032602503866608753 0 0.0060343236213340782 0.0032319845138932351 0 0.0055843621673494059 0.0032602503866608753 0 0.0056757522638029041 0.0036762483873452232 0 0.0059930816339908545 0.0038598833988642165 0 0.0056801073188597973 0.0041768584685121408 0 0.0060196493526814823 0.0045550197831508545 0 0.0059930816339908545 0.0038598833988642165 0 0.0056757522638029041 0.0036762483873452232 0 0.0056801073188597973 0.0041768584685121408 0 0.0056801073188597973 0.0041768584685121408 0 0.0053948018924062108 0.0039468043253839463 0 0.0052869788039748809 0.004429031486977362 0 0.0056757522638029041 0.0036762483873452232 0 0.0056801073188597973 0.0041768584685121408 0 0.0053948018924062108 0.0039468043253839463 0 0.0053948018924062108 0.0039468043253839463 0 0.0050204413976635952 0.0037780739629582403 0 0.0052869788039748809 0.004429031486977362 0 0.0050204413976635952 0.0037780739629582403 0 0.0052869788039748809 0.004429031486977362 0 0.0044947266167561983 0.0036402323280428383 0 0.0052831597061393119 0.0034940754294891193 0 0.0053948018924062108 0.0039468043253839463 0 0.0050204413976635952 0.0037780739629582403 0 0.0098652143146491528 0.0026184477711810022 0 0.010074891724880334 0.0020780568937992742 0 0.0096004812531381295 0.0018211218575165848 0 0.0098652143146491528 0.0026184477711810022 0 0.0091722284609049472 0.0026858187342102533 0 0.0096004812531381295 0.0018211218575165848 0 0.008697972437194626 0.0029242164164215963 0 0.011524311595647849 0.0014115438890667667 0 0.0050659557666323657 0.0046025450400491302 0 0.0052869788039748809 0.004429031486977362 0 0.0060196493526814823 0.0045550197831508545 0 0.0072604220040428059 0.0035573724779808255 0 0.008697972437194626 0.0029242164164215963 0 0.0056801073188597973 0.0041768584685121408 0 0.0052869788039748809 0.004429031486977362 0 0.0060196493526814823 0.0045550197831508545 0 0.012655642558168288 0.0023898535729212898 0 0.012387192826496349 0.0018158115272109362 0 0.013173841808159449 0.0013681534040003835 0 0.01194919833694741 0.0024511348774937563 0 0.012655642558168288 0.0023898535729212898 0 0.012387192826496349 0.0018158115272109362 0 0.00698487037959814 0.0030070060533188086 0 0.0070900455891211942 0.0031708791715273229 0 0.006782414081004242 0.0032029398292277526 0 0.009662949814500733 0.0025341121462205238 0 0.008697972437194626 0.0029242164164215963 0 0.01194919833694741 0.0024511348774937563 0 0.012387192826496349 0.0018158115272109362 0 0.011672761145900419 0.00193669495730643 0 0.009662949814500733 0.0025341121462205238 0 0.013575855380830519 0.00099675486887823616 0 0.0070984859445845372 0.0032282950626514859 0 0.0075237081594413131 0.003212825301530324 0 0.00720341506699096 0.0030192200159639723 0 0.011411934294509587 0.002099279587280295 0 0.011154108136099654 0.0016251013093778542 0 0.010720139518300644 0.0021643159485197939 0 0.009662949814500733 0.0025341121462205238 0 0.0098744688894713984 0.0020724362210842754 0 0.013575855380830519 0.00099675486887823616 0 0.0098744688894713984 0.0020724362210842754 0 0.01356223732066129 -0.00078333916078025443 0 0.013086245116128907 -0.00019840256094529561 0 0.012773421413650938 -0.00088250293177795261 0 0.011965764363215463 -9.9787614167654693e-05 0 0.013086245116128907 -0.00019840256094529561 0 0.012773421413650938 -0.00088250293177795261 0 0.010266989205558944 0.0014252788051585701 0 0.0098744688894713984 0.0020724362210842754 0 0.012085723421725683 -0.0008896208125530506 0 0.011965764363215463 -9.9787614167654693e-05 0 0.012773421413650938 -0.00088250293177795261 0 0.0082058642293559823 0.0030422476812836893 0 0.0076935737924258788 0.0030692552556539189 0 0.0079542624079788123 0.002698847540562252 0 0.0075237081594413131 0.003212825301530324 0 0.0079542624079788123 0.002698847540562252 0 0.0075928369956429001 0.0026667888901786892 0 0.0098744688894713984 0.0020724362210842754 0 0.0073304331757010578 0.0033248867795288121 0 0.0075237081594413131 0.003212825301530324 0 0.0075928369956429001 0.0026667888901786892 0 0.0073074418736727665 0.0027784421205759562 0 0.0073074418736727665 0.0027784421205759562 0 0.0070959451330972487 0.0028731714141267597 0 0.00720341506699096 0.0030192200159639723 0 0.0073074418736727665 0.0027784421205759562 0 0.0071045521377466007 0.0027015987388335182 0 0.0070959451330972487 0.0028731714141267597 0 0.0075237081594413131 0.003212825301530324 0 0.0073074418736727665 0.0027784421205759562 0 0.00720341506699096 0.0030192200159639723 0 0.00069627557545396779 0.0027675040073997254 0 0.0015473616622413808 0.0024489625147944001 0 0.0017878525096200776 0.0017837885790836078 0 0.001242560011049394 0.0029464542628079597 0 0.0015473616622413808 0.0024489625147944001 0 0.0024037663823037697 0.0027765106223300389 0 0.0031191972642135558 0.0020385233997412869 0 0.0021272773996022457 0.0028222336289298535 0 0.0015473616622413808 0.0024489625147944001 0 0.0024037663823037697 0.0027765106223300389 0 0.0017878525096200776 0.0017837885790836078 0 -0.0060773467159595824 0.0061181980961840304 0 -0.005813367172318994 0.0050670359837780253 0 -0.0064393473289951174 0.0049923609967696611 0 -0.0060773467159595824 0.0061181980961840304 0 -0.0053464658442995789 0.0054499517624907708 0 -0.005813367172318994 0.0050670359837780253 0 -0.0016895426256948044 0.0038230577073487672 0 -0.0022119042063665842 0.0040751150449767097 0 0.00060136602964524057 0.0029561610262706021 0 0.001135883702783599 0.0025278006829136299 0 0.001471315407307537 0.0028335968905171568 0 0.001135883702783599 0.0025278006829136299 0 0.0016613280116620677 0.0025166694453540714 0 0.0016093044258855401 0.0021291406854433452 0 0.001135883702783599 0.0025278006829136299 0 0.001471315407307537 0.0028335968905171568 0 0.0016613280116620677 0.0025166694453540714 0 0.00060136602964524057 0.0029561610262706021 0 0.001478957155854119 0.0033697464067261739 0 0.0014226954402175788 0.0032615327514708887 0 -0.0016895426256948044 0.0038230577073487672 0 0.0030538246549862325 0.0029981311779679041 0 0.00060136602964524057 0.0029561610262706021 0 0.001471315407307537 0.0028335968905171568 0 0.0014226954402175788 0.0032615327514708887 0 0.0024037663823037697 0.0027765106223300389 0 0.0017878525096200776 0.0017837885790836078 0 0.0035625984451693052 0.0026399754881113527 0 0.001478957155854119 0.0033697464067261739 0 0.0014226954402175788 0.0032615327514708887 0 0.0024109284722791256 0.0028085028988684905 0 0.0029559586212184407 0.0033528211005610562 0 0.0037394696929761123 0.0024914860249540672 0 0.0037551122234484075 0.0045101535728262103 0 0.001478957155854119 0.0033697464067261739 0 0.0029559586212184407 0.0033528211005610562 0 0.0024109284722791256 0.0028085028988684905 0 0.0029559586212184407 0.0033528211005610562 0 0.0024109284722791256 0.0028085028988684905 0 0.0037394696929761123 0.0024914860249540672 0 0.0024109284722791256 0.0028085028988684905 0 0.0029867513224548108 0.0018846553898638615 0 0.0037394696929761123 0.0024914860249540672 0 0.0014960858346814061 0.0031852856101900083 0 0.002450607510786954 0.0023176195938638313 0 0.001471315407307537 0.0028335968905171568 0 0.0014226954402175788 0.0032615327514708887 0 0.001870544713479275 0.002808321868947355 0 0.0014226954402175788 0.0032615327514708887 0 0.0024109284722791256 0.0028085028988684905 0 0.0029867513224548108 0.0018846553898638615 0 0.001471315407307537 0.0028335968905171568 0 0.0016613280116620677 0.0025166694453540714 0 0.001870544713479275 0.002808321868947355 0 0.0016613280116620677 0.0025166694453540714 0 0.001870544713479275 0.002808321868947355 0 0.0023564401093878252 0.0023911424312161003 0 0.0016613280116620677 0.0025166694453540714 0 0.0023564401093878252 0.0023911424312161003 0 0.0016093044258855401 0.0021291406854433452 0 0.002450607510786954 0.0023176195938638313 0 0.00340399305034518 0.0023271371332205825 0 0.0029867513224548108 0.0018846553898638615 0 0.0040133691502215376 0.0017594985784230481 0 0.0043116934953998723 0.00091014410094215957 0 0.0040133691502215376 0.0017594985784230481 0 0.0043116934953998723 0.00091014410094215957 0 0.0046983196565006363 0.0019479189176332262 0 0.0037303402338746323 0.0027242952616981174 0 0.0042638490142780233 0.0039418495765012745 0 0.0046983196565006363 0.0019479189176332262 0 0.0037394696929761123 0.0024914860249540672 0 0.0047025662626351532 0.0027153048911935131 0 0.0037394696929761123 0.0024914860249540672 0 0.0043102450315444388 0.0031632156415869897 0 0.0038177947562319571 0.0038056253419316245 0 0.0029867513224548108 0.0018846553898638615 0 0.0040133691502215376 0.0017594985784230481 0 0.0037394696929761123 0.0024914860249540672 0 0.0040133691502215376 0.0017594985784230481 0 0.0046983196565006363 0.0019479189176332262 0 0.0037394696929761123 0.0024914860249540672 0 0.0037394696929761123 0.0024914860249540672 0 0.0043102450315444388 0.0031632156415869897 0 0.0047025662626351532 0.0027153048911935131 0 0.004830180566303746 0.0033099343614072466 0 0.0043102450315444388 0.0031632156415869897 0 0.0047025662626351532 0.0027153048911935131 0 0.0052869788039748809 0.004429031486977362 0 0.0044947266167561983 0.0036402323280428383 0 0.0038177947562319571 0.0038056253419316245 0 0.0051195443301290319 0.0043644328054197384 0 0.0042638490142780233 0.0039418495765012745 0 0.004830180566303746 0.0033099343614072466 0 0.0050204413976635952 0.0037780739629582403 0 0.0044947266167561983 0.0036402323280428383 0 0.004830180566303746 0.0033099343614072466 0 0.0043102450315444388 0.0031632156415869897 0 0.0044947266167561983 0.0036402323280428383 0 0.0043102450315444388 0.0031632156415869897 0 0.0044947266167561983 0.0036402323280428383 0 0.0038177947562319571 0.0038056253419316245 0 0.0042638490142780233 0.0039418495765012745 0 0.0060333038300062133 0.0034168123266288403 0 0.0072604220040428059 0.0035573724779808255 0 0.0075719713189157786 0.0022334100426898182 0 0.0050659557666323657 0.0046025450400491302 0 0.0052869788039748809 0.004429031486977362 0 0.0043375426287329006 0.0039684674723487051 0 0.0098652143146491528 0.0026184477711810022 0 0.010547115411561598 0.0025501549808138067 0 0.010074891724880334 0.0020780568937992742 0 0.0050659557666323657 0.0046025450400491302 0 0.0043375426287329006 0.0039684674723487051 0 0.0043452819355493623 0.004422050676091578 0 0.0075719713189157786 0.0022334100426898182 0 0.0060333038300062133 0.0034168123266288403 0 0.0050659557666323657 0.0046025450400491302 0 0.004350720901268367 0.0046416823270776942 0 0.0043452819355493623 0.004422050676091578 0 0.0078041308734350294 0.0016954749674163428 0 0.0076486121416113554 0.001804097057126301 0 0.0072831769998015312 0.0015196800575740857 0 0.0078139939660779832 0.0017889461929692964 0 0.0076486121416113554 0.001804097057126301 0 0.0078283767272340522 0.0022280123029120745 0 0.0076486121416113554 0.001804097057126301 0 0.0072905713789110432 0.0018859522550515814 0 0.0075256644899849533 0.0020416830732604644 0 0.007803935832201455 0.0017922427682864896 0 0.0078041308734350294 0.0016954749674163428 0 0.0076486121416113554 0.001804097057126301 0 0.0075719713189157786 0.0022334100426898182 0 0.0077120705057709526 0.002038406059735686 0 0.0060333038300062133 0.0034168123266288403 0 0.0055572833334764267 0.0025664995606872092 0 0.0030538246549862325 0.0029981311779679041 0 0.0042638490142780233 0.0039418495765012745 0 0.001478957155854119 0.0033697464067261739 0 0.0029559586212184407 0.0033528211005610562 0 0.0037551122234484075 0.0045101535728262103 0 0.005312941701481973 0.0034938095484203643 0 0.0053138012623940752 0.0042691115073678534 0 0.0032882492730215603 0.0036118272498779328 0 0.0035625984451693052 0.0026399754881113527 0 0.005312941701481973 0.0034938095484203643 0 0.0032882492730215603 0.0036118272498779328 0 0.0024037663823037697 0.0027765106223300389 0 0.0035625984451693052 0.0026399754881113527 0 0.0032882492730215603 0.0036118272498779328 0 0.0072831769998015312 0.0015196800575740857 0 0.0072905713789110432 0.0018859522550515814 0 0.0069142045604466676 0.0017210101393841681 0 0.0076486121416113554 0.001804097057126301 0 0.0072831769998015312 0.0015196800575740857 0 0.0072905713789110432 0.0018859522550515814 0 0.0072905713789110432 0.0018859522550515814 0 0.0069142045604466676 0.0017210101393841681 0 0.0068490465738328754 0.0022669099529712103 0 0.0067480790047479266 0.0013524767177137316 0 0.0072831769998015312 0.0015196800575740857 0 0.0069142045604466676 0.0017210101393841681 0 0.001242560011049394 0.0029464542628079597 0 0.0024037663823037697 0.0027765106223300389 0 0.0032882492730215603 0.0036118272498779328 0 0.0031191972642135558 0.0020385233997412869 0 0.0055572833334764267 0.0025664995606872092 0 0.0113967392005096 0.00098370126645574442 0 0.01411952504990361 0.00026006482712320533 0 0.01582041015512085 -0.00058139616274087804 0 0.015842492081566274 -0.00056600813234326157 0 0.015707469776140025 -0.00052623267826903974 0 0.0113967392005096 0.00098370126645574442 0 0.0088889956839167585 0.0017230241375098378 0 0.0072905713789110432 0.0018859522550515814 0 0.0068490465738328754 0.0022669099529712103 0 0.0073353114960128208 0.0022488013998590208 0 0.0072905713789110432 0.0018859522550515814 0 0.0073353114960128208 0.0022488013998590208 0 0.0075256644899849533 0.0020416830732604644 0 0.011411978031744206 0.0010836582787455188 0 0.011531695455124428 0.0010985106228552771 0 0.011536260373871685 0.0011276052175207692 0 0.017331420953910326 -0.00040780590951042581 0 0.018639038106760233 -0.00010118946277752382 0 0.01799836112198017 0.00013433465069173561 0 0.01582041015512085 -0.00058139616274087804 0 0.015707469776140025 -0.00052623267826903974 0 0.015687650357092551 -0.00058696797204187698 0 0.016536122605523604 -0.00048029416737486454 0 0.017242997197147291 -0.00034477523870018887 0 0.011536260373871685 0.0011276052175207692 0 0.011651812227417967 0.0011007052595535969 0 0.011660769623025913 0.001156791550211034 0 0.015707469776140025 -0.00052623267826903974 0 0.015687650357092551 -0.00058696797204187698 0 0.015519572213450282 -0.00053998211986438984 0 0.017242997197147291 -0.00034477523870018887 0 0.016768494984047741 3.8838399401795047e-05 0 0.015687650357092551 -0.00058696797204187698 0 0.015519572213450282 -0.00053998211986438984 0 0.015524351979976043 -0.00059817317137699074 0 0.01411952504990361 0.00026006482712320533 0 0.013222092274111955 0.00050541279401247958 0 0.0073353114960128208 0.0022488013998590208 0 0.0075256644899849533 0.0020416830732604644 0 0.0078283767272340522 0.0022280123029120745 0 0.0076486121416113554 0.001804097057126301 0 0.0075256644899849533 0.0020416830732604644 0 0.0078283767272340522 0.0022280123029120745 0 0.011531695455124428 0.0010985106228552771 0 0.011536260373871685 0.0011276052175207692 0 0.011651812227417967 0.0011007052595535969 0 0.0088889956839167585 0.0017230241375098378 0 0.01015208930376075 0.0019698189708757534 0 0.010547115411561598 0.0025501549808138067 0 0.010580993232674423 0.0015993888242967131 0 0.010362169802156103 0.0018304452525767442 0 0.010547115411561598 0.0025501549808138067 0 0.010362169802156103 0.0018304452525767442 0 0.010074891724880334 0.0020780568937992742 0 0.0075719713189157786 0.0022334100426898182 0 0.01015208930376075 0.0019698189708757534 0 0.010580993232674423 0.0015993888242967131 0 0.010342688145141422 0.0016057711997425105 0 0.010363700193122704 0.0013986561050717541 0 0.010580993232674423 0.0015993888242967131 0 0.010342688145141422 0.0016057711997425105 0 0.010362169802156103 0.0018304452525767442 0 0.010362169802156103 0.0018304452525767442 0 0.010074891724880334 0.0020780568937992742 0 0.010092046225410305 0.0015931919662320495 0 0.010342688145141422 0.0016057711997425105 0 0.010362169802156103 0.0018304452525767442 0 0.010092046225410305 0.0015931919662320495 0 0.010342688145141422 0.0016057711997425105 0 0.010092046225410305 0.0015931919662320495 0 0.010363700193122704 0.0013986561050717541 0 0.010092046225410305 0.0015931919662320495 0 0.010363700193122704 0.0013986561050717541 0 0.010032811155729231 0.00096311701093299766 0 0.010363700193122704 0.0013986561050717541 0 0.010600104590954475 0.0010764386257619185 0 0.010032811155729231 0.00096311701093299766 0 0.01015208930376075 0.0019698189708757534 0 0.013222092274111955 0.00050541279401247958 0 0.010580993232674423 0.0015993888242967131 0 0.010363700193122704 0.0013986561050717541 0 0.010600104590954475 0.0010764386257619185 0 0.014854777944356834 0.00057999010818798674 0 0.014704032302630678 0.00043734821907444896 0 0.014860809810828884 0.00046024487937014268 0 0.013222092274111955 0.00050541279401247958 0 0.016768494984047741 3.8838399401795047e-05 0 0.013222092274111955 0.00050541279401247958 0 0.012936396691398198 0.0010087375357285939 0 0.014854777944356834 0.00057999010818798674 0 0.014649621893275752 0.00054150309443861614 0 0.014704032302630678 0.00043734821907444896 0 0.01370840263250781 0.00034549764318060253 0 0.013884055160549085 -1.0636974980215138e-05 0 0.013400196143768221 0.00028222569895758478 0 0.012936396691398198 0.0010087375357285939 0 0.016312985632797958 1.1929446796780194e-05 0 0.01877249033906447 1.7677107917189301e-05 0 0.018983934149855837 -0.00040362751579875884 0 0.018398119992603851 -0.00012162221611856232 0 0.016312985632797958 1.1929446796780194e-05 0 0.020879321806375067 5.8186329648214231e-05 0 0.017905685613017471 6.6965516074197787e-05 0 0.018165638958947936 -0.00010959456004396949 0 0.018124994928988315 -0.00037306197372298137 0 0.01834256446441819 0.00013334090948254125 0 0.018165638958947936 -0.00010959456004396949 0 0.01835486226520569 -0.00043394594689863484 0 0.016312985632797958 1.1929446796780194e-05 0 0.016768494984047741 3.8838399401795047e-05 0 0.017905685613017471 6.6965516074197787e-05 0 0.01834256446441819 0.00013334090948254125 0 0.018165638958947936 -0.00010959456004396949 0 0.019158235903048874 0.00017879448463976354 0 0.019051110323629647 0.00043263382803530967 0 0.01903168025768575 0.00030943630514567995 0 0.016768494984047741 3.8838399401795047e-05 0 0.019493844119248711 0.00015037346096916394 0 0.018165638958947936 -0.00010959456004396949 0 0.01835486226520569 -0.00043394594689863484 0 0.018124994928988315 -0.00037306197372298137 0 0.019493844119248711 0.00015037346096916394 0 0.020879321806375067 5.8186329648214231e-05 0 0.025329837419237354 0.0016347667480682538 0 0.025271521116173621 0.0016834388998380771 0 0.025377190637151031 0.0016566349638800022 0 0.026528843528047456 0.0012079038797118791 0 0.026081727220877215 0.0014336831004030061 0 0.026381050875964415 0.0011209164003098252 0 0.025309293561585417 0.0015852498756130373 0 0.025329837419237354 0.0016347667480682538 0 0.025389942550848976 0.001625034117506469 0 0.024960408809904799 0.0010824772283313923 0 0.025863265361903868 0.0015083275876526954 0 0.023199900789905314 0.00055881139266617961 0 0.023194602631777493 0.0011329295778778827 0 0.023512209536148958 0.0004731322380270755 0 0.025329837419237354 0.0016347667480682538 0 0.025271521116173621 0.0016834388998380771 0 0.025270009228766283 0.001643596841206734 0 0.024960408809904799 0.0010824772283313923 0 0.022408378531990923 0.00092066324805567307 0 0.025309293561585417 0.0015852498756130373 0 0.025329837419237354 0.0016347667480682538 0 0.025270009228766283 0.001643596841206734 0 0.020879321806375067 5.8186329648214231e-05 0 0.022408378531990923 0.00092066324805567307 0 0.019303123846921819 0.00028157031803527382 0 0.019309931302217569 0.00047472013508120564 0 0.019209509246497863 0.00047776129921637433 0 0.021215462417530043 0.0006328651484360816 0 0.021143029805980006 0.00065166667958685388 0 0.021221625619095894 0.00050155314111102549 0 0.019493844119248711 0.00015037346096916394 0 0.022408378531990923 0.00092066324805567307 0 0.019303123846921819 0.00028157031803527382 0 0.018996309009185693 0.00051937975108635038 0 0.018752228859188404 0.00049491492133618795 0 0.019493844119248711 0.00015037346096916394 0 0.018629828248557745 0.00055858473266179375 0 0.019229025868586262 0.00062806228583722908 0 0.018996309009185693 0.00051937975108635038 0 0.018876460462829651 0.00066217050520347553 0 0.019303123846921819 0.00028157031803527382 0 0.019209509246497863 0.00047776129921637433 0 0.018996309009185693 0.00051937975108635038 0 0.019209509246497863 0.00047776129921637433 0 0.019229025868586262 0.00062806228583722908 0 0.018996309009185693 0.00051937975108635038 0 0.019309931302217569 0.00047472013508120564 0 0.019209509246497863 0.00047776129921637433 0 0.019229025868586262 0.00062806228583722908 0 0.022408378531990923 0.00092066324805567307 0 0.02344674106429212 0.0010126337886503601 0 0.024960408809904799 0.0010824772283313923 0 0.02344674106429212 0.0010126337886503601 0 0.019051110323629647 0.00043263382803530967 0 0.018902624328919138 0.00039930924745517477 0 0.018752228859188404 0.00049491492133618795 0 0.018639038106760233 -0.00010118946277752382 0 0.019158235903048874 0.00017879448463976354 0 0.018905063576592343 0.00024788267871426588 0 0.018902624328919138 0.00039930924745517477 0 0.018905063576592343 0.00024788267871426588 0 0.018779501930110673 0.00043080144737573858 0 0.019051110323629647 0.00043263382803530967 0 0.018902624328919138 0.00039930924745517477 0 0.01903168025768575 0.00030943630514567995 0 0.018902624328919138 0.00039930924745517477 0 0.01903168025768575 0.00030943630514567995 0 0.018905063576592343 0.00024788267871426588 0 0.019158235903048874 0.00017879448463976354 0 0.01903168025768575 0.00030943630514567995 0 0.018905063576592343 0.00024788267871426588 0 0.018639038106760233 -0.00010118946277752382 0 0.018905063576592343 0.00024788267871426588 0 0.018779501930110673 0.00043080144737573858 0 0.01799836112198017 0.00013433465069173561 0 0.018779501930110673 0.00043080144737573858 0 0.017156885040104146 0.0006006057259416032 0 0.018902624328919138 0.00039930924745517477 0 0.018779501930110673 0.00043080144737573858 0 0.018752228859188404 0.00049491492133618795 0 0.018721744872326068 0.00046214686743570939 0 0.017909867382612413 0.00051083612366321918 0 0.018779501930110673 0.00043080144737573858 0 0.018728483446218115 0.0004891982512944935 0 0.018703940942305642 0.00047162552684476805 0 0.018639038106760233 -0.00010118946277752382 0 0.01799836112198017 0.00013433465069173561 0 0.018779501930110673 0.00043080144737573858 0 0.018779501930110673 0.00043080144737573858 0 0.018752228859188404 0.00049491492133618795 0 0.018728483446218115 0.0004891982512944935 0 0.018996309009185693 0.00051937975108635038 0 0.018752228859188404 0.00049491492133618795 0 0.018876460462829651 0.00066217050520347553 0 0.018752228859188404 0.00049491492133618795 0 0.018763125539350275 0.000586080964172499 0 0.018876460462829651 0.00066217050520347553 0 0.018752228859188404 0.00049491492133618795 0 0.018728483446218115 0.0004891982512944935 0 0.018715883009228166 0.00053941665313396046 0 0.018752228859188404 0.00049491492133618795 0 0.018715883009228166 0.00053941665313396046 0 0.018763125539350275 0.000586080964172499 0 0.018715883009228166 0.00053941665313396046 0 0.018763125539350275 0.000586080964172499 0 0.018730021485066278 0.00058037110325120293 0 0.018728483446218115 0.0004891982512944935 0 0.018715883009228166 0.00053941665313396046 0 0.018692719244409878 0.00050716346113933183 0 0.018669616539494765 0.00053385234469082788 0 0.018715883009228166 0.00053941665313396046 0 0.018692719244409878 0.00050716346113933183 0 0.01866366225643069 0.00050314455111020529 0 0.018692719244409878 0.00050716346113933183 0 0.018703940942305642 0.00047162552684476805 0 0.018728483446218115 0.0004891982512944935 0 0.018692719244409878 0.00050716346113933183 0 0.018703940942305642 0.00047162552684476805 0 0.017331420953910326 -0.00040780590951042581 0 0.01799836112198017 0.00013433465069173561 0 0.017156885040104146 0.0006006057259416032 0 0.016514986913493648 6.7856893792745012e-06 0 0.017331420953910326 -0.00040780590951042581 0 0.017156885040104146 0.0006006057259416032 0 0.016662557245558499 0.00020527382187133492 0 0.017267538574834242 0.00037127947863331378 0 0.017818299321788911 -9.5965264552977893e-05 0 0.016927220390173799 0.00062308756478044716 0 0.016634275809376778 0.00037709232009963645 0 0.016670722072225301 0.00091076351464746254 0 0.016927220390173799 0.00062308756478044716 0 0.016662557245558499 0.00020527382187133492 0 0.017267538574834242 0.00037127947863331378 0 0.016927220390173799 0.00062308756478044716 0 0.016634275809376778 0.00037709232009963645 0 0.016662557245558499 0.00020527382187133492 0 0.018867131208199051 0.00086039695049815038 0 0.019247949247652604 0.0011276488724350992 0 0.019247949247652604 0.0011276488724350992 0 0.013984200967548727 -0.00094877940193457792 0 0.012684008951433963 -0.0023877401420571904 0 0.012254044450360074 -0.0015276531574516603 0 0.013126795035075727 -0.0015876461351017068 0 0.016634275809376778 0.00037709232009963645 0 0.016660346678872003 0.00020723978741177439 0 0.016326816903819482 0.00029006160135709421 0 0.016634275809376778 0.00037709232009963645 0 0.016326816903819482 0.00029006160135709421 0 0.016670722072225301 0.00091076351464746254 0 0.013984200967548727 -0.00094877940193457792 0 0.014922519003921029 -0.0002648364518148979 0 0.012773421413650938 -0.00088250293177795261 0 0.012254044450360074 -0.0015276531574516603 0 0.013126795035075727 -0.0015876461351017068 0 0.012085723421725683 -0.0008896208125530506 0 0.012773421413650938 -0.00088250293177795261 0 0.012254044450360074 -0.0015276531574516603 0 0.016998840681138879 0.0015319800160416451 0 0.016927220390173799 0.00062308756478044716 0 0.016670722072225301 0.00091076351464746254 0 0.016998840681138879 0.0015319800160416451 0 0.016927220390173799 0.00062308756478044716 0 0.01766291250146465 0.00075120610593949365 0 0.013575855380830519 0.00099675486887823616 0 0.014922519003921029 -0.0002648364518148979 0 0.01356223732066129 -0.00078333916078025443 0 0.012773421413650938 -0.00088250293177795261 0 0.013126795035075727 -0.0015876461351017068 0 0.012387192826496349 0.0018158115272109362 0 0.013173841808159449 0.0013681534040003835 0 0.012491265704496778 0.00092901141163636246 0 0.013575855380830519 0.00099675486887823616 0 0.015154890910804072 0.00088026556900570418 0 0.012387192826496349 0.0018158115272109362 0 0.011672761145900419 0.00193669495730643 0 0.012491265704496778 0.00092901141163636246 0 0.010074891724880334 0.0020780568937992742 0 0.010092046225410305 0.0015931919662320495 0 0.0096004812531381295 0.0018211218575165848 0 0.013173841808159449 0.0013681534040003835 0 0.013174878852542468 0.0006294573578479179 0 0.012491265704496778 0.00092901141163636246 0 0.012936396691398198 0.0010087375357285939 0 0.011524311595647849 0.0014115438890667667 0 0.010092046225410305 0.0015931919662320495 0 0.010032811155729231 0.00096311701093299766 0 0.0096004812531381295 0.0018211218575165848 0 0.01766291250146465 0.00075120610593949365 0 0.017818299321788911 -9.5965264552977893e-05 0 0.018338103154296403 -4.8634005210633224e-05 0 0.015154890910804072 0.00088026556900570418 0 0.015850083400335415 0.00017394939493532469 0 0.013174878852542468 0.0006294573578479179 0 0.012491265704496778 0.00092901141163636246 0 0.013322243779882142 -9.0848351819845685e-05 0 0.013690135592989839 0.00034159477588952941 0 0.013173841808159449 0.0013681534040003835 0 0.013174878852542468 0.0006294573578479179 0 0.013690135592989839 0.00034159477588952941 0 0.013174878852542468 0.0006294573578479179 0 0.013400196143768221 0.00028222569895758478 0 0.013174878852542468 0.0006294573578479179 0 0.013400196143768221 0.00028222569895758478 0 0.013322243779882142 -9.0848351819845685e-05 0 0.012936396691398198 0.0010087375357285939 0 0.013253463022775587 0.00086138238798198861 0 0.016927220390173799 0.00062308756478044716 0 0.01766291250146465 0.00075120610593949365 0 0.017267538574834242 0.00037127947863331378 0 0.01766291250146465 0.00075120610593949365 0 0.017267538574834242 0.00037127947863331378 0 0.017818299321788911 -9.5965264552977893e-05 0 0.025412452839471883 0.0016807264384523408 0 0.025389942550848976 0.001625034117506469 0 0.025441887959123083 0.0015662399598750385 0 0.025412452839471883 0.0016807264384523408 0 0.025441887959123083 0.0015662399598750385 0 0.02523042935898348 0.0016445189176264444 0 0.018983934149855837 -0.00040362751579875884 0 0.017818299321788911 -9.5965264552977893e-05 0 0.018398119992603851 -0.00012162221611856232 0 0.020879321806375067 5.8186329648214231e-05 0 0.022185616317522111 0.00079392228756667627 0 0.025309293561585417 0.0015852498756130373 0 0.025412452839471883 0.0016807264384523408 0 0.025389942550848976 0.001625034117506469 0 0.01877249033906447 1.7677107917189301e-05 0 0.018338117845597881 -4.8810063433440651e-05 0 0.018398119992603851 -0.00012162221611856232 0 0.013884055160549085 -1.0636974980215138e-05 0 0.013400196143768221 0.00028222569895758478 0 0.013322243779882142 -9.0848351819845685e-05 0 0.016312985632797958 1.1929446796780194e-05 0 0.015850083400335415 0.00017394939493532469 0 0.015850083400335415 0.00017394939493532469 0 0.016096175686102086 -5.4122936047450933e-06 0 0.017818299321788911 -9.5965264552977893e-05 0 0.018338103154296403 -4.8634005210633224e-05 0 0.018398119992603851 -0.00012162221611856232 0 0.026081727220877215 0.0014336831004030061 0 0.025441887959123083 0.0015662399598750385 0 0.025962869781959778 0.0011458278549017315 0 0.025863265361903868 0.0015083275876526954 0 0.025422156238963971 0.0015888056040852196 0 0.025389942550848976 0.001625034117506469 0 0.025377190637151031 0.0016566349638800022 0 0.025441887959123083 0.0015662399598750385 0 0.025329837419237354 0.0016347667480682538 0 0.025389942550848976 0.001625034117506469 0 0.025377190637151031 0.0016566349638800022 0 0.025441887959123083 0.0015662399598750385 0 0.02503675155901899 0.0013875554627399529 0 0.025334201409138463 0.0011600154871004621 0 0.025441887959123083 0.0015662399598750385 0 0.02503675155901899 0.0013875554627399529 0 0.02523042935898348 0.0016445189176264444 0 0.015366246592037711 0.00070026104205626319 0 0.015595632305653242 -0.0011367737950522649 0 0.014838892428116006 -0.00020941884259094022 0 0.019247949247652604 0.0011276488724350992 0 0.020432315965944147 0.0001513077912912752 0 0.019247949247652604 0.0011276488724350992 0 0.022185616317522111 0.00079392228756667627 0 0.024961920022968376 0.0018926848748587162 0 0.02503675155901899 0.0013875554627399529 0 0.02523042935898348 0.0016445189176264444 0 0.024961920022968376 0.0018926848748587162 0 0.025412452839471883 0.0016807264384523408 0 0.02523042935898348 0.0016445189176264444 0 0.01393804554630286 -0.00073911928055571711 0 0.014863371764519254 0.00082133646655815147 0 0.014838892428116006 -0.00020941884259094022 0 0.015366246592037711 0.00070026104205626319 0 0.014863371764519254 0.00082133646655815147 0 0.014838892428116006 -0.00020941884259094022 0 0.012995399227302872 -0.0020328375503342309 0 0.013984200967548727 -0.00094877940193457792 0 0.01393804554630286 -0.00073911928055571711 0 0.015595632305653242 -0.0011367737950522649 0 0.01454773536738896 -0.002073816764025307 0 0.01393804554630286 -0.00073911928055571711 0 0.015595632305653242 -0.0011367737950522649 0 0.014838892428116006 -0.00020941884259094022 0 0.015728780132795911 -0.0026978785487985473 0 0.015185884060281598 -0.0032829023437705909 0 0.014226401178697459 -0.0029640642437633678 0 0.01454773536738896 -0.002073816764025307 0 0.015728780132795911 -0.0026978785487985473 0 0.014226401178697459 -0.0029640642437633678 0 0.020432315965944147 0.0001513077912912752 0 0.020493461858663756 -0.00099503526550250411 0 0.015595632305653242 -0.0011367737950522649 0 0.01454773536738896 -0.002073816764025307 0 0.015728780132795911 -0.0026978785487985473 0 0.02503675155901899 0.0013875554627399529 0 0.025172778111540305 0.00065468214485930193 0 0.025334201409138463 0.0011600154871004621 0 0.025441887959123083 0.0015662399598750385 0 0.025671120694948698 0.0010093751242146556 0 0.025962869781959778 0.0011458278549017315 0 0.025441887959123083 0.0015662399598750385 0 0.025334201409138463 0.0011600154871004621 0 0.025671120694948698 0.0010093751242146556 0 0.025172778111540305 0.00065468214485930193 0 0.025334201409138463 0.0011600154871004621 0 0.025671120694948698 0.0010093751242146556 0 0.025962869781959778 0.0011458278549017315 0 0.02622396524665067 0.00095652941431420286 0 0.026232739639037484 0.0011147975713818033 0 0.026081727220877215 0.0014336831004030061 0 0.025962869781959778 0.0011458278549017315 0 0.026232739639037484 0.0011147975713818033 0 0.025671120694948698 0.0010093751242146556 0 0.025962869781959778 0.0011458278549017315 0 0.026009858838555926 0.00088020069303940075 0 0.026009858838555926 0.00088020069303940075 0 0.02622396524665067 0.00095652941431420286 0 0.026235548763836016 0.00075315106795405609 0 0.025962869781959778 0.0011458278549017315 0 0.026009858838555926 0.00088020069303940075 0 0.02622396524665067 0.00095652941431420286 0 0.025671120694948698 0.0010093751242146556 0 0.026009858838555926 0.00088020069303940075 0 0.025868558270739413 0.00056942404402141001 0 0.026009858838555926 0.00088020069303940075 0 0.026235548763836016 0.00075315106795405609 0 0.025868558270739413 0.00056942404402141001 0 0.026235548763836016 0.00075315106795405609 0 0.025868558270739413 0.00056942404402141001 0 0.026315369682822668 0.00049067179155482356 0 0.025172778111540305 0.00065468214485930193 0 0.025671120694948698 0.0010093751242146556 0 0.025868558270739413 0.00056942404402141001 0 0.025172778111540305 0.00065468214485930193 0 0.025868558270739413 0.00056942404402141001 0 0.025336076948955757 -0.00011338371053645125 0 0.025868558270739413 0.00056942404402141001 0 0.026174438390766046 0.00021561040919325242 0 0.025336076948955757 -0.00011338371053645125 0 0.026174438390766046 0.00021561040919325242 0 0.026315369682822668 0.00049067179155482356 0 0.026552437336839024 0.00015885958334569298 0 0.025868558270739413 0.00056942404402141001 0 0.026174438390766046 0.00021561040919325242 0 0.026315369682822668 0.00049067179155482356 0 0.026174438390766046 0.00021561040919325242 0 0.026198171287904165 -0.00016774590949195212 0 0.026552437336839024 0.00015885958334569298 0 0.026174438390766046 0.00021561040919325242 0 0.026198171287904165 -0.00016774590949195212 0 0.025336076948955757 -0.00011338371053645125 0 0.026198171287904165 -0.00016774590949195212 0 0.025336076948955757 -0.00011338371053645125 0 0.026097176422634615 -0.00082430458304084508 0 0.015948283293387874 -0.0035845414446564767 0 0.015320748984039725 -0.0036494736294796111 0 0.015185884060281598 -0.0032829023437705909 0 0.015948283293387874 -0.0035845414446564767 0 0.015320748984039725 -0.0036494736294796111 0 0.015791220769225338 -0.0037960080379347031 0 0.015320748984039725 -0.0036494736294796111 0 0.015386377114627389 -0.0038361969423770727 0 0.015791220769225338 -0.0037960080379347031 0 0.015320748984039725 -0.0036494736294796111 0 0.015386377114627389 -0.0038361969423770727 0 0.01489416967890434 -0.003819423099196491 0 0.015320748984039725 -0.0036494736294796111 0 0.01489416967890434 -0.003819423099196491 0 0.014581181704546422 -0.0034075070777676792 0 0.015185884060281598 -0.0032829023437705909 0 0.014581181704546422 -0.0034075070777676792 0 0.014226401178697459 -0.0029640642437633678 0 0.015320748984039725 -0.0036494736294796111 0 0.015185884060281598 -0.0032829023437705909 0 0.014581181704546422 -0.0034075070777676792 0 0.020493461858663756 -0.00099503526550250411 0 0.020252558679967968 -0.0019658788680313169 0 0.015728780132795911 -0.0026978785487985473 0 0.015948283293387874 -0.0035845414446564767 0 0.015185884060281598 -0.0032829023437705909 0 0.025577264008230783 0.0010248571119193044 0 0.025579549390770805 0.0007157323257540127 0 0.02580306343284771 0.00087867616084933353 0 0.025577264008230783 0.0010248571119193044 0 0.02580306343284771 0.00087867616084933353 0 0.025722045032144071 0.0011509451903198005 0 0.025365241722133922 0.0010614686807010087 0 0.025577264008230783 0.0010248571119193044 0 0.025579549390770805 0.0007157323257540127 0 0.018690994861783793 0.00057502777966271805 0 0.01872590699811669 0.00061090308259838732 0 0.018718698211400112 0.00059374223329559407 0 0.018690994861783793 0.00057502777966271805 0 0.018718698211400112 0.00059374223329559407 0 0.018730021485066278 0.00058037110325120293 0 0.018690994861783793 0.00057502777966271805 0 0.018715883009228166 0.00053941665313396046 0 0.018730021485066278 0.00058037110325120293 0 0.01872590699811669 0.00061090308259838732 0 0.018718698211400112 0.00059374223329559407 0 0.018730021485066278 0.00058037110325120293 0 0.01872590699811669 0.00061090308259838732 0 0.018763125539350275 0.000586080964172499 0 0.018730021485066278 0.00058037110325120293 0 0.025579549390770805 0.0007157323257540127 0 0.025888070641204564 0.00061453771300462048 0 0.02580306343284771 0.00087867616084933353 0 0.01872590699811669 0.00061090308259838732 0 0.018763125539350275 0.000586080964172499 0 0.018876460462829651 0.00066217050520347553 0 0.022305127130097753 0.00047279950023562938 0 0.022252095344599779 0.00065384046855994262 0 0.025888070641204564 0.00061453771300462048 0 0.02580306343284771 0.00087867616084933353 0 0.026078149581702292 0.00077421968134253917 0 0.02580306343284771 0.00087867616084933353 0 0.026084449928112624 0.0010110104265522537 0 0.025722045032144071 0.0011509451903198005 0 0.02580306343284771 0.00087867616084933353 0 0.026084449928112624 0.0010110104265522537 0 0.026078149581702292 0.00077421968134253917 0 0.026084449928112624 0.0010110104265522537 0 0.026442118018698734 0.00084568320660043843 0 0.026338095378367378 0.0008607497971521743 0 0.026538248073689128 0.00072347879092550635 0 0.02644729377632115 0.00082860971633161502 0 0.026084449928112624 0.0010110104265522537 0 0.026078149581702292 0.00077421968134253917 0 0.026338095378367378 0.0008607497971521743 0 0.025888070641204564 0.00061453771300462048 0 0.026078149581702292 0.00077421968134253917 0 0.026202070557667604 0.00058008955760512548 0 0.026226146200354839 0.00052255458610317874 0 0.025888070641204564 0.00061453771300462048 0 0.026202070557667604 0.00058008955760512548 0 0.02344674106429212 0.0010126337886503601 0 0.022252095344599779 0.00065384046855994262 0 0.026289511542079695 0.00050355219477530417 0 0.026202070557667604 0.00058008955760512548 0 0.026228392010954438 0.00069399079691703292 0 0.026289511542079695 0.00050355219477530417 0 0.026225274074516126 0.00052371847118612511 0 0.026202070557667604 0.00058008955760512548 0 0.02344674106429212 0.0010126337886503601 0 0.023970084197114726 0.00056770605960964899 0 0.026078149581702292 0.00077421968134253917 0 0.026202070557667604 0.00058008955760512548 0 0.026228392010954438 0.00069399079691703292 0 0.026078149581702292 0.00077421968134253917 0 0.026228392010954438 0.00069399079691703292 0 0.026338095378367378 0.0008607497971521743 0 0.026398683807718301 0.00099576193617576252 0 0.026442118018698734 0.00084568320660043843 0 0.026338095378367378 0.0008607497971521743 0 0.026289511542079695 0.00050355219477530417 0 0.026228392010954438 0.00069399079691703292 0 0.026338095378367378 0.0008607497971521743 0 0.026528843528047456 0.0012079038797118791 0 0.026398683807718301 0.00099576193617576252 0 0.026338095378367378 0.0008607497971521743 0 0.024960408809904799 0.0010824772283313923 0 0.026490614864956942 0.00079499056946376139 0 0.026528843528047456 0.0012079038797118791 0 0.026398683807718301 0.00099576193617576252 0 0.026381050875964415 0.0011209164003098252 0 0.026081727220877215 0.0014336831004030061 0 0.026381050875964415 0.0011209164003098252 0 0.026232739639037484 0.0011147975713818033 0 0.026381050875964415 0.0011209164003098252 0 0.026232739639037484 0.0011147975713818033 0 0.026351223522315111 0.00098865169990672102 0 0.026398683807718301 0.00099576193617576252 0 0.026381050875964415 0.0011209164003098252 0 0.026351223522315111 0.00098865169990672102 0 0.02622396524665067 0.00095652941431420286 0 0.026232739639037484 0.0011147975713818033 0 0.026351223522315111 0.00098865169990672102 0 0.026398683807718301 0.00099576193617576252 0 0.026351223522315111 0.00098865169990672102 0 0.026442118018698734 0.00084568320660043843 0 0.02622396524665067 0.00095652941431420286 0 0.026351223522315111 0.00098865169990672102 0 0.026442118018698734 0.00084568320660043843 0 0.027024933256257738 0.00042343012827719516 0 0.026442118018698734 0.00084568320660043843 0 0.026651532346829925 0.00039986765399719091 0 0.02622396524665067 0.00095652941431420286 0 0.026235548763836016 0.00075315106795405609 0 0.026442118018698734 0.00084568320660043843 0 0.026235548763836016 0.00075315106795405609 0 0.026442118018698734 0.00084568320660043843 0 0.026315369682822668 0.00049067179155482356 0 0.026442118018698734 0.00084568320660043843 0 0.026315369682822668 0.00049067179155482356 0 0.026651532346829925 0.00039986765399719091 0 0.026315369682822668 0.00049067179155482356 0 0.026651532346829925 0.00039986765399719091 0 0.026552437336839024 0.00015885958334569298 0 0.026651532346829925 0.00039986765399719091 0 0.026552437336839024 0.00015885958334569298 0 0.026916151913406773 0.0001223497345343637 0 0.026552437336839024 0.00015885958334569298 0 0.026847901413621245 -0.00014846754204405081 0 0.026916151913406773 0.0001223497345343637 0 0.026198171287904165 -0.00016774590949195212 0 0.026847901413621245 -0.00014846754204405081 0 0.026883088196821718 -0.00046141234262722305 0 0.026198171287904165 -0.00016774590949195212 0 0.026552437336839024 0.00015885958334569298 0 0.026847901413621245 -0.00014846754204405081 0 0.026847901413621245 -0.00014846754204405081 0 0.027067454715097042 -0.00010583083394359385 0 0.026993181301332096 -0.0003024456036831165 0 0.026847901413621245 -0.00014846754204405081 0 0.027067454715097042 -0.00010583083394359385 0 0.026916151913406773 0.0001223497345343637 0 0.027024933256257738 0.00042343012827719516 0 0.026651532346829925 0.00039986765399719091 0 0.026916151913406773 0.0001223497345343637 0 0.027024933256257738 0.00042343012827719516 0 0.026916151913406773 0.0001223497345343637 0 0.027277865638697905 0.00014061521755314737 0 0.026538248073689128 0.00072347879092550635 0 0.026517587341146009 0.00063784724022394477 0 0.027067454715097042 -0.00010583083394359385 0 0.026916151913406773 0.0001223497345343637 0 0.027277865638697905 0.00014061521755314737 0 0.027067454715097042 -0.00010583083394359385 0 0.0272507059586501 -0.00013403010402131575 0 0.027277865638697905 0.00014061521755314737 0 0.027067454715097042 -0.00010583083394359385 0 0.0272507059586501 -0.00013403010402131575 0 0.0270895979832626 -0.00023016383457130938 0 0.027443301291493267 -8.65353390143232e-06 0 0.0272507059586501 -0.00013403010402131575 0 0.027365373480541359 -0.00023562785885785915 0 0.027443301291493267 -8.65353390143232e-06 0 0.0272507059586501 -0.00013403010402131575 0 0.027277865638697905 0.00014061521755314737 0 0.026377030804196691 0.0007035439350377015 0 0.026517587341146009 0.00063784724022394477 0 0.025446096765548914 0.0012532003527867285 0 0.025577264008230783 0.0010248571119193044 0 0.025722045032144071 0.0011509451903198005 0 0.027193981380219348 -0.0003050035101907277 0 0.027114807073236026 -0.00050548306084904275 0 0.027348924969239873 -0.00048802965541016631 0 0.027365373480541359 -0.00023562785885785915 0 0.027193981380219348 -0.0003050035101907277 0 0.027348924969239873 -0.00048802965541016631 0 0.0272507059586501 -0.00013403010402131575 0 0.027365373480541359 -0.00023562785885785915 0 0.027193981380219348 -0.0003050035101907277 0 0.0272507059586501 -0.00013403010402131575 0 0.0270895979832626 -0.00023016383457130938 0 0.027193981380219348 -0.0003050035101907277 0 0.0270895979832626 -0.00023016383457130938 0 0.027022221288295331 -0.00030745695362078987 0 0.027193981380219348 -0.0003050035101907277 0 0.027022221288295331 -0.00030745695362078987 0 0.027193981380219348 -0.0003050035101907277 0 0.027114807073236026 -0.00050548306084904275 0 0.027018922070614362 -0.00031428406735308124 0 0.027001875800220971 -0.00025358734072392233 0 0.027022221288295331 -0.00030745695362078987 0 0.027057438287631016 -0.00013312964223877356 0 0.026885682574836849 -9.2578249301555467e-05 0 0.027022221288295331 -0.00030745695362078987 0 0.027046841891453736 -0.00029492662476389892 0 0.027057438287631016 -0.00013312964223877356 0 0.027046841891453736 -0.00029492662476389892 0 0.027239736160574013 -0.0001129649017452189 0 0.027057438287631016 -0.00013312964223877356 0 0.027022221288295331 -0.00030745695362078987 0 0.026993181301332096 -0.0003024456036831165 0 0.027046841891453736 -0.00029492662476389892 0 0.0270895979832626 -0.00023016383457130938 0 0.027022221288295331 -0.00030745695362078987 0 0.026993181301332096 -0.0003024456036831165 0 0.027067454715097042 -0.00010583083394359385 0 0.0270895979832626 -0.00023016383457130938 0 0.026993181301332096 -0.0003024456036831165 0 0.026883088196821718 -0.00046141234262722305 0 0.027046841891453736 -0.00029492662476389892 0 0.027266882758208336 -0.00022717514830070378 0 0.026847901413621245 -0.00014846754204405081 0 0.026993181301332096 -0.0003024456036831165 0 0.026883088196821718 -0.00046141234262722305 0 0.026993181301332096 -0.0003024456036831165 0 0.026883088196821718 -0.00046141234262722305 0 0.027046841891453736 -0.00029492662476389892 0 0.027046841891453736 -0.00029492662476389892 0 0.027239736160574013 -0.0001129649017452189 0 0.027266882758208336 -0.00022717514830070378 0 0.027239736160574013 -0.0001129649017452189 0 0.027175259110620825 7.375297717685905e-05 0 0.027606267846534062 0.00010976270579414281 0 0.027392491498246886 0.00032055276199002483 0 0.027175259110620825 7.375297717685905e-05 0 0.027606267846534062 0.00010976270579414281 0 0.027392491498246886 0.00032055276199002483 0 0.027037665901724725 0.0002464461520231465 0 0.027175259110620825 7.375297717685905e-05 0 0.028422161429685143 0.00061284382952866729 0 0.029076733343549786 0.00089420862160753635 0 0.027037665901724725 0.0002464461520231465 0 0.027175259110620825 7.375297717685905e-05 0 0.026963714709172141 6.3425026358866245e-05 0 0.027175259110620825 7.375297717685905e-05 0 0.027057438287631016 -0.00013312964223877356 0 0.026963714709172141 6.3425026358866245e-05 0 0.027239736160574013 -0.0001129649017452189 0 0.027175259110620825 7.375297717685905e-05 0 0.027057438287631016 -0.00013312964223877356 0 0.027057438287631016 -0.00013312964223877356 0 0.026885682574836849 -9.2578249301555467e-05 0 0.026963714709172141 6.3425026358866245e-05 0 0.026885682574836849 -9.2578249301555467e-05 0 0.026963714709172141 6.3425026358866245e-05 0 0.026813079828720887 0.0001299170719610471 0 0.027001875800220971 -0.00025358734072392233 0 0.027834976904088243 -0.00019964761406832539 0 0.029076733343549786 0.00089420862160753635 0 0.029969422558460142 -0.00014513923867919898 0 0.031097066012105597 0.0014635962404851571 0 0.032925843916335004 0.0016722358956084967 0 0.032104400336332814 0.00059483524226065299 0 0.027037665901724725 0.0002464461520231465 0 0.026963714709172141 6.3425026358866245e-05 0 0.026836961482273061 0.00015784742447611303 0 0.027037665901724725 0.0002464461520231465 0 0.026836961482273061 0.00015784742447611303 0 0.026793974302584452 0.00020356920004134659 0 0.026836961482273061 0.00015784742447611303 0 0.026820150067045759 0.00013530853134426229 0 0.026793974302584452 0.00020356920004134659 0 0.027834976904088243 -0.00019964761406832539 0 0.029969422558460142 -0.00014513923867919898 0 0.026963714709172141 6.3425026358866245e-05 0 0.026836961482273061 0.00015784742447611303 0 0.026813079828720887 0.0001299170719610471 0 0.02772905495634103 -0.00022488745228323997 0 0.027834976904088243 -0.00019964761406832539 0 0.028479403037694251 -0.00054821857314534851 0 0.028864000776757749 -0.00052903111654319817 0 0.028679034488724327 -0.00067137743650363491 0 0.030337610858874584 -0.00064656642042847903 0 0.031553315776069332 -0.00058312256593194838 0 0.030955461070005522 -0.00024151944584631797 0 0.028899499491489511 -0.0006264262261505652 0 0.028864000776757749 -0.00052903111654319817 0 0.028679034488724327 -0.00067137743650363491 0 0.029458109701026948 -0.00063608532891796339 0 0.029969422558460142 -0.00014513923867919898 0 0.027834976904088243 -0.00019964761406832539 0 0.027995029636956797 -0.00074706546417402538 0 0.028899499491489511 -0.0006264262261505652 0 0.028679034488724327 -0.00067137743650363491 0 0.028668875099889073 -0.00089599386393314799 0 0.027114807073236026 -0.00050548306084904275 0 0.027189383195473482 -0.00067657832925018652 0 0.027348924969239873 -0.00048802965541016631 0 0.02016928602743644 -0.0027936765925456945 0 0.023993436435828398 -0.0019159623795250446 0 0.02564149091345903 -0.00099627303023378357 0 0.026024194543000149 -0.00091935701849618016 0 0.026205121941456928 -0.0012615146166580458 0 0.016080867404522671 -0.0041199491785150755 0 0.015823959102916629 -0.0039484603336150531 0 0.016557027614394496 -0.0039774509797339411 0 0.016080867404522671 -0.0041199491785150755 0 0.015513896794323242 -0.0042482614392653634 0 0.0154608476371496 -0.0039739725123860157 0 0.02016928602743644 -0.0027936765925456945 0 0.021063644189555131 -0.0020194774911622528 0 0.016080867404522671 -0.0041199491785150755 0 0.015823959102916629 -0.0039484603336150531 0 0.0154608476371496 -0.0039739725123860157 0 0.015823959102916629 -0.0039484603336150531 0 0.015386377114627389 -0.0038361969423770727 0 0.0154608476371496 -0.0039739725123860157 0 0.015823959102916629 -0.0039484603336150531 0 0.015386377114627389 -0.0038361969423770727 0 0.015791220769225338 -0.0037960080379347031 0 0.015948283293387874 -0.0035845414446564767 0 0.015791220769225338 -0.0037960080379347031 0 0.016557027614394496 -0.0039774509797339411 0 0.020252558679967968 -0.0019658788680313169 0 0.023993436435828398 -0.0019159623795250446 0 0.015823959102916629 -0.0039484603336150531 0 0.015791220769225338 -0.0037960080379347031 0 0.016557027614394496 -0.0039774509797339411 0 0.025336076948955757 -0.00011338371053645125 0 0.026097176422634615 -0.00082430458304084508 0 0.025465313250896765 -0.00106033455588883 0 0.027341415519984862 -0.00040650354276637092 0 0.023993436435828398 -0.0019159623795250446 0 0.026699442052695335 -0.00056809732107264194 0 0.027341415519984862 -0.00040650354276637092 0 0.026883088196821718 -0.00046141234262722305 0 0.027527297785153153 -0.00042289306274698901 0 0.027266882758208336 -0.00022717514830070378 0 0.026198171287904165 -0.00016774590949195212 0 0.026883088196821718 -0.00046141234262722305 0 0.026097176422634615 -0.00082430458304084508 0 0.027239736160574013 -0.0001129649017452189 0 0.027266882758208336 -0.00022717514830070378 0 0.027554819476239532 -3.1788641266193908e-05 0 0.027527297785153153 -0.00042289306274698901 0 0.027266882758208336 -0.00022717514830070378 0 0.027554819476239532 -3.1788641266193908e-05 0 0.027527297785153153 -0.00042289306274698901 0 0.027554819476239532 -3.1788641266193908e-05 0 0.027885065496928336 -0.00029535567614726287 0 0.027554819476239532 -3.1788641266193908e-05 0 0.027885065496928336 -0.00029535567614726287 0 0.027804428005492508 0.00030404793320587547 0 0.023993436435828398 -0.0019159623795250446 0 0.027751355860981 -0.00039937501495215506 0 0.027554819476239532 -3.1788641266193908e-05 0 0.027804428005492508 0.00030404793320587547 0 0.027606267846534062 0.00010976270579414281 0 0.027239736160574013 -0.0001129649017452189 0 0.027554819476239532 -3.1788641266193908e-05 0 0.027606267846534062 0.00010976270579414281 0 0.028422161429685143 0.00061284382952866729 0 0.028053731389435552 0.00033372867094099941 0 0.027392491498246886 0.00032055276199002483 0 0.027606267846534062 0.00010976270579414281 0 0.027990666597571115 0.00021413065487135098 0 0.027804428005492508 0.00030404793320587547 0 0.027606267846534062 0.00010976270579414281 0 0.027990666597571115 0.00021413065487135098 0 0.026876984703561421 -0.0015393401962814049 0 0.027378120651065738 -0.001518401819274851 0 0.027796231683477383 -0.00072273886774432345 0 0.027804428005492508 0.00030404793320587547 0 0.027990666597571115 0.00021413065487135098 0 0.027796231683477383 -0.00072273886774432345 0 0.027751355860981 -0.00039937501495215506 0 0.02763214554883554 -0.00088229283661529171 0 0.027378120651065738 -0.001518401819274851 0 0.026179247554927215 -0.0015201057309199505 0 0.025937191070214447 -0.0019610195739040285 0 0.026697721947008108 -0.0014457170833964256 0 0.026205121941456928 -0.0012615146166580458 0 0.026179247554927215 -0.0015201057309199505 0 0.027378120651065738 -0.001518401819274851 0 0.026697721947008108 -0.0014457170833964256 0 0.026179247554927215 -0.0015201057309199505 0 0.026876984703561421 -0.0015393401962814049 0 0.027378120651065738 -0.001518401819274851 0 0.026697721947008108 -0.0014457170833964256 0 0.026024194543000149 -0.00091935701849618016 0 0.026876984703561421 -0.0015393401962814049 0 0.026205121941456928 -0.0012615146166580458 0 0.026876984703561421 -0.0015393401962814049 0 0.026697721947008108 -0.0014457170833964256 0 0.026205121941456928 -0.0012615146166580458 0 0.02564149091345903 -0.00099627303023378357 0 0.025539413960334108 -0.0012483468476916601 0 0.024958575083569624 -0.0011266217403505066 0 0.026205121941456928 -0.0012615146166580458 0 0.025539413960334108 -0.0012483468476916601 0 0.026179247554927215 -0.0015201057309199505 0 0.02564149091345903 -0.00099627303023378357 0 0.026205121941456928 -0.0012615146166580458 0 0.025539413960334108 -0.0012483468476916601 0 0.025539413960334108 -0.0012483468476916601 0 0.025614750728496245 -0.0015331599354473453 0 0.026179247554927215 -0.0015201057309199505 0 0.025614750728496245 -0.0015331599354473453 0 0.026179247554927215 -0.0015201057309199505 0 0.025937191070214447 -0.0019610195739040285 0 0.025614750728496245 -0.0015331599354473453 0 0.025401125151594726 -0.0018674177860903232 0 0.025937191070214447 -0.0019610195739040285 0 0.025401125151594726 -0.0018674177860903232 0 0.025130816614801339 -0.0014176360022660278 0 0.024990831556559234 -0.0020507462132030477 0 0.025614750728496245 -0.0015331599354473453 0 0.025401125151594726 -0.0018674177860903232 0 0.025130816614801339 -0.0014176360022660278 0 0.024354621910592351 -0.0016464469758594189 0 0.025130816614801339 -0.0014176360022660278 0 0.024990831556559234 -0.0020507462132030477 0 0.024354621910592351 -0.0016464469758594189 0 0.024990831556559234 -0.0020507462132030477 0 0.02439729289514099 -0.0022429842285892529 0 0.024354621910592351 -0.0016464469758594189 0 0.024528613741407291 -0.0010821968256329022 0 0.023836027668149237 -0.0013052757457182875 0 0.024354621910592351 -0.0016464469758594189 0 0.024528613741407291 -0.0010821968256329022 0 0.025130816614801339 -0.0014176360022660278 0 0.019640780794225023 -0.0024028047861708625 0 0.019362620938739052 -0.0024986274809117195 0 0.019591335421323096 -0.0021014268797336531 0 0.022639597552962964 -0.0015495044513296535 0 0.021063644189555131 -0.0020194774911622528 0 0.024528613741407291 -0.0010821968256329022 0 0.02516039836084014 -0.00092681338385106266 0 0.025130816614801339 -0.0014176360022660278 0 0.025612496513998693 -0.0020698441197574877 0 0.021063644189555131 -0.0020194774911622528 0 0.025539413960334108 -0.0012483468476916601 0 0.02516039836084014 -0.00092681338385106266 0 0.025130816614801339 -0.0014176360022660278 0 0.025539413960334108 -0.0012483468476916601 0 0.025614750728496245 -0.0015331599354473453 0 0.025130816614801339 -0.0014176360022660278 0 0.023063297349866733 -0.0017535009886253522 0 0.023461255543320098 -0.00088092447415465938 0 0.022146598920125344 -0.0018108004319984344 0 0.022561373235203235 -0.0018966619256324535 0 0.023453720778385222 -0.0017725811137488093 0 0.023063297349866733 -0.0017535009886253522 0 0.023984293846019196 -0.0013235066906119219 0 0.023349328671511134 -0.0021717223203059298 0 0.01898159862744082 -0.0022411473065726472 0 0.022561373235203235 -0.0018966619256324535 0 0.023063297349866733 -0.0017535009886253522 0 0.023461255543320098 -0.00088092447415465938 0 0.023984293846019196 -0.0013235066906119219 0 0.022561373235203235 -0.0018966619256324535 0 0.024606563155973253 -0.0022934804045233732 0 0.024354621910592351 -0.0016464469758594189 0 0.023590431200799001 -0.0017061087090971987 0 0.02439729289514099 -0.0022429842285892529 0 0.024354621910592351 -0.0016464469758594189 0 0.023590431200799001 -0.0017061087090971987 0 0.023836027668149237 -0.0013052757457182875 0 0.022561373235203235 -0.0018966619256324535 0 0.019591859361265375 -0.0023588162100575557 0 0.020508201592658364 -0.0021543840686542269 0 0.020439843084301794 -0.0021029874960101754 0 0.020374790125311661 -0.0022055126920614895 0 0.015216206283069978 -0.0028762023185385974 0 0.015231546122887716 -0.002894468594083596 0 0.01520055842935533 -0.0029308419798809121 0 0.019591859361265375 -0.0023588162100575557 0 0.0160873908329312 -0.003108152112591744 0 0.022639597552962964 -0.0015495044513296535 0 0.019591859361265375 -0.0023588162100575557 0 0.01898159862744082 -0.0022411473065726472 0 0.015974701001091281 -0.002881716008551782 0 0.015231546122887716 -0.002894468594083596 0 0.015225414102205483 -0.0029221199575944043 0 0.015266382857867097 -0.0028844781987001941 0 0.015250018434428416 -0.002867626565828126 0 0.015231546122887716 -0.002894468594083596 0 0.015266382857867097 -0.0028844781987001941 0 0.015250018434428416 -0.002867626565828126 0 0.015216206283069978 -0.0028762023185385974 0 0.015231546122887716 -0.002894468594083596 0 0.01898159862744082 -0.0022411473065726472 0 0.019591859361265375 -0.0023588162100575557 0 0.01520849108728028 -0.0029617009958621348 0 0.01520055842935533 -0.0029308419798809121 0 0.015174323983163731 -0.003000532598770673 0 0.015225414102205483 -0.0029221199575944043 0 0.01520849108728028 -0.0029617009958621348 0 0.015243301620609901 -0.0029380794171497342 0 0.015231546122887716 -0.002894468594083596 0 0.015225414102205483 -0.0029221199575944043 0 0.01520055842935533 -0.0029308419798809121 0 0.015225414102205483 -0.0029221199575944043 0 0.01520849108728028 -0.0029617009958621348 0 0.01520055842935533 -0.0029308419798809121 0 0.015216206283069978 -0.0028762023185385974 0 0.01520055842935533 -0.0029308419798809121 0 0.015159420230108073 -0.0029460828361690568 0 0.01520055842935533 -0.0029308419798809121 0 0.015174323983163731 -0.003000532598770673 0 0.015159420230108073 -0.0029460828361690568 0 0.015074487176396529 -0.0031647117865496793 0 0.0160873908329312 -0.003108152112591744 0 0.01528814405347329 -0.0034336924400511165 0 0.015210856142981798 -0.0033518522948605897 0 0.01523932674583103 -0.0034817814088441211 0 0.01528814405347329 -0.0034336924400511165 0 0.01523932674583103 -0.0034817814088441211 0 0.015247305156167913 -0.0035703033574643792 0 0.015174323983163731 -0.003000532598770673 0 0.01524616638415879 -0.0031557563465946701 0 0.015229408285464999 -0.0030187849553014669 0 0.01520849108728028 -0.0029617009958621348 0 0.015174323983163731 -0.003000532598770673 0 0.015229408285464999 -0.0030187849553014669 0 0.01520849108728028 -0.0029617009958621348 0 0.015229408285464999 -0.0030187849553014669 0 0.015243301620609901 -0.0029380794171497342 0 0.015513896794323242 -0.0042482614392653634 0 0.0154608476371496 -0.0039739725123860157 0 0.015070836928993638 -0.0040325119386319984 0 0.019640780794225023 -0.0024028047861708625 0 0.019928091811404824 -0.0023052180353648512 0 0.019591335421323096 -0.0021014268797336531 0 0.021063644189555131 -0.0020194774911622528 0 0.0160873908329312 -0.003108152112591744 0 0.015210856142981798 -0.0033518522948605897 0 0.01523932674583103 -0.0034817814088441211 0 0.015039227342986749 -0.0036932518639303355 0 0.0160873908329312 -0.003108152112591744 0 0.014727922220117278 -0.0039827224464704233 0 0.015070836928993638 -0.0040325119386319984 0 0.015203705650746619 -0.0038038782675489003 0 0.015039227342986749 -0.0036932518639303355 0 0.0154608476371496 -0.0039739725123860157 0 0.015070836928993638 -0.0040325119386319984 0 0.015203705650746619 -0.0038038782675489003 0 0.015386377114627389 -0.0038361969423770727 0 0.0154608476371496 -0.0039739725123860157 0 0.015203705650746619 -0.0038038782675489003 0 0.015386377114627389 -0.0038361969423770727 0 0.015203705650746619 -0.0038038782675489003 0 0.01489416967890434 -0.003819423099196491 0 0.01489416967890434 -0.003819423099196491 0 0.015039227342986749 -0.0036932518639303355 0 0.015247305156167913 -0.0035703033574643792 0 0.01489416967890434 -0.003819423099196491 0 0.013878907776064875 -0.0034713429856697542 0 0.013066001323698275 -0.0037952176136611653 0 0.015203705650746619 -0.0038038782675489003 0 0.01489416967890434 -0.003819423099196491 0 0.015039227342986749 -0.0036932518639303355 0 0.014810186173672819 -0.0038031113788749011 0 0.014186454417747648 -0.0036473003142702114 0 0.01489416967890434 -0.003819423099196491 0 0.013878907776064875 -0.0034713429856697542 0 0.014581181704546422 -0.0034075070777676792 0 0.014581181704546422 -0.0034075070777676792 0 0.013728009074629515 -0.0032271020332804378 0 0.014226401178697459 -0.0029640642437633678 0 0.013728009074629515 -0.0032271020332804378 0 0.014226401178697459 -0.0029640642437633678 0 0.012930658697671901 -0.0030098091750616952 0 0.013878907776064875 -0.0034713429856697542 0 0.014581181704546422 -0.0034075070777676792 0 0.013728009074629515 -0.0032271020332804378 0 0.013105464677459109 -0.0032868666186103572 0 0.012684548491051559 -0.0031309816180960389 0 0.012930658697671901 -0.0030098091750616952 0 0.013728009074629515 -0.0032271020332804378 0 0.013105464677459109 -0.0032868666186103572 0 0.012930658697671901 -0.0030098091750616952 0 0.013878907776064875 -0.0034713429856697542 0 0.013728009074629515 -0.0032271020332804378 0 0.013105464677459109 -0.0032868666186103572 0 0.013105464677459109 -0.0032868666186103572 0 0.013066001323698275 -0.0037952176136611653 0 0.012769274643170875 -0.0032795366718669015 0 0.01523932674583103 -0.0034817814088441211 0 0.015039227342986749 -0.0036932518639303355 0 0.015247305156167913 -0.0035703033574643792 0 0.013878907776064875 -0.0034713429856697542 0 0.013105464677459109 -0.0032868666186103572 0 0.013066001323698275 -0.0037952176136611653 0 0.01528814405347329 -0.0034336924400511165 0 0.015247305156167913 -0.0035703033574643792 0 0.015261613161890146 -0.0033247458719612511 0 0.014186454417747648 -0.0036473003142702114 0 0.013982550418021178 -0.0032242484922799988 0 0.013066001323698275 -0.0037952176136611653 0 0.012638914196002453 -0.0031095571515549103 0 0.012769274643170875 -0.0032795366718669015 0 0.01528814405347329 -0.0034336924400511165 0 0.015261613161890146 -0.0033247458719612511 0 0.01524616638415879 -0.0031557563465946701 0 0.015074487176396529 -0.0031647117865496793 0 0.015317828094798251 -0.0032075760038504835 0 0.012638914196002453 -0.0031095571515549103 0 0.012670412488974832 -0.0031391402163338613 0 0.012910357042610279 -0.0030247047941624246 0 0.012670412488974832 -0.0031391402163338613 0 0.012867098950503088 -0.0031394810271883188 0 0.012910357042610279 -0.0030247047941624246 0 0.012638914196002453 -0.0031095571515549103 0 0.012670412488974832 -0.0031391402163338613 0 0.012769274643170875 -0.0032795366718669015 0 0.012670412488974832 -0.0031391402163338613 0 0.012867098950503088 -0.0031394810271883188 0 0.012576477636541083 -0.0031435386425863647 0 0.013105464677459109 -0.0032868666186103572 0 0.012769274643170875 -0.0032795366718669015 0 0.012684548491051559 -0.0031309816180960389 0 0.012670412488974832 -0.0031391402163338613 0 0.012769274643170875 -0.0032795366718669015 0 0.012684548491051559 -0.0031309816180960389 0 0.012670412488974832 -0.0031391402163338613 0 0.012684548491051559 -0.0031309816180960389 0 0.012576477636541083 -0.0031435386425863647 0 0.012684548491051559 -0.0031309816180960389 0 0.012383303745332979 -0.0030932461267044694 0 0.012576477636541083 -0.0031435386425863647 0 0.012684548491051559 -0.0031309816180960389 0 0.012383303745332979 -0.0030932461267044694 0 0.012930658697671901 -0.0030098091750616952 0 0.012867098950503088 -0.0031394810271883188 0 0.012576477636541083 -0.0031435386425863647 0 0.013058993742062711 -0.0032658285335207663 0 0.012576477636541083 -0.0031435386425863647 0 0.012586676277145579 -0.0032555912556235557 0 0.013058993742062711 -0.0032658285335207663 0 0.012383303745332979 -0.0030932461267044694 0 0.012576477636541083 -0.0031435386425863647 0 0.012586676277145579 -0.0032555912556235557 0 0.012117271236372107 -0.0033835981124715792 0 0.012383303745332979 -0.0030932461267044694 0 0.012586676277145579 -0.0032555912556235557 0 0.011902403596423871 -0.0033449816427832233 0 0.012117271236372107 -0.0033835981124715792 0 0.012383303745332979 -0.0030932461267044694 0 0.011902403596423871 -0.0033449816427832233 0 0.012383303745332979 -0.0030932461267044694 0 0.012811495705847636 -0.0027148423507338164 0 0.012076503814049368 -0.0032482074848840014 0 0.011902403596423871 -0.0033449816427832233 0 0.012811495705847636 -0.0027148423507338164 0 0.012995399227302872 -0.0020328375503342309 0 0.012800674916188604 -0.0026819931523020908 0 0.01393804554630286 -0.00073911928055571711 0 0.01454773536738896 -0.002073816764025307 0 0.012811495705847636 -0.0027148423507338164 0 0.01454773536738896 -0.002073816764025307 0 0.012811495705847636 -0.0027148423507338164 0 0.014226401178697459 -0.0029640642437633678 0 0.012811495705847636 -0.0027148423507338164 0 0.014226401178697459 -0.0029640642437633678 0 0.012930658697671901 -0.0030098091750616952 0 0.012383303745332979 -0.0030932461267044694 0 0.012811495705847636 -0.0027148423507338164 0 0.012930658697671901 -0.0030098091750616952 0 0.014195849898340742 -0.0036215105528056698 0 0.013923372414854548 -0.0033847263564107015 0 0.014715410773185379 -0.0034239162641783254 0 0.014195849898340742 -0.0036215105528056698 0 0.014645907412327189 -0.0037704944932094907 0 0.014715410773185379 -0.0034239162641783254 0 0.014645907412327189 -0.0037704944932094907 0 0.014715410773185379 -0.0034239162641783254 0 0.014926120990217492 -0.0036286670582291779 0 0.014195849898340742 -0.0036215105528056698 0 0.014645907412327189 -0.0037704944932094907 0 0.014390974213379067 -0.0038666025567537033 0 0.014645907412327189 -0.0037704944932094907 0 0.014390974213379067 -0.0038666025567537033 0 0.014636834233144682 -0.0040225065257803883 0 0.013972188056645239 -0.003776021373054069 0 0.014195849898340742 -0.0036215105528056698 0 0.014390974213379067 -0.0038666025567537033 0 0.013972188056645239 -0.003776021373054069 0 0.014195849898340742 -0.0036215105528056698 0 0.013294947336094357 -0.003490630816592281 0 0.012586676277145579 -0.0032555912556235557 0 0.013294947336094357 -0.003490630816592281 0 0.013058993742062711 -0.0032658285335207663 0 0.012117271236372107 -0.0033835981124715792 0 0.012586676277145579 -0.0032555912556235557 0 0.013294947336094357 -0.003490630816592281 0 0.014195849898340742 -0.0036215105528056698 0 0.013294947336094357 -0.003490630816592281 0 0.013923372414854548 -0.0033847263564107015 0 0.013058993742062711 -0.0032658285335207663 0 0.013923372414854548 -0.0033847263564107015 0 0.013357337690374017 -0.0031459674822105388 0 0.013294947336094357 -0.003490630816592281 0 0.013058993742062711 -0.0032658285335207663 0 0.013923372414854548 -0.0033847263564107015 0 0.013923372414854548 -0.0033847263564107015 0 0.013357337690374017 -0.0031459674822105388 0 0.01486949915928174 -0.0030416645967068527 0 0.013357337690374017 -0.0031459674822105388 0 0.013326180782361934 -0.0026483027523186401 0 0.01486949915928174 -0.0030416645967068527 0 0.012867098950503088 -0.0031394810271883188 0 0.013058993742062711 -0.0032658285335207663 0 0.013357337690374017 -0.0031459674822105388 0 0.012867098950503088 -0.0031394810271883188 0 0.013357337690374017 -0.0031459674822105388 0 0.012910357042610279 -0.0030247047941624246 0 0.013357337690374017 -0.0031459674822105388 0 0.012910357042610279 -0.0030247047941624246 0 0.013326180782361934 -0.0026483027523186401 0 0.013982550418021178 -0.0032242484922799988 0 0.014297622556375157 -0.0029147392910918173 0 0.015261613161890146 -0.0033247458719612511 0 0.015250004182847547 -0.0030629077873303187 0 0.01524616638415879 -0.0031557563465946701 0 0.012638914196002453 -0.0031095571515549103 0 0.012910357042610279 -0.0030247047941624246 0 0.013326180782361934 -0.0026483027523186401 0 0.015250004182847547 -0.0030629077873303187 0 0.01524854429092079 -0.003088382261922784 0 0.01524616638415879 -0.0031557563465946701 0 0.014297622556375157 -0.0029147392910918173 0 0.014810246683193556 -0.002996434656035058 0 0.015250004182847547 -0.0030629077873303187 0 0.015137812335840585 -0.0031097084083407775 0 0.01486949915928174 -0.0030416645967068527 0 0.015250004182847547 -0.0030629077873303187 0 0.01524854429092079 -0.003088382261922784 0 0.015137812335840585 -0.0031097084083407775 0 0.015137812335840585 -0.0031097084083407775 0 0.01486949915928174 -0.0030416645967068527 0 0.015842675236177915 -0.0029421242938254578 0 0.01486949915928174 -0.0030416645967068527 0 0.015337947081710006 -0.0032431648046455752 0 0.015842675236177915 -0.0029421242938254578 0 0.013923372414854548 -0.0033847263564107015 0 0.01486949915928174 -0.0030416645967068527 0 0.014715410773185379 -0.0034239162641783254 0 0.01486949915928174 -0.0030416645967068527 0 0.014715410773185379 -0.0034239162641783254 0 0.015337947081710006 -0.0032431648046455752 0 0.014715410773185379 -0.0034239162641783254 0 0.014926120990217492 -0.0036286670582291779 0 0.015337947081710006 -0.0032431648046455752 0 0.015337947081710006 -0.0032431648046455752 0 0.015842675236177915 -0.0029421242938254578 0 0.016070348701389323 -0.0030420820878003982 0 0.015137812335840585 -0.0031097084083407775 0 0.015842675236177915 -0.0029421242938254578 0 0.015359433583973556 -0.0029761454218260571 0 0.015842675236177915 -0.0029421242938254578 0 0.015359433583973556 -0.0029761454218260571 0 0.015330074570792319 -0.002836654795166752 0 0.015930041105565187 -0.0029232657504519644 0 0.016294543982795999 -0.0029801214830562158 0 0.015842675236177915 -0.0029421242938254578 0 0.017133125940872355 -0.0029735610437306133 0 0.016726903582018594 -0.0030637452404945874 0 0.015842675236177915 -0.0029421242938254578 0 0.016070348701389323 -0.0030420820878003982 0 0.016726903582018594 -0.0030637452404945874 0 0.016070348701389323 -0.0030420820878003982 0 0.016726903582018594 -0.0030637452404945874 0 0.016719256900859167 -0.0030651284876963471 0 0.01524854429092079 -0.003088382261922784 0 0.01524616638415879 -0.0031557563465946701 0 0.015229408285464999 -0.0030187849553014669 0 0.01524854429092079 -0.003088382261922784 0 0.015229408285464999 -0.0030187849553014669 0 0.01526130888444216 -0.0030088038555431268 0 0.015229408285464999 -0.0030187849553014669 0 0.01526130888444216 -0.0030088038555431268 0 0.015243301620609901 -0.0029380794171497342 0 0.01524854429092079 -0.003088382261922784 0 0.015137812335840585 -0.0031097084083407775 0 0.01526130888444216 -0.0030088038555431268 0 0.015137812335840585 -0.0031097084083407775 0 0.01526130888444216 -0.0030088038555431268 0 0.015359433583973556 -0.0029761454218260571 0 0.01526130888444216 -0.0030088038555431268 0 0.015359433583973556 -0.0029761454218260571 0 0.015330074570792319 -0.002836654795166752 0 0.01526130888444216 -0.0030088038555431268 0 0.015330074570792319 -0.002836654795166752 0 0.015243301620609901 -0.0029380794171497342 0 0.016294543982795999 -0.0029801214830562158 0 0.015974701001091281 -0.002881716008551782 0 0.015225414102205483 -0.0029221199575944043 0 0.015243301620609901 -0.0029380794171497342 0 0.015266382857867097 -0.0028844781987001941 0 0.015330074570792319 -0.002836654795166752 0 0.015243301620609901 -0.0029380794171497342 0 0.015266382857867097 -0.0028844781987001941 0 0.017434200273625394 -0.0030805575276956869 0 0.017420369454435682 -0.0030570093933273215 0 0.017411503547982387 -0.0030767158515332452 0 0.017420369454435682 -0.0030570093933273215 0 0.017411503547982387 -0.0030767158515332452 0 0.017400033071292301 -0.003114760225292891 0 0.017133125940872355 -0.0029735610437306133 0 0.017400033071292301 -0.003114760225292891 0 0.017493501212675816 -0.003152960975454732 0 0.017133125940872355 -0.0029735610437306133 0 0.017420369454435682 -0.0030570093933273215 0 0.017400033071292301 -0.003114760225292891 0 0.019634261312116368 -0.0022614922755999434 0 0.018231391458944736 -0.002907553212991736 0 0.017400033071292301 -0.003114760225292891 0 0.017400848311063612 -0.003042243952845294 0 0.017493501212675816 -0.003152960975454732 0 0.017400848311063612 -0.003042243952845294 0 0.017493501212675816 -0.003152960975454732 0 0.018301641320897146 -0.0029557726321155957 0 0.023461255543320098 -0.00088092447415465938 0 0.021231997186106924 -0.0015658701287381109 0 0.022146598920125344 -0.0018108004319984344 0 0.01898159862744082 -0.0022411473065726472 0 0.019634261312116368 -0.0022614922755999434 0 0.017434200273625394 -0.0030805575276956869 0 0.017411503547982387 -0.0030767158515332452 0 0.017400848311063612 -0.003042243952845294 0 0.017411503547982387 -0.0030767158515332452 0 0.017400033071292301 -0.003114760225292891 0 0.017400848311063612 -0.003042243952845294 0 0.021231997186106924 -0.0015658701287381109 0 0.022146598920125344 -0.0018108004319984344 0 0.020351839012854093 -0.002989509649527797 0 0.016726903582018594 -0.0030637452404945874 0 0.017458239670873836 -0.0030700580475191918 0 0.016719256900859167 -0.0030651284876963471 0 0.016726903582018594 -0.0030637452404945874 0 0.017493501212675816 -0.003152960975454732 0 0.017458239670873836 -0.0030700580475191918 0 0.017133125940872355 -0.0029735610437306133 0 0.016726903582018594 -0.0030637452404945874 0 0.017493501212675816 -0.003152960975454732 0 0.017493501212675816 -0.003152960975454732 0 0.017458239670873836 -0.0030700580475191918 0 0.018301641320897146 -0.0029557726321155957 0 0.017458239670873836 -0.0030700580475191918 0 0.017270407273205352 -0.0033048093159976197 0 0.016719256900859167 -0.0030651284876963471 0 0.017458239670873836 -0.0030700580475191918 0 0.018240730713695825 -0.0035596857432279661 0 0.017270407273205352 -0.0033048093159976197 0 0.017458239670873836 -0.0030700580475191918 0 0.018240730713695825 -0.0035596857432279661 0 0.018301641320897146 -0.0029557726321155957 0 0.018240730713695825 -0.0035596857432279661 0 0.018301641320897146 -0.0029557726321155957 0 0.019648104821435902 -0.0039734847387702709 0 0.018240730713695825 -0.0035596857432279661 0 0.019682617925233639 -0.0044487055456697054 0 0.019648104821435902 -0.0039734847387702709 0 0.018240730713695825 -0.0035596857432279661 0 0.018281564215794344 -0.0042422082656090989 0 0.019682617925233639 -0.0044487055456697054 0 0.018240730713695825 -0.0035596857432279661 0 0.018281564215794344 -0.0042422082656090989 0 0.017327900455313315 -0.0036877731766261877 0 0.018281564215794344 -0.0042422082656090989 0 0.019861536358294921 -0.0047788549631496901 0 0.019682617925233639 -0.0044487055456697054 0 0.018281564215794344 -0.0042422082656090989 0 0.019861536358294921 -0.0047788549631496901 0 0.01854014461416666 -0.0052870187146367596 0 0.019682617925233639 -0.0044487055456697054 0 0.020494398859303025 -0.004882357389595313 0 0.020549007794432205 -0.00495757298363236 0 0.019861536358294921 -0.0047788549631496901 0 0.019682617925233639 -0.0044487055456697054 0 0.020494398859303025 -0.004882357389595313 0 0.021522016207328132 -0.0048925342565170719 0 0.020578446954997151 -0.0073579785565000546 0 0.028489306467781795 -0.0070116362674397517 0 0.019861536358294921 -0.0047788549631496901 0 0.020494398859303025 -0.004882357389595313 0 0.021522016207328132 -0.0048925342565170719 0 0.020494398859303025 -0.004882357389595313 0 0.021522016207328132 -0.0048925342565170719 0 0.020681618122575667 -0.0048372533296361245 0 0.022156002182958184 -0.0044824593937672986 0 0.028791493303944971 0.0016230943016043518 0 0.021522016207328132 -0.0048925342565170719 0 0.020681618122575667 -0.0048372533296361245 0 0.020557930565421947 -0.0045308291649706397 0 0.021522016207328132 -0.0048925342565170719 0 0.019583514811193466 -0.0058106971639061431 0 0.020578446954997151 -0.0073579785565000546 0 0.019583514811193466 -0.0058106971639061431 0 0.01854014461416666 -0.0052870187146367596 0 0.018214691052668208 -0.0069381490667908214 0 0.019861536358294921 -0.0047788549631496901 0 0.019583514811193466 -0.0058106971639061431 0 0.01854014461416666 -0.0052870187146367596 0 0.019861536358294921 -0.0047788549631496901 0 0.021522016207328132 -0.0048925342565170719 0 0.019583514811193466 -0.0058106971639061431 0 0.026194898390379539 -0.00040399141882251337 0 0.028791493303944971 0.0016230943016043518 0 0.023202914239134634 -0.0040243735843560943 0 0.022610790888369637 -0.0035441570096341555 0 0.022581674782108652 -0.0040541941466186449 0 0.020681618122575667 -0.0048372533296361245 0 0.020549007794432205 -0.00495757298363236 0 0.020557930565421947 -0.0045308291649706397 0 0.020623777267764619 -0.0056763028371150017 0 0.028791493303944971 0.0016230943016043518 0 0.020494398859303025 -0.004882357389595313 0 0.020681618122575667 -0.0048372533296361245 0 0.020549007794432205 -0.00495757298363236 0 0.023202914239134634 -0.0040243735843560943 0 0.022610790888369637 -0.0035441570096341555 0 0.02317969559431559 -0.0035509559274238987 0 0.022610790888369637 -0.0035441570096341555 0 0.023005846156698141 -0.0031071895719012111 0 0.02317969559431559 -0.0035509559274238987 0 0.023005846156698141 -0.0031071895719012111 0 0.022549490907118282 -0.0028748644596426945 0 0.022877629609763431 -0.0024958150070510357 0 0.022610790888369637 -0.0035441570096341555 0 0.023005846156698141 -0.0031071895719012111 0 0.022549490907118282 -0.0028748644596426945 0 0.019682617925233639 -0.0044487055456697054 0 0.020549007794432205 -0.00495757298363236 0 0.019648104821435902 -0.0039734847387702709 0 0.020623777267764619 -0.0056763028371150017 0 0.021918113328487004 -0.0030037634276541096 0 0.020549007794432205 -0.00495757298363236 0 0.020940457282781762 -0.0039808993610772033 0 0.019648104821435902 -0.0039734847387702709 0 0.021231997186106924 -0.0015658701287381109 0 0.018301641320897146 -0.0029557726321155957 0 0.020351839012854093 -0.002989509649527797 0 0.020940457282781762 -0.0039808993610772033 0 0.019648104821435902 -0.0039734847387702709 0 0.020351839012854093 -0.002989509649527797 0 0.018301641320897146 -0.0029557726321155957 0 0.019648104821435902 -0.0039734847387702709 0 0.020351839012854093 -0.002989509649527797 0 0.022101002066469044 -0.0020071565059076504 0 0.021918113328487004 -0.0030037634276541096 0 0.022146598920125344 -0.0018108004319984344 0 0.022549490907118282 -0.0028748644596426945 0 0.022877629609763431 -0.0024958150070510357 0 0.022146598920125344 -0.0018108004319984344 0 0.020940457282781762 -0.0039808993610772033 0 0.020351839012854093 -0.002989509649527797 0 0.023063297349866733 -0.0017535009886253522 0 0.022146598920125344 -0.0018108004319984344 0 0.022877629609763431 -0.0024958150070510357 0 0.023063297349866733 -0.0017535009886253522 0 0.022877629609763431 -0.0024958150070510357 0 0.023349328671511134 -0.0021717223203059298 0 0.02364960466602898 -0.0016842772164009671 0 0.023349328671511134 -0.0021717223203059298 0 0.023867354809200176 -0.0026402569707579594 0 0.022877629609763431 -0.0024958150070510357 0 0.023349328671511134 -0.0021717223203059298 0 0.02332737354372846 -0.0027531081423122694 0 0.023349328671511134 -0.0021717223203059298 0 0.023867354809200176 -0.0026402569707579594 0 0.02332737354372846 -0.0027531081423122694 0 0.02364960466602898 -0.0016842772164009671 0 0.023867354809200176 -0.0026402569707579594 0 0.024448797222881423 -0.0022501481824502689 0 0.023867354809200176 -0.0026402569707579594 0 0.024558991189207249 -0.0029024508993435068 0 0.024157129214844492 -0.0033510224647749698 0 0.023867354809200176 -0.0026402569707579594 0 0.023554568694505867 -0.0032126703081613397 0 0.024157129214844492 -0.0033510224647749698 0 0.023005846156698141 -0.0031071895719012111 0 0.022877629609763431 -0.0024958150070510357 0 0.02332737354372846 -0.0027531081423122694 0 0.023005846156698141 -0.0031071895719012111 0 0.023554568694505867 -0.0032126703081613397 0 0.02332737354372846 -0.0027531081423122694 0 0.023867354809200176 -0.0026402569707579594 0 0.023554568694505867 -0.0032126703081613397 0 0.02332737354372846 -0.0027531081423122694 0 0.025457401191290516 -0.0023342932424124168 0 0.024990831556559234 -0.0020507462132030477 0 0.025213150779979134 -0.0028201617631630218 0 0.025457401191290516 -0.0023342932424124168 0 0.025213150779979134 -0.0028201617631630218 0 0.025843835359576586 -0.0028365826623129638 0 0.025401125151594726 -0.0018674177860903232 0 0.025457401191290516 -0.0023342932424124168 0 0.024990831556559234 -0.0020507462132030477 0 0.024448797222881423 -0.0022501481824502689 0 0.024558991189207249 -0.0029024508993435068 0 0.025213150779979134 -0.0028201617631630218 0 0.024990831556559234 -0.0020507462132030477 0 0.02439729289514099 -0.0022429842285892529 0 0.025213150779979134 -0.0028201617631630218 0 0.024606563155973253 -0.0022934804045233732 0 0.025097050140783859 -0.0027495236444181224 0 0.023867354809200176 -0.0026402569707579594 0 0.024448797222881423 -0.0022501481824502689 0 0.024558991189207249 -0.0029024508993435068 0 0.024558991189207249 -0.0029024508993435068 0 0.024898025857191249 -0.0034164588854724426 0 0.024157129214844492 -0.0033510224647749698 0 0.024558991189207249 -0.0029024508993435068 0 0.025213150779979134 -0.0028201617631630218 0 0.024898025857191249 -0.0034164588854724426 0 0.025213150779979134 -0.0028201617631630218 0 0.024898025857191249 -0.0034164588854724426 0 0.025843835359576586 -0.0028365826623129638 0 0.032019315011508891 -1.5485909358811395e-05 0 0.029759764581568347 -0.0011718557348887073 0 0.030290841835353959 -3.4174103619566068e-05 0 0.0275787900374381 -0.0022273993874072934 0 0.028020591547256689 -0.0017856544790067093 0 0.032019315011508891 -1.5485909358811395e-05 0 0.031713679326449348 0.0013290491927076958 0 0.030290841835353959 -3.4174103619566068e-05 0 0.032019315011508891 -1.5485909358811395e-05 0 0.031713679326449348 0.0013290491927076958 0 0.034211806331967798 0.0017299620849682612 0 0.024898025857191249 -0.0034164588854724426 0 0.024157129214844492 -0.0033510224647749698 0 0.024117008826876778 -0.003988419268153685 0 0.0275787900374381 -0.0022273993874072934 0 0.033396127870794816 0.00079332858294679613 0 0.042750331076890712 0.0021603160245465573 0 0.044380020731751152 0.0015011183484184788 0 0.043822426809379117 0.0028998854223034592 0 0.038117480428733273 0.001391899529582123 0 0.033396127870794816 0.00079332858294679613 0 0.042750331076890712 0.0021603160245465573 0 0.041891012572348771 0.0010598014940212926 0 0.044380020731751152 0.0015011183484184788 0 0.042750331076890712 0.0021603160245465573 0 0.041891012572348771 0.0010598014940212926 0 0.041178591019018995 0.0020743251113685222 0 0.023005846156698141 -0.0031071895719012111 0 0.023554568694505867 -0.0032126703081613397 0 0.02317969559431559 -0.0035509559274238987 0 0.023554568694505867 -0.0032126703081613397 0 0.023630826623997125 -0.0036448729798203325 0 0.02317969559431559 -0.0035509559274238987 0 0.023554568694505867 -0.0032126703081613397 0 0.023630826623997125 -0.0036448729798203325 0 0.024157129214844492 -0.0033510224647749698 0 0.023630826623997125 -0.0036448729798203325 0 0.024157129214844492 -0.0033510224647749698 0 0.024117008826876778 -0.003988419268153685 0 0.044380020731751152 0.0015011183484184788 0 0.045543894224514589 0.0025711643505057927 0 0.043822426809379117 0.0028998854223034592 0 0.033396127870794816 0.00079332858294679613 0 0.039371950302688731 0.0035111461694175526 0 0.023202914239134634 -0.0040243735843560943 0 0.023630826623997125 -0.0036448729798203325 0 0.024117008826876778 -0.003988419268153685 0 0.032088171898808956 0.0040530953325817682 0 0.03286025007357414 0.0040936045012658472 0 0.032522554048683663 0.0038373866918540336 0 0.023202914239134634 -0.0040243735843560943 0 0.023630826623997125 -0.0036448729798203325 0 0.02317969559431559 -0.0035509559274238987 0 0.026194898390379539 -0.00040399141882251337 0 0.033396127870794816 0.00079332858294679613 0 0.039371950302688731 0.0035111461694175526 0 0.040440344910583723 0.0058856314348771166 0 0.045543894224514589 0.0025711643505057927 0 0.045488013721613874 0.0042010378320366127 0 0.04654690231222279 0.003524842613232384 0 0.032088171898808956 0.0040530953325817682 0 0.032522554048683663 0.0038373866918540336 0 0.03215403591122979 0.0034556888908372531 0 0.045543894224514589 0.0025711643505057927 0 0.044537234075813295 0.0038718704293200395 0 0.043822426809379117 0.0028998854223034592 0 0.045543894224514589 0.0025711643505057927 0 0.044537234075813295 0.0038718704293200395 0 0.045488013721613874 0.0042010378320366127 0 0.044537234075813295 0.0038718704293200395 0 0.044354950559789108 0.0051298995704456693 0 0.045488013721613874 0.0042010378320366127 0 0.044209374016119775 0.005370260656762306 0 0.045475786831369498 0.0049576546227168604 0 0.044354950559789108 0.0051298995704456693 0 0.044589991975790638 0.0062912296033053395 0 0.044634651549356669 0.0055424794331336708 0 0.04378818822375824 0.0064543257480495766 0 0.044589991975790638 0.0062912296033053395 0 0.044634651549356669 0.0055424794331336708 0 0.04378818822375824 0.0064543257480495766 0 0.043721934084692507 0.005543431686486155 0 0.044634651549356669 0.0055424794331336708 0 0.045475786831369498 0.0049576546227168604 0 0.040440344910583723 0.0058856314348771166 0 0.04378818822375824 0.0064543257480495766 0 0.044589991975790638 0.0062912296033053395 0 0.043531201796588308 0.0077107308699588496 0 0.042750331076890712 0.0021603160245465573 0 0.041178591019018995 0.0020743251113685222 0 0.042199856251025375 0.0031664317571867889 0 0.042199856251025375 0.0031664317571867889 0 0.041699361069438216 0.0039543611121263776 0 0.040861324923484918 0.0030517064776911735 0 0.041178591019018995 0.0020743251113685222 0 0.042199856251025375 0.0031664317571867889 0 0.040861324923484918 0.0030517064776911735 0 0.042199856251025375 0.0031664317571867889 0 0.043822426809379117 0.0028998854223034592 0 0.043144309936585801 0.0042382924062658008 0 0.042750331076890712 0.0021603160245465573 0 0.042199856251025375 0.0031664317571867889 0 0.043822426809379117 0.0028998854223034592 0 0.044537234075813295 0.0038718704293200395 0 0.043822426809379117 0.0028998854223034592 0 0.043144309936585801 0.0042382924062658008 0 0.043424046610092533 0.005108218874437148 0 0.043144309936585801 0.0042382924062658008 0 0.041989324970058563 0.0053332572239296423 0 0.044537234075813295 0.0038718704293200395 0 0.044354950559789108 0.0051298995704456693 0 0.043144309936585801 0.0042382924062658008 0 0.044354950559789108 0.0051298995704456693 0 0.043424046610092533 0.005108218874437148 0 0.043144309936585801 0.0042382924062658008 0 0.043144309936585801 0.0042382924062658008 0 0.041699361069438216 0.0039543611121263776 0 0.041989324970058563 0.0053332572239296423 0 0.042199856251025375 0.0031664317571867889 0 0.043144309936585801 0.0042382924062658008 0 0.041699361069438216 0.0039543611121263776 0 0.050163169701261542 0.006071122378544372 0 0.049630323042752132 0.0043068908393677982 0 0.050777951409046319 0.0050113311381943838 0 0.050163169701261542 0.006071122378544372 0 0.048193888298016511 0.0059293953032679477 0 0.049630323042752132 0.0043068908393677982 0 0.043424046610092533 0.005108218874437148 0 0.041989324970058563 0.0053332572239296423 0 0.044095223958539771 0.0057535991578707337 0 0.046725277703722319 0.0059851474068817762 0 0.045900534281050377 0.0057146205900998597 0 0.044354950559789108 0.0051298995704456693 0 0.043424046610092533 0.005108218874437148 0 0.044095223958539771 0.0057535991578707337 0 0.048193888298016511 0.0059293953032679477 0 0.049630323042752132 0.0043068908393677982 0 0.047435914701150862 0.0039320124764637343 0 0.049630323042752132 0.0043068908393677982 0 0.050777951409046319 0.0050113311381943838 0 0.051371296277293498 0.0040828480116373847 0 0.049630323042752132 0.0043068908393677982 0 0.051371296277293498 0.0040828480116373847 0 0.050939057062540351 0.0032413237765246037 0 0.043721934084692507 0.005543431686486155 0 0.044868517865575289 0.0051916263344902562 0 0.043379058147584443 0.004696189856801614 0 0.043721934084692507 0.005543431686486155 0 0.044634651549356669 0.0055424794331336708 0 0.044868517865575289 0.0051916263344902562 0 0.045900534281050377 0.0057146205900998597 0 0.044971116707537312 0.0052902357878500039 0 0.044095223958539771 0.0057535991578707337 0 0.044634651549356669 0.0055424794331336708 0 0.044868517865575289 0.0051916263344902562 0 0.044354950559789108 0.0051298995704456693 0 0.044095223958539771 0.0057535991578707337 0 0.044634651549356669 0.0055424794331336708 0 0.048193888298016511 0.0059293953032679477 0 0.047435914701150862 0.0039320124764637343 0 0.044868517865575289 0.0051916263344902562 0 0.047435914701150862 0.0039320124764637343 0 0.044868517865575289 0.0051916263344902562 0 0.04477538113754799 0.0037247834570363989 0 0.044868517865575289 0.0051916263344902562 0 0.043379058147584443 0.004696189856801614 0 0.04477538113754799 0.0037247834570363989 0 0.042757717966557904 0.0037102691678659971 0 0.043379058147584443 0.004696189856801614 0 0.04477538113754799 0.0037247834570363989 0 0.042757717966557904 0.0037102691678659971 0 0.042055613143858472 0.0044973365511293412 0 0.043379058147584443 0.004696189856801614 0 0.043721934084692507 0.005543431686486155 0 0.043379058147584443 0.004696189856801614 0 0.042172022839647556 0.0052569153627740851 0 0.042055613143858472 0.0044973365511293412 0 0.043379058147584443 0.004696189856801614 0 0.042172022839647556 0.0052569153627740851 0 0.043721934084692507 0.005543431686486155 0 0.042172022839647556 0.0052569153627740851 0 0.042632927643459356 0.0062252753180062972 0 0.040724212964361413 0.004867789230639824 0 0.041119596533916072 0.004333788818337553 0 0.040593382677954516 0.005212379985746125 0 0.040288127207293342 0.0043656279476562455 0 0.036670587324310472 0.0046154984935863211 0 0.040724212964361413 0.004867789230639824 0 0.037908988329976204 0.0054970904083097346 0 0.039321347721105078 0.0059396128833757739 0 0.042172022839647556 0.0052569153627740851 0 0.040724212964361413 0.004867789230639824 0 0.040944892851244322 0.0060606939201572957 0 0.042055613143858472 0.0044973365511293412 0 0.040724212964361413 0.004867789230639824 0 0.041119596533916072 0.004333788818337553 0 0.042055613143858472 0.0044973365511293412 0 0.042172022839647556 0.0052569153627740851 0 0.040724212964361413 0.004867789230639824 0 0.042757717966557904 0.0037102691678659971 0 0.041119596533916072 0.004333788818337553 0 0.041029375717688263 0.0026882157983925893 0 0.042757717966557904 0.0037102691678659971 0 0.042055613143858472 0.0044973365511293412 0 0.041119596533916072 0.004333788818337553 0 0.041119596533916072 0.004333788818337553 0 0.040024242936270979 0.0040015323128483335 0 0.041029375717688263 0.0026882157983925893 0 0.047226651141172665 0.0031901333083895656 0 0.047769990432106425 0.0040499068209393276 0 0.048180752338100021 0.0032197330880615995 0 0.047226651141172665 0.0031901333083895656 0 0.047895813331537918 0.0023518978317141437 0 0.048180752338100021 0.0032197330880615995 0 0.042231435829449764 0.0038229170844866259 0 0.041239112272428574 0.0033250722645467462 0 0.034912806905893733 0.0040604323109464414 0 0.034840497884781836 0.0041245047586871159 0 0.034828857516102485 0.0041563428457299587 0 0.034840497884781836 0.0041245047586871159 0 0.034828857516102485 0.0041563428457299587 0 0.034817776581588286 0.0041549899956857825 0 0.034912806905893733 0.0040604323109464414 0 0.034828857516102485 0.0041563428457299587 0 0.034905559580248553 0.0041732492072344089 0 0.041119596533916072 0.004333788818337553 0 0.040024242936270979 0.0040015323128483335 0 0.040593382677954516 0.005212379985746125 0 0.042231435829449764 0.0038229170844866259 0 0.036670587324310472 0.0046154984935863211 0 0.036670587324310472 0.0046154984935863211 0 0.031491038156662189 0.0060019002479022154 0 0.034828857516102485 0.0041563428457299587 0 0.034905559580248553 0.0041732492072344089 0 0.034751575197848869 0.0042088344834625962 0 0.034796251348576127 0.0023748557527332767 0 0.033417094057958938 0.0070201547645313816 0 0.028315620142423396 0.0072833163236980508 0 0.033417094057958938 0.0070201547645313816 0 0.028315620142423396 0.0072833163236980508 0 0.031621329206625311 0.0090863853454888049 0 0.033417094057958938 0.0070201547645313816 0 0.035451051502741228 0.0092619855495522357 0 0.037533459669053949 0.0067213108524868939 0 0.034796251348576127 0.0023748557527332767 0 0.033417094057958938 0.0070201547645313816 0 0.037533459669053949 0.0067213108524868939 0 0.034751575197848869 0.0042088344834625962 0 0.034710469590335191 0.004129621475757351 0 0.034817776581588286 0.0041549899956857825 0 0.034828857516102485 0.0041563428457299587 0 0.034751575197848869 0.0042088344834625962 0 0.034817776581588286 0.0041549899956857825 0 0.019583514811193466 -0.0058106971639061431 0 0.020578446954997151 -0.0073579785565000546 0 0.018214691052668208 -0.0069381490667908214 0 0.024685471205787783 0.0022550553162246534 0 0.026152294267736201 0.0023588123548915988 0 0.031491038156662189 0.0060019002479022154 0 0.026152294267736201 0.0023588123548915988 0 0.028315620142423396 0.0072833163236980508 0 0.029032580827011375 0.012032154846125574 0 0.023509179496331422 0.010818375869027615 0 0.024685471205787783 0.0022550553162246534 0 0.028791493303944971 0.0016230943016043518 0 0.029032580827011375 0.012032154846125574 0 0.032635052193203326 0.010887733680592034 0 0.034961565021299788 0.012905120671302677 0 0.033417094057958938 0.0070201547645313816 0 0.031621329206625311 0.0090863853454888049 0 0.035451051502741228 0.0092619855495522357 0 0.031621329206625311 0.0090863853454888049 0 0.032635052193203326 0.010887733680592034 0 0.035451051502741228 0.0092619855495522357 0 0.028315620142423396 0.0072833163236980508 0 0.031621329206625311 0.0090863853454888049 0 0.029032580827011375 0.012032154846125574 0 0.031621329206625311 0.0090863853454888049 0 0.029032580827011375 0.012032154846125574 0 0.032635052193203326 0.010887733680592034 0 0.028791493303944971 0.0016230943016043518 0 0.035489326794494354 0.012696509915865116 0 0.032635052193203326 0.010887733680592034 0 0.034961565021299788 0.012905120671302677 0 0.035451051502741228 0.0092619855495522357 0 0.03819781415909803 0.0089264699958779507 0 0.035451051502741228 0.0092619855495522357 0 0.037533459669053949 0.0067213108524868939 0 0.037340337587652442 0.012905246517089543 0 0.03819781415909803 0.0089264699958779507 0 0.035451051502741228 0.0092619855495522357 0 0.037340337587652442 0.012905246517089543 0 0.03819781415909803 0.0089264699958779507 0 0.040705471135970471 0.0087699108601202135 0 0.037340337587652442 0.012905246517089543 0 0.044384194012907358 0.00854377223136942 0 0.040705471135970471 0.0087699108601202135 0 0.032088171898808956 0.0040530953325817682 0 0.031067897559806067 0.0038575485641190775 0 0.03215403591122979 0.0034556888908372531 0 0.028791493303944971 0.0016230943016043518 0 0.040440344910583723 0.0058856314348771166 0 0.044384194012907358 0.00854377223136942 0 0.040705471135970471 0.0087699108601202135 0 0.043141937704981891 0.007580957757799889 0 0.040440344910583723 0.0058856314348771166 0 0.042303623528017226 0.0073144867657258181 0 0.04142420974300122 0.0071769526471305734 0 0.043141937704981891 0.007580957757799889 0 0.042632927643459356 0.0062252753180062972 0 0.040705471135970471 0.0087699108601202135 0 0.04142420974300122 0.0071769526471305734 0 0.043141937704981891 0.007580957757799889 0 0.040705471135970471 0.0087699108601202135 0 0.04142420974300122 0.0071769526471305734 0 0.039773776930141447 0.0071233122129281548 0 0.04378818822375824 0.0064543257480495766 0 0.043141937704981891 0.007580957757799889 0 0.042632927643459356 0.0062252753180062972 0 0.04378818822375824 0.0064543257480495766 0 0.043531201796588308 0.0077107308699588496 0 0.043141937704981891 0.007580957757799889 0 0.04378818822375824 0.0064543257480495766 0 0.043721934084692507 0.005543431686486155 0 0.042632927643459356 0.0062252753180062972 0 0.042172022839647556 0.0052569153627740851 0 0.042632927643459356 0.0062252753180062972 0 0.040944892851244322 0.0060606939201572957 0 0.04142420974300122 0.0071769526471305734 0 0.042632927643459356 0.0062252753180062972 0 0.040944892851244322 0.0060606939201572957 0 0.040724212964361413 0.004867789230639824 0 0.040944892851244322 0.0060606939201572957 0 0.039321347721105078 0.0059396128833757739 0 0.040944892851244322 0.0060606939201572957 0 0.039321347721105078 0.0059396128833757739 0 0.039773776930141447 0.0071233122129281548 0 0.036670587324310472 0.0046154984935863211 0 0.037349249505557514 0.0060681858425800841 0 0.037908988329976204 0.0054970904083097346 0 0.039321347721105078 0.0059396128833757739 0 0.037533459669053949 0.0067213108524868939 0 0.03819781415909803 0.0089264699958779507 0 0.037533459669053949 0.0067213108524868939 0 0.039773776930141447 0.0071233122129281548 0 0.039321347721105078 0.0059396128833757739 0 0.037533459669053949 0.0067213108524868939 0 0.039773776930141447 0.0071233122129281548 0 0.03819781415909803 0.0089264699958779507 0 0.040705471135970471 0.0087699108601202135 0 0.039773776930141447 0.0071233122129281548 0 0.04142420974300122 0.0071769526471305734 0 0.040944892851244322 0.0060606939201572957 0 0.039773776930141447 0.0071233122129281548 0 0.036847164174554553 0.0015357154892474477 0 0.036923131137625208 0.0010888270303610291 0 0.037219054059687333 0.0018260683625765197 0 0.036026762996955182 0.00085893625324995175 0 0.036636942307694091 0.0018699209313695574 0 0.036593513958461103 0.0017335218157078355 0 0.036847164174554553 0.0015357154892474477 0 0.037219054059687333 0.0018260683625765197 0 0.03664073065619123 0.0012620579772369591 0 0.036847164174554553 0.0015357154892474477 0 0.036923131137625208 0.0010888270303610291 0 0.03664073065619123 0.0012620579772369591 0 0.036847164174554553 0.0015357154892474477 0 0.036616329725781022 0.0015016463134669218 0 0.036593513958461103 0.0017335218157078355 0 0.036847164174554553 0.0015357154892474477 0 0.036616329725781022 0.0015016463134669218 0 0.036507754542440297 0.0014084947934169506 0 0.034817368672222127 0.00076976824828214668 0 0.03605528760792933 0.0020461528252492004 0 0.036507754542440297 0.0014084947934169506 0 0.037071472891362131 0.0020657556023793702 0 0.03605528760792933 0.0020461528252492004 0 0.036507754542440297 0.0014084947934169506 0 0.034817368672222127 0.00076976824828214668 0 0.036512917149484292 0.00018448538987570252 0 0.034817368672222127 0.00076976824828214668 0 0.034138021370718329 -0.00062886346260649653 0 0.036512917149484292 0.00018448538987570252 0 0.036026762996955182 0.00085893625324995175 0 0.033276071483081572 0.0003193658593503371 0 0.036438452609230322 0.00090736529051611912 0 0.036923131137625208 0.0010888270303610291 0 0.036626418791267892 0.00035545979169233791 0 0.034817368672222127 0.00076976824828214668 0 0.034138021370718329 -0.00062886346260649653 0 0.033863082748878809 -0.00088327937614194674 0 0.036438452609230322 0.00090736529051611912 0 0.03664073065619123 0.0012620579772369591 0 0.036923131137625208 0.0010888270303610291 0 0.034138021370718329 -0.00062886346260649653 0 0.033863082748878809 -0.00088327937614194674 0 0.03321168053640796 -0.00035222220854655439 0 0.033863082748878809 -0.00088327937614194674 0 0.03321168053640796 -0.00035222220854655439 0 0.033521812978493805 0.00039937782328870112 0 0.033276071483081572 0.0003193658593503371 0 0.032353685553498428 0.00025210745518690971 0 0.030665663571209738 8.1750855502776159e-05 0 0.030981948376368636 0.00091539161759345911 0 0.031259056358339511 0.00017527247514271266 0 0.03321168053640796 -0.00035222220854655439 0 0.033521812978493805 0.00039937782328870112 0 0.032104400336332814 0.00059483524226065299 0 0.029969422558460142 -0.00014513923867919898 0 0.032353685553498428 0.00025210745518690971 0 0.031553315776069332 -0.00058312256593194838 0 0.031259056358339511 0.00017527247514271266 0 0.030955461070005522 -0.00024151944584631797 0 0.030665663571209738 8.1750855502776159e-05 0 0.031259056358339511 0.00017527247514271266 0 0.030955461070005522 -0.00024151944584631797 0 0.032925843916335004 0.0016722358956084967 0 0.033521812978493805 0.00039937782328870112 0 0.032104400336332814 0.00059483524226065299 0 0.03321168053640796 -0.00035222220854655439 0 0.032104400336332814 0.00059483524226065299 0 0.031761470003127817 -0.00036384254446553057 0 0.034138021370718329 -0.00062886346260649653 0 0.03321168053640796 -0.00035222220854655439 0 0.031365589745200435 -0.001578290677682532 0 0.03321168053640796 -0.00035222220854655439 0 0.031761470003127817 -0.00036384254446553057 0 0.031365589745200435 -0.001578290677682532 0 0.034084572685476489 -0.00065444154228797816 0 0.033896621041396 -0.00065877828031292321 0 0.030405836738806268 -0.00015719372469791669 0 0.02903835463199371 -0.0014916675296128279 0 0.031365589745200435 -0.001578290677682532 0 0.031761470003127817 -0.00036384254446553057 0 0.030405836738806268 -0.00015719372469791669 0 0.031365589745200435 -0.001578290677682532 0 0.032104400336332814 0.00059483524226065299 0 0.031761470003127817 -0.00036384254446553057 0 0.030405836738806268 -0.00015719372469791669 0 0.029363762418995548 0.00098294680947463571 0 0.031097066012105597 0.0014635962404851571 0 0.030405836738806268 -0.00015719372469791669 0 0.031097066012105597 0.0014635962404851571 0 0.032104400336332814 0.00059483524226065299 0 0.030405836738806268 -0.00015719372469791669 0 0.029363762418995548 0.00098294680947463571 0 0.030405836738806268 -0.00015719372469791669 0 0.028684007269161312 -0.00033739364133124154 0 0.030405836738806268 -0.00015719372469791669 0 0.02903835463199371 -0.0014916675296128279 0 0.028684007269161312 -0.00033739364133124154 0 0.037417345553558648 0.00078718779774288245 0 0.036512917149484292 0.00018448538987570252 0 0.037251422679520106 0.0016165622696464297 0 0.033256215789151375 -0.00033961875181738154 0 0.033896621041396 -0.00065877828031292321 0 0.036507754542440297 0.0014084947934169506 0 0.036512917149484292 0.00018448538987570252 0 0.037251422679520106 0.0016165622696464297 0 0.036507754542440297 0.0014084947934169506 0 0.037251422679520106 0.0016165622696464297 0 0.037071472891362131 0.0020657556023793702 0 0.037417345553558648 0.00078718779774288245 0 0.037251422679520106 0.0016165622696464297 0 0.037877656712273229 0.0018933434404583319 0 0.037877656712273229 0.0018933434404583319 0 0.038136191654684688 0.00093163019382164973 0 0.038918502167483597 0.0018325934248945989 0 0.033256215789151375 -0.00033961875181738154 0 0.033341171699170689 0.00022823716349227869 0 0.037417345553558648 0.00078718779774288245 0 0.037877656712273229 0.0018933434404583319 0 0.038136191654684688 0.00093163019382164973 0 0.02903835463199371 -0.0014916675296128279 0 0.028233767166283171 -0.00048452680968706684 0 0.028208429016942555 -0.00076019659767492711 0 0.028208429016942555 -0.00076019659767492711 0 0.028684007269161312 -0.00033739364133124154 0 0.027796231683477383 -0.00072273886774432345 0 0.02903835463199371 -0.0014916675296128279 0 0.028208429016942555 -0.00076019659767492711 0 0.028684007269161312 -0.00033739364133124154 0 0.029363762418995548 0.00098294680947463571 0 0.027990666597571115 0.00021413065487135098 0 0.028684007269161312 -0.00033739364133124154 0 0.027990666597571115 0.00021413065487135098 0 0.028684007269161312 -0.00033739364133124154 0 0.027796231683477383 -0.00072273886774432345 0 0.028208429016942555 -0.00076019659767492711 0 0.027796231683477383 -0.00072273886774432345 0 0.028487856131306048 -0.00055893578604166924 0 0.028233767166283171 -0.00048452680968706684 0 0.028208429016942555 -0.00076019659767492711 0 0.028487856131306048 -0.00055893578604166924 0 0.028487856131306048 -0.00055893578604166924 0 0.02821681140968859 -0.00098100881572337883 0 0.029759764581568347 -0.0011718557348887073 0 0.027796231683477383 -0.00072273886774432345 0 0.028487856131306048 -0.00055893578604166924 0 0.02821681140968859 -0.00098100881572337883 0 0.027407350640742158 -0.0016331876225679435 0 0.028020591547256689 -0.0017856544790067093 0 0.027378120651065738 -0.001518401819274851 0 0.02821681140968859 -0.00098100881572337883 0 0.029759764581568347 -0.0011718557348887073 0 0.027378120651065738 -0.001518401819274851 0 0.027796231683477383 -0.00072273886774432345 0 0.02821681140968859 -0.00098100881572337883 0 0.025457401191290516 -0.0023342932424124168 0 0.025937191070214447 -0.0019610195739040285 0 0.025843835359576586 -0.0028365826623129638 0 0.027378120651065738 -0.001518401819274851 0 0.025937191070214447 -0.0019610195739040285 0 0.025843835359576586 -0.0028365826623129638 0 0.025401125151594726 -0.0018674177860903232 0 0.025457401191290516 -0.0023342932424124168 0 0.025937191070214447 -0.0019610195739040285 0 0.028487856131306048 -0.00055893578604166924 0 0.029759764581568347 -0.0011718557348887073 0 0.030290841835353959 -3.4174103619566068e-05 0 0.028487856131306048 -0.00055893578604166924 0 0.029457878601337653 0.00065927093715188072 0 0.030290841835353959 -3.4174103619566068e-05 0 0.031713679326449348 0.0013290491927076958 0 0.029457878601337653 0.00065927093715188072 0 0.030290841835353959 -3.4174103619566068e-05 0 0.028233767166283171 -0.00048452680968706684 0 0.028487856131306048 -0.00055893578604166924 0 0.029457878601337653 0.00065927093715188072 0 0.033341171699170689 0.00022823716349227869 0 0.034279065481997675 0.0007131313568888712 0 0.039552423035696095 0.00088207979299369916 0 0.038918502167483597 0.0018325934248945989 0 0.04004026987186099 0.0021328532901954628 0 0.038136191654684688 0.00093163019382164973 0 0.039552423035696095 0.00088207979299369916 0 0.038918502167483597 0.0018325934248945989 0 0.041178591019018995 0.0020743251113685222 0 0.039552423035696095 0.00088207979299369916 0 0.04004026987186099 0.0021328532901954628 0 0.041891012572348771 0.0010598014940212926 0 0.041178591019018995 0.0020743251113685222 0 0.039552423035696095 0.00088207979299369916 0 0.038117480428733273 0.001391899529582123 0 0.034279065481997675 0.0007131313568888712 0 0.040861324923484918 0.0030517064776911735 0 0.039895252440345801 0.0028934230594064147 0 0.040340174139600962 0.0038566210912855557 0 0.041178591019018995 0.0020743251113685222 0 0.04004026987186099 0.0021328532901954628 0 0.040861324923484918 0.0030517064776911735 0 0.04004026987186099 0.0021328532901954628 0 0.040861324923484918 0.0030517064776911735 0 0.039895252440345801 0.0028934230594064147 0 0.038918502167483597 0.0018325934248945989 0 0.039070786073694103 0.0028991371298240642 0 0.039895252440345801 0.0028934230594064147 0 0.038918502167483597 0.0018325934248945989 0 0.04004026987186099 0.0021328532901954628 0 0.039895252440345801 0.0028934230594064147 0 0.039070786073694103 0.0028991371298240642 0 0.039895252440345801 0.0028934230594064147 0 0.040340174139600962 0.0038566210912855557 0 0.039070786073694103 0.0028991371298240642 0 0.039783992611378216 0.0042042948001011424 0 0.040340174139600962 0.0038566210912855557 0 0.037999108767664991 0.0021884467049528792 0 0.037634216488022426 0.0024946274255201271 0 0.037323298556604975 0.0020837339990336773 0 0.04298909814506445 0.0036430568549244823 0 0.036899341299335156 0.0024754546551236157 0 0.039070786073694103 0.0028991371298240642 0 0.039783992611378216 0.0042042948001011424 0 0.038190723165298153 0.0031869892415424973 0 0.046725277703722319 0.0059851474068817762 0 0.04298909814506445 0.0036430568549244823 0 0.041699361069438216 0.0039543611121263776 0 0.040861324923484918 0.0030517064776911735 0 0.040340174139600962 0.0038566210912855557 0 0.041699361069438216 0.0039543611121263776 0 0.041989324970058563 0.0053332572239296423 0 0.040340174139600962 0.0038566210912855557 0 0.041989324970058563 0.0053332572239296423 0 0.039919404339773555 0.0045331754214530682 0 0.040340174139600962 0.0038566210912855557 0 0.04298909814506445 0.0036430568549244823 0 0.040661466320278013 0.0046227984228748306 0 0.050163169701261542 0.006071122378544372 0 0.051801798693842271 0.0051913609559730393 0 0.050777951409046319 0.0050113311381943838 0 0.050163169701261542 0.006071122378544372 0 0.051796786806711362 0.006386242727899916 0 0.051801798693842271 0.0051913609559730393 0 0.051801798693842271 0.0051913609559730393 0 0.051371296277293498 0.0040828480116373847 0 0.052603640953152474 0.0041011196419041152 0 0.051801798693842271 0.0051913609559730393 0 0.050777951409046319 0.0050113311381943838 0 0.051371296277293498 0.0040828480116373847 0 0.051801798693842271 0.0051913609559730393 0 0.052603640953152474 0.0041011196419041152 0 0.05314614808269226 0.0052845144503263245 0 0.052603640953152474 0.0041011196419041152 0 0.05314614808269226 0.0052845144503263245 0 0.053442572559364569 0.0036263580989132644 0 0.051371296277293498 0.0040828480116373847 0 0.052603640953152474 0.0041011196419041152 0 0.052232961860569381 0.0032641202771817677 0 0.051796786806711362 0.006386242727899916 0 0.051801798693842271 0.0051913609559730393 0 0.05314614808269226 0.0052845144503263245 0 0.04298909814506445 0.0036430568549244823 0 0.045822809163704292 0.0037873632909482089 0 0.037322840517034626 0.0023853281687866183 0 0.037634216488022426 0.0024946274255201271 0 0.037332902053958748 0.0028188315717921114 0 0.037322840517034626 0.0023853281687866183 0 0.037634216488022426 0.0024946274255201271 0 0.037323298556604975 0.0020837339990336773 0 0.05314614808269226 0.0052845144503263245 0 0.05423055276176094 0.0041330002098263277 0 0.053442572559364569 0.0036263580989132644 0 0.045822809163704292 0.0037873632909482089 0 0.043195665799385462 0.002455398122012628 0 0.036663470909252108 0.0010576951049476734 0 0.035910979144133305 0.00095634050064380589 0 0.036579324629439462 4.3559280781094129e-05 0 0.036663470909252108 0.0010576951049476734 0 0.035910979144133305 0.00095634050064380589 0 0.036984957761003162 0.0022160297894535819 0 0.037322840517034626 0.0023853281687866183 0 0.037332902053958748 0.0028188315717921114 0 0.036984957761003162 0.0022160297894535819 0 0.043195665799385462 0.002455398122012628 0 0.034954680159787511 0.0014725441025549135 0 0.037322840517034626 0.0023853281687866183 0 0.036984957761003162 0.0022160297894535819 0 0.037323298556604975 0.0020837339990336773 0 0.036984957761003162 0.0022160297894535819 0 0.037323298556604975 0.0020837339990336773 0 0.037261204683993528 0.0023407719396891123 0 0.036899341299335156 0.0024754546551236157 0 0.037691820099416844 0.0024745711337830737 0 0.037877656712273229 0.0018933434404583319 0 0.039070786073694103 0.0028991371298240642 0 0.038190723165298153 0.0031869892415424973 0 0.037877656712273229 0.0018933434404583319 0 0.038918502167483597 0.0018325934248945989 0 0.039070786073694103 0.0028991371298240642 0 0.037877656712273229 0.0018933434404583319 0 0.038190723165298153 0.0031869892415424973 0 0.037261204683993528 0.0023407719396891123 0 0.037251422679520106 0.0016165622696464297 0 0.037261204683993528 0.0023407719396891123 0 0.037071472891362131 0.0020657556023793702 0 0.037251422679520106 0.0016165622696464297 0 0.037877656712273229 0.0018933434404583319 0 0.037261204683993528 0.0023407719396891123 0 0.037261204683993528 0.0023407719396891123 0 0.037071472891362131 0.0020657556023793702 0 0.037261082484674121 0.0023345208167178024 0 0.037071472891362131 0.0020657556023793702 0 0.037261082484674121 0.0023345208167178024 0 0.03718153985887377 0.0023683577528545762 0 0.037261082484674121 0.0023345208167178024 0 0.03718153985887377 0.0023683577528545762 0 0.037449512700318044 0.0023945743068073161 0 0.03718153985887377 0.0023683577528545762 0 0.037449512700318044 0.0023945743068073161 0 0.037445577344678828 0.0024323446190100189 0 0.037449512700318044 0.0023945743068073161 0 0.037760291501172188 0.0022806895329210023 0 0.037647626895814232 0.0024775000903372096 0 0.037449512700318044 0.0023945743068073161 0 0.037647626895814232 0.0024775000903372096 0 0.037445577344678828 0.0024323446190100189 0 0.037261082484674121 0.0023345208167178024 0 0.037449512700318044 0.0023945743068073161 0 0.037297369113043655 0.002287404504553624 0 0.037449512700318044 0.0023945743068073161 0 0.037297369113043655 0.002287404504553624 0 0.037530215518440761 0.0021559412770049517 0 0.036984957761003162 0.0022160297894535819 0 0.037261204683993528 0.0023407719396891123 0 0.037297369113043655 0.002287404504553624 0 0.037261204683993528 0.0023407719396891123 0 0.037261082484674121 0.0023345208167178024 0 0.037297369113043655 0.002287404504553624 0 0.036984957761003162 0.0022160297894535819 0 0.037350588016693782 0.001884511089234853 0 0.037117374990890087 0.001333606499295226 0 0.036984957761003162 0.0022160297894535819 0 0.037297369113043655 0.002287404504553624 0 0.037350588016693782 0.001884511089234853 0 0.036663470909252108 0.0010576951049476734 0 0.036984957761003162 0.0022160297894535819 0 0.037117374990890087 0.001333606499295226 0 0.037350588016693782 0.001884511089234853 0 0.037117374990890087 0.001333606499295226 0 0.037622233152444291 0.0012972518677547666 0 0.037117374990890087 0.001333606499295226 0 0.037475870979619866 0.0007261474552863915 0 0.037622233152444291 0.0012972518677547666 0 0.037117374990890087 0.001333606499295226 0 0.037008954272582613 0.00065709772377560188 0 0.037475870979619866 0.0007261474552863915 0 0.036663470909252108 0.0010576951049476734 0 0.037117374990890087 0.001333606499295226 0 0.037008954272582613 0.00065709772377560188 0 0.038052554414381587 0.00070547091105640212 0 0.037475870979619866 0.0007261474552863915 0 0.037622233152444291 0.0012972518677547666 0 0.038052554414381587 0.00070547091105640212 0 0.037622233152444291 0.0012972518677547666 0 0.03825795461700264 0.0012224185777536742 0 0.037622233152444291 0.0012972518677547666 0 0.037822822355306089 0.001750740862740543 0 0.03825795461700264 0.0012224185777536742 0 0.037822822355306089 0.001750740862740543 0 0.037760291501172188 0.0022806895329210023 0 0.038183783286678749 0.0019317376726038624 0 0.037350588016693782 0.001884511089234853 0 0.037622233152444291 0.0012972518677547666 0 0.037822822355306089 0.001750740862740543 0 0.037350588016693782 0.001884511089234853 0 0.037822822355306089 0.001750740862740543 0 0.037530215518440761 0.0021559412770049517 0 0.037297369113043655 0.002287404504553624 0 0.037350588016693782 0.001884511089234853 0 0.037530215518440761 0.0021559412770049517 0 0.037449512700318044 0.0023945743068073161 0 0.037530215518440761 0.0021559412770049517 0 0.037760291501172188 0.0022806895329210023 0 0.037822822355306089 0.001750740862740543 0 0.037530215518440761 0.0021559412770049517 0 0.037760291501172188 0.0022806895329210023 0 0.037760291501172188 0.0022806895329210023 0 0.03798657959694967 0.0025655672230064019 0 0.037647626895814232 0.0024775000903372096 0 0.037760291501172188 0.0022806895329210023 0 0.03798657959694967 0.0025655672230064019 0 0.038183783286678749 0.0019317376726038624 0 0.03798657959694967 0.0025655672230064019 0 0.038879407765568336 0.0019767770166504378 0 0.038183783286678749 0.0019317376726038624 0 0.03798657959694967 0.0025655672230064019 0 0.038879407765568336 0.0019767770166504378 0 0.039519402999634481 0.0025728790401122106 0 0.038879407765568336 0.0019767770166504378 0 0.038183783286678749 0.0019317376726038624 0 0.038937249349905986 0.0013101886961822812 0 0.038879407765568336 0.0019767770166504378 0 0.038937249349905986 0.0013101886961822812 0 0.039723588324990525 0.001699366034958526 0 0.037822822355306089 0.001750740862740543 0 0.038183783286678749 0.0019317376726038624 0 0.03825795461700264 0.0012224185777536742 0 0.03825795461700264 0.0012224185777536742 0 0.038937249349905986 0.0013101886961822812 0 0.038738190456229629 0.00063040423956496052 0 0.038183783286678749 0.0019317376726038624 0 0.03825795461700264 0.0012224185777536742 0 0.038937249349905986 0.0013101886961822812 0 0.038937249349905986 0.0013101886961822812 0 0.039511423718309902 0.00052806733872822658 0 0.038738190456229629 0.00063040423956496052 0 0.038937249349905986 0.0013101886961822812 0 0.039511423718309902 0.00052806733872822658 0 0.039822223086465547 0.0010862992609044345 0 0.038052554414381587 0.00070547091105640212 0 0.03825795461700264 0.0012224185777536742 0 0.038738190456229629 0.00063040423956496052 0 0.041322505488685803 0.00050559171706367244 0 0.040376312373284144 0.00052833581084819523 0 0.040681632034555465 0.0012713752706028255 0 0.040376312373284144 0.00052833581084819523 0 0.039822223086465547 0.0010862992609044345 0 0.040681632034555465 0.0012713752706028255 0 0.039511423718309902 0.00052806733872822658 0 0.040376312373284144 0.00052833581084819523 0 0.039822223086465547 0.0010862992609044345 0 0.038937249349905986 0.0013101886961822812 0 0.039822223086465547 0.0010862992609044345 0 0.039723588324990525 0.001699366034958526 0 0.039822223086465547 0.0010862992609044345 0 0.040681632034555465 0.0012713752706028255 0 0.039723588324990525 0.001699366034958526 0 0.040681632034555465 0.0012713752706028255 0 0.040562060072507636 0.0021381363125661675 0 0.039723588324990525 0.001699366034958526 0 0.038879407765568336 0.0019767770166504378 0 0.039723588324990525 0.001699366034958526 0 0.039519402999634481 0.0025728790401122106 0 0.040562060072507636 0.0021381363125661675 0 0.039723588324990525 0.001699366034958526 0 0.039519402999634481 0.0025728790401122106 0 0.040562060072507636 0.0021381363125661675 0 0.039519402999634481 0.0025728790401122106 0 0.040571916540288314 0.0030711307464986858 0 0.03838412123816079 0.0028402743082256887 0 0.038458574061143024 0.0028540712654299056 0 0.038398530302350332 0.0027921085494983355 0 0.039874297017100414 0.0034647885647509148 0 0.038135069103679767 0.0028573642297130028 0 0.041001482292608596 0.0040618983279826649 0 0.040571916540288314 0.0030711307464986858 0 0.039456224482625396 0.0039326155113696718 0 0.039519402999634481 0.0025728790401122106 0 0.040571916540288314 0.0030711307464986858 0 0.039456224482625396 0.0039326155113696718 0 0.03798657959694967 0.0025655672230064019 0 0.037007556218515952 0.0024449318099951942 0 0.037419450543714754 0.0024353230110041261 0 0.03799858760672073 0.0027075511960021484 0 0.038135069103679767 0.0028573642297130028 0 0.03798657959694967 0.0025655672230064019 0 0.039519402999634481 0.0025728790401122106 0 0.039456224482625396 0.0039326155113696718 0 0.037451426863546404 0.0024732371954746643 0 0.037419450543714754 0.0024353230110041261 0 0.037219054059687333 0.0018260683625765197 0 0.03798657959694967 0.0025655672230064019 0 0.037451426863546404 0.0024732371954746643 0 0.037419450543714754 0.0024353230110041261 0 0.03798657959694967 0.0025655672230064019 0 0.037647626895814232 0.0024775000903372096 0 0.037451426863546404 0.0024732371954746643 0 0.037647626895814232 0.0024775000903372096 0 0.037451426863546404 0.0024732371954746643 0 0.037445577344678828 0.0024323446190100189 0 0.03718153985887377 0.0023683577528545762 0 0.037451426863546404 0.0024732371954746643 0 0.037445577344678828 0.0024323446190100189 0 0.038135069103679767 0.0028573642297130028 0 0.037242010072325013 0.0025589454655420732 0 0.037071472891362131 0.0020657556023793702 0 0.03718153985887377 0.0023683577528545762 0 0.03605528760792933 0.0020461528252492004 0 0.037275486469080674 0.0024033112900730389 0 0.036636942307694091 0.0018699209313695574 0 0.03718153985887377 0.0023683577528545762 0 0.037451426863546404 0.0024732371954746643 0 0.03605528760792933 0.0020461528252492004 0 0.037093860577143915 0.0024150022970880164 0 0.037419450543714754 0.0024353230110041261 0 0.037219054059687333 0.0018260683625765197 0 0.037093860577143915 0.0024150022970880164 0 0.037219054059687333 0.0018260683625765197 0 0.036638230276038859 0.0020519817930476133 0 0.036593513958461103 0.0017335218157078355 0 0.037219054059687333 0.0018260683625765197 0 0.036638230276038859 0.0020519817930476133 0 0.038135069103679767 0.0028573642297130028 0 0.037540511456387746 0.0024489464448358834 0 0.053049757082680733 0.00025793380144675923 0 0.052279324445710616 0.00058832936095694788 0 0.053125271929718443 0.00024027041138021256 0 0.053657456108420439 0.00027057954924379596 0 0.054132240016586362 0.00010858465276530218 0 0.053286081658140215 9.8884574032618718e-05 0 0.053125271929718443 0.00024027041138021256 0 0.053657456108420439 0.00027057954924379596 0 0.053657456108420439 0.00027057954924379596 0 0.054132240016586362 0.00010858465276530218 0 0.054059644614013191 0.0003378944011375187 0 0.054223335596467151 0.00027975401381822473 0 0.054132240016586362 0.00010858465276530218 0 0.054059644614013191 0.0003378944011375187 0 0.054223335596467151 0.00027975401381822473 0 0.054132240016586362 0.00010858465276530218 0 0.054234255657143439 0.0003251092537220441 0 0.050490640279741913 0.00097980874213816817 0 0.051969228464387819 0.002084126388109031 0 0.049809390907817157 0.0025358174265536263 0 0.053125271929718443 0.00024027041138021256 0 0.050490640279741913 0.00097980874213816817 0 0.051969228464387819 0.002084126388109031 0 0.041814372536824379 -0.001095824785703702 0 0.040651791192049196 -0.0022672623042415806 0 0.040661178014874184 -0.0009668864962920318 0 0.040651791192049196 -0.0022672623042415806 0 0.040661178014874184 -0.0009668864962920318 0 0.039675384815028789 -0.0010174337537647593 0 0.040661178014874184 -0.0009668864962920318 0 0.040047640194471233 -0.00018405994994466645 0 0.040948132811658197 -0.00014460658923577956 0 0.040661178014874184 -0.0009668864962920318 0 0.040047640194471233 -0.00018405994994466645 0 0.039675384815028789 -0.0010174337537647593 0 0.039511423718309902 0.00052806733872822658 0 0.040376312373284144 0.00052833581084819523 0 0.040047640194471233 -0.00018405994994466645 0 0.041322505488685803 0.00050559171706367244 0 0.040376312373284144 0.00052833581084819523 0 0.040948132811658197 -0.00014460658923577956 0 0.040376312373284144 0.00052833581084819523 0 0.040047640194471233 -0.00018405994994466645 0 0.040948132811658197 -0.00014460658923577956 0 0.038738190456229629 0.00063040423956496052 0 0.039190522749056052 -0.00021942515789519768 0 0.038455410947324596 -3.360783171331594e-05 0 0.038052554414381587 0.00070547091105640212 0 0.038738190456229629 0.00063040423956496052 0 0.038455410947324596 -3.360783171331594e-05 0 0.039511423718309902 0.00052806733872822658 0 0.040047640194471233 -0.00018405994994466645 0 0.039190522749056052 -0.00021942515789519768 0 0.039511423718309902 0.00052806733872822658 0 0.038738190456229629 0.00063040423956496052 0 0.039190522749056052 -0.00021942515789519768 0 0.040047640194471233 -0.00018405994994466645 0 0.039190522749056052 -0.00021942515789519768 0 0.039675384815028789 -0.0010174337537647593 0 0.039190522749056052 -0.00021942515789519768 0 0.038835440022934403 -0.00078191098721465142 0 0.038455410947324596 -3.360783171331594e-05 0 0.038835440022934403 -0.00078191098721465142 0 0.039675384815028789 -0.0010174337537647593 0 0.038746686471507225 -0.0016574749802214113 0 0.040651791192049196 -0.0022672623042415806 0 0.039675384815028789 -0.0010174337537647593 0 0.038746686471507225 -0.0016574749802214113 0 0.045880630807084329 -2.8943488879480213e-05 0 0.04405798846748709 0.00038334643535413253 0 0.038835440022934403 -0.00078191098721465142 0 0.038746686471507225 -0.0016574749802214113 0 0.038125718274199367 -0.00068857355206411843 0 0.039190522749056052 -0.00021942515789519768 0 0.038835440022934403 -0.00078191098721465142 0 0.039675384815028789 -0.0010174337537647593 0 0.04405798846748709 0.00038334643535413253 0 0.044502372506968563 0.0021268771691786265 0 0.038746686471507225 -0.0016574749802214113 0 0.038125718274199367 -0.00068857355206411843 0 0.037315409758455341 -0.00104179159490775 0 0.049809390907817157 0.0025358174265536263 0 0.048354544221626147 0.0023428012381470106 0 0.04777341092948436 0.0029084287085149926 0 0.048354544221626147 0.0023428012381470106 0 0.047989689626920171 0.0026844183980060466 0 0.048249294386874475 0.0019561310805400506 0 0.047100769413258407 0.0014769946825306248 0 0.044502372506968563 0.0021268771691786265 0 0.038125718274199367 -0.00068857355206411843 0 0.037487888602356675 -0.00041094810818183367 0 0.037315409758455341 -0.00104179159490775 0 0.038125718274199367 -0.00068857355206411843 0 0.038455410947324596 -3.360783171331594e-05 0 0.037842115582926904 8.4413755276709887e-05 0 0.038835440022934403 -0.00078191098721465142 0 0.038125718274199367 -0.00068857355206411843 0 0.038455410947324596 -3.360783171331594e-05 0 0.037842115582926904 8.4413755276709887e-05 0 0.03731781052481551 0.00016866160849161508 0 0.037487888602356675 -0.00041094810818183367 0 0.038125718274199367 -0.00068857355206411843 0 0.037842115582926904 8.4413755276709887e-05 0 0.037487888602356675 -0.00041094810818183367 0 0.038052554414381587 0.00070547091105640212 0 0.037475870979619866 0.0007261474552863915 0 0.037842115582926904 8.4413755276709887e-05 0 0.037475870979619866 0.0007261474552863915 0 0.037842115582926904 8.4413755276709887e-05 0 0.03731781052481551 0.00016866160849161508 0 0.038052554414381587 0.00070547091105640212 0 0.038455410947324596 -3.360783171331594e-05 0 0.037842115582926904 8.4413755276709887e-05 0 0.036663470909252108 0.0010576951049476734 0 0.037008954272582613 0.00065709772377560188 0 0.036579324629439462 4.3559280781094129e-05 0 0.03731781052481551 0.00016866160849161508 0 0.037487888602356675 -0.00041094810818183367 0 0.036579324629439462 4.3559280781094129e-05 0 0.037008954272582613 0.00065709772377560188 0 0.03731781052481551 0.00016866160849161508 0 0.036579324629439462 4.3559280781094129e-05 0 0.037008954272582613 0.00065709772377560188 0 0.037475870979619866 0.0007261474552863915 0 0.03731781052481551 0.00016866160849161508 0 0.046050653161312904 0.002956928865446966 0 0.046590073180644127 0.0028533839853307958 0 0.046531822631895356 0.0025307343258543801 0 0.047989689626920171 0.0026844183980060466 0 0.047599048545866794 0.002532903684087168 0 0.047116568816361906 0.0027511507599275878 0 0.044502372506968563 0.0021268771691786265 0 0.047266314440819801 0.0026932508493505429 0 0.037487888602356675 -0.00041094810818183367 0 0.037315409758455341 -0.00104179159490775 0 0.036579324629439462 4.3559280781094129e-05 0 0.051326998838910995 0.0012474720706008979 0 0.050133515073400511 0.0018131411737967998 0 0.047599048545866794 0.002532903684087168 0 0.048249294386874475 0.0019561310805400506 0 0.047069096300237243 0.0026345587813392554 0 0.044502372506968563 0.0021268771691786265 0 0.041161036859599841 0.0013498703371503215 0 0.047989689626920171 0.0026844183980060466 0 0.047599048545866794 0.002532903684087168 0 0.048249294386874475 0.0019561310805400506 0 0.054106508377884464 0.00074278323860710121 0 0.054015202150429549 0.00086307445703443419 0 0.053943790311653937 0.0010762031575651176 0 0.054106508377884464 0.00074278323860710121 0 0.0540435621902048 0.00072549100113933156 0 0.054015202150429549 0.00086307445703443419 0 0.054106508377884464 0.00074278323860710121 0 0.054274824928430783 0.00055784672548034016 0 0.053943790311653937 0.0010762031575651176 0 0.054106508377884464 0.00074278323860710121 0 0.054141941790546898 0.00062715929553404175 0 0.0540435621902048 0.00072549100113933156 0 0.0540435621902048 0.00072549100113933156 0 0.054138359773970676 0.00052431542767620112 0 0.054027941321072991 0.00056540517763050498 0 0.054141941790546898 0.00062715929553404175 0 0.0540435621902048 0.00072549100113933156 0 0.054138359773970676 0.00052431542767620112 0 0.054138359773970676 0.00052431542767620112 0 0.054208288404646768 0.00052303500973681653 0 0.054224866349625409 0.00041077852118938043 0 0.054208288404646768 0.00052303500973681653 0 0.054236832527580964 0.00044928298982235132 0 0.054224866349625409 0.00041077852118938043 0 0.054141941790546898 0.00062715929553404175 0 0.054138359773970676 0.00052431542767620112 0 0.054208288404646768 0.00052303500973681653 0 0.054208288404646768 0.00052303500973681653 0 0.054186587386382719 0.00061092518957228616 0 0.054274824928430783 0.00055784672548034016 0 0.054106508377884464 0.00074278323860710121 0 0.054186587386382719 0.00061092518957228616 0 0.054274824928430783 0.00055784672548034016 0 0.054106508377884464 0.00074278323860710121 0 0.054141941790546898 0.00062715929553404175 0 0.054186587386382719 0.00061092518957228616 0 0.054141941790546898 0.00062715929553404175 0 0.054208288404646768 0.00052303500973681653 0 0.054186587386382719 0.00061092518957228616 0 0.050490640279741913 0.00097980874213816817 0 0.049809390907817157 0.0025358174265536263 0 0.048249294386874475 0.0019561310805400506 0 0.054132240016586362 0.00010858465276530218 0 0.054274824928430783 0.00055784672548034016 0 0.054234255657143439 0.0003251092537220441 0 0.049809390907817157 0.0025358174265536263 0 0.048354544221626147 0.0023428012381470106 0 0.048249294386874475 0.0019561310805400506 0 0.052279324445710616 0.00058832936095694788 0 0.051326998838910995 0.0012474720706008979 0 0.054274824928430783 0.00055784672548034016 0 0.054234255657143439 0.0003251092537220441 0 0.054236832527580964 0.00044928298982235132 0 0.054234255657143439 0.0003251092537220441 0 0.054236832527580964 0.00044928298982235132 0 0.054224866349625409 0.00041077852118938043 0 0.054208288404646768 0.00052303500973681653 0 0.054274824928430783 0.00055784672548034016 0 0.054236832527580964 0.00044928298982235132 0 0.054234255657143439 0.0003251092537220441 0 0.054271123957639569 0.00031308569939720834 0 0.054224866349625409 0.00041077852118938043 0 0.054223335596467151 0.00027975401381822473 0 0.054234255657143439 0.0003251092537220441 0 0.054271123957639569 0.00031308569939720834 0 0.054126604344836182 0.00043890621552614313 0 0.054224866349625409 0.00041077852118938043 0 0.054182719907728071 0.00031729885355143709 0 0.054271123957639569 0.00031308569939720834 0 0.054224866349625409 0.00041077852118938043 0 0.054182719907728071 0.00031729885355143709 0 0.054126604344836182 0.00043890621552614313 0 0.054013537151191504 0.00040747344380578747 0 0.054182719907728071 0.00031729885355143709 0 0.054138359773970676 0.00052431542767620112 0 0.054126604344836182 0.00043890621552614313 0 0.054027941321072991 0.00056540517763050498 0 0.054138359773970676 0.00052431542767620112 0 0.054126604344836182 0.00043890621552614313 0 0.054224866349625409 0.00041077852118938043 0 0.053815042150816499 0.0004561382836042059 0 0.054013537151191504 0.00040747344380578747 0 0.053858154431466528 0.00062997087230844042 0 0.054126604344836182 0.00043890621552614313 0 0.054013537151191504 0.00040747344380578747 0 0.054027941321072991 0.00056540517763050498 0 0.054013537151191504 0.00040747344380578747 0 0.053858154431466528 0.00062997087230844042 0 0.054027941321072991 0.00056540517763050498 0 0.054013537151191504 0.00040747344380578747 0 0.053956370279525649 0.00026655910104321642 0 0.054182719907728071 0.00031729885355143709 0 0.053815042150816499 0.0004561382836042059 0 0.054013537151191504 0.00040747344380578747 0 0.053956370279525649 0.00026655910104321642 0 0.053815042150816499 0.0004561382836042059 0 0.053549181025533868 0.00030995617119913691 0 0.053956370279525649 0.00026655910104321642 0 0.053815042150816499 0.0004561382836042059 0 0.053549181025533868 0.00030995617119913691 0 0.053624795814343887 0.00079015948015696965 0 0.053624795814343887 0.00079015948015696965 0 0.053585644044267425 0.0010976169938648585 0 0.052958939294492052 0.00096847722541524108 0 0.053549181025533868 0.00030995617119913691 0 0.053624795814343887 0.00079015948015696965 0 0.052958939294492052 0.00096847722541524108 0 0.053624795814343887 0.00079015948015696965 0 0.053795676679982175 0.00094461250061174482 0 0.053585644044267425 0.0010976169938648585 0 0.053624795814343887 0.00079015948015696965 0 0.053795676679982175 0.00094461250061174482 0 0.053803780060723852 0.00078013382922572326 0 0.053795676679982175 0.00094461250061174482 0 0.053803780060723852 0.00078013382922572326 0 0.05392641906350075 0.00076065509511717417 0 0.053624795814343887 0.00079015948015696965 0 0.053803780060723852 0.00078013382922572326 0 0.053858154431466528 0.00062997087230844042 0 0.053815042150816499 0.0004561382836042059 0 0.053624795814343887 0.00079015948015696965 0 0.053858154431466528 0.00062997087230844042 0 0.053803780060723852 0.00078013382922572326 0 0.053858154431466528 0.00062997087230844042 0 0.05392641906350075 0.00076065509511717417 0 0.053858154431466528 0.00062997087230844042 0 0.054027941321072991 0.00056540517763050498 0 0.05392641906350075 0.00076065509511717417 0 0.0540435621902048 0.00072549100113933156 0 0.054027941321072991 0.00056540517763050498 0 0.05392641906350075 0.00076065509511717417 0 0.0540435621902048 0.00072549100113933156 0 0.05392641906350075 0.00076065509511717417 0 0.053948499879390328 0.00087042879101888399 0 0.053795676679982175 0.00094461250061174482 0 0.05392641906350075 0.00076065509511717417 0 0.053948499879390328 0.00087042879101888399 0 0.0540435621902048 0.00072549100113933156 0 0.053948499879390328 0.00087042879101888399 0 0.054015202150429549 0.00086307445703443419 0 0.046590073180644127 0.0028533839853307958 0 0.046784360863203277 0.0026101938881347448 0 0.04704427753441897 0.0026940657758862943 0 0.047599048545866794 0.002532903684087168 0 0.047069096300237243 0.0026345587813392554 0 0.047116568816361906 0.0027511507599275878 0 0.053948499879390328 0.00087042879101888399 0 0.054015202150429549 0.00086307445703443419 0 0.053943790311653937 0.0010762031575651176 0 0.047266314440819801 0.0026932508493505429 0 0.046891987706778021 0.0027504573006259673 0 0.047069096300237243 0.0026345587813392554 0 0.047116568816361906 0.0027511507599275878 0 0.04704427753441897 0.0026940657758862943 0 0.053795676679982175 0.00094461250061174482 0 0.053948499879390328 0.00087042879101888399 0 0.053943790311653937 0.0010762031575651176 0 0.053795676679982175 0.00094461250061174482 0 0.053943790311653937 0.0010762031575651176 0 0.053585644044267425 0.0010976169938648585 0 0.04690451414367796 0.0022604847810413194 0 0.046784360863203277 0.0026101938881347448 0 0.04704427753441897 0.0026940657758862943 0 0.04690451414367796 0.0022604847810413194 0 0.046531822631895356 0.0025307343258543801 0 0.046784360863203277 0.0026101938881347448 0 0.046590073180644127 0.0028533839853307958 0 0.046531822631895356 0.0025307343258543801 0 0.046784360863203277 0.0026101938881347448 0 0.043195665799385462 0.002455398122012628 0 0.041161036859599841 0.0013498703371503215 0 0.05423055276176094 0.0041330002098263277 0 0.053442572559364569 0.0036263580989132644 0 0.053481226943794598 0.0026306663299129141 0 0.04690451414367796 0.0022604847810413194 0 0.04704427753441897 0.0026940657758862943 0 0.047077269685052235 0.0027094113191023493 0 0.043195665799385462 0.002455398122012628 0 0.052315708875214931 0.0029981189894977586 0 0.053442572559364569 0.0036263580989132644 0 0.053481226943794598 0.0026306663299129141 0 0.053099507964069745 0.0028032083099250424 0 0.052315708875214931 0.0029981189894977586 0 0.053081404205705895 0.0027233518532394098 0 0.053943790311653937 0.0010762031575651176 0 0.053368555835158545 0.0014451238204253429 0 0.053585644044267425 0.0010976169938648585 0 0.047069096300237243 0.0026345587813392554 0 0.04704427753441897 0.0026940657758862943 0 0.047077269685052235 0.0027094113191023493 0 0.050133515073400511 0.0018131411737967998 0 0.052315708875214931 0.0029981189894977586 0 0.053368555835158545 0.0014451238204253429 0 0.053585644044267425 0.0010976169938648585 0 0.052958939294492052 0.00096847722541524108 0 0.053569274923721023 0.0025996416753682073 0 0.052633658802133894 0.0020697688060954036 0 0.052958939294492052 0.00096847722541524108 0 0.052633658802133894 0.0020697688060954036 0 0.051852566293878695 0.0014514440587219701 0 0.052958939294492052 0.00096847722541524108 0 0.052315708875214931 0.0029981189894977586 0 0.053186054316745432 0.00074812083162346726 0 0.053569274923721023 0.0025996416753682073 0 0.052633658802133894 0.0020697688060954036 0 0.053099507964069745 0.0028032083099250424 0 0.052633658802133894 0.0020697688060954036 0 0.053099507964069745 0.0028032083099250424 0 0.052232961860569381 0.0032641202771817677 0 0.053099507964069745 0.0028032083099250424 0 0.052232961860569381 0.0032641202771817677 0 0.052845281450538108 0.0034469155992727166 0 0.052603640953152474 0.0041011196419041152 0 0.052232961860569381 0.0032641202771817677 0 0.052845281450538108 0.0034469155992727166 0 0.053442572559364569 0.0036263580989132644 0 0.053099507964069745 0.0028032083099250424 0 0.052845281450538108 0.0034469155992727166 0 0.052603640953152474 0.0041011196419041152 0 0.053442572559364569 0.0036263580989132644 0 0.052845281450538108 0.0034469155992727166 0 0.051371296277293498 0.0040828480116373847 0 0.052232961860569381 0.0032641202771817677 0 0.050939057062540351 0.0032413237765246037 0 0.052232961860569381 0.0032641202771817677 0 0.051764834203902536 0.0024767067654639804 0 0.050939057062540351 0.0032413237765246037 0 0.051764834203902536 0.0024767067654639804 0 0.051852566293878695 0.0014514440587219701 0 0.050361270379388499 0.0023729219425761261 0 0.052633658802133894 0.0020697688060954036 0 0.052232961860569381 0.0032641202771817677 0 0.051764834203902536 0.0024767067654639804 0 0.052633658802133894 0.0020697688060954036 0 0.051764834203902536 0.0024767067654639804 0 0.051852566293878695 0.0014514440587219701 0 0.051852566293878695 0.0014514440587219701 0 0.052054735199035973 0.00048672898007339187 0 0.051031667411921236 0.00099207205516125521 0 0.051852566293878695 0.0014514440587219701 0 0.052958939294492052 0.00096847722541524108 0 0.052054735199035973 0.00048672898007339187 0 0.053549181025533868 0.00030995617119913691 0 0.052958939294492052 0.00096847722541524108 0 0.052946636269059717 0.0001321600961022645 0 0.052958939294492052 0.00096847722541524108 0 0.052054735199035973 0.00048672898007339187 0 0.052946636269059717 0.0001321600961022645 0 0.052054735199035973 0.00048672898007339187 0 0.052946636269059717 0.0001321600961022645 0 0.052246911149315879 -9.7805396721049772e-05 0 0.052946636269059717 0.0001321600961022645 0 0.053083005636705823 -0.0001554036027345511 0 0.052246911149315879 -9.7805396721049772e-05 0 0.052946636269059717 0.0001321600961022645 0 0.053471003052914863 -6.8673936810860221e-05 0 0.053083005636705823 -0.0001554036027345511 0 0.053549181025533868 0.00030995617119913691 0 0.052946636269059717 0.0001321600961022645 0 0.053471003052914863 -6.8673936810860221e-05 0 0.053471003052914863 -6.8673936810860221e-05 0 0.053083005636705823 -0.0001554036027345511 0 0.053742256830829213 -0.00023048039119384796 0 0.053471003052914863 -6.8673936810860221e-05 0 0.053742256830829213 -0.00023048039119384796 0 0.053732260744055814 -8.7427487986276687e-05 0 0.053083005636705823 -0.0001554036027345511 0 0.053742256830829213 -0.00023048039119384796 0 0.052711047365066821 -0.00033029843571642456 0 0.053742256830829213 -0.00023048039119384796 0 0.054999727298745277 -1.9651726301502609e-07 0 0.053882982923400324 -0.00035823011738758779 0 0.054999727298745277 -1.9651726301502609e-07 0 0.053882982923400324 -0.00035823011738758779 0 0.054996430081741217 -1.2433544094271709e-06 0 0.053742256830829213 -0.00023048039119384796 0 0.054999727298745277 -1.9651726301502609e-07 0 0.054813537689517522 -7.08450081615874e-06 0 0.053846394168358937 -0.00018107992460840211 0 0.054274046719957419 -0.00012076444760074782 0 0.053742256830829213 -0.00023048039119384796 0 0.053753537868312232 -0.00016531695936809174 0 0.053732260744055814 -8.7427487986276687e-05 0 0.053753537868312232 -0.00016531695936809174 0 0.054070739472433335 -5.1402511660450167e-05 0 0.053732260744055814 -8.7427487986276687e-05 0 0.053753537868312232 -0.00016531695936809174 0 0.054190250374771189 -0.00020475795444245071 0 0.054070739472433335 -5.1402511660450167e-05 0 0.054070739472433335 -5.1402511660450167e-05 0 0.054035436759849724 2.9866318771584295e-05 0 0.053732260744055814 -8.7427487986276687e-05 0 0.054274046719957419 -0.00012076444760074782 0 0.054581663008803939 -6.9012914548591543e-05 0 0.054999727298745277 -1.9651726301502609e-07 0 0.054813537689517522 -7.08450081615874e-06 0 0.054999921891266242 2.2079054206059749e-08 0 0.054813537689517522 -7.08450081615874e-06 0 0.054999921891266242 2.2079054206059749e-08 0 0.054999168197840391 1.4998169568925329e-05 0 0.054581663008803939 -6.9012914548591543e-05 0 0.054999785024905185 -3.4203860675087338e-08 0 0.054999921891266242 2.2079054206059749e-08 0 0.054999168197840391 1.4998169568925329e-05 0 0.055000047722735701 -4.8008152795714564e-09 0 0.054190250374771189 -0.00020475795444245071 0 0.054070739472433335 -5.1402511660450167e-05 0 0.054451723023505844 2.2929672020260786e-05 0 0.054070739472433335 -5.1402511660450167e-05 0 0.054263001545541784 8.5467298281319363e-05 0 0.054035436759849724 2.9866318771584295e-05 0 0.054070739472433335 -5.1402511660450167e-05 0 0.054263001545541784 8.5467298281319363e-05 0 0.054451723023505844 2.2929672020260786e-05 0 0.054035436759849724 2.9866318771584295e-05 0 0.05383292370675978 7.0666289495794799e-05 0 0.054199212426240435 0.00016557204676612242 0 0.054263001545541784 8.5467298281319363e-05 0 0.054035436759849724 2.9866318771584295e-05 0 0.054199212426240435 0.00016557204676612242 0 0.053471003052914863 -6.8673936810860221e-05 0 0.053732260744055814 -8.7427487986276687e-05 0 0.05383292370675978 7.0666289495794799e-05 0 0.054035436759849724 2.9866318771584295e-05 0 0.053732260744055814 -8.7427487986276687e-05 0 0.05383292370675978 7.0666289495794799e-05 0 0.053549181025533868 0.00030995617119913691 0 0.053471003052914863 -6.8673936810860221e-05 0 0.05383292370675978 7.0666289495794799e-05 0 0.053549181025533868 0.00030995617119913691 0 0.05383292370675978 7.0666289495794799e-05 0 0.053956370279525649 0.00026655910104321642 0 0.05383292370675978 7.0666289495794799e-05 0 0.053956370279525649 0.00026655910104321642 0 0.054199212426240435 0.00016557204676612242 0 0.053956370279525649 0.00026655910104321642 0 0.054182719907728071 0.00031729885355143709 0 0.054199212426240435 0.00016557204676612242 0 0.054298618892700573 0.00025092401038585269 0 0.054182719907728071 0.00031729885355143709 0 0.054199212426240435 0.00016557204676612242 0 0.054271123957639569 0.00031308569939720834 0 0.054298618892700573 0.00025092401038585269 0 0.054182719907728071 0.00031729885355143709 0 0.054223335596467151 0.00027975401381822473 0 0.054271123957639569 0.00031308569939720834 0 0.054338256680327837 0.00029538768578079775 0 0.054271123957639569 0.00031308569939720834 0 0.054298618892700573 0.00025092401038585269 0 0.054338256680327837 0.00029538768578079775 0 0.054298618892700573 0.00025092401038585269 0 0.054338256680327837 0.00029538768578079775 0 0.054419045130325104 0.00015383343446883572 0 0.054338256680327837 0.00029538768578079775 0 0.054419045130325104 0.00015383343446883572 0 0.054492347413506198 0.00021734108892295447 0 0.054298618892700573 0.00025092401038585269 0 0.054419045130325104 0.00015383343446883572 0 0.054199212426240435 0.00016557204676612242 0 0.054263001545541784 8.5467298281319363e-05 0 0.054419045130325104 0.00015383343446883572 0 0.054199212426240435 0.00016557204676612242 0 0.054419045130325104 0.00015383343446883572 0 0.054451723023505844 2.2929672020260786e-05 0 0.054725229061790691 8.6903548815301952e-05 0 0.054263001545541784 8.5467298281319363e-05 0 0.054419045130325104 0.00015383343446883572 0 0.054451723023505844 2.2929672020260786e-05 0 0.054451723023505844 2.2929672020260786e-05 0 0.054998383974230153 -7.5358997275704408e-07 0 0.054725229061790691 8.6903548815301952e-05 0 0.054190250374771189 -0.00020475795444245071 0 0.054451723023505844 2.2929672020260786e-05 0 0.054998383974230153 -7.5358997275704408e-07 0 0.054998383974230153 -7.5358997275704408e-07 0 0.054725229061790691 8.6903548815301952e-05 0 0.054999850510760701 5.9710021188830832e-07 0 0.054419045130325104 0.00015383343446883572 0 0.054725229061790691 8.6903548815301952e-05 0 0.054492347413506198 0.00021734108892295447 0 0.054492347413506198 0.00021734108892295447 0 0.054541217894408404 0.00023486198708684824 0 0.054327405147847153 0.00031969119840742042 0 0.054725229061790691 8.6903548815301952e-05 0 0.054492347413506198 0.00021734108892295447 0 0.054541217894408404 0.00023486198708684824 0 0.054907233330916475 -6.0684551044259455e-05 0 0.054989567214815536 1.7571157207136384e-07 0 0.054999966607985132 5.2460530702136108e-08 0 0.054725229061790691 8.6903548815301952e-05 0 0.054541217894408404 0.00023486198708684824 0 0.054999850510760701 5.9710021188830832e-07 0 0.054720672213650401 7.690930554202902e-05 0 0.054999846423672595 -4.5841740080753101e-08 0 0.054907233330916475 -6.0684551044259455e-05 0 0.054989567214815536 1.7571157207136384e-07 0 0.054788123631810334 -5.2814517601561505e-05 0 0.054999958748478447 -6.7023211723820267e-09 0 0.054989567214815536 1.7571157207136384e-07 0 0.054989412748627078 7.318064893995372e-06 0 0.054989567214815536 1.7571157207136384e-07 0 0.054989412748627078 7.318064893995372e-06 0 0.054983597491193824 1.0564658114955704e-05 0 0.054972365216613861 1.3813398930883517e-06 0 0.054882941693614976 -2.9956610415896427e-05 0 0.054999958748478447 -6.7023211723820267e-09 0 0.054989567214815536 1.7571157207136384e-07 0 0.054999966607985132 5.2460530702136108e-08 0 0.054977258041166321 1.3852889489727839e-05 0 0.054989412748627078 7.318064893995372e-06 0 0.054983597491193824 1.0564658114955704e-05 0 0.054907233330916475 -6.0684551044259455e-05 0 0.054788123631810334 -5.2814517601561505e-05 0 0.054766424574814454 -0.00029782357537927532 0 0.05400404710000993 0.00042302727027030839 0 0.054327405147847153 0.00031969119840742042 0 0.054059644614013191 0.0003378944011375187 0 0.054720672213650401 7.690930554202902e-05 0 0.054303462682310587 -6.0583923859961568e-05 0 0.054526842252274103 -0.00026968324532120053 0 0.054788123631810334 -5.2814517601561505e-05 0 0.054766424574814454 -0.00029782357537927532 0 0.054541217894408404 0.00023486198708684824 0 0.05400404710000993 0.00042302727027030839 0 0.054327405147847153 0.00031969119840742042 0 0.054338256680327837 0.00029538768578079775 0 0.054492347413506198 0.00021734108892295447 0 0.054327405147847153 0.00031969119840742042 0 0.054338256680327837 0.00029538768578079775 0 0.054327405147847153 0.00031969119840742042 0 0.054059644614013191 0.0003378944011375187 0 0.054223335596467151 0.00027975401381822473 0 0.054338256680327837 0.00029538768578079775 0 0.054059644614013191 0.0003378944011375187 0 0.05439676022120904 7.9476873949174039e-05 0 0.054303462682310587 -6.0583923859961568e-05 0 0.053286081658140215 9.8884574032618718e-05 0 0.053657456108420439 0.00027057954924379596 0 0.05400404710000993 0.00042302727027030839 0 0.053657456108420439 0.00027057954924379596 0 0.05400404710000993 0.00042302727027030839 0 0.054059644614013191 0.0003378944011375187 0 0.049025303838837665 0.00463591856355881 0 0.048785484810811963 0.004775080292058754 0 0.04900190954660847 0.0049133813474308112 0 0.049286496058571584 0.0046820938175227717 0 0.049025303838837665 0.00463591856355881 0 0.04900190954660847 0.0049133813474308112 0 0.046597474116406308 0.0021983590648388062 0 0.045901837490746909 0.0029730224896347525 0 0.044628751218652722 -0.00062707172153563949 0 0.042771004835035535 0.0010746903449579447 0 0.044998126143994087 0.0010680034251471242 0 0.049286496058571584 0.0046820938175227717 0 0.049025303838837665 0.00463591856355881 0 0.049188448054575923 0.0044254736868925507 0 0.049286496058571584 0.0046820938175227717 0 0.049547006711273836 0.004382919772674518 0 0.049188448054575923 0.0044254736868925507 0 0.049025303838837665 0.00463591856355881 0 0.048846782248916996 0.0045933754827143895 0 0.04902332402174793 0.0043721916390426913 0 0.048846782248916996 0.0045933754827143895 0 0.048607331831874039 0.0047976537056897616 0 0.048785484810811963 0.004775080292058754 0 0.048846782248916996 0.0045933754827143895 0 0.048607331831874039 0.0047976537056897616 0 0.048865306605345306 0.0043663744636732423 0 0.049025303838837665 0.00463591856355881 0 0.048846782248916996 0.0045933754827143895 0 0.048785484810811963 0.004775080292058754 0 0.048607331831874039 0.0047976537056897616 0 0.048590314028020866 0.0048843684365008581 0 0.048785484810811963 0.004775080292058754 0 0.048590314028020866 0.0048843684365008581 0 0.048785484810811963 0.004775080292058754 0 0.048688946574477428 0.0049200881757903653 0 0.048785484810811963 0.004775080292058754 0 0.048688946574477428 0.0049200881757903653 0 0.04900190954660847 0.0049133813474308112 0 0.048688946574477428 0.0049200881757903653 0 0.04856623019719427 0.0050532738105913784 0 0.048780059197456635 0.0050565345816726351 0 0.048688946574477428 0.0049200881757903653 0 0.048780059197456635 0.0050565345816726351 0 0.04900190954660847 0.0049133813474308112 0 0.048688946574477428 0.0049200881757903653 0 0.04856623019719427 0.0050532738105913784 0 0.04850703573786061 0.0048447108248269709 0 0.048590314028020866 0.0048843684365008581 0 0.048688946574477428 0.0049200881757903653 0 0.04850703573786061 0.0048447108248269709 0 0.048494845780987242 0.0050043859546991401 0 0.048339820357828661 0.0046465755975054809 0 0.042231435829449764 0.0038229170844866259 0 0.048494845780987242 0.0050043859546991401 0 0.048603707458363572 0.0051874288738137236 0 0.04856623019719427 0.0050532738105913784 0 0.048780059197456635 0.0050565345816726351 0 0.042231435829449764 0.0038229170844866259 0 0.045153103719567586 0.003891426367768474 0 0.042757717966557904 0.0037102691678659971 0 0.041029375717688263 0.0026882157983925893 0 0.044063094041860811 0.0023455796877941107 0 0.045153103719567586 0.003891426367768474 0 0.045901837490746909 0.0029730224896347525 0 0.041029375717688263 0.0026882157983925893 0 0.042771004835035535 0.0010746903449579447 0 0.044063094041860811 0.0023455796877941107 0 0.042771004835035535 0.0010746903449579447 0 0.044063094041860811 0.0023455796877941107 0 0.044998126143994087 0.0010680034251471242 0 0.042757717966557904 0.0037102691678659971 0 0.044063094041860811 0.0023455796877941107 0 0.04477538113754799 0.0037247834570363989 0 0.044063094041860811 0.0023455796877941107 0 0.04477538113754799 0.0037247834570363989 0 0.04660159191636902 0.0021680124036138121 0 0.047435914701150862 0.0039320124764637343 0 0.04477538113754799 0.0037247834570363989 0 0.04660159191636902 0.0021680124036138121 0 0.047435914701150862 0.0039320124764637343 0 0.04660159191636902 0.0021680124036138121 0 0.048645216239900667 0.0027128010290243497 0 0.04660159191636902 0.0021680124036138121 0 0.048645216239900667 0.0027128010290243497 0 0.049392990140778074 0.0010941078580891327 0 0.044063094041860811 0.0023455796877941107 0 0.04660159191636902 0.0021680124036138121 0 0.044998126143994087 0.0010680034251471242 0 0.04660159191636902 0.0021680124036138121 0 0.047103510346952523 0.00028130466429719631 0 0.044998126143994087 0.0010680034251471242 0 0.051764834203902536 0.0024767067654639804 0 0.050939057062540351 0.0032413237765246037 0 0.050361270379388499 0.0023729219425761261 0 0.049630323042752132 0.0043068908393677982 0 0.050939057062540351 0.0032413237765246037 0 0.050361270379388499 0.0023729219425761261 0 0.049630323042752132 0.0043068908393677982 0 0.047435914701150862 0.0039320124764637343 0 0.048645216239900667 0.0027128010290243497 0 0.049630323042752132 0.0043068908393677982 0 0.048645216239900667 0.0027128010290243497 0 0.050361270379388499 0.0023729219425761261 0 0.048645216239900667 0.0027128010290243497 0 0.050361270379388499 0.0023729219425761261 0 0.049392990140778074 0.0010941078580891327 0 0.050361270379388499 0.0023729219425761261 0 0.051031667411921236 0.00099207205516125521 0 0.049392990140778074 0.0010941078580891327 0 0.051852566293878695 0.0014514440587219701 0 0.050361270379388499 0.0023729219425761261 0 0.051031667411921236 0.00099207205516125521 0 0.051031667411921236 0.00099207205516125521 0 0.049392990140778074 0.0010941078580891327 0 0.051117103054583245 1.1446848723291705e-05 0 0.051117103054583245 1.1446848723291705e-05 0 0.049866663671524078 -0.00050786207706573138 0 0.051316363113588559 -0.00027304019348651848 0 0.049392990140778074 0.0010941078580891327 0 0.051117103054583245 1.1446848723291705e-05 0 0.049866663671524078 -0.00050786207706573138 0 0.052054735199035973 0.00048672898007339187 0 0.051117103054583245 1.1446848723291705e-05 0 0.052246911149315879 -9.7805396721049772e-05 0 0.052054735199035973 0.00048672898007339187 0 0.051031667411921236 0.00099207205516125521 0 0.051117103054583245 1.1446848723291705e-05 0 0.044628751218652722 -0.00062707172153563949 0 0.047103510346952523 0.00028130466429719631 0 0.044998126143994087 0.0010680034251471242 0 0.049392990140778074 0.0010941078580891327 0 0.047103510346952523 0.00028130466429719631 0 0.049866663671524078 -0.00050786207706573138 0 0.04660159191636902 0.0021680124036138121 0 0.049392990140778074 0.0010941078580891327 0 0.047103510346952523 0.00028130466429719631 0 0.047103510346952523 0.00028130466429719631 0 0.049866663671524078 -0.00050786207706573138 0 0.046684914622866579 -0.002806511264202693 0 0.048963375649360451 -0.0013393752238014831 0 0.050646702362438151 0.00063945726957890245 0 0.046597474116406308 0.0021983590648388062 0 0.050646702362438151 0.00063945726957890245 0 0.044628751218652722 -0.00062707172153563949 0 0.047103510346952523 0.00028130466429719631 0 0.046684914622866579 -0.002806511264202693 0 0.054931044372245767 7.8171916756412002e-05 0 0.054956374455224145 3.8234076771058742e-05 0 0.054928009512492534 6.4904733141767741e-05 0 0.050646702362438151 0.00063945726957890245 0 0.052408616214727186 0.0023261638438115788 0 0.050840359712955259 -0.00033395574420775449 0 0.050711348177632204 -0.00032283153873431929 0 0.051108422407288842 -0.00043109412533207976 0 0.049866663671524078 -0.00050786207706573138 0 0.050840359712955259 -0.00033395574420775449 0 0.050711348177632204 -0.00032283153873431929 0 0.050646702362438151 0.00063945726957890245 0 0.05344671358460331 -0.00041871908354901077 0 0.054976792590741209 3.5947184211061132e-05 0 0.054956374455224145 3.8234076771058742e-05 0 0.054981499339037412 1.126715977502058e-05 0 0.054931044372245767 7.8171916756412002e-05 0 0.054976792590741209 3.5947184211061132e-05 0 0.054956374455224145 3.8234076771058742e-05 0 0.052246911149315879 -9.7805396721049772e-05 0 0.051316363113588559 -0.00027304019348651848 0 0.052711047365066821 -0.00033029843571642456 0 0.051117103054583245 1.1446848723291705e-05 0 0.052246911149315879 -9.7805396721049772e-05 0 0.051316363113588559 -0.00027304019348651848 0 0.050711348177632204 -0.00032283153873431929 0 0.051108422407288842 -0.00043109412533207976 0 0.051316363113588559 -0.00027304019348651848 0 0.049866663671524078 -0.00050786207706573138 0 0.050711348177632204 -0.00032283153873431929 0 0.051316363113588559 -0.00027304019348651848 0 0.051108422407288842 -0.00043109412533207976 0 0.052711047365066821 -0.00033029843571642456 0 0.052771180949354166 -0.00065823519857071159 0 0.051108422407288842 -0.00043109412533207976 0 0.051316363113588559 -0.00027304019348651848 0 0.052711047365066821 -0.00033029843571642456 0 0.053083005636705823 -0.0001554036027345511 0 0.052246911149315879 -9.7805396721049772e-05 0 0.052711047365066821 -0.00033029843571642456 0 0.052711047365066821 -0.00033029843571642456 0 0.053882982923400324 -0.00035823011738758779 0 0.052771180949354166 -0.00065823519857071159 0 0.053742256830829213 -0.00023048039119384796 0 0.052711047365066821 -0.00033029843571642456 0 0.053882982923400324 -0.00035823011738758779 0 0.05344671358460331 -0.00041871908354901077 0 0.053775153971890192 -0.00014075119740166131 0 0.054996176543168476 1.0641572718982574e-05 0 0.055000006902103042 3.6624523222768956e-09 0 0.054999984592085015 4.2081426396988497e-09 0 0.053882982923400324 -0.00035823011738758779 0 0.052771180949354166 -0.00065823519857071159 0 0.054996430081741217 -1.2433544094271709e-06 0 0.053775153971890192 -0.00014075119740166131 0 0.054999450684868986 -2.6586803348207133e-08 0 0.054956374455224145 3.8234076771058742e-05 0 0.054981499339037412 1.126715977502058e-05 0 0.054951646136319122 2.0282034788716362e-05 0 0.054981499339037412 1.126715977502058e-05 0 0.054981044721758153 1.1518951196921938e-05 0 0.054951646136319122 2.0282034788716362e-05 0 0.054976792590741209 3.5947184211061132e-05 0 0.054996176543168476 1.0641572718982574e-05 0 0.054981499339037412 1.126715977502058e-05 0 0.054996176543168476 1.0641572718982574e-05 0 0.054981499339037412 1.126715977502058e-05 0 0.054999984592085015 4.2081426396988497e-09 0 0.054981499339037412 1.126715977502058e-05 0 0.054999984592085015 4.2081426396988497e-09 0 0.054999956753441027 6.6314241368018613e-09 0 0.054981499339037412 1.126715977502058e-05 0 0.054999956753441027 6.6314241368018613e-09 0 0.054981044721758153 1.1518951196921938e-05 0 0.054999956753441027 6.6314241368018613e-09 0 0.054981044721758153 1.1518951196921938e-05 0 0.054999991968669275 2.4421412238203512e-08 0 0.054981044721758153 1.1518951196921938e-05 0 0.054999991968669275 2.4421412238203512e-08 0 0.054979536458054985 1.7536357726460358e-05 0 0.054979536458054985 1.7536357726460358e-05 0 0.054966205823322532 8.6839683074829271e-06 0 0.054989380719353768 2.1813344910961983e-05 0 0.054999991968669275 2.4421412238203512e-08 0 0.054979536458054985 1.7536357726460358e-05 0 0.054989380719353768 2.1813344910961983e-05 0 0.054981044721758153 1.1518951196921938e-05 0 0.054979536458054985 1.7536357726460358e-05 0 0.054951646136319122 2.0282034788716362e-05 0 0.054956374455224145 3.8234076771058742e-05 0 0.054951646136319122 2.0282034788716362e-05 0 0.054928009512492534 6.4904733141767741e-05 0 0.054979536458054985 1.7536357726460358e-05 0 0.054951646136319122 2.0282034788716362e-05 0 0.054966205823322532 8.6839683074829271e-06 0 0.054951646136319122 2.0282034788716362e-05 0 0.054891804211367246 4.8999439967621115e-05 0 0.054928009512492534 6.4904733141767741e-05 0 0.053030155610248798 0.00095252701691229003 0 0.052408616214727186 0.0023261638438115788 0 0.055387257577564297 -0.00035097408306310039 0 0.053030155610248798 0.00095252701691229003 0 0.054920159040759982 7.1088089199711752e-05 0 0.054871890330490794 7.8589511823623376e-05 0 0.054926638244303265 4.6464995252632587e-05 0 0.053030155610248798 0.00095252701691229003 0 0.052365921488358322 0.0025843398416610119 0 0.053030155610248798 0.00095252701691229003 0 0.05523041266428072 6.983508249181859e-05 0 0.054920159040759982 7.1088089199711752e-05 0 0.054871890330490794 7.8589511823623376e-05 0 0.054950199888715828 8.2925287436442117e-05 0 0.049140255676823376 0.004139438334141929 0 0.04902332402174793 0.0043721916390426913 0 0.048897061152207086 0.0043346582071669892 0 0.049140255676823376 0.004139438334141929 0 0.04902332402174793 0.0043721916390426913 0 0.049188448054575923 0.0044254736868925507 0 0.049025303838837665 0.00463591856355881 0 0.04902332402174793 0.0043721916390426913 0 0.049188448054575923 0.0044254736868925507 0 0.048847340141507406 0.003404899492291019 0 0.052365921488358322 0.0025843398416610119 0 0.049547006711273836 0.004382919772674518 0 0.049188448054575923 0.0044254736868925507 0 0.049335857383594084 0.0042667883428018213 0 0.049140255676823376 0.004139438334141929 0 0.049188448054575923 0.0044254736868925507 0 0.049335857383594084 0.0042667883428018213 0 0.055371446917136496 0.0012916531976701385 0 0.055334993811985242 0.00094467092469011354 0 0.055609449703181817 0.0010558979562887722 0 0.055749994925462232 0.00031104983024246721 0 0.052365921488358322 0.0025843398416610119 0 0.051980058205237253 0.0030754386832081522 0 0.052365921488358322 0.0025843398416610119 0 0.048846782248916996 0.0045933754827143895 0 0.04902332402174793 0.0043721916390426913 0 0.048865306605345306 0.0043663744636732423 0 0.054920159040759982 7.1088089199711752e-05 0 0.054926638244303265 4.6464995252632587e-05 0 0.054968264138906861 7.0193402696893745e-05 0 0.054920159040759982 7.1088089199711752e-05 0 0.054968264138906861 7.0193402696893745e-05 0 0.054950199888715828 8.2925287436442117e-05 0 0.054997251744875436 6.2890210494886891e-05 0 0.054968264138906861 7.0193402696893745e-05 0 0.055001876984256605 6.6309233192659157e-05 0 0.054997251744875436 6.2890210494886891e-05 0 0.054926638244303265 4.6464995252632587e-05 0 0.054968264138906861 7.0193402696893745e-05 0 0.054968264138906861 7.0193402696893745e-05 0 0.054998767005707827 3.9818209114086518e-05 0 0.055001876984256605 6.6309233192659157e-05 0 0.054968264138906861 7.0193402696893745e-05 0 0.054998767005707827 3.9818209114086518e-05 0 0.054950199888715828 8.2925287436442117e-05 0 0.054904659924644786 8.0509306868998285e-06 0 0.05523041266428072 6.983508249181859e-05 0 0.054999991968669275 2.4421412238203512e-08 0 0.054998767005707827 3.9818209114086518e-05 0 0.054989380719353768 2.1813344910961983e-05 0 0.054999991968669275 2.4421412238203512e-08 0 0.054998767005707827 3.9818209114086518e-05 0 0.05500000008475911 3.8655703963701088e-08 0 0.054998767005707827 3.9818209114086518e-05 0 0.05500000008475911 3.8655703963701088e-08 0 0.055003187867170032 3.6983447668553413e-05 0 0.05500000008475911 3.8655703963701088e-08 0 0.055003187867170032 3.6983447668553413e-05 0 0.055000025365642288 4.7930478845738701e-08 0 0.055000025365642288 4.7930478845738701e-08 0 0.055005028363455603 6.3291542423049417e-05 0 0.055002246898759988 8.5762293476460388e-05 0 0.055003187867170032 3.6983447668553413e-05 0 0.055000025365642288 4.7930478845738701e-08 0 0.055005028363455603 6.3291542423049417e-05 0 0.055005028363455603 6.3291542423049417e-05 0 0.055002246898759988 8.5762293476460388e-05 0 0.055011581696391525 0.00010652785856263547 0 0.055003187867170032 3.6983447668553413e-05 0 0.055005028363455603 6.3291542423049417e-05 0 0.055001876984256605 6.6309233192659157e-05 0 0.054998767005707827 3.9818209114086518e-05 0 0.055003187867170032 3.6983447668553413e-05 0 0.055001876984256605 6.6309233192659157e-05 0 0.055005028363455603 6.3291542423049417e-05 0 0.055001876984256605 6.6309233192659157e-05 0 0.055011581696391525 0.00010652785856263547 0 0.054999976672749092 7.133770176716682e-08 0 0.055002246898759988 8.5762293476460388e-05 0 0.054913364755893222 0.00011671793045864705 0 0.055000025365642288 4.7930478845738701e-08 0 0.054999976672749092 7.133770176716682e-08 0 0.055002246898759988 8.5762293476460388e-05 0 0.055002246898759988 8.5762293476460388e-05 0 0.054913364755893222 0.00011671793045864705 0 0.054972073563971345 0.00021253406661442828 0 0.054913364755893222 0.00011671793045864705 0 0.054972073563971345 0.00021253406661442828 0 0.054604665432126581 0.00037004972761276903 0 0.054489343623609854 0.00062817890659627197 0 0.054329441279970574 0.00080775231871904921 0 0.054604665432126581 0.00037004972761276903 0 0.055002246898759988 8.5762293476460388e-05 0 0.054972073563971345 0.00021253406661442828 0 0.055011581696391525 0.00010652785856263547 0 0.054746201111903189 0.0004127439990543684 0 0.054830232767254725 0.00045210216725615632 0 0.054489343623609854 0.00062817890659627197 0 0.054632301609735222 0.00090022369897323413 0 0.054912837073193665 0.00076586500227119789 0 0.054632301609735222 0.00090022369897323413 0 0.054952742594080277 0.001192001140718312 0 0.054446920501174112 0.001227152417221286 0 0.054489343623609854 0.00062817890659627197 0 0.054632301609735222 0.00090022369897323413 0 0.054329441279970574 0.00080775231871904921 0 0.054632301609735222 0.00090022369897323413 0 0.054329441279970574 0.00080775231871904921 0 0.054446920501174112 0.001227152417221286 0 0.055749994925462232 0.00031104983024246721 0 0.054830232767254725 0.00045210216725615632 0 0.054997251744875436 6.2890210494886891e-05 0 0.055001876984256605 6.6309233192659157e-05 0 0.055011581696391525 0.00010652785856263547 0 0.054632301609735222 0.00090022369897323413 0 0.054912837073193665 0.00076586500227119789 0 0.054952742594080277 0.001192001140718312 0 0.055334993811985242 0.00094467092469011354 0 0.054912837073193665 0.00076586500227119789 0 0.054952742594080277 0.001192001140718312 0 0.055371446917136496 0.0012916531976701385 0 0.055334993811985242 0.00094467092469011354 0 0.054952742594080277 0.001192001140718312 0 0.055371446917136496 0.0012916531976701385 0 0.055058698380563029 0.0017105375040416869 0 0.054952742594080277 0.001192001140718312 0 0.048590314028020866 0.0048843684365008581 0 0.049016328820628355 0.0051803085787415909 0 0.04850703573786061 0.0048447108248269709 0 0.048607331831874039 0.0047976537056897616 0 0.048590314028020866 0.0048843684365008581 0 0.049016328820628355 0.0051803085787415909 0 0.051980058205237253 0.0030754386832081522 0 0.052071240293739079 0.0034334268119050456 0 0.055058698380563029 0.0017105375040416869 0 0.054952742594080277 0.001192001140718312 0 0.054616949178982112 0.0016813662454629608 0 0.054952742594080277 0.001192001140718312 0 0.054446920501174112 0.001227152417221286 0 0.054616949178982112 0.0016813662454629608 0 0.054329441279970574 0.00080775231871904921 0 0.054446920501174112 0.001227152417221286 0 0.054041721793172258 0.0011331007151275006 0 0.054446920501174112 0.001227152417221286 0 0.053957182057352199 0.0017616117357754152 0 0.054041721793172258 0.0011331007151275006 0 0.054446920501174112 0.001227152417221286 0 0.053957182057352199 0.0017616117357754152 0 0.054616949178982112 0.0016813662454629608 0 0.053957182057352199 0.0017616117357754152 0 0.054616949178982112 0.0016813662454629608 0 0.054462876264797767 0.0024814510316493593 0 0.055058698380563029 0.0017105375040416869 0 0.054616949178982112 0.0016813662454629608 0 0.054462876264797767 0.0024814510316493593 0 0.052071240293739079 0.0034334268119050456 0 0.052491366429466613 0.0036433758307929378 0 0.054462876264797767 0.0024814510316493593 0 0.052800301690487363 0.00350297637308364 0 0.052916006954169183 0.0026158528884752427 0 0.053957182057352199 0.0017616117357754152 0 0.054462876264797767 0.0024814510316493593 0 0.052916006954169183 0.0026158528884752427 0 0.052491366429466613 0.0036433758307929378 0 0.052802665027240993 0.0035066462933696922 0 0.050531392051364539 0.0048808348937117588 0 0.051115235559826278 0.0036971726869147385 0 0.052800301690487363 0.00350297637308364 0 0.051115235559826278 0.0036971726869147385 0 0.052800301690487363 0.00350297637308364 0 0.051983531949140939 0.0033252111984401794 0 0.050531392051364539 0.0048808348937117588 0 0.050021299897542976 0.0037080814922463923 0 0.049199497801054336 0.0045069461137763125 0 0.050531392051364539 0.0048808348937117588 0 0.051115235559826278 0.0036971726869147385 0 0.050021299897542976 0.0037080814922463923 0 0.048560332421508479 0.0040248650439691884 0 0.049199497801054336 0.0045069461137763125 0 0.049017404687106511 0.0034094324658738781 0 0.050021299897542976 0.0037080814922463923 0 0.049199497801054336 0.0045069461137763125 0 0.049017404687106511 0.0034094324658738781 0 0.047769990432106425 0.0040499068209393276 0 0.048560332421508479 0.0040248650439691884 0 0.04850703573786061 0.0048447108248269709 0 0.048560332421508479 0.0040248650439691884 0 0.049017404687106511 0.0034094324658738781 0 0.048180752338100021 0.0032197330880615995 0 0.047769990432106425 0.0040499068209393276 0 0.048560332421508479 0.0040248650439691884 0 0.048180752338100021 0.0032197330880615995 0 0.048560332421508479 0.0040248650439691884 0 0.04850703573786061 0.0048447108248269709 0 0.049199497801054336 0.0045069461137763125 0 0.049016328820628355 0.0051803085787415909 0 0.04850703573786061 0.0048447108248269709 0 0.049199497801054336 0.0045069461137763125 0 0.049016328820628355 0.0051803085787415909 0 0.050531392051364539 0.0048808348937117588 0 0.049199497801054336 0.0045069461137763125 0 0.053209585098339847 0.0020484418380678792 0 0.053666494081927238 0.0017284755986622577 0 0.053634791431736516 0.0015072555409525832 0 0.053058013526197427 0.0024167439459580552 0 0.053634791431736516 0.0015072555409525832 0 0.053471462174180133 0.0015450149348899588 0 0.052251092251084888 0.0019327510166626078 0 0.053209585098339847 0.0020484418380678792 0 0.053634791431736516 0.0015072555409525832 0 0.052644372563202403 0.0021815778457683547 0 0.053551701479549879 0.0015642987077020747 0 0.053058013526197427 0.0024167439459580552 0 0.053471462174180133 0.0015450149348899588 0 0.052733864388512561 0.0017998934190487329 0 0.052251092251084888 0.0019327510166626078 0 0.052763315399944215 0.002375548565220187 0 0.052243476400644098 0.0028270904101241061 0 0.052251092251084888 0.0019327510166626078 0 0.052763315399944215 0.002375548565220187 0 0.053209585098339847 0.0020484418380678792 0 0.052763315399944215 0.002375548565220187 0 0.053209585098339847 0.0020484418380678792 0 0.053117424132836349 0.0024261117297005273 0 0.053468329372755273 0.002335624511404098 0 0.053440549833370467 0.0021913245519996965 0 0.053869105283776211 0.0018395931166267508 0 0.053117424132836349 0.0024261117297005273 0 0.053440549833370467 0.0021913245519996965 0 0.053267137921091494 0.0025691562992777119 0 0.053468329372755273 0.002335624511404098 0 0.053440549833370467 0.0021913245519996965 0 0.053267137921091494 0.0025691562992777119 0 0.053209585098339847 0.0020484418380678792 0 0.053117424132836349 0.0024261117297005273 0 0.053440549833370467 0.0021913245519996965 0 0.053397363563218142 0.0022492782127055636 0 0.05299628272534402 0.0030111534886514001 0 0.053468329372755273 0.002335624511404098 0 0.053869105283776211 0.0018395931166267508 0 0.05336579011670347 0.0026449293007749473 0 0.052800301690487363 0.00350297637308364 0 0.052916006954169183 0.0026158528884752427 0 0.052661670668375141 0.0035783568673757003 0 0.053869105283776211 0.0018395931166267508 0 0.053666494081927238 0.0017284755986622577 0 0.054081421623275366 0.0011976772674600702 0 0.053209585098339847 0.0020484418380678792 0 0.053440549833370467 0.0021913245519996965 0 0.053666494081927238 0.0017284755986622577 0 0.053440549833370467 0.0021913245519996965 0 0.053869105283776211 0.0018395931166267508 0 0.053666494081927238 0.0017284755986622577 0 0.054081421623275366 0.0011976772674600702 0 0.053772974052993534 0.0012914468256475886 0 0.053634791431736516 0.0015072555409525832 0 0.053666494081927238 0.0017284755986622577 0 0.054081421623275366 0.0011976772674600702 0 0.053634791431736516 0.0015072555409525832 0 0.053397363563218142 0.0022492782127055636 0 0.053800896686753502 0.001334211059156465 0 0.053957182057352199 0.0017616117357754152 0 0.052916006954169183 0.0026158528884752427 0 0.053492445883065093 0.0014132137138675753 0 0.054041721793172258 0.0011331007151275006 0 0.053492445883065093 0.0014132137138675753 0 0.054221738626519238 0.00073653086234480483 0 0.053957182057352199 0.0017616117357754152 0 0.054041721793172258 0.0011331007151275006 0 0.053492445883065093 0.0014132137138675753 0 0.054081421623275366 0.0011976772674600702 0 0.053976395371301569 0.0010004862088928289 0 0.054221738626519238 0.00073653086234480483 0 0.054081421623275366 0.0011976772674600702 0 0.053976395371301569 0.0010004862088928289 0 0.053772974052993534 0.0012914468256475886 0 0.053800896686753502 0.001334211059156465 0 0.054131381230657249 0.00081004320769281844 0 0.053976395371301569 0.0010004862088928289 0 0.053772974052993534 0.0012914468256475886 0 0.053725752335293142 0.0012443297514219693 0 0.053772974052993534 0.0012914468256475886 0 0.053471462174180133 0.0015450149348899588 0 0.053725752335293142 0.0012443297514219693 0 0.053772974052993534 0.0012914468256475886 0 0.053634791431736516 0.0015072555409525832 0 0.053471462174180133 0.0015450149348899588 0 0.053471462174180133 0.0015450149348899588 0 0.053725752335293142 0.0012443297514219693 0 0.053681767749537555 0.0013533785788886949 0 0.053473753557303418 0.0015306401657134089 0 0.052970482294321365 0.0013160341385238118 0 0.053471462174180133 0.0015450149348899588 0 0.052265981747948172 0.0012081695250643087 0 0.052733864388512561 0.0017998934190487329 0 0.05389698163288488 0.00096598660718041538 0 0.053725752335293142 0.0012443297514219693 0 0.053681767749537555 0.0013533785788886949 0 0.053976395371301569 0.0010004862088928289 0 0.05389698163288488 0.00096598660718041538 0 0.053725752335293142 0.0012443297514219693 0 0.05389698163288488 0.00096598660718041538 0 0.054239840001924874 0.00062180426976429293 0 0.054166407655297504 0.00044368641145482685 0 0.053976395371301569 0.0010004862088928289 0 0.05389698163288488 0.00096598660718041538 0 0.054239840001924874 0.00062180426976429293 0 0.053976395371301569 0.0010004862088928289 0 0.054239840001924874 0.00062180426976429293 0 0.054221738626519238 0.00073653086234480483 0 0.054239840001924874 0.00062180426976429293 0 0.054416619284300624 0.00048607685048546206 0 0.054603459990279407 0.00020516771653523116 0 0.054239840001924874 0.00062180426976429293 0 0.054166407655297504 0.00044368641145482685 0 0.054603459990279407 0.00020516771653523116 0 0.054329441279970574 0.00080775231871904921 0 0.054041721793172258 0.0011331007151275006 0 0.054221738626519238 0.00073653086234480483 0 0.054239840001924874 0.00062180426976429293 0 0.054221738626519238 0.00073653086234480483 0 0.054416619284300624 0.00048607685048546206 0 0.054416619284300624 0.00048607685048546206 0 0.054604665432126581 0.00037004972761276903 0 0.054603459990279407 0.00020516771653523116 0 0.054221738626519238 0.00073653086234480483 0 0.054416619284300624 0.00048607685048546206 0 0.054604665432126581 0.00037004972761276903 0 0.054746201111903189 0.0004127439990543684 0 0.054571054405671053 0.00037011420838458709 0 0.054329441279970574 0.00080775231871904921 0 0.054221738626519238 0.00073653086234480483 0 0.054604665432126581 0.00037004972761276903 0 0.054913364755893222 0.00011671793045864705 0 0.054604665432126581 0.00037004972761276903 0 0.054999579224973179 2.7884491609563791e-08 0 0.054604665432126581 0.00037004972761276903 0 0.054999579224973179 2.7884491609563791e-08 0 0.054603459990279407 0.00020516771653523116 0 0.054999976672749092 7.133770176716682e-08 0 0.054913364755893222 0.00011671793045864705 0 0.054999579224973179 2.7884491609563791e-08 0 0.054166407655297504 0.00044368641145482685 0 0.054603459990279407 0.00020516771653523116 0 0.054479155635466944 -8.4131769845710209e-05 0 0.054999579224973179 2.7884491609563791e-08 0 0.054603459990279407 0.00020516771653523116 0 0.054999530052164375 1.3863245068344059e-07 0 0.054603459990279407 0.00020516771653523116 0 0.054999530052164375 1.3863245068344059e-07 0 0.054479155635466944 -8.4131769845710209e-05 0 0.054999530052164375 1.3863245068344059e-07 0 0.054479155635466944 -8.4131769845710209e-05 0 0.054998646032647779 -5.7524275304870767e-07 0 0.054479155635466944 -8.4131769845710209e-05 0 0.054152839404829019 -0.00056384049190256655 0 0.053617735089724484 0.00026467259721320427 0 0.054479155635466944 -8.4131769845710209e-05 0 0.054152839404829019 -0.00056384049190256655 0 0.054998646032647779 -5.7524275304870767e-07 0 0.054152839404829019 -0.00056384049190256655 0 0.054998646032647779 -5.7524275304870767e-07 0 0.054999363488175503 8.7389728869658597e-08 0 0.054152839404829019 -0.00056384049190256655 0 0.054999363488175503 8.7389728869658597e-08 0 0.055011548399303563 -0.00028300368184008525 0 0.054999363488175503 8.7389728869658597e-08 0 0.055011548399303563 -0.00028300368184008525 0 0.055000686305725896 -3.4359960131524313e-07 0 0.054152839404829019 -0.00056384049190256655 0 0.05109381402399981 -0.0016026735279728675 0 0.052086514528096393 -0.00014343648989822386 0 0.054143497867340615 -0.00061998548980340268 0 0.052702625108119759 -0.00098384283501150522 0 0.054152839404829019 -0.00056384049190256655 0 0.052086514528096393 -0.00014343648989822386 0 0.053617735089724484 0.00026467259721320427 0 0.05109381402399981 -0.0016026735279728675 0 0.052086514528096393 -0.00014343648989822386 0 0.049692003894238466 -0.00021182036603766108 0 0.052086514528096393 -0.00014343648989822386 0 0.050812465168580387 0.00079008976853445201 0 0.049692003894238466 -0.00021182036603766108 0 0.052086514528096393 -0.00014343648989822386 0 0.053617735089724484 0.00026467259721320427 0 0.052935068879228463 0.0014237729868236185 0 0.052086514528096393 -0.00014343648989822386 0 0.050812465168580387 0.00079008976853445201 0 0.052935068879228463 0.0014237729868236185 0 0.053705003563584812 0.00091319988186672446 0 0.053617735089724484 0.00026467259721320427 0 0.052935068879228463 0.0014237729868236185 0 0.05389698163288488 0.00096598660718041538 0 0.054166407655297504 0.00044368641145482685 0 0.053705003563584812 0.00091319988186672446 0 0.054166407655297504 0.00044368641145482685 0 0.053705003563584812 0.00091319988186672446 0 0.053617735089724484 0.00026467259721320427 0 0.054166407655297504 0.00044368641145482685 0 0.054479155635466944 -8.4131769845710209e-05 0 0.053617735089724484 0.00026467259721320427 0 0.054931058144908826 3.1293371914143003e-05 0 0.054999883925247836 -9.5797538223436849e-09 0 0.054999750046243204 9.7314252738647585e-08 0 0.054931058144908826 3.1293371914143003e-05 0 0.054917845115906402 5.6195633293616847e-05 0 0.054814217730098071 0.00011474206799233128 0 0.054931058144908826 3.1293371914143003e-05 0 0.054999883925247836 -9.5797538223436849e-09 0 0.054917845115906402 5.6195633293616847e-05 0 0.054999883925247836 -9.5797538223436849e-09 0 0.054917845115906402 5.6195633293616847e-05 0 0.054987559973423049 3.5927386214832159e-05 0 0.055535273446835863 5.3688736566691888e-05 0 0.053378305613847633 -0.00020537094310756854 0 0.053378305613847633 -0.00020537094310756854 0 0.05500120998281479 -6.0945357562838282e-07 0 0.054999883925247836 -9.5797538223436849e-09 0 0.054987559973423049 3.5927386214832159e-05 0 0.055000064870001662 2.5531001947600367e-08 0 0.055011548399303563 -0.00028300368184008525 0 0.055122863229639392 -0.00022819076687372362 0 0.055000686305725896 -3.4359960131524313e-07 0 0.052702625108119759 -0.00098384283501150522 0 0.053378305613847633 -0.00020537094310756854 0 0.05109381402399981 -0.0016026735279728675 0 0.048865678235444208 -0.0016336057618952756 0 0.049692003894238466 -0.00021182036603766108 0 0.050812465168580387 0.00079008976853445201 0 0.049692003894238466 -0.00021182036603766108 0 0.048623585290326406 0.0008407166820911116 0 0.049692003894238466 -0.00021182036603766108 0 0.047935124834009829 -0.00026243141953260688 0 0.048623585290326406 0.0008407166820911116 0 0.048865678235444208 -0.0016336057618952756 0 0.049692003894238466 -0.00021182036603766108 0 0.047935124834009829 -0.00026243141953260688 0 0.053378305613847633 -0.00020537094310756854 0 0.051191938612875867 -8.04547566409256e-05 0 0.054917845115906402 5.6195633293616847e-05 0 0.054928054194624536 0.00017996311017411928 0 0.054706006012662504 0.00022298850227897842 0 0.054917845115906402 5.6195633293616847e-05 0 0.054978905601106957 5.750094475190386e-05 0 0.054928054194624536 0.00017996311017411928 0 0.054928054194624536 0.00017996311017411928 0 0.054475708442041783 0.0005331406593387612 0 0.05463019856445938 0.000688069332518015 0 0.051191938612875867 -8.04547566409256e-05 0 0.051027524407607786 0.00076801478607304934 0 0.047935124834009829 -0.00026243141953260688 0 0.046878663517581534 0.00076140685905448223 0 0.048623585290326406 0.0008407166820911116 0 0.054928054194624536 0.00017996311017411928 0 0.054706006012662504 0.00022298850227897842 0 0.054475708442041783 0.0005331406593387612 0 0.054475282078485378 0.00051873180147570485 0 0.05399110285488791 6.9837325548803507e-05 0 0.054706006012662504 0.00022298850227897842 0 0.054475708442041783 0.0005331406593387612 0 0.054729380715733647 0.00016078263169549192 0 0.054706006012662504 0.00022298850227897842 0 0.054814217730098071 0.00011474206799233128 0 0.054729380715733647 0.00016078263169549192 0 0.054917845115906402 5.6195633293616847e-05 0 0.054706006012662504 0.00022298850227897842 0 0.054814217730098071 0.00011474206799233128 0 0.046878663517581534 0.00076140685905448223 0 0.046319684048505061 0.0017025612273497482 0 0.045918530716335094 0.0016507954499108894 0 0.051027524407607786 0.00076801478607304934 0 0.04789060645393349 0.0013556956109973923 0 0.054475708442041783 0.0005331406593387612 0 0.05463019856445938 0.000688069332518015 0 0.053848016393196536 0.0020002613800932331 0 0.046878663517581534 0.00076140685905448223 0 0.047359388307924272 0.0015387080877077583 0 0.048623585290326406 0.0008407166820911116 0 0.046878663517581534 0.00076140685905448223 0 0.047359388307924272 0.0015387080877077583 0 0.046319684048505061 0.0017025612273497482 0 0.048363433489508785 0.0018106096245833409 0 0.048623585290326406 0.0008407166820911116 0 0.049528173806966704 0.0015497301162676698 0 0.047359388307924272 0.0015387080877077583 0 0.048363433489508785 0.0018106096245833409 0 0.048623585290326406 0.0008407166820911116 0 0.050812465168580387 0.00079008976853445201 0 0.048623585290326406 0.0008407166820911116 0 0.049528173806966704 0.0015497301162676698 0 0.048363433489508785 0.0018106096245833409 0 0.049528173806966704 0.0015497301162676698 0 0.048945935081001035 0.0023083123874770338 0 0.049528173806966704 0.0015497301162676698 0 0.048945935081001035 0.0023083123874770338 0 0.049760139697472956 0.0022988669518830239 0 0.048945935081001035 0.0023083123874770338 0 0.049106752666629061 0.0028817989916579689 0 0.049760139697472956 0.0022988669518830239 0 0.049106752666629061 0.0028817989916579689 0 0.049742149162607933 0.0033422409896668617 0 0.048583541308771579 0.0035907909534236208 0 0.049106752666629061 0.0028817989916579689 0 0.048186249582325313 0.0027467260810545443 0 0.048583541308771579 0.0035907909534236208 0 0.048945935081001035 0.0023083123874770338 0 0.049106752666629061 0.0028817989916579689 0 0.048186249582325313 0.0027467260810545443 0 0.048186249582325313 0.0027467260810545443 0 0.047728989106630343 0.0033822326973275197 0 0.048583541308771579 0.0035907909534236208 0 0.048186249582325313 0.0027467260810545443 0 0.047332621364329551 0.0022332881339711249 0 0.047048286186337676 0.0030230603451260351 0 0.048186249582325313 0.0027467260810545443 0 0.047728989106630343 0.0033822326973275197 0 0.047048286186337676 0.0030230603451260351 0 0.048363433489508785 0.0018106096245833409 0 0.048945935081001035 0.0023083123874770338 0 0.048186249582325313 0.0027467260810545443 0 0.048363433489508785 0.0018106096245833409 0 0.048186249582325313 0.0027467260810545443 0 0.047332621364329551 0.0022332881339711249 0 0.047359388307924272 0.0015387080877077583 0 0.048363433489508785 0.0018106096245833409 0 0.047332621364329551 0.0022332881339711249 0 0.047359388307924272 0.0015387080877077583 0 0.046619461282237241 0.0021144191946063065 0 0.047332621364329551 0.0022332881339711249 0 0.047359388307924272 0.0015387080877077583 0 0.046619461282237241 0.0021144191946063065 0 0.046319684048505061 0.0017025612273497482 0 0.046619461282237241 0.0021144191946063065 0 0.047332621364329551 0.0022332881339711249 0 0.046104280082551484 0.0026583763250221807 0 0.047332621364329551 0.0022332881339711249 0 0.047048286186337676 0.0030230603451260351 0 0.046104280082551484 0.0026583763250221807 0 0.047728989106630343 0.0033822326973275197 0 0.047048286186337676 0.0030230603451260351 0 0.046789779152360156 0.00365327365092498 0 0.047048286186337676 0.0030230603451260351 0 0.045905457937872915 0.0033995078399079795 0 0.046789779152360156 0.00365327365092498 0 0.047048286186337676 0.0030230603451260351 0 0.045905457937872915 0.0033995078399079795 0 0.046104280082551484 0.0026583763250221807 0 0.045905457937872915 0.0033995078399079795 0 0.046104280082551484 0.0026583763250221807 0 0.045121195626016387 0.0029928919196044786 0 0.046104280082551484 0.0026583763250221807 0 0.045121195626016387 0.0029928919196044786 0 0.045492234892356112 0.002250621271364813 0 0.045905457937872915 0.0033995078399079795 0 0.044955395290297795 0.0036032812585236255 0 0.045121195626016387 0.0029928919196044786 0 0.044955395290297795 0.0036032812585236255 0 0.045121195626016387 0.0029928919196044786 0 0.044168619087382968 0.0034958407707983575 0 0.045121195626016387 0.0029928919196044786 0 0.045492234892356112 0.002250621271364813 0 0.044075481247104073 0.0026769319986321158 0 0.045492234892356112 0.002250621271364813 0 0.045046540331471742 0.0013903237817201306 0 0.044075481247104073 0.0026769319986321158 0 0.046619461282237241 0.0021144191946063065 0 0.046104280082551484 0.0026583763250221807 0 0.045492234892356112 0.002250621271364813 0 0.046619461282237241 0.0021144191946063065 0 0.045492234892356112 0.002250621271364813 0 0.046319684048505061 0.0017025612273497482 0 0.045492234892356112 0.002250621271364813 0 0.046319684048505061 0.0017025612273497482 0 0.045046540331471742 0.0013903237817201306 0 0.045732559890126305 0.0014596338359945172 0 0.04789060645393349 0.0013556956109973923 0 0.052265981747948172 0.0012081695250643087 0 0.051167907993879859 0.00094603262389027882 0 0.051213049372793952 0.0020667288079764192 0 0.052265981747948172 0.0012081695250643087 0 0.052146170269316061 0.0020705974372205089 0 0.052733864388512561 0.0017998934190487329 0 0.05389698163288488 0.00096598660718041538 0 0.053705003563584812 0.00091319988186672446 0 0.053681767749537555 0.0013533785788886949 0 0.052970482294321365 0.0013160341385238118 0 0.052017998382483596 0.0011542867100060195 0 0.053705003563584812 0.00091319988186672446 0 0.053681767749537555 0.0013533785788886949 0 0.052935068879228463 0.0014237729868236185 0 0.050883938802441235 0.00079517655531824362 0 0.052017998382483596 0.0011542867100060195 0 0.050812465168580387 0.00079008976853445201 0 0.051167907993879859 0.00094603262389027882 0 0.050513879909501305 0.0015535234550449195 0 0.050812465168580387 0.00079008976853445201 0 0.049528173806966704 0.0015497301162676698 0 0.050513879909501305 0.0015535234550449195 0 0.049528173806966704 0.0015497301162676698 0 0.050513879909501305 0.0015535234550449195 0 0.049760139697472956 0.0022988669518830239 0 0.051167907993879859 0.00094603262389027882 0 0.050513879909501305 0.0015535234550449195 0 0.051213049372793952 0.0020667288079764192 0 0.050513879909501305 0.0015535234550449195 0 0.050420691299660807 0.0026076703741075903 0 0.051213049372793952 0.0020667288079764192 0 0.050513879909501305 0.0015535234550449195 0 0.049760139697472956 0.0022988669518830239 0 0.050420691299660807 0.0026076703741075903 0 0.049106752666629061 0.0028817989916579689 0 0.049760139697472956 0.0022988669518830239 0 0.049742149162607933 0.0033422409896668617 0 0.049760139697472956 0.0022988669518830239 0 0.049742149162607933 0.0033422409896668617 0 0.050420691299660807 0.0026076703741075903 0 0.050789532428767735 0.0032812357304535075 0 0.050420691299660807 0.0026076703741075903 0 0.051213049372793952 0.0020667288079764192 0 0.049742149162607933 0.0033422409896668617 0 0.050789532428767735 0.0032812357304535075 0 0.050420691299660807 0.0026076703741075903 0 0.050789532428767735 0.0032812357304535075 0 0.051213049372793952 0.0020667288079764192 0 0.051727874873051805 0.003349348043501928 0 0.051213049372793952 0.0020667288079764192 0 0.052146170269316061 0.0020705974372205089 0 0.051727874873051805 0.003349348043501928 0 0.052265981747948172 0.0012081695250643087 0 0.051213049372793952 0.0020667288079764192 0 0.052146170269316061 0.0020705974372205089 0 0.053058013526197427 0.0024167439459580552 0 0.052146170269316061 0.0020705974372205089 0 0.052733864388512561 0.0017998934190487329 0 0.052644372563202403 0.0021815778457683547 0 0.051470699876713599 0.0030305549414798394 0 0.053058013526197427 0.0024167439459580552 0 0.052146170269316061 0.0020705974372205089 0 0.051727874873051805 0.003349348043501928 0 0.052251092251084888 0.0019327510166626078 0 0.051186719712820933 0.0026930217735542297 0 0.052243476400644098 0.0028270904101241061 0 0.051542652778009498 0.0032726851798814301 0 0.051186719712820933 0.0026930217735542297 0 0.052243476400644098 0.0028270904101241061 0 0.051542652778009498 0.0032726851798814301 0 0.052243476400644098 0.0028270904101241061 0 0.051971938317455092 0.0033211334608803391 0 0.041665102807063481 0.0013156433793536373 0 0.041649808612109741 0.0014413674918201862 0 0.042346441661263307 0.0012689138594675149 0 0.051542652778009498 0.0032726851798814301 0 0.051330112790956152 0.0038078854338026245 0 0.051971938317455092 0.0033211334608803391 0 0.051542652778009498 0.0032726851798814301 0 0.051330112790956152 0.0038078854338026245 0 0.050959446447438765 0.0036188719805257449 0 0.041665102807063481 0.0013156433793536373 0 0.041061425045913362 0.0014332882655320356 0 0.041073173878869176 0.0014978078214779641 0 0.046236887594643748 0.0025578639030247982 0 0.046832705255084109 0.0029062866956755004 0 0.051330112790956152 0.0038078854338026245 0 0.050959446447438765 0.0036188719805257449 0 0.05044711287146119 0.0043019872239275772 0 0.041665102807063481 0.0013156433793536373 0 0.041073173878869176 0.0014978078214779641 0 0.041649808612109741 0.0014413674918201862 0 0.051542652778009498 0.0032726851798814301 0 0.050959446447438765 0.0036188719805257449 0 0.051186719712820933 0.0026930217735542297 0 0.051470699876713599 0.0030305549414798394 0 0.050453954884513291 0.0038705592257756855 0 0.050959446447438765 0.0036188719805257449 0 0.051186719712820933 0.0026930217735542297 0 0.050377309449003593 0.003960003187344757 0 0.050789532428767735 0.0032812357304535075 0 0.051727874873051805 0.003349348043501928 0 0.050377309449003593 0.003960003187344757 0 0.050789532428767735 0.0032812357304535075 0 0.050189084180537483 0.0036902263837800603 0 0.050377309449003593 0.003960003187344757 0 0.049742149162607933 0.0033422409896668617 0 0.050789532428767735 0.0032812357304535075 0 0.050189084180537483 0.0036902263837800603 0 0.049742149162607933 0.0033422409896668617 0 0.049844569258615745 0.0041070562165526287 0 0.04913546086604785 0.004082653060533536 0 0.049742149162607933 0.0033422409896668617 0 0.050189084180537483 0.0036902263837800603 0 0.049844569258615745 0.0041070562165526287 0 0.050189084180537483 0.0036902263837800603 0 0.049844569258615745 0.0041070562165526287 0 0.050377309449003593 0.003960003187344757 0 0.035449219743871031 0.0017814652481738472 0 0.039813564853992151 0.0032221601036402439 0 0.031462653271945348 0.0024613658008593086 0 0.031667247538476863 0.0024647269169295175 0 0.032049509440481558 0.002833153473958276 0 0.046832705255084109 0.0029062866956755004 0 0.039813564853992151 0.0032221601036402439 0 0.049844569258615745 0.0041070562165526287 0 0.05044711287146119 0.0043019872239275772 0 0.049121018731994447 0.0049094025432793132 0 0.041061425045913362 0.0014332882655320356 0 0.041073173878869176 0.0014978078214779641 0 0.040339616566776919 0.0016343553286421908 0 0.050959446447438765 0.0036188719805257449 0 0.050377309449003593 0.003960003187344757 0 0.05044711287146119 0.0043019872239275772 0 0.049844569258615745 0.0041070562165526287 0 0.050377309449003593 0.003960003187344757 0 0.05044711287146119 0.0043019872239275772 0 0.031462653271945348 0.0024613658008593086 0 0.031425529241815013 0.0022722134749364404 0 0.031379004920746259 0.0021452834921610567 0 0.031462653271945348 0.0024613658008593086 0 0.031425529241815013 0.0022722134749364404 0 0.031518127263625635 0.0023620609534920605 0 0.031462653271945348 0.0024613658008593086 0 0.031518127263625635 0.0023620609534920605 0 0.031667247538476863 0.0024647269169295175 0 0.031518127263625635 0.0023620609534920605 0 0.031536832841568614 0.0022642824700751457 0 0.031667247538476863 0.0024647269169295175 0 0.031425529241815013 0.0022722134749364404 0 0.031518127263625635 0.0023620609534920605 0 0.031536832841568614 0.0022642824700751457 0 0.031425529241815013 0.0022722134749364404 0 0.031536832841568614 0.0022642824700751457 0 0.031316993202693523 0.0021233019916325423 0 0.031536832841568614 0.0022642824700751457 0 0.031820637245737041 0.0024412834930248109 0 0.031882967378959223 0.0022100016683045975 0 0.031667247538476863 0.0024647269169295175 0 0.031820637245737041 0.0024412834930248109 0 0.032049509440481558 0.002833153473958276 0 0.031536832841568614 0.0022642824700751457 0 0.031667247538476863 0.0024647269169295175 0 0.031820637245737041 0.0024412834930248109 0 0.029039769960425402 0.0022271298136426021 0 0.02986680880602291 0.0020586329555388615 0 0.029222529426051032 0.0025171492429967614 0 0.030481759865323893 0.0022461956725276983 0 0.030677034789356728 0.0020648704004911267 0 0.031536832841568614 0.0022642824700751457 0 0.031882967378959223 0.0022100016683045975 0 0.031459357587945783 0.002034489658263194 0 0.031536832841568614 0.0022642824700751457 0 0.031459357587945783 0.002034489658263194 0 0.031316993202693523 0.0021233019916325423 0 0.030677034789356728 0.0020648704004911267 0 0.031028380350809084 0.0020592144936432701 0 0.031459357587945783 0.002034489658263194 0 0.031049872824062262 0.0020602520927019102 0 0.031316993202693523 0.0021233019916325423 0 0.031049872824062262 0.0020602520927019102 0 0.031263557188108526 0.0019806394946885234 0 0.031316993202693523 0.0021233019916325423 0 0.031049872824062262 0.0020602520927019102 0 0.031383514000486175 0.0023781137374302122 0 0.03158730636687259 0.0019412836196881754 0 0.031049872824062262 0.0020602520927019102 0 0.031263557188108526 0.0019806394946885234 0 0.03158730636687259 0.0019412836196881754 0 0.031263557188108526 0.0019806394946885234 0 0.031677985266813501 0.0017633919222382417 0 0.03158730636687259 0.0019412836196881754 0 0.031263557188108526 0.0019806394946885234 0 0.031393010907344185 0.0018271321880085364 0 0.031335580721022695 0.0020246370634908152 0 0.031263557188108526 0.0019806394946885234 0 0.031393010907344185 0.0018271321880085364 0 0.031677985266813501 0.0017633919222382417 0 0.035449219743871031 0.0017814652481738472 0 0.036735639486426087 0.0016821166629422824 0 0.031393010907344185 0.0018271321880085364 0 0.031379004920746259 0.0021452834921610567 0 0.031335580721022695 0.0020246370634908152 0 0.031462653271945348 0.0024613658008593086 0 0.031393010907344185 0.0018271321880085364 0 0.031379004920746259 0.0021452834921610567 0 0.031425529241815013 0.0022722134749364404 0 0.031379004920746259 0.0021452834921610567 0 0.031316993202693523 0.0021233019916325423 0 0.031379004920746259 0.0021452834921610567 0 0.031316993202693523 0.0021233019916325423 0 0.031335580721022695 0.0020246370634908152 0 0.031263557188108526 0.0019806394946885234 0 0.031316993202693523 0.0021233019916325423 0 0.031335580721022695 0.0020246370634908152 0 0.033372203260011502 0.0034269599343982686 0 0.033089247558232081 0.0029571878213903021 0 0.033580007817908625 0.0031012624191288454 0 0.033372203260011502 0.0034269599343982686 0 0.032899443085524817 0.0030993686316347934 0 0.033089247558232081 0.0029571878213903021 0 0.04441392181059424 0.0050564164001736089 0 0.044298687213180754 0.0045872097269494521 0 0.044610917710446403 0.0047431564695668837 0 0.044298687213180754 0.0045872097269494521 0 0.044883625208337635 0.0042165687572214153 0 0.044104526754085834 0.0041106021168331279 0 0.04441392181059424 0.0050564164001736089 0 0.044298687213180754 0.0045872097269494521 0 0.044883625208337635 0.0042165687572214153 0 0.044955395290297795 0.0036032812585236255 0 0.044883625208337635 0.0042165687572214153 0 0.044104526754085834 0.0041106021168331279 0 0.045905457937872915 0.0033995078399079795 0 0.044955395290297795 0.0036032812585236255 0 0.044883625208337635 0.0042165687572214153 0 0.045905457937872915 0.0033995078399079795 0 0.044883625208337635 0.0042165687572214153 0 0.045856612927423691 0.0040381100705060326 0 0.04527461485256952 0.004411435515825575 0 0.044883625208337635 0.0042165687572214153 0 0.045856612927423691 0.0040381100705060326 0 0.04441392181059424 0.0050564164001736089 0 0.04527461485256952 0.004411435515825575 0 0.045739873029617704 0.0044452293235301282 0 0.04441392181059424 0.0050564164001736089 0 0.04527461485256952 0.004411435515825575 0 0.044883625208337635 0.0042165687572214153 0 0.04441392181059424 0.0050564164001736089 0 0.045739873029617704 0.0044452293235301282 0 0.046321969257283643 0.0046555933703637054 0 0.045739873029617704 0.0044452293235301282 0 0.045856612927423691 0.0040381100705060326 0 0.046650327851676193 0.0042112160115699215 0 0.04527461485256952 0.004411435515825575 0 0.045739873029617704 0.0044452293235301282 0 0.045856612927423691 0.0040381100705060326 0 0.045905457937872915 0.0033995078399079795 0 0.045856612927423691 0.0040381100705060326 0 0.046789779152360156 0.00365327365092498 0 0.045856612927423691 0.0040381100705060326 0 0.046789779152360156 0.00365327365092498 0 0.046650327851676193 0.0042112160115699215 0 0.046789779152360156 0.00365327365092498 0 0.046650327851676193 0.0042112160115699215 0 0.04747323521412266 0.0040141855358887943 0 0.045739873029617704 0.0044452293235301282 0 0.046650327851676193 0.0042112160115699215 0 0.046321969257283643 0.0046555933703637054 0 0.046650327851676193 0.0042112160115699215 0 0.046321969257283643 0.0046555933703637054 0 0.047207498582884956 0.004579203638357252 0 0.046321969257283643 0.0046555933703637054 0 0.046389858327792771 0.0048875875575444521 0 0.047207498582884956 0.004579203638357252 0 0.04441392181059424 0.0050564164001736089 0 0.046389858327792771 0.0048875875575444521 0 0.047487334790272152 0.0053089028357064276 0 0.046389858327792771 0.0048875875575444521 0 0.047487334790272152 0.0053089028357064276 0 0.047207498582884956 0.004579203638357252 0 0.044085126553283054 0.0049532038285312469 0 0.044943455052415628 0.0049733486387680105 0 0.033372203260011502 0.0034269599343982686 0 0.032899443085524817 0.0030993686316347934 0 0.032502890111958546 0.0030727613664069619 0 0.032899443085524817 0.0030993686316347934 0 0.032502890111958546 0.0030727613664069619 0 0.032651743687495467 0.0029044180488782415 0 0.039128109885465105 0.0040612798650950747 0 0.035791243551748599 0.0035401010782397319 0 0.04441392181059424 0.0050564164001736089 0 0.04117359499375197 0.0039803037470706468 0 0.04086121616975661 0.0043205790128438828 0 0.04441392181059424 0.0050564164001736089 0 0.044610917710446403 0.0047431564695668837 0 0.04117359499375197 0.0039803037470706468 0 0.04441392181059424 0.0050564164001736089 0 0.046321969257283643 0.0046555933703637054 0 0.046389858327792771 0.0048875875575444521 0 0.035791243551748599 0.0035401010782397319 0 0.039813564853992151 0.0032221601036402439 0 0.047487334790272152 0.0053089028357064276 0 0.048219463557598596 0.0044708291286877991 0 0.049121018731994447 0.0049094025432793132 0 0.04117359499375197 0.0039803037470706468 0 0.04086121616975661 0.0043205790128438828 0 0.037766951713917259 0.0037605866955821494 0 0.044943455052415628 0.0049733486387680105 0 0.039813564853992151 0.0032221601036402439 0 0.032502890111958546 0.0030727613664069619 0 0.032049509440481558 0.002833153473958276 0 0.032254992224956147 0.0028031376104479797 0 0.032502890111958546 0.0030727613664069619 0 0.032254992224956147 0.0028031376104479797 0 0.032361012142991197 0.0028094550398636564 0 0.032502890111958546 0.0030727613664069619 0 0.032361012142991197 0.0028094550398636564 0 0.032436687333530695 0.0028411961421076861 0 0.047487334790272152 0.0053089028357064276 0 0.047207498582884956 0.004579203638357252 0 0.048219463557598596 0.0044708291286877991 0 0.046650327851676193 0.0042112160115699215 0 0.047207498582884956 0.004579203638357252 0 0.04747323521412266 0.0040141855358887943 0 0.047207498582884956 0.004579203638357252 0 0.04747323521412266 0.0040141855358887943 0 0.048219463557598596 0.0044708291286877991 0 0.047728989106630343 0.0033822326973275197 0 0.046789779152360156 0.00365327365092498 0 0.04747323521412266 0.0040141855358887943 0 0.047728989106630343 0.0033822326973275197 0 0.04747323521412266 0.0040141855358887943 0 0.048583541308771579 0.0035907909534236208 0 0.04747323521412266 0.0040141855358887943 0 0.048219463557598596 0.0044708291286877991 0 0.048583541308771579 0.0035907909534236208 0 0.049742149162607933 0.0033422409896668617 0 0.048583541308771579 0.0035907909534236208 0 0.04913546086604785 0.004082653060533536 0 0.048219463557598596 0.0044708291286877991 0 0.048583541308771579 0.0035907909534236208 0 0.04913546086604785 0.004082653060533536 0 0.049844569258615745 0.0041070562165526287 0 0.04913546086604785 0.004082653060533536 0 0.049121018731994447 0.0049094025432793132 0 0.048219463557598596 0.0044708291286877991 0 0.04913546086604785 0.004082653060533536 0 0.049121018731994447 0.0049094025432793132 0 0.031820637245737041 0.0024412834930248109 0 0.032049509440481558 0.002833153473958276 0 0.03209124363613599 0.0025213348534232913 0 0.032049509440481558 0.002833153473958276 0 0.03209124363613599 0.0025213348534232913 0 0.032254992224956147 0.0028031376104479797 0 0.03209124363613599 0.0025213348534232913 0 0.032261352464375302 0.0026177103437826717 0 0.032254992224956147 0.0028031376104479797 0 0.031820637245737041 0.0024412834930248109 0 0.031882967378959223 0.0022100016683045975 0 0.03209124363613599 0.0025213348534232913 0 0.031882967378959223 0.0022100016683045975 0 0.03209124363613599 0.0025213348534232913 0 0.032294312233174603 0.0025027672819891993 0 0.029039769960425402 0.0022271298136426021 0 0.02940211258854683 0.0027736802858396585 0 0.028988729955784144 0.0022707802893863378 0 0.030481759865323893 0.0022461956725276983 0 0.030893957326771956 0.0025864716684637482 0 0.02940211258854683 0.0027736802858396585 0 0.031263711384925411 0.0018302857449067481 0 0.029896526080388643 0.0018751341561305276 0 0.02940211258854683 0.0027736802858396585 0 0.029896526080388643 0.0018751341561305276 0 0.028988729955784144 0.0022707802893863378 0 0.032294312233174603 0.0025027672819891993 0 0.032348519196027006 0.0026976824698461415 0 0.032373545414062697 0.0027368386025427953 0 0.032348519196027006 0.0026976824698461415 0 0.032261352464375302 0.0026177103437826717 0 0.032361012142991197 0.0028094550398636564 0 0.03209124363613599 0.0025213348534232913 0 0.032294312233174603 0.0025027672819891993 0 0.032261352464375302 0.0026177103437826717 0 0.032294312233174603 0.0025027672819891993 0 0.032348519196027006 0.0026976824698461415 0 0.032261352464375302 0.0026177103437826717 0 0.032261352464375302 0.0026177103437826717 0 0.032254992224956147 0.0028031376104479797 0 0.032361012142991197 0.0028094550398636564 0 0.032348519196027006 0.0026976824698461415 0 0.032361012142991197 0.0028094550398636564 0 0.032436687333530695 0.0028411961421076861 0 0.032651743687495467 0.0029044180488782415 0 0.032373545414062697 0.0027368386025427953 0 0.03207880556030434 0.0026668107312259174 0 0.032436687333530695 0.0028411961421076861 0 0.032651743687495467 0.0029044180488782415 0 0.032373545414062697 0.0027368386025427953 0 0.032348519196027006 0.0026976824698461415 0 0.032436687333530695 0.0028411961421076861 0 0.032373545414062697 0.0027368386025427953 0 0.032502890111958546 0.0030727613664069619 0 0.032436687333530695 0.0028411961421076861 0 0.032651743687495467 0.0029044180488782415 0 0.032294312233174603 0.0025027672819891993 0 0.032373545414062697 0.0027368386025427953 0 0.03207880556030434 0.0026668107312259174 0 0.030893957326771956 0.0025864716684637482 0 0.03194012262572711 0.0026794745108975207 0 0.02940211258854683 0.0027736802858396585 0 0.03207880556030434 0.0026668107312259174 0 0.031263711384925411 0.0018302857449067481 0 0.03207880556030434 0.0026668107312259174 0 0.032387523093571582 0.0015743982808878985 0 0.031263711384925411 0.0018302857449067481 0 0.03207880556030434 0.0026668107312259174 0 0.032387523093571582 0.0015743982808878985 0 0.033222216423876696 0.0024648216759123828 0 0.032651743687495467 0.0029044180488782415 0 0.03207880556030434 0.0026668107312259174 0 0.033089247558232081 0.0029571878213903021 0 0.03207880556030434 0.0026668107312259174 0 0.033089247558232081 0.0029571878213903021 0 0.033222216423876696 0.0024648216759123828 0 0.032899443085524817 0.0030993686316347934 0 0.032651743687495467 0.0029044180488782415 0 0.033089247558232081 0.0029571878213903021 0 0.032438587021975142 0.00011671027913797932 0 0.032387523093571582 0.0015743982808878985 0 0.031491277399123475 0.00084254491515065076 0 0.032438587021975142 0.00011671027913797932 0 0.031491277399123475 0.00084254491515065076 0 0.03118033190292158 -0.0001489059148503883 0 0.031263711384925411 0.0018302857449067481 0 0.030666473711251169 0.0011769097705303963 0 0.031491277399123475 0.00084254491515065076 0 0.032387523093571582 0.0015743982808878985 0 0.031263711384925411 0.0018302857449067481 0 0.031491277399123475 0.00084254491515065076 0 0.031263711384925411 0.0018302857449067481 0 0.030666473711251169 0.0011769097705303963 0 0.029896526080388643 0.0018751341561305276 0 0.030666473711251169 0.0011769097705303963 0 0.031491277399123475 0.00084254491515065076 0 0.030314312443485647 0.00027116392962174974 0 0.031491277399123475 0.00084254491515065076 0 0.030314312443485647 0.00027116392962174974 0 0.03118033190292158 -0.0001489059148503883 0 0.030314312443485647 0.00027116392962174974 0 0.028928356126907327 0.00021842568701443374 0 0.029436777021889793 -0.00052791436833948661 0 0.030666473711251169 0.0011769097705303963 0 0.030314312443485647 0.00027116392962174974 0 0.02931270954198361 0.001162193085101871 0 0.030314312443485647 0.00027116392962174974 0 0.028928356126907327 0.00021842568701443374 0 0.02931270954198361 0.001162193085101871 0 0.030666473711251169 0.0011769097705303963 0 0.029896526080388643 0.0018751341561305276 0 0.02931270954198361 0.001162193085101871 0 0.029896526080388643 0.0018751341561305276 0 0.02931270954198361 0.001162193085101871 0 0.028988729955784144 0.0022707802893863378 0 0.028988729955784144 0.0022707802893863378 0 0.028992758315348661 0.0030283986192286461 0 0.029222529426051032 0.0025171492429967614 0 0.028883082867348246 0.0022677944807160942 0 0.028210764171463468 0.0017844383324488739 0 0.029039769960425402 0.0022271298136426021 0 0.028988729955784144 0.0022707802893863378 0 0.029222529426051032 0.0025171492429967614 0 0.02931270954198361 0.001162193085101871 0 0.028988729955784144 0.0022707802893863378 0 0.027362320020707997 0.00054653215778565224 0 0.028928356126907327 0.00021842568701443374 0 0.027362320020707997 0.00054653215778565224 0 0.028084035220306374 -0.00059121488866682845 0 0.028928356126907327 0.00021842568701443374 0 0.02931270954198361 0.001162193085101871 0 0.027362320020707997 0.00054653215778565224 0 0.028084035220306374 -0.00059121488866682845 0 0.027504052496645618 -0.0017731904814525328 0 0.02603964857221619 -0.0010387365084192108 0 0.028084035220306374 -0.00059121488866682845 0 0.027504052496645618 -0.0017731904814525328 0 0.028761990649485713 -0.0014365849892823636 0 0.027504052496645618 -0.0017731904814525328 0 0.028216838653031526 -0.0022600451465829043 0 0.027428329086243632 -0.0027001266783846759 0 0.027504052496645618 -0.0017731904814525328 0 0.028761990649485713 -0.0014365849892823636 0 0.028216838653031526 -0.0022600451465829043 0 0.028761990649485713 -0.0014365849892823636 0 0.028216838653031526 -0.0022600451465829043 0 0.029475523507238255 -0.0023004416396816734 0 0.028761990649485713 -0.0014365849892823636 0 0.029475523507238255 -0.0023004416396816734 0 0.029798036370921203 -0.0012324046676253915 0 0.028761990649485713 -0.0014365849892823636 0 0.029436777021889793 -0.00052791436833948661 0 0.029798036370921203 -0.0012324046676253915 0 0.028084035220306374 -0.00059121488866682845 0 0.028761990649485713 -0.0014365849892823636 0 0.029436777021889793 -0.00052791436833948661 0 0.028928356126907327 0.00021842568701443374 0 0.028084035220306374 -0.00059121488866682845 0 0.029436777021889793 -0.00052791436833948661 0 0.030314312443485647 0.00027116392962174974 0 0.029436777021889793 -0.00052791436833948661 0 0.030397201417817869 -0.00074997587261953658 0 0.030314312443485647 0.00027116392962174974 0 0.030397201417817869 -0.00074997587261953658 0 0.03118033190292158 -0.0001489059148503883 0 0.030397201417817869 -0.00074997587261953658 0 0.03118033190292158 -0.0001489059148503883 0 0.030965355600778718 -0.0014549499048716603 0 0.030381715072342146 -0.0010706251260878858 0 0.030074550845986231 -0.0010479705485977407 0 0.029436777021889793 -0.00052791436833948661 0 0.030397201417817869 -0.00074997587261953658 0 0.029798036370921203 -0.0012324046676253915 0 0.030397201417817869 -0.00074997587261953658 0 0.030722144516869915 -0.001318218796768384 0 0.029798036370921203 -0.0012324046676253915 0 0.028735275012584115 -0.0023656693818420124 0 0.030074550845986231 -0.0010479705485977407 0 0.029475523507238255 -0.0023004416396816734 0 0.030722144516869915 -0.001318218796768384 0 0.029798036370921203 -0.0012324046676253915 0 0.028940654235224319 -0.0013747578494551964 0 0.028904099024778106 -0.0023997913515573909 0 0.030029598786494961 -0.0027952142420369424 0 0.028068293314274108 -0.0024148047635159657 0 0.028940654235224319 -0.0013747578494551964 0 0.028904099024778106 -0.0023997913515573909 0 0.030074550845986231 -0.0010479705485977407 0 0.031985886708828751 -0.0035297032683331286 0 0.030801163083120964 -0.0010922504713524641 0 0.032007064199878095 -0.0011553256708265289 0 0.031626767407627134 -0.0023108380835904795 0 0.031928943802840365 5.0078841494150867e-05 0 0.030801163083120964 -0.0010922504713524641 0 0.032007064199878095 -0.0011553256708265289 0 0.032301711554220486 9.4359943714560865e-05 0 0.030074550845986231 -0.0010479705485977407 0 0.032438587021975142 0.00011671027913797932 0 0.03118033190292158 -0.0001489059148503883 0 0.030965355600778718 -0.0014549499048716603 0 0.03075644700353887 0.0028679831879303667 0 0.029753412329458693 0.0030234858040122468 0 0.030380454199085621 0.0035572119409960443 0 0.03075644700353887 0.0028679831879303667 0 0.030380454199085621 0.0035572119409960443 0 0.031068850280414725 0.0034914854154000008 0 0.03075644700353887 0.0028679831879303667 0 0.031068850280414725 0.0034914854154000008 0 0.031548529794508826 0.0028843431396398311 0 0.03075644700353887 0.0028679831879303667 0 0.031383514000486175 0.0023781137374302122 0 0.031548529794508826 0.0028843431396398311 0 0.031049872824062262 0.0020602520927019102 0 0.03075644700353887 0.0028679831879303667 0 0.031383514000486175 0.0023781137374302122 0 0.02986680880602291 0.0020586329555388615 0 0.031049872824062262 0.0020602520927019102 0 0.03075644700353887 0.0028679831879303667 0 0.02986680880602291 0.0020586329555388615 0 0.029222529426051032 0.0025171492429967614 0 0.029753412329458693 0.0030234858040122468 0 0.02986680880602291 0.0020586329555388615 0 0.03075644700353887 0.0028679831879303667 0 0.029753412329458693 0.0030234858040122468 0 0.028992758315348661 0.0030283986192286461 0 0.029222529426051032 0.0025171492429967614 0 0.029753412329458693 0.0030234858040122468 0 0.028992758315348661 0.0030283986192286461 0 0.029753412329458693 0.0030234858040122468 0 0.029357498957393174 0.0039145977779866748 0 0.029753412329458693 0.0030234858040122468 0 0.029930305114168727 0.0039979979332617115 0 0.030380454199085621 0.0035572119409960443 0 0.029753412329458693 0.0030234858040122468 0 0.029930305114168727 0.0039979979332617115 0 0.029357498957393174 0.0039145977779866748 0 0.027362320020707997 0.00054653215778565224 0 0.028084035220306374 -0.00059121488866682845 0 0.02603964857221619 -0.0010387365084192108 0 0.028210764171463468 0.0017844383324488739 0 0.027689057750027817 0.001427210173508288 0 0.027504052496645618 -0.0017731904814525328 0 0.02603964857221619 -0.0010387365084192108 0 0.026484702944995428 -0.0026929016276344359 0 0.02603964857221619 -0.0010387365084192108 0 0.024869227034948736 -0.0023057118311353409 0 0.026484702944995428 -0.0026929016276344359 0 0.027689057750027817 0.001427210173508288 0 0.027311350111009748 0.001220610534693116 0 0.029930305114168727 0.0039979979332617115 0 0.029357498957393174 0.0039145977779866748 0 0.029743045675670907 0.0047308006510879182 0 0.029930305114168727 0.0039979979332617115 0 0.030405775777515111 0.0042347344829674278 0 0.029743045675670907 0.0047308006510879182 0 0.029930305114168727 0.0039979979332617115 0 0.030380454199085621 0.0035572119409960443 0 0.030405775777515111 0.0042347344829674278 0 0.030380454199085621 0.0035572119409960443 0 0.031068850280414725 0.0034914854154000008 0 0.030405775777515111 0.0042347344829674278 0 0.031068850280414725 0.0034914854154000008 0 0.030405775777515111 0.0042347344829674278 0 0.031362095447513921 0.0040402534506488444 0 0.030405775777515111 0.0042347344829674278 0 0.030664851747230111 0.004585339887825092 0 0.030087899031910798 0.0049618877131948182 0 0.030405775777515111 0.0042347344829674278 0 0.030664851747230111 0.004585339887825092 0 0.031362095447513921 0.0040402534506488444 0 0.030664851747230111 0.004585339887825092 0 0.031798360342811791 0.0045271102191322314 0 0.031362095447513921 0.0040402534506488444 0 0.031798360342811791 0.0045271102191322314 0 0.03225728092702701 0.0039980929563940334 0 0.032890177030226973 0.0042990757783986722 0 0.031798360342811791 0.0045271102191322314 0 0.03225728092702701 0.0039980929563940334 0 0.031362095447513921 0.0040402534506488444 0 0.03225728092702701 0.0039980929563940334 0 0.032055869215618107 0.0033639799057877777 0 0.032861926168259475 0.0035397015895762608 0 0.03225728092702701 0.0039980929563940334 0 0.031362095447513921 0.0040402534506488444 0 0.032055869215618107 0.0033639799057877777 0 0.031068850280414725 0.0034914854154000008 0 0.031362095447513921 0.0040402534506488444 0 0.032055869215618107 0.0033639799057877777 0 0.031068850280414725 0.0034914854154000008 0 0.031548529794508826 0.0028843431396398311 0 0.032055869215618107 0.0033639799057877777 0 0.031548529794508826 0.0028843431396398311 0 0.032055869215618107 0.0033639799057877777 0 0.032437494163245158 0.0025581629401827664 0 0.032055869215618107 0.0033639799057877777 0 0.032437494163245158 0.0025581629401827664 0 0.032868450077933965 0.0029379969657281255 0 0.032055869215618107 0.0033639799057877777 0 0.032868450077933965 0.0029379969657281255 0 0.032861926168259475 0.0035397015895762608 0 0.032437494163245158 0.0025581629401827664 0 0.03195971630507035 0.0022538842063398227 0 0.032774697194819562 0.0019530771392014317 0 0.031548529794508826 0.0028843431396398311 0 0.032437494163245158 0.0025581629401827664 0 0.03195971630507035 0.0022538842063398227 0 0.031383514000486175 0.0023781137374302122 0 0.031548529794508826 0.0028843431396398311 0 0.03195971630507035 0.0022538842063398227 0 0.034238798054017146 0.0028203162928123753 0 0.033461394087843148 0.0022208119702908351 0 0.03458979218493493 0.0017109364419892388 0 0.034238798054017146 0.0028203162928123753 0 0.035399860366444991 0.002646475605691089 0 0.03458979218493493 0.0017109364419892388 0 0.034238798054017146 0.0028203162928123753 0 0.034608188499740108 0.0033481356869111806 0 0.035399860366444991 0.002646475605691089 0 0.032437494163245158 0.0025581629401827664 0 0.033461394087843148 0.0022208119702908351 0 0.032774697194819562 0.0019530771392014317 0 0.032437494163245158 0.0025581629401827664 0 0.033461394087843148 0.0022208119702908351 0 0.032868450077933965 0.0029379969657281255 0 0.033461394087843148 0.0022208119702908351 0 0.033468236786728299 0.0028784084279137065 0 0.032868450077933965 0.0029379969657281255 0 0.034238798054017146 0.0028203162928123753 0 0.033461394087843148 0.0022208119702908351 0 0.033468236786728299 0.0028784084279137065 0 0.033468236786728299 0.0028784084279137065 0 0.032861926168259475 0.0035397015895762608 0 0.033711504093389959 0.0036989493923662848 0 0.033468236786728299 0.0028784084279137065 0 0.032868450077933965 0.0029379969657281255 0 0.032861926168259475 0.0035397015895762608 0 0.034238798054017146 0.0028203162928123753 0 0.034608188499740108 0.0033481356869111806 0 0.033711504093389959 0.0036989493923662848 0 0.034238798054017146 0.0028203162928123753 0 0.033468236786728299 0.0028784084279137065 0 0.033711504093389959 0.0036989493923662848 0 0.034608188499740108 0.0033481356869111806 0 0.03430722526834875 0.0037801490076061414 0 0.034703856123790761 0.0037352990098578711 0 0.034608188499740108 0.0033481356869111806 0 0.03430722526834875 0.0037801490076061414 0 0.033711504093389959 0.0036989493923662848 0 0.033711504093389959 0.0036989493923662848 0 0.032890177030226973 0.0042990757783986722 0 0.03378208018380275 0.0044780535793536814 0 0.03430722526834875 0.0037801490076061414 0 0.03378208018380275 0.0044780535793536814 0 0.03497178552365314 0.0038987673543846974 0 0.03430722526834875 0.0037801490076061414 0 0.033711504093389959 0.0036989493923662848 0 0.03378208018380275 0.0044780535793536814 0 0.024780646269939186 0.00042295601986365368 0 0.026539596899037492 0.00050114519791013212 0 0.03225728092702701 0.0039980929563940334 0 0.032861926168259475 0.0035397015895762608 0 0.032890177030226973 0.0042990757783986722 0 0.032861926168259475 0.0035397015895762608 0 0.033711504093389959 0.0036989493923662848 0 0.032890177030226973 0.0042990757783986722 0 0.032890177030226973 0.0042990757783986722 0 0.03378208018380275 0.0044780535793536814 0 0.032821793210493388 0.0050053347011336374 0 0.031798360342811791 0.0045271102191322314 0 0.032890177030226973 0.0042990757783986722 0 0.032821793210493388 0.0050053347011336374 0 0.024780646269939186 0.00042295601986365368 0 0.02448110322274755 0.00084178297111950514 0 0.015918761448204526 -0.0034984667315633216 0 0.016219232709689158 -0.0036259977408633565 0 0.016093753474028812 -0.003327546923412486 0 0.016219232709689158 -0.0036259977408633565 0 0.016591633596570697 -0.0034637905449412289 0 0.016093753474028812 -0.003327546923412486 0 0.016219232709689158 -0.0036259977408633565 0 0.016409579637417234 -0.0039590092292876335 0 0.016591633596570697 -0.0034637905449412289 0 0.016219232709689158 -0.0036259977408633565 0 0.016409579637417234 -0.0039590092292876335 0 0.016011043890323359 -0.0040403125810326637 0 0.015918761448204526 -0.0034984667315633216 0 0.016219232709689158 -0.0036259977408633565 0 0.016011043890323359 -0.0040403125810326637 0 0.03430722526834875 0.0037801490076061414 0 0.03497178552365314 0.0038987673543846974 0 0.034703856123790761 0.0037352990098578711 0 0.018240730713695825 -0.0035596857432279661 0 0.017270407273205352 -0.0033048093159976197 0 0.017327900455313315 -0.0036877731766261877 0 0.017270407273205352 -0.0033048093159976197 0 0.016591633596570697 -0.0034637905449412289 0 0.017327900455313315 -0.0036877731766261877 0 0.016409579637417234 -0.0039590092292876335 0 0.016591633596570697 -0.0034637905449412289 0 0.016990001904593953 -0.0041523528205930317 0 0.016591633596570697 -0.0034637905449412289 0 0.016990001904593953 -0.0041523528205930317 0 0.017327900455313315 -0.0036877731766261877 0 0.018281564215794344 -0.0042422082656090989 0 0.016990001904593953 -0.0041523528205930317 0 0.017327900455313315 -0.0036877731766261877 0 0.018281564215794344 -0.0042422082656090989 0 0.01854014461416666 -0.0052870187146367596 0 0.017711351067713203 -0.0047866783415764945 0 0.018281564215794344 -0.0042422082656090989 0 0.016990001904593953 -0.0041523528205930317 0 0.017711351067713203 -0.0047866783415764945 0 0.016990001904593953 -0.0041523528205930317 0 0.017711351067713203 -0.0047866783415764945 0 0.017028047700437261 -0.0055833488964374444 0 0.016990001904593953 -0.0041523528205930317 0 0.017028047700437261 -0.0055833488964374444 0 0.01634348011043759 -0.0047022456806782229 0 0.022977970113850128 -0.0032160070909338684 0 0.021727237956523544 -0.0019463088795774318 0 0.028738648882787644 0.00030380526903664608 0 0.028304582708878697 0.00041006265451307063 0 0.028743389666127901 -1.6293552072702611e-05 0 0.032509246540801486 0.0016604814244966716 0 0.038535139076752975 0.0021723176738075948 0 0.022977970113850128 -0.0032160070909338684 0 0.026152294267736201 0.0023588123548915988 0 0.01854014461416666 -0.0052870187146367596 0 0.017028047700437261 -0.0055833488964374444 0 0.018214691052668208 -0.0069381490667908214 0 0.01854014461416666 -0.0052870187146367596 0 0.017711351067713203 -0.0047866783415764945 0 0.017028047700437261 -0.0055833488964374444 0 0.026539596899037492 0.00050114519791013212 0 0.032509246540801486 0.0016604814244966716 0 0.034608188499740108 0.0033481356869111806 0 0.03497178552365314 0.0038987673543846974 0 0.035399860366444991 0.002646475605691089 0 0.026539596899037492 0.00050114519791013212 0 0.021727237956523544 -0.0019463088795774318 0 0.03497178552365314 0.0038987673543846974 0 0.036713223084654148 0.0028628053814082027 0 0.035399860366444991 0.002646475605691089 0 0.034608188499740108 0.0033481356869111806 0 0.03497178552365314 0.0038987673543846974 0 0.034703856123790761 0.0037352990098578711 0 0.027786709244157014 0.00094589322549067567 0 0.02830758310617219 0.0006122530605174077 0 0.028304582708878697 0.00041006265451307063 0 0.016409579637417234 -0.0039590092292876335 0 0.016990001904593953 -0.0041523528205930317 0 0.01634348011043759 -0.0047022456806782229 0 0.016409579637417234 -0.0039590092292876335 0 0.016011043890323359 -0.0040403125810326637 0 0.01634348011043759 -0.0047022456806782229 0 0.028738648882787644 0.00030380526903664608 0 0.02830758310617219 0.0006122530605174077 0 0.028304582708878697 0.00041006265451307063 0 0.036713223084654148 0.0028628053814082027 0 0.035399860366444991 0.002646475605691089 0 0.035966280802391774 0.0009016628525922685 0 0.035399860366444991 0.002646475605691089 0 0.035966280802391774 0.0009016628525922685 0 0.03458979218493493 0.0017109364419892388 0 0.042080902128160243 0.001749945015436151 0 0.038535139076752975 0.0021723176738075948 0 0.036713223084654148 0.0028628053814082027 0 0.035966280802391774 0.0009016628525922685 0 0.038633834528196048 0.0012213874285755277 0 0.04592283564609629 0.0025359803553954281 0 0.048446161283615355 0.0026244244138977726 0 0.048639989594855645 0.0015049167111743193 0 0.048607254802185237 0.0013738833698705068 0 0.048644611300889991 0.0014567396288698031 0 0.04592283564609629 0.0025359803553954281 0 0.045626226725053037 0.0011260896696919064 0 0.048639989594855645 0.0015049167111743193 0 0.04592283564609629 0.0025359803553954281 0 0.045626226725053037 0.0011260896696919064 0 0.043610561694405296 0.0019685958075335028 0 0.028738648882787644 0.00030380526903664608 0 0.029077102481529091 5.9709427816669156e-05 0 0.028743389666127901 -1.6293552072702611e-05 0 0.034710469590335191 0.004129621475757351 0 0.03494095357187077 0.004037715938226813 0 0.034817776581588286 0.0041549899956857825 0 0.026152294267736201 0.0023588123548915988 0 0.038535139076752975 0.0021723176738075948 0 0.038535139076752975 0.0021723176738075948 0 0.041943087921963135 0.0029280012611489457 0 0.048446161283615355 0.0026244244138977726 0 0.048639989594855645 0.0015049167111743193 0 0.048577383151412405 0.0017481748007648185 0 0.041239112272428574 0.0033250722645467462 0 0.041943087921963135 0.0029280012611489457 0 0.047895813331537918 0.0023518978317141437 0 0.048577383151412405 0.0017481748007648185 0 0.048624351835006858 0.0024027185815243767 0 0.048639989594855645 0.0015049167111743193 0 0.048624351835006858 0.0024027185815243767 0 0.049466752688826651 0.0027422540523595108 0 0.048639989594855645 0.0015049167111743193 0 0.048577383151412405 0.0017481748007648185 0 0.048624351835006858 0.0024027185815243767 0 0.048624351835006858 0.0024027185815243767 0 0.049466752688826651 0.0027422540523595108 0 0.049017404687106511 0.0034094324658738781 0 0.050021299897542976 0.0037080814922463923 0 0.049466752688826651 0.0027422540523595108 0 0.049017404687106511 0.0034094324658738781 0 0.047895813331537918 0.0023518978317141437 0 0.048624351835006858 0.0024027185815243767 0 0.048180752338100021 0.0032197330880615995 0 0.048624351835006858 0.0024027185815243767 0 0.049017404687106511 0.0034094324658738781 0 0.048180752338100021 0.0032197330880615995 0 0.051365187928877724 0.002390830358299316 0 0.050409915029272709 0.0023009380562914921 0 0.051025097625922791 0.0030140460562084002 0 0.051365187928877724 0.002390830358299316 0 0.051939527267942757 0.0029045162321042358 0 0.052413510506871805 0.0021494940070493572 0 0.051623762004597465 0.0014932151752875104 0 0.051365187928877724 0.002390830358299316 0 0.052413510506871805 0.0021494940070493572 0 0.051623762004597465 0.0014932151752875104 0 0.051365187928877724 0.002390830358299316 0 0.050409915029272709 0.0023009380562914921 0 0.048639989594855645 0.0015049167111743193 0 0.049466752688826651 0.0027422540523595108 0 0.050409915029272709 0.0023009380562914921 0 0.051623762004597465 0.0014932151752875104 0 0.048639989594855645 0.0015049167111743193 0 0.050409915029272709 0.0023009380562914921 0 0.049466752688826651 0.0027422540523595108 0 0.050409915029272709 0.0023009380562914921 0 0.051025097625922791 0.0030140460562084002 0 0.050021299897542976 0.0037080814922463923 0 0.049466752688826651 0.0027422540523595108 0 0.051025097625922791 0.0030140460562084002 0 0.051115235559826278 0.0036971726869147385 0 0.050021299897542976 0.0037080814922463923 0 0.051025097625922791 0.0030140460562084002 0 0.051115235559826278 0.0036971726869147385 0 0.051025097625922791 0.0030140460562084002 0 0.051983531949140939 0.0033252111984401794 0 0.051365187928877724 0.002390830358299316 0 0.051025097625922791 0.0030140460562084002 0 0.051939527267942757 0.0029045162321042358 0 0.051025097625922791 0.0030140460562084002 0 0.051939527267942757 0.0029045162321042358 0 0.051983531949140939 0.0033252111984401794 0 0.05336579011670347 0.0026449293007749473 0 0.05312869218803238 0.0025473843903823274 0 0.052413510506871805 0.0021494940070493572 0 0.052800301690487363 0.00350297637308364 0 0.051983531949140939 0.0033252111984401794 0 0.052661670668375141 0.0035783568673757003 0 0.05299628272534402 0.0030111534886514001 0 0.052501222481466971 0.0021763192952547767 0 0.051939527267942757 0.0029045162321042358 0 0.051983531949140939 0.0033252111984401794 0 0.052661670668375141 0.0035783568673757003 0 0.051939527267942757 0.0029045162321042358 0 0.052661670668375141 0.0035783568673757003 0 0.052413510506871805 0.0021494940070493572 0 0.05336579011670347 0.0026449293007749473 0 0.05312869218803238 0.0025473843903823274 0 0.053267137921091494 0.0025691562992777119 0 0.053468329372755273 0.002335624511404098 0 0.05336579011670347 0.0026449293007749473 0 0.053267137921091494 0.0025691562992777119 0 0.051623762004597465 0.0014932151752875104 0 0.052413510506871805 0.0021494940070493572 0 0.053217452548804597 0.0024407954875292947 0 0.05312869218803238 0.0025473843903823274 0 0.053024312837719731 0.0024778437674695753 0 0.052413510506871805 0.0021494940070493572 0 0.053024312837719731 0.0024778437674695753 0 0.052413510506871805 0.0021494940070493572 0 0.053217452548804597 0.0024407954875292947 0 0.053126401458263126 0.0025971039786390885 0 0.052910408062011617 0.0028349913721488675 0 0.053217452548804597 0.0024407954875292947 0 0.053024312837719731 0.0024778437674695753 0 0.053126401458263126 0.0025971039786390885 0 0.053217452548804597 0.0024407954875292947 0 0.053024312837719731 0.0024778437674695753 0 0.053126401458263126 0.0025971039786390885 0 0.05314387643318242 0.002586567984322205 0 0.053126401458263126 0.0025971039786390885 0 0.05314387643318242 0.002586567984322205 0 0.053096491280742258 0.0026590344963591771 0 0.05312869218803238 0.0025473843903823274 0 0.053024312837719731 0.0024778437674695753 0 0.05314387643318242 0.002586567984322205 0 0.053126401458263126 0.0025971039786390885 0 0.053096491280742258 0.0026590344963591771 0 0.052910408062011617 0.0028349913721488675 0 0.053096491280742258 0.0026590344963591771 0 0.053267137921091494 0.0025691562992777119 0 0.053060338128893395 0.0026363322594445812 0 0.05312869218803238 0.0025473843903823274 0 0.05314387643318242 0.002586567984322205 0 0.053267137921091494 0.0025691562992777119 0 0.05314387643318242 0.002586567984322205 0 0.053096491280742258 0.0026590344963591771 0 0.053267137921091494 0.0025691562992777119 0 0.053117424132836349 0.0024261117297005273 0 0.053267137921091494 0.0025691562992777119 0 0.053060338128893395 0.0026363322594445812 0 0.053117424132836349 0.0024261117297005273 0 0.052789083682699633 0.0026637902739346823 0 0.053060338128893395 0.0026363322594445812 0 0.052763315399944215 0.002375548565220187 0 0.053117424132836349 0.0024261117297005273 0 0.052789083682699633 0.0026637902739346823 0 0.052789083682699633 0.0026637902739346823 0 0.052604911280409755 0.002916307595667337 0 0.052879011436334895 0.0027995092986845818 0 0.053096491280742258 0.0026590344963591771 0 0.052879011436334895 0.0027995092986845818 0 0.053060338128893395 0.0026363322594445812 0 0.052789083682699633 0.0026637902739346823 0 0.052879011436334895 0.0027995092986845818 0 0.053060338128893395 0.0026363322594445812 0 0.052763315399944215 0.002375548565220187 0 0.052789083682699633 0.0026637902739346823 0 0.052243476400644098 0.0028270904101241061 0 0.052789083682699633 0.0026637902739346823 0 0.052604911280409755 0.002916307595667337 0 0.052243476400644098 0.0028270904101241061 0 0.052604911280409755 0.002916307595667337 0 0.052243476400644098 0.0028270904101241061 0 0.052360015491752322 0.0031591357344099473 0 0.046236887594643748 0.0025578639030247982 0 0.047437088377945205 0.0023013380712586149 0 0.051330112790956152 0.0038078854338026245 0 0.051971938317455092 0.0033211334608803391 0 0.052463355373106847 0.0033761099253399292 0 0.052243476400644098 0.0028270904101241061 0 0.051971938317455092 0.0033211334608803391 0 0.052360015491752322 0.0031591357344099473 0 0.052360015491752322 0.0031591357344099473 0 0.052463355373106847 0.0033761099253399292 0 0.052667705405034432 0.0030155800823961866 0 0.051971938317455092 0.0033211334608803391 0 0.052360015491752322 0.0031591357344099473 0 0.052463355373106847 0.0033761099253399292 0 0.052463355373106847 0.0033761099253399292 0 0.052910408062011617 0.0028349913721488675 0 0.053217452548804597 0.0024407954875292947 0 0.047437088377945205 0.0023013380712586149 0 0.04828349498351827 0.0018110255420079352 0 0.053096491280742258 0.0026590344963591771 0 0.052879011436334895 0.0027995092986845818 0 0.052910408062011617 0.0028349913721488675 0 0.052879011436334895 0.0027995092986845818 0 0.052667705405034432 0.0030155800823961866 0 0.052910408062011617 0.0028349913721488675 0 0.052604911280409755 0.002916307595667337 0 0.052879011436334895 0.0027995092986845818 0 0.052667705405034432 0.0030155800823961866 0 0.052604911280409755 0.002916307595667337 0 0.052360015491752322 0.0031591357344099473 0 0.052667705405034432 0.0030155800823961866 0 0.052463355373106847 0.0033761099253399292 0 0.052667705405034432 0.0030155800823961866 0 0.052910408062011617 0.0028349913721488675 0 0.032305423733949075 0.0013132757091854044 0 0.032813481898634825 0.0015009378673926667 0 0.033731746157270801 0.00097319798268147512 0 0.042346441661263307 0.0012689138594675149 0 0.042334015548272118 0.0015697876720357075 0 0.043485602270956825 0.0011937930919163617 0 0.031393010907344185 0.0018271321880085364 0 0.032305423733949075 0.0013132757091854044 0 0.031677985266813501 0.0017633919222382417 0 0.032305423733949075 0.0013132757091854044 0 0.031677985266813501 0.0017633919222382417 0 0.031939420901557665 0.0017120053410151685 0 0.036735639486426087 0.0016821166629422824 0 0.037369620455122682 0.0014546731471085587 0 0.041649808612109741 0.0014413674918201862 0 0.042346441661263307 0.0012689138594675149 0 0.042334015548272118 0.0015697876720357075 0 0.032305423733949075 0.0013132757091854044 0 0.031939420901557665 0.0017120053410151685 0 0.032229443228920622 0.0018148845630838518 0 0.03195971630507035 0.0022538842063398227 0 0.03158730636687259 0.0019412836196881754 0 0.032229443228920622 0.0018148845630838518 0 0.03158730636687259 0.0019412836196881754 0 0.031939420901557665 0.0017120053410151685 0 0.032229443228920622 0.0018148845630838518 0 0.031677985266813501 0.0017633919222382417 0 0.03158730636687259 0.0019412836196881754 0 0.031939420901557665 0.0017120053410151685 0 0.031383514000486175 0.0023781137374302122 0 0.03195971630507035 0.0022538842063398227 0 0.03158730636687259 0.0019412836196881754 0 0.03195971630507035 0.0022538842063398227 0 0.032229443228920622 0.0018148845630838518 0 0.032774697194819562 0.0019530771392014317 0 0.032813481898634825 0.0015009378673926667 0 0.032229443228920622 0.0018148845630838518 0 0.032774697194819562 0.0019530771392014317 0 0.032305423733949075 0.0013132757091854044 0 0.032813481898634825 0.0015009378673926667 0 0.032229443228920622 0.0018148845630838518 0 0.032813481898634825 0.0015009378673926667 0 0.033311506338011908 0.0016496608065412572 0 0.033731746157270801 0.00097319798268147512 0 0.033461394087843148 0.0022208119702908351 0 0.032774697194819562 0.0019530771392014317 0 0.033311506338011908 0.0016496608065412572 0 0.032813481898634825 0.0015009378673926667 0 0.032774697194819562 0.0019530771392014317 0 0.033311506338011908 0.0016496608065412572 0 0.033311506338011908 0.0016496608065412572 0 0.033765675888453368 0.0016426082854438639 0 0.033731746157270801 0.00097319798268147512 0 0.033461394087843148 0.0022208119702908351 0 0.033311506338011908 0.0016496608065412572 0 0.033765675888453368 0.0016426082854438639 0 0.033461394087843148 0.0022208119702908351 0 0.033765675888453368 0.0016426082854438639 0 0.03458979218493493 0.0017109364419892388 0 0.035966280802391774 0.0009016628525922685 0 0.03458979218493493 0.0017109364419892388 0 0.033731746157270801 0.00097319798268147512 0 0.033765675888453368 0.0016426082854438639 0 0.03458979218493493 0.0017109364419892388 0 0.033731746157270801 0.00097319798268147512 0 0.042080902128160243 0.001749945015436151 0 0.038476988929248543 0.0014645523957087713 0 0.048607254802185237 0.0013738833698705068 0 0.04828349498351827 0.0018110255420079352 0 0.045626226725053037 0.0011260896696919064 0 0.043485602270956825 0.0011937930919163617 0 0.043610561694405296 0.0019685958075335028 0 0.042334015548272118 0.0015697876720357075 0 0.043485602270956825 0.0011937930919163617 0 0.043610561694405296 0.0019685958075335028 0 0.037369620455122682 0.0014546731471085587 0 0.038476988929248543 0.0014645523957087713 0 0.041707775414739419 -0.00010194935630400618 0 0.041949511932452999 0.00025365772623555326 0 0.042293451669789199 0.00044508974992118214 0 0.043793340709406089 1.1415268623550553e-06 0 0.041707775414739419 -0.00010194935630400618 0 0.042293451669789199 0.00044508974992118214 0 0.043793340709406089 1.1415268623550553e-06 0 0.041707775414739419 -0.00010194935630400618 0 0.040819600978232409 -9.0895138748474483e-07 0 0.042831551936216315 -0.00014962849044490714 0 0.037856359916428453 0.00082177323171840123 0 0.041707775414739419 -0.00010194935630400618 0 0.041949511932452999 0.00025365772623555326 0 0.040696658651297249 -0.00017614110862549477 0 0.042624024808302609 0.0005922226367111455 0 0.041949511932452999 0.00025365772623555326 0 0.042393387649994139 0.00099068261241588157 0 0.041949511932452999 0.00025365772623555326 0 0.042393387649994139 0.00099068261241588157 0 0.04171565506158708 0.00112523723319897 0 0.042624024808302609 0.0005922226367111455 0 0.042866861706821607 0.00092699972115750727 0 0.042393387649994139 0.00099068261241588157 0 0.042624024808302609 0.0005922226367111455 0 0.042554900103823012 0.0002972737254326293 0 0.043123326450645517 0.00055850185762906432 0 0.042624024808302609 0.0005922226367111455 0 0.042554900103823012 0.0002972737254326293 0 0.041949511932452999 0.00025365772623555326 0 0.042554900103823012 0.0002972737254326293 0 0.041949511932452999 0.00025365772623555326 0 0.04226809322469164 0.00022877503704468865 0 0.042554900103823012 0.0002972737254326293 0 0.043000472590701902 -0.00026875272107088126 0 0.043123326450645517 0.00055850185762906432 0 0.042554900103823012 0.0002972737254326293 0 0.04226809322469164 0.00022877503704468865 0 0.043000472590701902 -0.00026875272107088126 0 0.05337965519042534 0.00070567584987149719 0 0.051897646096823805 0.00094423922806639708 0 0.053285524186902786 0.00026161037531488324 0 0.048059653249213914 0.00018157419202747866 0 0.047351655638006383 0.00077572227011649434 0 0.05337965519042534 0.00070567584987149719 0 0.051897646096823805 0.00094423922806639708 0 0.05170138994842699 0.001186991041238439 0 0.04226809322469164 0.00022877503704468865 0 0.043000472590701902 -0.00026875272107088126 0 0.042268106147857469 -6.5382943318853239e-05 0 0.048967549596480413 5.5836983040161689e-05 0 0.047351655638006383 0.00077572227011649434 0 0.051504991587566371 0.0013780894543476844 0 0.047796294297464563 4.0380915980899174e-06 0 0.050511822716948741 -9.720619205019281e-05 0 0.047351655638006383 0.00077572227011649434 0 0.043938960949617557 0.00012224825451201388 0 0.045640277533189659 0.00028530894196520957 0 0.046404265014140279 -0.0001658361325757216 0 0.046634772829749788 -0.00013931502650411934 0 0.051897646096823805 0.00094423922806639708 0 0.051504991587566371 0.0013780894543476844 0 0.050511822716948741 -9.720619205019281e-05 0 0.041949511932452999 0.00025365772623555326 0 0.04226809322469164 0.00022877503704468865 0 0.042293451669789199 0.00044508974992118214 0 0.04226809322469164 0.00022877503704468865 0 0.042268106147857469 -6.5382943318853239e-05 0 0.042293451669789199 0.00044508974992118214 0 0.043800182536742685 -5.6039808501839205e-07 0 0.043938960949617557 0.00012224825451201388 0 0.043801461752100722 1.1310037570520909e-06 0 0.046404265014140279 -0.0001658361325757216 0 0.045794108983964313 -1.1192580492782465e-06 0 0.046404265014140279 -0.0001658361325757216 0 0.045794108983964313 -1.1192580492782465e-06 0 0.046634772829749788 -0.00013931502650411934 0 0.045794108983964313 -1.1192580492782465e-06 0 0.047784389344251742 1.1229298939622944e-06 0 0.046634772829749788 -0.00013931502650411934 0 0.047351655638006383 0.00077572227011649434 0 0.047790222674697437 4.7599271900794409e-07 0 0.045640277533189659 0.00028530894196520957 0 0.047784389344251742 1.1229298939622944e-06 0 0.046634772829749788 -0.00013931502650411934 0 0.047796294297464563 4.0380915980899174e-06 0 0.050511822716948741 -9.720619205019281e-05 0 0.050538951921139372 -3.8380227531519223e-06 0 0.054993414459575327 -2.1000992280980409e-06 0 0.054215902219938356 -0.00011241213918998978 0 0.054999735488850468 3.2199302734449535e-07 0 0.051897646096823805 0.00094423922806639708 0 0.050511822716948741 -9.720619205019281e-05 0 0.052160897467963402 3.104358370165411e-05 0 0.050511822716948741 -9.720619205019281e-05 0 0.051058237373654072 -0.00073367246071906543 0 0.052160897467963402 3.104358370165411e-05 0 0.050511822716948741 -9.720619205019281e-05 0 0.051058237373654072 -0.00073367246071906543 0 0.050538951921139372 -3.8380227531519223e-06 0 0.052333591018111879 -0.00033799469085830149 0 0.050546891122423755 -1.7093340574454267e-07 0 0.053565430091338219 -4.8530661920506197e-05 0 0.05055734623939015 3.1309182807754495e-06 0 0.054993414459575327 -2.1000992280980409e-06 0 0.053565430091338219 -4.8530661920506197e-05 0 0.054993414459575327 -2.1000992280980409e-06 0 0.054215902219938356 -0.00011241213918998978 0 0.053565430091338219 -4.8530661920506197e-05 0 0.054215902219938356 -0.00011241213918998978 0 0.053781179127553737 -0.00023092732572033579 0 0.053781179127553737 -0.00023092732572033579 0 0.053285524186902786 0.00026161037531488324 0 0.053934831828819578 -8.6966548860275558e-06 0 0.054215902219938356 -0.00011241213918998978 0 0.053781179127553737 -0.00023092732572033579 0 0.053934831828819578 -8.6966548860275558e-06 0 0.051058237373654072 -0.00073367246071906543 0 0.053781179127553737 -0.00023092732572033579 0 0.052160897467963402 3.104358370165411e-05 0 0.052333591018111879 -0.00033799469085830149 0 0.053646455995285496 -0.00027488172355915333 0 0.051897646096823805 0.00094423922806639708 0 0.052160897467963402 3.104358370165411e-05 0 0.053285524186902786 0.00026161037531488324 0 0.05337965519042534 0.00070567584987149719 0 0.053285524186902786 0.00026161037531488324 0 0.053826395240138936 0.00017693019084922499 0 0.053781179127553737 -0.00023092732572033579 0 0.052160897467963402 3.104358370165411e-05 0 0.053285524186902786 0.00026161037531488324 0 0.053285524186902786 0.00026161037531488324 0 0.053826395240138936 0.00017693019084922499 0 0.053934831828819578 -8.6966548860275558e-06 0 0.053826395240138936 0.00017693019084922499 0 0.053943721514046722 0.0001033520206808749 0 0.053934831828819578 -8.6966548860275558e-06 0 0.053826395240138936 0.00017693019084922499 0 0.053943721514046722 0.0001033520206808749 0 0.053622285799276664 6.4854873095058761e-05 0 0.053826395240138936 0.00017693019084922499 0 0.053622285799276664 6.4854873095058761e-05 0 0.053592029345767761 -3.6657517839469715e-05 0 0.054177623444783378 0.0001156731948993907 0 0.054398691481841704 5.2093390111069937e-05 0 0.054087413332086415 -0.00015673458997738458 0 0.053943721514046722 0.0001033520206808749 0 0.054177623444783378 0.0001156731948993907 0 0.053622285799276664 6.4854873095058761e-05 0 0.054215902219938356 -0.00011241213918998978 0 0.054177623444783378 0.0001156731948993907 0 0.053934831828819578 -8.6966548860275558e-06 0 0.053943721514046722 0.0001033520206808749 0 0.054177623444783378 0.0001156731948993907 0 0.053934831828819578 -8.6966548860275558e-06 0 0.054215902219938356 -0.00011241213918998978 0 0.054177623444783378 0.0001156731948993907 0 0.054398691481841704 5.2093390111069937e-05 0 0.054215902219938356 -0.00011241213918998978 0 0.054398691481841704 5.2093390111069937e-05 0 0.054999735488850468 3.2199302734449535e-07 0 0.054398691481841704 5.2093390111069937e-05 0 0.054999735488850468 3.2199302734449535e-07 0 0.054925217024372239 0.00010113378085212787 0 0.054418501220281967 6.2358816685655004e-05 0 0.054497735224506558 8.2975927335346205e-05 0 0.054398691481841704 5.2093390111069937e-05 0 0.054101539578455059 8.1900856473811454e-05 0 0.054087413332086415 -0.00015673458997738458 0 0.054999735488850468 3.2199302734449535e-07 0 0.054925217024372239 0.00010113378085212787 0 0.054991595437639124 3.5087596774941805e-05 0 0.054497735224506558 8.2975927335346205e-05 0 0.054184417026603905 8.2001071771805597e-05 0 0.054101539578455059 8.1900856473811454e-05 0 0.054087413332086415 -0.00015673458997738458 0 0.053386266198214877 0.00012775895996620869 0 0.053242370769982984 0.00053964987172138465 0 0.05280480522003593 0.00027019646358731345 0 0.052323703762277074 0.00057822634595505642 0 0.053242370769982984 0.00053964987172138465 0 0.05280480522003593 0.00027019646358731345 0 0.053188609674688116 0.00014854228922428175 0 0.053640328017725093 0.00017945838686463938 0 0.052737170839900684 0.00012824648034965851 0 0.054123735001412654 0.00013016919416048713 0 0.053640328017725093 0.00017945838686463938 0 0.054177623444783378 0.0001156731948993907 0 0.053242370769982984 0.00053964987172138465 0 0.053622285799276664 6.4854873095058761e-05 0 0.053242370769982984 0.00053964987172138465 0 0.053622285799276664 6.4854873095058761e-05 0 0.053188609674688116 0.00014854228922428175 0 0.053622285799276664 6.4854873095058761e-05 0 0.053188609674688116 0.00014854228922428175 0 0.053306174697404486 -9.2968583024440515e-05 0 0.05280480522003593 0.00027019646358731345 0 0.053188609674688116 0.00014854228922428175 0 0.052861064156581018 -2.7247860707580825e-05 0 0.053188609674688116 0.00014854228922428175 0 0.052861064156581018 -2.7247860707580825e-05 0 0.053306174697404486 -9.2968583024440515e-05 0 0.052861064156581018 -2.7247860707580825e-05 0 0.053025422527295779 -0.00047815173555397028 0 0.053306174697404486 -9.2968583024440515e-05 0 0.052861064156581018 -2.7247860707580825e-05 0 0.053025422527295779 -0.00047815173555397028 0 0.052474084182400522 -0.00021153580454038394 0 0.044826812472549583 -0.00014352854734105445 0 0.044879181034485037 0.00077781124804961286 0 0.045720389675678132 -7.224824403764523e-06 0 0.044826812472549583 -0.00014352854734105445 0 0.043978227771235855 -0.00026266180193616805 0 0.04424952852000566 0.00040873596377228173 0 0.053622285799276664 6.4854873095058761e-05 0 0.053306174697404486 -9.2968583024440515e-05 0 0.053592029345767761 -3.6657517839469715e-05 0 0.048792019015714332 -0.00029030413615382608 0 0.04879773294266844 -0.00012984378964825386 0 0.053025422527295779 -0.00047815173555397028 0 0.053306174697404486 -9.2968583024440515e-05 0 0.053592029345767761 -3.6657517839469715e-05 0 0.043000472590701902 -0.00026875272107088126 0 0.043978227771235855 -0.00026266180193616805 0 0.043123326450645517 0.00055850185762906432 0 0.05337965519042534 0.00070567584987149719 0 0.053826395240138936 0.00017693019084922499 0 0.053592029345767761 -3.6657517839469715e-05 0 0.048059653249213914 0.00018157419202747866 0 0.04879773294266844 -0.00012984378964825386 0 0.043978227771235855 -0.00026266180193616805 0 0.043123326450645517 0.00055850185762906432 0 0.04424952852000566 0.00040873596377228173 0 0.043123326450645517 0.00055850185762906432 0 0.043929905659613327 0.0011722318361948748 0 0.04424952852000566 0.00040873596377228173 0 0.043123326450645517 0.00055850185762906432 0 0.043200840785943613 0.00084612183380339289 0 0.042866861706821607 0.00092699972115750727 0 0.042624024808302609 0.0005922226367111455 0 0.043123326450645517 0.00055850185762906432 0 0.042866861706821607 0.00092699972115750727 0 0.043160828164660506 0.00060713619216690824 0 0.043489165101413964 0.00096907075496147717 0 0.043929905659613327 0.0011722318361948748 0 0.044879181034485037 0.00077781124804961286 0 0.044575438091629768 0.0016504957434558146 0 0.044879181034485037 0.00077781124804961286 0 0.045141556042475189 0.0014992947403746578 0 0.044575438091629768 0.0016504957434558146 0 0.044826812472549583 -0.00014352854734105445 0 0.044879181034485037 0.00077781124804961286 0 0.04424952852000566 0.00040873596377228173 0 0.043929905659613327 0.0011722318361948748 0 0.044879181034485037 0.00077781124804961286 0 0.04424952852000566 0.00040873596377228173 0 0.045569334312052456 0.00086612800463977096 0 0.046123424543791258 0.00076775493527085137 0 0.045720389675678132 -7.224824403764523e-06 0 0.044879181034485037 0.00077781124804961286 0 0.045569334312052456 0.00086612800463977096 0 0.045720389675678132 -7.224824403764523e-06 0 0.044879181034485037 0.00077781124804961286 0 0.045569334312052456 0.00086612800463977096 0 0.045141556042475189 0.0014992947403746578 0 0.045569334312052456 0.00086612800463977096 0 0.045655223832498364 0.0014460908131193116 0 0.045141556042475189 0.0014992947403746578 0 0.041937615899194432 0.0017153715429948074 0 0.042024609728568446 0.0024712919585317809 0 0.045569334312052456 0.00086612800463977096 0 0.046123424543791258 0.00076775493527085137 0 0.045655223832498364 0.0014460908131193116 0 0.038814555435000467 0.0033137159862800863 0 0.038699090067752955 0.0023901411224089837 0 0.03821824120487171 0.0035665857288534647 0 0.038814555435000467 0.0033137159862800863 0 0.039988132378899373 0.0030662966781759551 0 0.038699090067752955 0.0023901411224089837 0 0.039988132378899373 0.0030662966781759551 0 0.040272168440819198 0.0019940545434940834 0 0.038699090067752955 0.0023901411224089837 0 0.040272168440819198 0.0019940545434940834 0 0.038699090067752955 0.0023901411224089837 0 0.039704894150812513 0.0011535376805112819 0 0.041937615899194432 0.0017153715429948074 0 0.04665219909621237 0.00086638131705818109 0 0.04665219909621237 0.00086638131705818109 0 0.049460515593154494 -0.00043274294511997904 0 0.046123424543791258 0.00076775493527085137 0 0.046583436435376366 0.00011382910256187605 0 0.045720389675678132 -7.224824403764523e-06 0 0.051431123059577845 -0.00060239782677165457 0 0.05164855606596757 -0.00029567490842883829 0 0.052145710525212004 -0.00061146769886621347 0 0.049763140703471313 0.0014128715764264244 0 0.050411025636611283 0.00073457570853259241 0 0.051224667141221002 0.0015534900821292466 0 0.04665219909621237 0.00086638131705818109 0 0.045731391601441837 0.0014641855866251846 0 0.040272168440819198 0.0019940545434940834 0 0.039704894150812513 0.0011535376805112819 0 0.041207421482208705 0.0013343271316928209 0 0.04665219909621237 0.00086638131705818109 0 0.051004581210057291 -0.00014653897345819346 0 0.051004581210057291 -0.00014653897345819346 0 0.050995254538339668 0.00023349651094565276 0 0.051431123059577845 -0.00060239782677165457 0 0.05128218863990644 -0.00025915570911807086 0 0.05164855606596757 -0.00029567490842883829 0 0.05128218863990644 -0.00025915570911807086 0 0.05164855606596757 -0.00029567490842883829 0 0.051499569901133427 4.983857245261824e-05 0 0.05164855606596757 -0.00029567490842883829 0 0.051958214728801619 -9.5888380087616858e-05 0 0.051499569901133427 4.983857245261824e-05 0 0.05164855606596757 -0.00029567490842883829 0 0.052145710525212004 -0.00061146769886621347 0 0.051958214728801619 -9.5888380087616858e-05 0 0.052145710525212004 -0.00061146769886621347 0 0.052474084182400522 -0.00021153580454038394 0 0.051958214728801619 -9.5888380087616858e-05 0 0.048792019015714332 -0.00029030413615382608 0 0.049460515593154494 -0.00043274294511997904 0 0.053025422527295779 -0.00047815173555397028 0 0.052145710525212004 -0.00061146769886621347 0 0.052474084182400522 -0.00021153580454038394 0 0.052861064156581018 -2.7247860707580825e-05 0 0.052474084182400522 -0.00021153580454038394 0 0.052388216362607258 0.00014219249494650465 0 0.054999735488850468 3.2199302734449535e-07 0 0.054991595437639124 3.5087596774941805e-05 0 0.055000054267734064 -6.1223711843353347e-08 0 0.052474084182400522 -0.00021153580454038394 0 0.052388216362607258 0.00014219249494650465 0 0.051958214728801619 -9.5888380087616858e-05 0 0.05280480522003593 0.00027019646358731345 0 0.052861064156581018 -2.7247860707580825e-05 0 0.052388216362607258 0.00014219249494650465 0 0.052388216362607258 0.00014219249494650465 0 0.051901802595646369 0.0001908795458696449 0 0.051958214728801619 -9.5888380087616858e-05 0 0.052737170839900684 0.00012824648034965851 0 0.051853230312490228 -1.3674353168520505e-05 0 0.051901802595646369 0.0001908795458696449 0 0.052323703762277074 0.00057822634595505642 0 0.051502872273676212 0.00033004886228360188 0 0.052388216362607258 0.00014219249494650465 0 0.051901802595646369 0.0001908795458696449 0 0.052323703762277074 0.00057822634595505642 0 0.05280480522003593 0.00027019646358731345 0 0.052388216362607258 0.00014219249494650465 0 0.052323703762277074 0.00057822634595505642 0 0.054087413332086415 -0.00015673458997738458 0 0.053152876997162854 -0.00031549493038407782 0 0.053386266198214877 0.00012775895996620869 0 0.054991595437639124 3.5087596774941805e-05 0 0.05499062451477222 1.8044157289968927e-05 0 0.055000054267734064 -6.1223711843353347e-08 0 0.053152876997162854 -0.00031549493038407782 0 0.053386266198214877 0.00012775895996620869 0 0.052517316587874847 0.00011770319724933912 0 0.053152876997162854 -0.00031549493038407782 0 0.052517316587874847 0.00011770319724933912 0 0.052137526092378948 -0.00034036733761235219 0 0.054184417026603905 8.2001071771805597e-05 0 0.053776071837054969 6.0619529339022143e-05 0 0.055000054267734064 -6.1223711843353347e-08 0 0.054985789236226601 5.0379188071594343e-06 0 0.054970249242729606 1.4234782167728982e-05 0 0.05499062451477222 1.8044157289968927e-05 0 0.055000054267734064 -6.1223711843353347e-08 0 0.054985789236226601 5.0379188071594343e-06 0 0.053776071837054969 6.0619529339022143e-05 0 0.053347778501348336 -7.8159070495050117e-06 0 0.052517316587874847 0.00011770319724933912 0 0.051810645180819737 -2.2045269004791468e-05 0 0.052137526092378948 -0.00034036733761235219 0 0.051810645180819737 -2.2045269004791468e-05 0 0.052137526092378948 -0.00034036733761235219 0 0.05154311577324705 -0.00020369487432801546 0 0.051853230312490228 -1.3674353168520505e-05 0 0.051582309103950223 -0.00017092367969444061 0 0.051353181033835495 7.2262124809571282e-05 0 0.051502872273676212 0.00033004886228360188 0 0.051499569901133427 4.983857245261824e-05 0 0.051353181033835495 7.2262124809571282e-05 0 0.051502872273676212 0.00033004886228360188 0 0.05154311577324705 -0.00020369487432801546 0 0.051901802595646369 0.0001908795458696449 0 0.051502872273676212 0.00033004886228360188 0 0.051499569901133427 4.983857245261824e-05 0 0.051901802595646369 0.0001908795458696449 0 0.051958214728801619 -9.5888380087616858e-05 0 0.051499569901133427 4.983857245261824e-05 0 0.051353181033835495 7.2262124809571282e-05 0 0.051499569901133427 4.983857245261824e-05 0 0.051161414303259482 0.00013696945783394079 0 0.05128218863990644 -0.00025915570911807086 0 0.051499569901133427 4.983857245261824e-05 0 0.051161414303259482 0.00013696945783394079 0 0.051353181033835495 7.2262124809571282e-05 0 0.051161414303259482 0.00013696945783394079 0 0.051624929648203532 -2.2119061910568333e-05 0 0.051161414303259482 0.00013696945783394079 0 0.051624929648203532 -2.2119061910568333e-05 0 0.051531086203500616 0.00062291779417029047 0 0.051624929648203532 -2.2119061910568333e-05 0 0.052255765790731587 0.00029313815702224419 0 0.051531086203500616 0.00062291779417029047 0 0.051624929648203532 -2.2119061910568333e-05 0 0.051771659310017606 -0.00029956387254961072 0 0.052196884795445188 -0.00043041890294279569 0 0.051624929648203532 -2.2119061910568333e-05 0 0.052196884795445188 -0.00043041890294279569 0 0.052255765790731587 0.00029313815702224419 0 0.051353181033835495 7.2262124809571282e-05 0 0.051624929648203532 -2.2119061910568333e-05 0 0.05154311577324705 -0.00020369487432801546 0 0.051624929648203532 -2.2119061910568333e-05 0 0.05154311577324705 -0.00020369487432801546 0 0.051771659310017606 -0.00029956387254961072 0 0.051810645180819737 -2.2045269004791468e-05 0 0.05154311577324705 -0.00020369487432801546 0 0.051636155824533431 -0.0002567854539582733 0 0.053347778501348336 -7.8159070495050117e-06 0 0.053656345382240643 -0.00019387066272633522 0 0.054985789236226601 5.0379188071594343e-06 0 0.054967808290823601 1.318603316762343e-05 0 0.054970249242729606 1.4234782167728982e-05 0 0.051810645180819737 -2.2045269004791468e-05 0 0.051643793472281339 -0.00032108676227034206 0 0.051636155824533431 -0.0002567854539582733 0 0.055000054267734064 -6.1223711843353347e-08 0 0.054970249242729606 1.4234782167728982e-05 0 0.054999750046243204 9.7314252738647585e-08 0 0.053656345382240643 -0.00019387066272633522 0 0.053844034181780451 -7.9417086408811518e-05 0 0.051643793472281339 -0.00032108676227034206 0 0.051636155824533431 -0.0002567854539582733 0 0.051771659310017606 -0.00029956387254961072 0 0.05154311577324705 -0.00020369487432801546 0 0.051636155824533431 -0.0002567854539582733 0 0.051771659310017606 -0.00029956387254961072 0 0.053656345382240643 -0.00019387066272633522 0 0.053509487631308396 -0.00017219467437863819 0 0.054960687155427887 1.9330800631653399e-05 0 0.054937311534380223 3.4220425097016183e-05 0 0.054886651051804985 5.6331933825643385e-05 0 0.051643793472281339 -0.00032108676227034206 0 0.051771659310017606 -0.00029956387254961072 0 0.052196884795445188 -0.00043041890294279569 0 0.054969838423076386 1.2047200133282183e-05 0 0.054960687155427887 1.9330800631653399e-05 0 0.054886651051804985 5.6331933825643385e-05 0 0.054967355209155029 1.378935629787007e-05 0 0.054960687155427887 1.9330800631653399e-05 0 0.054970249242729606 1.4234782167728982e-05 0 0.053656345382240643 -0.00019387066272633522 0 0.054535290478982472 -0.00018173667311171271 0 0.054960687155427887 1.9330800631653399e-05 0 0.054970249242729606 1.4234782167728982e-05 0 0.054999750046243204 9.7314252738647585e-08 0 0.054931058144908826 3.1293371914143003e-05 0 0.054999750046243204 9.7314252738647585e-08 0 0.054886532799360177 5.9072798849057982e-05 0 0.054960687155427887 1.9330800631653399e-05 0 0.054999750046243204 9.7314252738647585e-08 0 0.054937311534380223 3.4220425097016183e-05 0 0.054999750046243204 9.7314252738647585e-08 0 0.054937311534380223 3.4220425097016183e-05 0 0.054886532799360177 5.9072798849057982e-05 0 0.054937311534380223 3.4220425097016183e-05 0 0.054886532799360177 5.9072798849057982e-05 0 0.054886651051804985 5.6331933825643385e-05 0 0.054931058144908826 3.1293371914143003e-05 0 0.054814217730098071 0.00011474206799233128 0 0.054886532799360177 5.9072798849057982e-05 0 0.054814217730098071 0.00011474206799233128 0 0.054886532799360177 5.9072798849057982e-05 0 0.054729380715733647 0.00016078263169549192 0 0.054886532799360177 5.9072798849057982e-05 0 0.054886651051804985 5.6331933825643385e-05 0 0.054729380715733647 0.00016078263169549192 0 0.053509487631308396 -0.00017219467437863819 0 0.05399110285488791 6.9837325548803507e-05 0 0.052196884795445188 -0.00043041890294279569 0 0.052255765790731587 0.00029313815702224419 0 0.053175511188085368 -0.0001227551311419239 0 0.052255765790731587 0.00029313815702224419 0 0.053175511188085368 -0.0001227551311419239 0 0.053039854408058619 0.0008918573937144145 0 0.054475708442041783 0.0005331406593387612 0 0.053175511188085368 -0.0001227551311419239 0 0.053039854408058619 0.0008918573937144145 0 0.054475708442041783 0.0005331406593387612 0 0.053848016393196536 0.0020002613800932331 0 0.053039854408058619 0.0008918573937144145 0 0.04789060645393349 0.0013556956109973923 0 0.047967420482200658 0.0016899705970847547 0 0.053848016393196536 0.0020002613800932331 0 0.053039854408058619 0.0008918573937144145 0 0.052461999642080648 0.0017574071343871851 0 0.053039854408058619 0.0008918573937144145 0 0.052461999642080648 0.0017574071343871851 0 0.052099348972024631 0.0009988768116922632 0 0.052255765790731587 0.00029313815702224419 0 0.053039854408058619 0.0008918573937144145 0 0.052099348972024631 0.0009988768116922632 0 0.052255765790731587 0.00029313815702224419 0 0.052099348972024631 0.0009988768116922632 0 0.051531086203500616 0.00062291779417029047 0 0.052099348972024631 0.0009988768116922632 0 0.051531086203500616 0.00062291779417029047 0 0.051224667141221002 0.0015534900821292466 0 0.050411025636611283 0.00073457570853259241 0 0.051161414303259482 0.00013696945783394079 0 0.051531086203500616 0.00062291779417029047 0 0.050411025636611283 0.00073457570853259241 0 0.051531086203500616 0.00062291779417029047 0 0.051224667141221002 0.0015534900821292466 0 0.052461999642080648 0.0017574071343871851 0 0.052099348972024631 0.0009988768116922632 0 0.051224667141221002 0.0015534900821292466 0 0.047967420482200658 0.0016899705970847547 0 0.045731391601441837 0.0014641855866251846 0 0.04271321536717438 0.0014735740629969482 0 0.041207421482208705 0.0013343271316928209 0 0.041418523580734855 0.0026150536467458392 0 0.04271321536717438 0.0014735740629969482 0 0.041418523580734855 0.0026150536467458392 0 0.042673550763074143 0.0027410954867942384 0 0.040272168440819198 0.0019940545434940834 0 0.041207421482208705 0.0013343271316928209 0 0.041418523580734855 0.0026150536467458392 0 0.039988132378899373 0.0030662966781759551 0 0.041418523580734855 0.0026150536467458392 0 0.040851934999956409 0.0037333507676971947 0 0.039988132378899373 0.0030662966781759551 0 0.040272168440819198 0.0019940545434940834 0 0.041418523580734855 0.0026150536467458392 0 0.041418523580734855 0.0026150536467458392 0 0.042673550763074143 0.0027410954867942384 0 0.042072129293074287 0.0037430601264721664 0 0.041418523580734855 0.0026150536467458392 0 0.042072129293074287 0.0037430601264721664 0 0.040851934999956409 0.0037333507676971947 0 0.042673550763074143 0.0027410954867942384 0 0.043207732345933926 0.0037325927030289318 0 0.042072129293074287 0.0037430601264721664 0 0.042673550763074143 0.0027410954867942384 0 0.043814004362154393 0.0026745754408085891 0 0.043207732345933926 0.0037325927030289318 0 0.043715977916208355 0.0029427559455500328 0 0.043357708817809447 0.0035591020404226749 0 0.044168619087382968 0.0034958407707983575 0 0.044075481247104073 0.0026769319986321158 0 0.043207732345933926 0.0037325927030289318 0 0.045121195626016387 0.0029928919196044786 0 0.044168619087382968 0.0034958407707983575 0 0.044075481247104073 0.0026769319986321158 0 0.044401416426773352 0.0016371595605585067 0 0.04271321536717438 0.0014735740629969482 0 0.043814004362154393 0.0026745754408085891 0 0.04789060645393349 0.0013556956109973923 0 0.043715977916208355 0.0029427559455500328 0 0.04271321536717438 0.0014735740629969482 0 0.042673550763074143 0.0027410954867942384 0 0.043814004362154393 0.0026745754408085891 0 0.034222881620527348 0.0035664445592573342 0 0.035097903618410052 0.0037247029051357978 0 0.034107389210008353 0.0029562509548844798 0 0.038523114572586108 0.0042194898404521392 0 0.038317954053628034 0.0042060083175355419 0 0.044298687213180754 0.0045872097269494521 0 0.044610917710446403 0.0047431564695668837 0 0.042870319679983622 0.0049079134630324768 0 0.033372203260011502 0.0034269599343982686 0 0.034222881620527348 0.0035664445592573342 0 0.033580007817908625 0.0031012624191288454 0 0.039128109885465105 0.0040612798650950747 0 0.038523114572586108 0.0042194898404521392 0 0.034222881620527348 0.0035664445592573342 0 0.034107389210008353 0.0029562509548844798 0 0.033580007817908625 0.0031012624191288454 0 0.042870319679983622 0.0049079134630324768 0 0.044104526754085834 0.0041106021168331279 0 0.043207732345933926 0.0037325927030289318 0 0.044298687213180754 0.0045872097269494521 0 0.042870319679983622 0.0049079134630324768 0 0.044104526754085834 0.0041106021168331279 0 0.044955395290297795 0.0036032812585236255 0 0.044168619087382968 0.0034958407707983575 0 0.044104526754085834 0.0041106021168331279 0 0.044168619087382968 0.0034958407707983575 0 0.044104526754085834 0.0041106021168331279 0 0.043207732345933926 0.0037325927030289318 0 0.042870319679983622 0.0049079134630324768 0 0.043207732345933926 0.0037325927030289318 0 0.042072129293074287 0.0037430601264721664 0 0.042072129293074287 0.0037430601264721664 0 0.040851934999956409 0.0037333507676971947 0 0.041490020497729027 0.0046724981756692922 0 0.042870319679983622 0.0049079134630324768 0 0.042072129293074287 0.0037430601264721664 0 0.041490020497729027 0.0046724981756692922 0 0.040851934999956409 0.0037333507676971947 0 0.041490020497729027 0.0046724981756692922 0 0.039952012203033058 0.0044374583549055902 0 0.038317954053628034 0.0042060083175355419 0 0.0381973808869202 0.004160852752541808 0 0.035097903618410052 0.0037247029051357978 0 0.035436802170246327 0.0029198328337985144 0 0.036400030897505729 0.0039320688889648656 0 0.035097903618410052 0.0037247029051357978 0 0.03462754972817543 0.0025732739775825861 0 0.034107389210008353 0.0029562509548844798 0 0.035097903618410052 0.0037247029051357978 0 0.03462754972817543 0.0025732739775825861 0 0.035436802170246327 0.0029198328337985144 0 0.035436802170246327 0.0029198328337985144 0 0.035431587495032654 0.0016688592268018427 0 0.036348831482004802 0.0026127996705775491 0 0.03462754972817543 0.0025732739775825861 0 0.035436802170246327 0.0029198328337985144 0 0.035431587495032654 0.0016688592268018427 0 0.03462754972817543 0.0025732739775825861 0 0.035431587495032654 0.0016688592268018427 0 0.03434244374064583 0.0014230264150853109 0 0.03462754972817543 0.0025732739775825861 0 0.033934098613414045 0.0021441047612158529 0 0.03434244374064583 0.0014230264150853109 0 0.03462754972817543 0.0025732739775825861 0 0.033934098613414045 0.0021441047612158529 0 0.034107389210008353 0.0029562509548844798 0 0.034107389210008353 0.0029562509548844798 0 0.033580007817908625 0.0031012624191288454 0 0.033222216423876696 0.0024648216759123828 0 0.033089247558232081 0.0029571878213903021 0 0.033580007817908625 0.0031012624191288454 0 0.033222216423876696 0.0024648216759123828 0 0.033934098613414045 0.0021441047612158529 0 0.033222216423876696 0.0024648216759123828 0 0.03331688796127346 0.0012005093025334026 0 0.033934098613414045 0.0021441047612158529 0 0.034107389210008353 0.0029562509548844798 0 0.033222216423876696 0.0024648216759123828 0 0.032438587021975142 0.00011671027913797932 0 0.032387523093571582 0.0015743982808878985 0 0.03331688796127346 0.0012005093025334026 0 0.032387523093571582 0.0015743982808878985 0 0.033222216423876696 0.0024648216759123828 0 0.03331688796127346 0.0012005093025334026 0 0.033934098613414045 0.0021441047612158529 0 0.03331688796127346 0.0012005093025334026 0 0.03434244374064583 0.0014230264150853109 0 0.03331688796127346 0.0012005093025334026 0 0.03434244374064583 0.0014230264150853109 0 0.033695490425909712 0.00017992374052693238 0 0.032301711554220486 9.4359943714560865e-05 0 0.033188306689200697 0.0011068992675027874 0 0.031928943802840365 5.0078841494150867e-05 0 0.03331688796127346 0.0012005093025334026 0 0.033695490425909712 0.00017992374052693238 0 0.031928943802840365 5.0078841494150867e-05 0 0.033695490425909712 0.00017992374052693238 0 0.033209469303215222 -0.0010548730318105379 0 0.031928943802840365 5.0078841494150867e-05 0 0.032007064199878095 -0.0011553256708265289 0 0.033209469303215222 -0.0010548730318105379 0 0.033695490425909712 0.00017992374052693238 0 0.033209469303215222 -0.0010548730318105379 0 0.034366952207628067 -0.00098374078177810675 0 0.033209469303215222 -0.0010548730318105379 0 0.034366952207628067 -0.00098374078177810675 0 0.033776849144269601 -0.0026272916254943724 0 0.033209469303215222 -0.0010548730318105379 0 0.032639081232153741 -0.00215397116624439 0 0.033776849144269601 -0.0026272916254943724 0 0.032007064199878095 -0.0011553256708265289 0 0.033209469303215222 -0.0010548730318105379 0 0.032639081232153741 -0.00215397116624439 0 0.032007064199878095 -0.0011553256708265289 0 0.032639081232153741 -0.00215397116624439 0 0.031626767407627134 -0.0023108380835904795 0 0.035218186496146074 -0.0016304513483048184 0 0.034366952207628067 -0.00098374078177810675 0 0.033776849144269601 -0.0026272916254943724 0 0.033695490425909712 0.00017992374052693238 0 0.034366952207628067 -0.00098374078177810675 0 0.034882162085877057 0.00039387608995862598 0 0.034366952207628067 -0.00098374078177810675 0 0.035427808177587387 -0.00051051915032278468 0 0.034882162085877057 0.00039387608995862598 0 0.035218186496146074 -0.0016304513483048184 0 0.035427808177587387 -0.00051051915032278468 0 0.036402565488992053 -0.00074264005368049118 0 0.035218186496146074 -0.0016304513483048184 0 0.034366952207628067 -0.00098374078177810675 0 0.035427808177587387 -0.00051051915032278468 0 0.035427808177587387 -0.00051051915032278468 0 0.034882162085877057 0.00039387608995862598 0 0.035946769299249212 0.00042577072133086663 0 0.03434244374064583 0.0014230264150853109 0 0.033695490425909712 0.00017992374052693238 0 0.034882162085877057 0.00039387608995862598 0 0.035431587495032654 0.0016688592268018427 0 0.03434244374064583 0.0014230264150853109 0 0.034882162085877057 0.00039387608995862598 0 0.035431587495032654 0.0016688592268018427 0 0.034882162085877057 0.00039387608995862598 0 0.035946769299249212 0.00042577072133086663 0 0.035431587495032654 0.0016688592268018427 0 0.036710935628473933 0.0014273731626464903 0 0.035946769299249212 0.00042577072133086663 0 0.036710935628473933 0.0014273731626464903 0 0.036827785586479263 0.0004023484343189633 0 0.035946769299249212 0.00042577072133086663 0 0.036710935628473933 0.0014273731626464903 0 0.037489291775817134 0.00081974977754717296 0 0.037698409809017459 0.0017022029012809857 0 0.036710935628473933 0.0014273731626464903 0 0.036827785586479263 0.0004023484343189633 0 0.037489291775817134 0.00081974977754717296 0 0.036827785586479263 0.0004023484343189633 0 0.037486347005496523 9.5461619194661608e-05 0 0.037489291775817134 0.00081974977754717296 0 0.036827785586479263 0.0004023484343189633 0 0.036402565488992053 -0.00074264005368049118 0 0.037486347005496523 9.5461619194661608e-05 0 0.036827785586479263 0.0004023484343189633 0 0.035946769299249212 0.00042577072133086663 0 0.036402565488992053 -0.00074264005368049118 0 0.035427808177587387 -0.00051051915032278468 0 0.035946769299249212 0.00042577072133086663 0 0.036402565488992053 -0.00074264005368049118 0 0.021416190090103173 0.0043915763881702619 0 0.022657114729892742 0.0037438276806747409 0 0.022665950204088865 0.0047442998907969618 0 0.028967225406469524 0.0018314504514467063 0 0.029646625334144382 0.0024217348768833425 0 0.021416190090103173 0.0043915763881702619 0 0.021650806106415663 0.0033302715084630938 0 0.022657114729892742 0.0037438276806747409 0 0.027486604408065766 0.001121864155482239 0 0.028967225406469524 0.0018314504514467063 0 0.019886242978645011 0.0039428772817960535 0 0.021416190090103173 0.0043915763881702619 0 0.021650806106415663 0.0033302715084630938 0 0.023661610813318617 0.003269295701579974 0 0.022657114729892742 0.0037438276806747409 0 0.023491808376727968 0.0039901124270991899 0 0.023661610813318617 0.003269295701579974 0 0.022657114729892742 0.0037438276806747409 0 0.023228144187411901 0.0027736478377425166 0 0.023012551150699535 0.0042491135010881446 0 0.023350735868213311 0.0045316206343843377 0 0.022665950204088865 0.0047442998907969618 0 0.022657114729892742 0.0037438276806747409 0 0.023012551150699535 0.0042491135010881446 0 0.023491808376727968 0.0039901124270991899 0 0.022657114729892742 0.0037438276806747409 0 0.023012551150699535 0.0042491135010881446 0 0.022665950204088865 0.0047442998907969618 0 0.023012551150699535 0.0042491135010881446 0 0.023491808376727968 0.0039901124270991899 0 0.023350735868213311 0.0045316206343843377 0 0.023491808376727968 0.0039901124270991899 0 0.023350735868213311 0.0045316206343843377 0 0.024035644704065048 0.0043715617296871444 0 0.023350735868213311 0.0045316206343843377 0 0.022665950204088865 0.0047442998907969618 0 0.023615703290910638 0.0051117188065541736 0 0.023350735868213311 0.0045316206343843377 0 0.023615703290910638 0.0051117188065541736 0 0.024035644704065048 0.0043715617296871444 0 0.029646625334144382 0.0024217348768833425 0 0.033127373275263584 0.0021212989998370549 0 0.037486347005496523 9.5461619194661608e-05 0 0.037489291775817134 0.00081974977754717296 0 0.038170184789324456 0.00066275319317630349 0 0.037489291775817134 0.00081974977754717296 0 0.038403331114946627 0.0013758775112001291 0 0.039060853873628745 0.00075549431494765812 0 0.039861286032494281 0.00040813305710523409 0 0.033127373275263584 0.0021212989998370549 0 0.037489291775817134 0.00081974977754717296 0 0.038403331114946627 0.0013758775112001291 0 0.037698409809017459 0.0017022029012809857 0 0.038403331114946627 0.0013758775112001291 0 0.039060853873628745 0.00075549431494765812 0 0.039055181082629523 0.0015267528340492653 0 0.039060853873628745 0.00075549431494765812 0 0.039055181082629523 0.0015267528340492653 0 0.039788718052090555 0.0012509373342497246 0 0.039055181082629523 0.0015267528340492653 0 0.038625982376724766 0.0020361537423757669 0 0.039468792887924979 0.002004916287247365 0 0.038403331114946627 0.0013758775112001291 0 0.039055181082629523 0.0015267528340492653 0 0.038625982376724766 0.0020361537423757669 0 0.038625982376724766 0.0020361537423757669 0 0.038973524047790829 0.0027929056743629466 0 0.039468792887924979 0.002004916287247365 0 0.038973524047790829 0.0027929056743629466 0 0.039152571067893951 0.0037434073161784916 0 0.039849575812095438 0.0027212591808699377 0 0.038625982376724766 0.0020361537423757669 0 0.038973524047790829 0.0027929056743629466 0 0.038296954806165316 0.0027146054645716703 0 0.038973524047790829 0.0027929056743629466 0 0.038296954806165316 0.0027146054645716703 0 0.038645606283522836 0.0033902248787798868 0 0.038296954806165316 0.0027146054645716703 0 0.038645606283522836 0.0033902248787798868 0 0.038160132309347464 0.0033062615767041107 0 0.038296954806165316 0.0027146054645716703 0 0.037496918437762025 0.0024928928937469636 0 0.038160132309347464 0.0033062615767041107 0 0.038625982376724766 0.0020361537423757669 0 0.038296954806165316 0.0027146054645716703 0 0.037698409809017459 0.0017022029012809857 0 0.038403331114946627 0.0013758775112001291 0 0.038625982376724766 0.0020361537423757669 0 0.037698409809017459 0.0017022029012809857 0 0.038296954806165316 0.0027146054645716703 0 0.037698409809017459 0.0017022029012809857 0 0.037496918437762025 0.0024928928937469636 0 0.036710935628473933 0.0014273731626464903 0 0.036348831482004802 0.0026127996705775491 0 0.037496918437762025 0.0024928928937469636 0 0.036710935628473933 0.0014273731626464903 0 0.037698409809017459 0.0017022029012809857 0 0.037496918437762025 0.0024928928937469636 0 0.035431587495032654 0.0016688592268018427 0 0.036710935628473933 0.0014273731626464903 0 0.036348831482004802 0.0026127996705775491 0 0.035436802170246327 0.0029198328337985144 0 0.036348831482004802 0.0026127996705775491 0 0.036400030897505729 0.0039320688889648656 0 0.036348831482004802 0.0026127996705775491 0 0.037496918437762025 0.0024928928937469636 0 0.037362084489446917 0.0032671807585130607 0 0.037496918437762025 0.0024928928937469636 0 0.037362084489446917 0.0032671807585130607 0 0.038160132309347464 0.0033062615767041107 0 0.037362084489446917 0.0032671807585130607 0 0.038160132309347464 0.0033062615767041107 0 0.038277148285892286 0.0039777488144514912 0 0.0381973808869202 0.004160852752541808 0 0.038283367951920451 0.0040238599609697355 0 0.037362084489446917 0.0032671807585130607 0 0.036400030897505729 0.0039320688889648656 0 0.038277148285892286 0.0039777488144514912 0 0.036348831482004802 0.0026127996705775491 0 0.037362084489446917 0.0032671807585130607 0 0.036400030897505729 0.0039320688889648656 0 0.039988132378899373 0.0030662966781759551 0 0.040851934999956409 0.0037333507676971947 0 0.039952012203033058 0.0044374583549055902 0 0.038814555435000467 0.0033137159862800863 0 0.039988132378899373 0.0030662966781759551 0 0.039952012203033058 0.0044374583549055902 0 0.038814555435000467 0.0033137159862800863 0 0.039952012203033058 0.0044374583549055902 0 0.038277148285892286 0.0039777488144514912 0 0.038814555435000467 0.0033137159862800863 0 0.03821824120487171 0.0035665857288534647 0 0.038277148285892286 0.0039777488144514912 0 0.03821824120487171 0.0035665857288534647 0 0.038277148285892286 0.0039777488144514912 0 0.038433426940538695 0.0036903949638159147 0 0.03821824120487171 0.0035665857288534647 0 0.038688934650520306 0.0036326787441327214 0 0.038433426940538695 0.0036903949638159147 0 0.045655223832498364 0.0014460908131193116 0 0.045141556042475189 0.0014992947403746578 0 0.045178418655546379 0.0021228584111712013 0 0.042024609728568446 0.0024712919585317809 0 0.041967587095781696 0.0026369891114522699 0 0.038973524047790829 0.0027929056743629466 0 0.039152571067893951 0.0037434073161784916 0 0.038645606283522836 0.0033902248787798868 0 0.041967587095781696 0.0026369891114522699 0 0.039101099540421708 0.0025602767913480975 0 0.038688934650520306 0.0036326787441327214 0 0.038645606283522836 0.0033902248787798868 0 0.038433426940538695 0.0036903949638159147 0 0.038645606283522836 0.0033902248787798868 0 0.038160132309347464 0.0033062615767041107 0 0.038433426940538695 0.0036903949638159147 0 0.038160132309347464 0.0033062615767041107 0 0.038277148285892286 0.0039777488144514912 0 0.038433426940538695 0.0036903949638159147 0 0.043204427116854446 0.0013336503749663026 0 0.043411160289719579 0.0013606821506492929 0 0.043236345075600785 0.0015435751852295721 0 0.043204427116854446 0.0013336503749663026 0 0.043411160289719579 0.0013606821506492929 0 0.043404033759064035 0.0011026383748051611 0 0.043629279711863589 0.0013217730783256808 0 0.043411160289719579 0.0013606821506492929 0 0.043454263081124371 0.0015672466579352417 0 0.043629279711863589 0.0013217730783256808 0 0.043411160289719579 0.0013606821506492929 0 0.043404033759064035 0.0011026383748051611 0 0.041967587095781696 0.0026369891114522699 0 0.044358461274782289 0.0013830826649181519 0 0.045141556042475189 0.0014992947403746578 0 0.045178418655546379 0.0021228584111712013 0 0.044575438091629768 0.0016504957434558146 0 0.043489165101413964 0.00096907075496147717 0 0.044358461274782289 0.0013830826649181519 0 0.043204427116854446 0.0013336503749663026 0 0.043404033759064035 0.0011026383748051611 0 0.043084586144992498 0.0011292278957889903 0 0.043200840785943613 0.00084612183380339289 0 0.043404033759064035 0.0011026383748051611 0 0.043084586144992498 0.0011292278957889903 0 0.043200840785943613 0.00084612183380339289 0 0.043084586144992498 0.0011292278957889903 0 0.042866861706821607 0.00092699972115750727 0 0.043084586144992498 0.0011292278957889903 0 0.042866861706821607 0.00092699972115750727 0 0.04280605068730791 0.0012111181246891051 0 0.043084586144992498 0.0011292278957889903 0 0.04280605068730791 0.0012111181246891051 0 0.043020299872746109 0.001322124502620035 0 0.04280605068730791 0.0012111181246891051 0 0.042863531578609511 0.0014286219053706677 0 0.042410190865673228 0.001428763744976251 0 0.04280605068730791 0.0012111181246891051 0 0.042863531578609511 0.0014286219053706677 0 0.043020299872746109 0.001322124502620035 0 0.043204427116854446 0.0013336503749663026 0 0.043084586144992498 0.0011292278957889903 0 0.043020299872746109 0.001322124502620035 0 0.042863531578609511 0.0014286219053706677 0 0.043020299872746109 0.001322124502620035 0 0.043041886012014599 0.001493156358769909 0 0.043204427116854446 0.0013336503749663026 0 0.043020299872746109 0.001322124502620035 0 0.043041886012014599 0.001493156358769909 0 0.043204427116854446 0.0013336503749663026 0 0.043041886012014599 0.001493156358769909 0 0.043236345075600785 0.0015435751852295721 0 0.037462932297416221 0.0016003671871546881 0 0.038279006556663629 0.0022683268917390396 0 0.043041886012014599 0.001493156358769909 0 0.042857047235135011 0.0015647716038542151 0 0.043054145459445248 0.0016874121017744319 0 0.043041886012014599 0.001493156358769909 0 0.043054145459445248 0.0016874121017744319 0 0.043236345075600785 0.0015435751852295721 0 0.031814901542798174 0.00088716202125005688 0 0.031826775653329108 0.00084123795476491795 0 0.031865688286299404 0.00086617416316718456 0 0.042863531578609511 0.0014286219053706677 0 0.042851088933286777 0.0016267945340402976 0 0.042410190865673228 0.001428763744976251 0 0.041238080758617478 0.0016389989379661809 0 0.037462932297416221 0.0016003671871546881 0 0.042863531578609511 0.0014286219053706677 0 0.043041886012014599 0.001493156358769909 0 0.042857047235135011 0.0015647716038542151 0 0.037462932297416221 0.0016003671871546881 0 0.032470053053375129 0.0016103044702387727 0 0.031814901542798174 0.00088716202125005688 0 0.031796617739858514 0.0008192642438652895 0 0.031826775653329108 0.00084123795476491795 0 0.031796617739858514 0.0008192642438652895 0 0.031826775653329108 0.00084123795476491795 0 0.031821482920631083 0.00079243208454387356 0 0.033388171537431358 0.0027493734384543291 0 0.033445756750485188 0.0027966759155708802 0 0.033352435371995552 0.0028308284185027894 0 0.033303226048393961 0.002792424192875103 0 0.033388171537431358 0.0027493734384543291 0 0.033352435371995552 0.0028308284185027894 0 0.033345442155689381 0.0027017161816172393 0 0.033303226048393961 0.002792424192875103 0 0.033388171537431358 0.0027493734384543291 0 0.043054145459445248 0.0016874121017744319 0 0.043249990969214079 0.0018187989202076368 0 0.043236345075600785 0.0015435751852295721 0 0.038279006556663629 0.0022683268917390396 0 0.039259105369215834 0.0015933032965583579 0 0.043411160289719579 0.0013606821506492929 0 0.043236345075600785 0.0015435751852295721 0 0.043454263081124371 0.0015672466579352417 0 0.043249990969214079 0.0018187989202076368 0 0.043236345075600785 0.0015435751852295721 0 0.043454263081124371 0.0015672466579352417 0 0.041967587095781696 0.0026369891114522699 0 0.041875216542260528 0.0020367396248477942 0 0.038973524047790829 0.0027929056743629466 0 0.039849575812095438 0.0027212591808699377 0 0.039468792887924979 0.002004916287247365 0 0.040516027680576487 0.0017181752349202815 0 0.039468792887924979 0.002004916287247365 0 0.039788718052090555 0.0012509373342497246 0 0.039259105369215834 0.0015933032965583579 0 0.041875216542260528 0.0020367396248477942 0 0.040516027680576487 0.0017181752349202815 0 0.039849575812095438 0.0027212591808699377 0 0.039468792887924979 0.002004916287247365 0 0.039055181082629523 0.0015267528340492653 0 0.039468792887924979 0.002004916287247365 0 0.039788718052090555 0.0012509373342497246 0 0.033530375211276345 0.0028573145769664383 0 0.033485660822229361 0.002833185759857968 0 0.033419260888962306 0.0028853076732526981 0 0.033127373275263584 0.0021212989998370549 0 0.027846924969012848 0.0042465364024208904 0 0.039259105369215834 0.0015933032965583579 0 0.036756334919091846 0.0021218407452414825 0 0.033127373275263584 0.0021212989998370549 0 0.036756334919091846 0.0021218407452414825 0 0.033419260888962306 0.0028853076732526981 0 0.033379997047024372 0.0028594060501158755 0 0.033315742962627633 0.0028958520110559864 0 0.033445756750485188 0.0027966759155708802 0 0.033419260888962306 0.0028853076732526981 0 0.033379997047024372 0.0028594060501158755 0 0.033445756750485188 0.0027966759155708802 0 0.033485660822229361 0.002833185759857968 0 0.033419260888962306 0.0028853076732526981 0 0.033445756750485188 0.0027966759155708802 0 0.033379997047024372 0.0028594060501158755 0 0.033352435371995552 0.0028308284185027894 0 0.024616283492078301 0.0049780359953472963 0 0.024035644704065048 0.0043715617296871444 0 0.024930189761693408 0.0040894453733086918 0 0.023615703290910638 0.0051117188065541736 0 0.024616283492078301 0.0049780359953472963 0 0.024035644704065048 0.0043715617296871444 0 0.023491808376727968 0.0039901124270991899 0 0.024035644704065048 0.0043715617296871444 0 0.024318654457014477 0.00340571419622725 0 0.024930189761693408 0.0040894453733086918 0 0.024318654457014477 0.00340571419622725 0 0.02503203005375924 0.0030979544216997675 0 0.024035644704065048 0.0043715617296871444 0 0.024930189761693408 0.0040894453733086918 0 0.024318654457014477 0.00340571419622725 0 0.024318654457014477 0.00340571419622725 0 0.02503203005375924 0.0030979544216997675 0 0.024746217608368148 0.0023640841038878911 0 0.023661610813318617 0.003269295701579974 0 0.024318654457014477 0.00340571419622725 0 0.024012901791674229 0.0023919441586073334 0 0.023661610813318617 0.003269295701579974 0 0.023491808376727968 0.0039901124270991899 0 0.024318654457014477 0.00340571419622725 0 0.025799878947173404 0.002098667791583006 0 0.025482312038249733 0.0026120270620465015 0 0.025462895246286331 0.0020671245004469075 0 0.025307187582994526 0.0033396430792626106 0 0.025564321899166621 0.0020675062923451613 0 0.02503203005375924 0.0030979544216997675 0 0.025462895246286331 0.0020671245004469075 0 0.024746217608368148 0.0023640841038878911 0 0.02503203005375924 0.0030979544216997675 0 0.025859420866274321 0.0036325822845206281 0 0.025462895246286331 0.0020671245004469075 0 0.024930189761693408 0.0040894453733086918 0 0.02503203005375924 0.0030979544216997675 0 0.025859420866274321 0.0036325822845206281 0 0.024930189761693408 0.0040894453733086918 0 0.025859420866274321 0.0036325822845206281 0 0.025820055566196137 0.0048808665936723112 0 0.025799878947173404 0.002098667791583006 0 0.025482312038249733 0.0026120270620465015 0 0.026085793381996111 0.0027951131309367828 0 0.025482312038249733 0.0026120270620465015 0 0.025837475251954942 0.0030416264688296352 0 0.026085793381996111 0.0027951131309367828 0 0.025837475251954942 0.0030416264688296352 0 0.025583453632242445 0.0034501861855450334 0 0.02615002202499463 0.0033084798355287712 0 0.029213429938560218 0.0030364459862846694 0 0.028928178548086943 0.0020530313826863855 0 0.025482312038249733 0.0026120270620465015 0 0.025837475251954942 0.0030416264688296352 0 0.025583453632242445 0.0034501861855450334 0 0.025307187582994526 0.0033396430792626106 0 0.029213429938560218 0.0030364459862846694 0 0.025859420866274321 0.0036325822845206281 0 0.025986973611408375 0.0048665648834907297 0 0.025820055566196137 0.0048808665936723112 0 0.029213429938560218 0.0030364459862846694 0 0.030535420862161843 0.003252446915987198 0 0.033419260888962306 0.0028853076732526981 0 0.033276975676588313 0.0029072503323640496 0 0.033315742962627633 0.0028958520110559864 0 0.024616283492078301 0.0049780359953472963 0 0.024930189761693408 0.0040894453733086918 0 0.025820055566196137 0.0048808665936723112 0 0.027846924969012848 0.0042465364024208904 0 0.030535420862161843 0.003252446915987198 0 0.030535420862161843 0.003252446915987198 0 0.032763289378310391 0.0028627878282657241 0 0.033303226048393961 0.002792424192875103 0 0.033281902882859073 0.0028997170755052019 0 0.033352435371995552 0.0028308284185027894 0 0.033379997047024372 0.0028594060501158755 0 0.033315742962627633 0.0028958520110559864 0 0.033352435371995552 0.0028308284185027894 0 0.033281902882859073 0.0028997170755052019 0 0.033315742962627633 0.0028958520110559864 0 0.033352435371995552 0.0028308284185027894 0 0.033303226048393961 0.002792424192875103 0 0.033262083921904391 0.0029005479360079502 0 0.033281902882859073 0.0028997170755052019 0 0.031796617739858514 0.0008192642438652895 0 0.031776122994371159 0.00078727335291989275 0 0.031821482920631083 0.00079243208454387356 0 0.031776122994371159 0.00078727335291989275 0 0.031821482920631083 0.00079243208454387356 0 0.031811402525550231 0.00077367525576353268 0 0.032470053053375129 0.0016103044702387727 0 0.029213429938560218 0.0030364459862846694 0 0.031821482920631083 0.00079243208454387356 0 0.031861395718415647 0.00077268575048159197 0 0.031850386356964994 0.00081250713754115074 0 0.031821482920631083 0.00079243208454387356 0 0.031837274352646897 0.00077575623692893204 0 0.031861395718415647 0.00077268575048159197 0 0.031821482920631083 0.00079243208454387356 0 0.031837274352646897 0.00077575623692893204 0 0.031811402525550231 0.00077367525576353268 0 0.031861395718415647 0.00077268575048159197 0 0.031846798456285373 0.00077324840400564364 0 0.031869579145835034 0.00070269624006598862 0 0.031695895248214409 0.00053056071768718942 0 0.031847166362495377 0.00068489786801920552 0 0.031837274352646897 0.00077575623692893204 0 0.031861395718415647 0.00077268575048159197 0 0.031846798456285373 0.00077324840400564364 0 0.029246713943063097 0.0014424617897377783 0 0.030053955880384339 0.00060059360257400682 0 0.031710073377674855 0.0002408463118070854 0 0.03172525908505841 0.0001513639315779839 0 0.031849069875141918 0.00017570584990612582 0 0.031695895248214409 0.00053056071768718942 0 0.029246713943063097 0.0014424617897377783 0 0.031837274352646897 0.00077575623692893204 0 0.031846798456285373 0.00077324840400564364 0 0.031828726256291899 0.00077228515967449893 0 0.029246713943063097 0.0014424617897377783 0 0.028928178548086943 0.0020530313826863855 0 0.026732326995933284 0.0031892648555686669 0 0.02615002202499463 0.0033084798355287712 0 0.026085793381996111 0.0027951131309367828 0 0.031837274352646897 0.00077575623692893204 0 0.031828726256291899 0.00077228515967449893 0 0.031811402525550231 0.00077367525576353268 0 0.025837475251954942 0.0030416264688296352 0 0.02615002202499463 0.0033084798355287712 0 0.026085793381996111 0.0027951131309367828 0 0.026732326995933284 0.0031892648555686669 0 0.026085793381996111 0.0027951131309367828 0 0.026476296992246538 0.0024334547988816963 0 0.029246713943063097 0.0014424617897377783 0 0.026434724880609429 0.0015942570053321908 0 0.027258417772725974 0.0012352631599457967 0 0.027412637810609063 0.00060982852720149641 0 0.028118772031943681 0.0011523795964103602 0 0.027258417772725974 0.0012352631599457967 0 0.027412637810609063 0.00060982852720149641 0 0.026995021517349251 0.00058994570204778886 0 0.027412637810609063 0.00060982852720149641 0 0.026995021517349251 0.00058994570204778886 0 0.026796200058196041 0.0006985423807623339 0 0.027412637810609063 0.00060982852720149641 0 0.027224821276302553 0.00033494195573940348 0 0.026796200058196041 0.0006985423807623339 0 0.025799878947173404 0.002098667791583006 0 0.026476296992246538 0.0024334547988816963 0 0.026174208009453057 0.0011991812419874742 0 0.026434724880609429 0.0015942570053321908 0 0.026303984214602536 0.0011125747229808957 0 0.026995021517349251 0.00058994570204778886 0 0.026174208009453057 0.0011991812419874742 0 0.026796200058196041 0.0006985423807623339 0 0.025799878947173404 0.002098667791583006 0 0.026085793381996111 0.0027951131309367828 0 0.026476296992246538 0.0024334547988816963 0 0.028892483109921967 -4.0921214255476019e-07 0 0.028291697629877197 9.2447281610438545e-05 0 0.027364763340084131 -5.9022294887957476e-05 0 0.028291697629877197 9.2447281610438545e-05 0 0.027224821276302553 0.00033494195573940348 0 0.027364763340084131 -5.9022294887957476e-05 0 0.027412637810609063 0.00060982852720149641 0 0.028291697629877197 9.2447281610438545e-05 0 0.027224821276302553 0.00033494195573940348 0 0.027412637810609063 0.00060982852720149641 0 0.028291697629877197 9.2447281610438545e-05 0 0.028118772031943681 0.0011523795964103602 0 0.028291697629877197 9.2447281610438545e-05 0 0.030452298452021943 0.00031049973791262472 0 0.028118772031943681 0.0011523795964103602 0 0.028892483109921967 -4.0921214255476019e-07 0 0.028291697629877197 9.2447281610438545e-05 0 0.030452298452021943 0.00031049973791262472 0 0.028892483109921967 -4.0921214255476019e-07 0 0.030452298452021943 0.00031049973791262472 0 0.031873889123540181 8.8388903817814835e-07 0 0.030452298452021943 0.00031049973791262472 0 0.031818710021534073 -5.7544383331953843e-05 0 0.031873889123540181 8.8388903817814835e-07 0 0.031818710021534073 -5.7544383331953843e-05 0 0.031873889123540181 8.8388903817814835e-07 0 0.032817361964402818 9.2184294244241992e-05 0 0.031818710021534073 -5.7544383331953843e-05 0 0.031861070377878616 0.00018046308717696477 0 0.031849069875141918 0.00017570584990612582 0 0.030452298452021943 0.00031049973791262472 0 0.031818710021534073 -5.7544383331953843e-05 0 0.031861070377878616 0.00018046308717696477 0 0.03172525908505841 0.0001513639315779839 0 0.031861070377878616 0.00018046308717696477 0 0.031849069875141918 0.00017570584990612582 0 0.030368822431511809 0.00041590808702183162 0 0.030053955880384339 0.00060059360257400682 0 0.031710073377674855 0.0002408463118070854 0 0.031849069875141918 0.00017570584990612582 0 0.031869579145835034 0.00070269624006598862 0 0.031849069875141918 0.00017570584990612582 0 0.032043111274912085 0.00042703233280216971 0 0.031869579145835034 0.00070269624006598862 0 0.031818710021534073 -5.7544383331953843e-05 0 0.031849069875141918 0.00017570584990612582 0 0.032043111274912085 0.00042703233280216971 0 0.031873889123540181 8.8388903817814835e-07 0 0.032817361964402818 9.2184294244241992e-05 0 0.034856643679457441 4.55731934313371e-07 0 0.032043111274912085 0.00042703233280216971 0 0.032817361964402818 9.2184294244241992e-05 0 0.032263516504079041 0.00082825273490693514 0 0.033204832652595807 -1.45930413966641e-06 0 0.03422845446013846 0.00028188888716097489 0 0.031818710021534073 -5.7544383331953843e-05 0 0.032043111274912085 0.00042703233280216971 0 0.032817361964402818 9.2184294244241992e-05 0 0.032817361964402818 9.2184294244241992e-05 0 0.034856643679457441 4.55731934313371e-07 0 0.036181971104376723 0.00010737741723690777 0 0.034856643679457441 4.55731934313371e-07 0 0.036181971104376723 0.00010737741723690777 0 0.037101928684192521 3.0120900088999261e-05 0 0.03422845446013846 0.00028188888716097489 0 0.035319702535179555 0.00036822893978275391 0 0.036181971104376723 0.00010737741723690777 0 0.037101928684192521 3.0120900088999261e-05 0 0.038700363436965479 4.3150689259118515e-05 0 0.037101928684192521 3.0120900088999261e-05 0 0.038700363436965479 4.3150689259118515e-05 0 0.037837296743225092 -4.9627627329408893e-08 0 0.034856643679457441 4.55731934313371e-07 0 0.037101928684192521 3.0120900088999261e-05 0 0.037837296743225092 -4.9627627329408893e-08 0 0.032263516504079041 0.00082825273490693514 0 0.032130105969881043 0.00097654827152786816 0 0.032040467544110787 0.00086770285267517952 0 0.032130105969881043 0.00097654827152786816 0 0.032040467544110787 0.00086770285267517952 0 0.032029526192808445 0.00098501854083834833 0 0.032040467544110787 0.00086770285267517952 0 0.03204303848547542 0.00071075720548739957 0 0.031869579145835034 0.00070269624006598862 0 0.032263516504079041 0.00082825273490693514 0 0.032040467544110787 0.00086770285267517952 0 0.03204303848547542 0.00071075720548739957 0 0.032043111274912085 0.00042703233280216971 0 0.032263516504079041 0.00082825273490693514 0 0.03204303848547542 0.00071075720548739957 0 0.032043111274912085 0.00042703233280216971 0 0.03204303848547542 0.00071075720548739957 0 0.031869579145835034 0.00070269624006598862 0 0.031869579145835034 0.00070269624006598862 0 0.03188035909069302 0.0007990897854407463 0 0.03193746573582136 0.00088296034122120354 0 0.032040467544110787 0.00086770285267517952 0 0.031869579145835034 0.00070269624006598862 0 0.03193746573582136 0.00088296034122120354 0 0.031861395718415647 0.00077268575048159197 0 0.031869579145835034 0.00070269624006598862 0 0.03188035909069302 0.0007990897854407463 0 0.031826775653329108 0.00084123795476491795 0 0.031821482920631083 0.00079243208454387356 0 0.031850386356964994 0.00081250713754115074 0 0.031861395718415647 0.00077268575048159197 0 0.03188035909069302 0.0007990897854407463 0 0.031850386356964994 0.00081250713754115074 0 0.03188035909069302 0.0007990897854407463 0 0.031850386356964994 0.00081250713754115074 0 0.031865688286299404 0.00086617416316718456 0 0.031826775653329108 0.00084123795476491795 0 0.031850386356964994 0.00081250713754115074 0 0.031865688286299404 0.00086617416316718456 0 0.031865688286299404 0.00086617416316718456 0 0.03193746573582136 0.00088296034122120354 0 0.031916074901833361 0.00099517021646954159 0 0.037462932297416221 0.0016003671871546881 0 0.036950406755194301 0.0011624110805280772 0 0.031814901542798174 0.00088716202125005688 0 0.031865688286299404 0.00086617416316718456 0 0.031916074901833361 0.00099517021646954159 0 0.03188035909069302 0.0007990897854407463 0 0.031865688286299404 0.00086617416316718456 0 0.03193746573582136 0.00088296034122120354 0 0.03193746573582136 0.00088296034122120354 0 0.032029526192808445 0.00098501854083834833 0 0.031916074901833361 0.00099517021646954159 0 0.032040467544110787 0.00086770285267517952 0 0.03193746573582136 0.00088296034122120354 0 0.032029526192808445 0.00098501854083834833 0 0.036950406755194301 0.0011624110805280772 0 0.037856359916428453 0.00082177323171840123 0 0.032029526192808445 0.00098501854083834833 0 0.031916074901833361 0.00099517021646954159 0 0.03212508200819985 0.0011273022104249851 0 0.042866861706821607 0.00092699972115750727 0 0.04280605068730791 0.0012111181246891051 0 0.042393387649994139 0.00099068261241588157 0 0.04280605068730791 0.0012111181246891051 0 0.042410190865673228 0.001428763744976251 0 0.042393387649994139 0.00099068261241588157 0 0.042410190865673228 0.001428763744976251 0 0.042393387649994139 0.00099068261241588157 0 0.04171565506158708 0.00112523723319897 0 0.041949511932452999 0.00025365772623555326 0 0.040696658651297249 -0.00017614110862549477 0 0.040682813134163609 -0.00017993804660818922 0 0.041707775414739419 -0.00010194935630400618 0 0.040696658651297249 -0.00017614110862549477 0 0.040626489325676599 -0.00011118848236305769 0 0.038091668421685147 0.00087862312617056351 0 0.037856359916428453 0.00082177323171840123 0 0.040696658651297249 -0.00017614110862549477 0 0.040041866756501739 -0.00010803207215995695 0 0.040626489325676599 -0.00011118848236305769 0 0.040696658651297249 -0.00017614110862549477 0 0.040707979041584165 -0.00013975833622929213 0 0.040041866756501739 -0.00010803207215995695 0 0.041707775414739419 -0.00010194935630400618 0 0.040626489325676599 -0.00011118848236305769 0 0.040819600978232409 -9.0895138748474483e-07 0 0.040626489325676599 -0.00011118848236305769 0 0.040819600978232409 -9.0895138748474483e-07 0 0.03953088908275542 -9.8194905930109184e-05 0 0.040041866756501739 -0.00010803207215995695 0 0.040626489325676599 -0.00011118848236305769 0 0.03953088908275542 -9.8194905930109184e-05 0 0.038700363436965479 4.3150689259118515e-05 0 0.040041866756501739 -0.00010803207215995695 0 0.03953088908275542 -9.8194905930109184e-05 0 0.040819600978232409 -9.0895138748474483e-07 0 0.03953088908275542 -9.8194905930109184e-05 0 0.037837296743225092 -4.9627627329408893e-08 0 0.038700363436965479 4.3150689259118515e-05 0 0.03953088908275542 -9.8194905930109184e-05 0 0.037837296743225092 -4.9627627329408893e-08 0 0.038700363436965479 4.3150689259118515e-05 0 0.040707979041584165 -0.00013975833622929213 0 0.040041866756501739 -0.00010803207215995695 0 0.032130105969881043 0.00097654827152786816 0 0.032029526192808445 0.00098501854083834833 0 0.03212508200819985 0.0011273022104249851 0 0.035319702535179555 0.00036822893978275391 0 0.037856359916428453 0.00082177323171840123 0 0.020961810453435654 0.0027456480016880367 0 0.01987161224828661 0.0018513048246681213 0 0.021087200147469461 0.0011750013362019592 0 0.020961810453435654 0.0027456480016880367 0 0.021903468319238874 0.0017839373537469857 0 0.021087200147469461 0.0011750013362019592 0 0.017938164419282154 0.0004050805238286578 0 0.017783947196417828 0.00084376971013890966 0 0.014731759148332857 -9.7693031410401557e-05 0 0.014444372355305662 -4.6211897971458288e-05 0 0.015608802975609563 0.00017516091452209303 0 0.016450472426874318 0.00034412942288958163 0 0.017938164419282154 0.0004050805238286578 0 0.015608802975609563 0.00017516091452209303 0 0.015670869664021061 -8.3570111644004264e-07 0 0.017959955863692045 1.505938618909458e-06 0 0.015608802975609563 0.00017516091452209303 0 0.015670869664021061 -8.3570111644004264e-07 0 0.015111890644094558 -3.8890129241132413e-05 0 0.014731759148332857 -9.7693031410401557e-05 0 0.015608802975609563 0.00017516091452209303 0 0.015111890644094558 -3.8890129241132413e-05 0 0.015670869664021061 -8.3570111644004264e-07 0 0.014483595472947757 -0.00016197505839224066 0 0.013386568818556264 9.3347826881160382e-08 0 0.014483595472947757 -0.00016197505839224066 0 0.014380872801954058 2.5863017623214634e-05 0 0.013386568818556264 9.3347826881160382e-08 0 0.014731759148332857 -9.7693031410401557e-05 0 0.014483595472947757 -0.00016197505839224066 0 0.014380872801954058 2.5863017623214634e-05 0 0.014731759148332857 -9.7693031410401557e-05 0 0.015111890644094558 -3.8890129241132413e-05 0 0.014483595472947757 -0.00016197505839224066 0 0.015670869664021061 -8.3570111644004264e-07 0 0.015111890644094558 -3.8890129241132413e-05 0 0.014483595472947757 -0.00016197505839224066 0 0.014731759148332857 -9.7693031410401557e-05 0 0.014635184454082812 -7.446212837411904e-05 0 0.014380872801954058 2.5863017623214634e-05 0 0.014635184454082812 -7.446212837411904e-05 0 0.014329378604545679 0.00012504630332547592 0 0.014380872801954058 2.5863017623214634e-05 0 0.019416415000640792 -0.00023755571295594157 0 0.018919144191005564 -0.00023881452493414613 0 0.018910197608335132 -0.00079353506176965162 0 0.017938164419282154 0.0004050805238286578 0 0.01641675208828117 -0.00049194331936713625 0 0.018497673271423862 -0.00066188957338374113 0 0.018919144191005564 -0.00023881452493414613 0 0.018910197608335132 -0.00079353506176965162 0 0.018497673271423862 -0.00066188957338374113 0 0.0184006290176154 -0.00023069344817017423 0 0.018919144191005564 -0.00023881452493414613 0 0.024077190713635985 -0.0011922679063605362 0 0.023726108340631859 -0.00077464861654504751 0 0.024077830235431703 -0.0012047253990906919 0 0.023726108340631859 -0.00077464861654504751 0 0.023535534849387137 -0.00058621695461058944 0 0.024077830235431703 -0.0012047253990906919 0 0.023535534849387137 -0.00058621695461058944 0 0.023346241592383566 -0.0012674912619977585 0 0.023521485540774427 -0.001888982180887837 0 0.024269119443939249 0.0025133437793759075 0 0.023443088254731494 0.0019619006426154872 0 0.023756724763339256 0.0011613261617328392 0 0.024168235057314198 -0.0007111351672494968 0 0.02173707192511885 -0.0010451384152862558 0 0.024269119443939249 0.0025133437793759075 0 0.023443088254731494 0.0019619006426154872 0 0.022699085986855206 0.0025847249557438595 0 0.021073485300274801 -0.00013357759425093642 0 0.023900349588747073 0.00045210609931745348 0 0.021073485300274801 -0.00013357759425093642 0 0.021267641430676869 0.0012873880327318569 0 0.023443088254731494 0.0019619006426154872 0 0.022820201163131132 0.0014905325101185693 0 0.023756724763339256 0.0011613261617328392 0 0.017938164419282154 0.0004050805238286578 0 0.021267641430676869 0.0012873880327318569 0 0.020961810453435654 0.0027456480016880367 0 0.022699085986855206 0.0025847249557438595 0 0.021903468319238874 0.0017839373537469857 0 0.023443088254731494 0.0019619006426154872 0 0.022699085986855206 0.0025847249557438595 0 0.022820201163131132 0.0014905325101185693 0 0.022699085986855206 0.0025847249557438595 0 0.022820201163131132 0.0014905325101185693 0 0.021903468319238874 0.0017839373537469857 0 0.022820201163131132 0.0014905325101185693 0 0.021903468319238874 0.0017839373537469857 0 0.022103803210065432 0.000776561413637189 0 0.022820201163131132 0.0014905325101185693 0 0.022103803210065432 0.000776561413637189 0 0.02280458256857085 0.00061636246841714857 0 0.022103803210065432 0.000776561413637189 0 0.02225091067047023 1.6856183516430672e-06 0 0.021404741101698512 -7.8179935628298251e-05 0 0.022103803210065432 0.000776561413637189 0 0.02280458256857085 0.00061636246841714857 0 0.02225091067047023 1.6856183516430672e-06 0 0.023900349588747073 0.00045210609931745348 0 0.023234309427549685 -0.00042119073243980108 0 0.023726108340631859 -0.00077464861654504751 0 0.023535534849387137 -0.00058621695461058944 0 0.023182386554859477 -0.00028565901320028116 0 0.02280458256857085 0.00061636246841714857 0 0.023756724763339256 0.0011613261617328392 0 0.023182386554859477 -0.00028565901320028116 0 0.023535534849387137 -0.00058621695461058944 0 0.023408975858631775 -0.000800193533081007 0 0.023346241592383566 -0.0012674912619977585 0 0.022820201163131132 0.0014905325101185693 0 0.02280458256857085 0.00061636246841714857 0 0.023756724763339256 0.0011613261617328392 0 0.023535534849387137 -0.00058621695461058944 0 0.02353935159547596 -0.00051266730888667651 0 0.023408975858631775 -0.000800193533081007 0 0.02353935159547596 -0.00051266730888667651 0 0.023182386554859477 -0.00028565901320028116 0 0.023903646472120926 -0.00061050181559875699 0 0.023535534849387137 -0.00058621695461058944 0 0.02353935159547596 -0.00051266730888667651 0 0.023182386554859477 -0.00028565901320028116 0 0.02225091067047023 1.6856183516430672e-06 0 0.022246367745664661 -0.0005247830009060848 0 0.021404741101698512 -7.8179935628298251e-05 0 0.023182386554859477 -0.00028565901320028116 0 0.02225091067047023 1.6856183516430672e-06 0 0.022246367745664661 -0.0005247830009060848 0 0.02280458256857085 0.00061636246841714857 0 0.023182386554859477 -0.00028565901320028116 0 0.02225091067047023 1.6856183516430672e-06 0 0.021404741101698512 -7.8179935628298251e-05 0 0.020492028580323646 -0.00015124674503422329 0 0.021822860124078042 -0.0005661351418873859 0 0.022246367745664661 -0.0005247830009060848 0 0.021404741101698512 -7.8179935628298251e-05 0 0.021822860124078042 -0.0005661351418873859 0 0.021404741101698512 -7.8179935628298251e-05 0 0.020288014349347606 0.00036793195686770925 0 0.020492028580323646 -0.00015124674503422329 0 0.021404741101698512 -7.8179935628298251e-05 0 0.021087200147469461 0.0011750013362019592 0 0.020288014349347606 0.00036793195686770925 0 0.022103803210065432 0.000776561413637189 0 0.021404741101698512 -7.8179935628298251e-05 0 0.021087200147469461 0.0011750013362019592 0 0.021903468319238874 0.0017839373537469857 0 0.022103803210065432 0.000776561413637189 0 0.021087200147469461 0.0011750013362019592 0 0.017783947196417828 0.00084376971013890966 0 0.017961323293287403 2.1616317026999285e-07 0 0.01987161224828661 0.0018513048246681213 0 0.021087200147469461 0.0011750013362019592 0 0.020288014349347606 0.00036793195686770925 0 0.01987161224828661 0.0018513048246681213 0 0.017966258262458193 3.0306139520606997e-06 0 0.020288014349347606 0.00036793195686770925 0 0.017966258262458193 3.0306139520606997e-06 0 0.020288014349347606 0.00036793195686770925 0 0.020492028580323646 -0.00015124674503422329 0 0.017966258262458193 3.0306139520606997e-06 0 0.020611937537060341 -1.570496654508913e-06 0 0.020492028580323646 -0.00015124674503422329 0 0.020611937537060341 -1.570496654508913e-06 0 0.020492028580323646 -0.00015124674503422329 0 0.021822860124078042 -0.0005661351418873859 0 0.020611937537060341 -1.570496654508913e-06 0 0.021822860124078042 -0.0005661351418873859 0 0.023263047203366284 -1.2501386294262155e-06 0 0.021822860124078042 -0.0005661351418873859 0 0.02251298813724548 -0.00014604668482194174 0 0.02254543449502925 -0.00088501548856388115 0 0.021822860124078042 -0.0005661351418873859 0 0.023263047203366284 -1.2501386294262155e-06 0 0.02251298813724548 -0.00014604668482194174 0 0.023263047203366284 -1.2501386294262155e-06 0 0.02251298813724548 -0.00014604668482194174 0 0.025908257693698152 1.7575836193521303e-06 0 0.027103958518448556 0.00048095662602622478 0 0.027364763340084131 -5.9022294887957476e-05 0 0.025917368383036585 1.0960798964143917e-06 0 0.024812066955764545 5.2317773564961918e-05 0 0.025911977795377503 -7.1119978466204159e-08 0 0.027103958518448556 0.00048095662602622478 0 0.027224821276302553 0.00033494195573940348 0 0.027364763340084131 -5.9022294887957476e-05 0 0.028892483109921967 -4.0921214255476019e-07 0 0.027364763340084131 -5.9022294887957476e-05 0 0.025917368383036585 1.0960798964143917e-06 0 0.026174208009453057 0.0011991812419874742 0 0.026796200058196041 0.0006985423807623339 0 0.02645068695922928 0.00073181855535009433 0 0.027224821276302553 0.00033494195573940348 0 0.026796200058196041 0.0006985423807623339 0 0.02645068695922928 0.00073181855535009433 0 0.027103958518448556 0.00048095662602622478 0 0.027224821276302553 0.00033494195573940348 0 0.02645068695922928 0.00073181855535009433 0 0.026174208009453057 0.0011991812419874742 0 0.02645068695922928 0.00073181855535009433 0 0.025524746502062684 0.00091795155660963086 0 0.02645068695922928 0.00073181855535009433 0 0.025524746502062684 0.00091795155660963086 0 0.025092238469810801 0.00027068536671484756 0 0.026174208009453057 0.0011991812419874742 0 0.025524746502062684 0.00091795155660963086 0 0.025523657945513673 0.0015059335391295323 0 0.02645068695922928 0.00073181855535009433 0 0.025092238469810801 0.00027068536671484756 0 0.026140523576532883 -0.0001446268487647993 0 0.027103958518448556 0.00048095662602622478 0 0.02645068695922928 0.00073181855535009433 0 0.026140523576532883 -0.0001446268487647993 0 0.024812066955764545 5.2317773564961918e-05 0 0.024371518022587631 -0.0004251445875671318 0 0.022246367745664661 -0.0005247830009060848 0 0.021822860124078042 -0.0005661351418873859 0 0.02254543449502925 -0.00088501548856388115 0 0.023182386554859477 -0.00028565901320028116 0 0.022246367745664661 -0.0005247830009060848 0 0.02254543449502925 -0.00088501548856388115 0 0.023182386554859477 -0.00028565901320028116 0 0.02254543449502925 -0.00088501548856388115 0 0.023903646472120926 -0.00061050181559875699 0 0.025092238469810801 0.00027068536671484756 0 0.026140523576532883 -0.0001446268487647993 0 0.023903646472120926 -0.00061050181559875699 0 0.024371518022587631 -0.0004251445875671318 0 0.02399939683845358 -0.00059513335999891021 0 0.025092238469810801 0.00027068536671484756 0 0.023778527468926617 -7.608113758691989e-05 0 0.023903646472120926 -0.00061050181559875699 0 0.023778527468926617 -7.608113758691989e-05 0 0.022994823948915132 -0.00024201153031791077 0 0.023903646472120926 -0.00061050181559875699 0 0.023778527468926617 -7.608113758691989e-05 0 0.022994823948915132 -0.00024201153031791077 0 0.02305615303008067 7.6756320612167886e-05 0 0.023778527468926617 -7.608113758691989e-05 0 0.02305615303008067 7.6756320612167886e-05 0 0.024047432817715958 0.00074394795946595548 0 0.024984073056947349 0.00075208114131877313 0 0.025389165335247998 0.0014261691443068979 0 0.024911431997713493 0.0013179900689172879 0 0.024104925930421572 0.00044339139025500833 0 0.024716702033084501 0.0010272647509583939 0 0.025092238469810801 0.00027068536671484756 0 0.023778527468926617 -7.608113758691989e-05 0 0.024047432817715958 0.00074394795946595548 0 0.025524746502062684 0.00091795155660963086 0 0.024047432817715958 0.00074394795946595548 0 0.025523657945513673 0.0015059335391295323 0 0.025524746502062684 0.00091795155660963086 0 0.025092238469810801 0.00027068536671484756 0 0.024047432817715958 0.00074394795946595548 0 0.025389165335247998 0.0014261691443068979 0 0.025373890584794317 0.0016681626084236424 0 0.025523657945513673 0.0015059335391295323 0 0.024716702033084501 0.0010272647509583939 0 0.025378847660471753 0.0014865486358768523 0 0.025389165335247998 0.0014261691443068979 0 0.0250111675810347 0.0017477054911896137 0 0.024911431997713493 0.0013179900689172879 0 0.025389165335247998 0.0014261691443068979 0 0.0250111675810347 0.0017477054911896137 0 0.025373890584794317 0.0016681626084236424 0 0.0250111675810347 0.0017477054911896137 0 0.025462895246286331 0.0020671245004469075 0 0.024746217608368148 0.0023640841038878911 0 0.0250111675810347 0.0017477054911896137 0 0.025373890584794317 0.0016681626084236424 0 0.025462895246286331 0.0020671245004469075 0 0.025799878947173404 0.002098667791583006 0 0.025462895246286331 0.0020671245004469075 0 0.025523657945513673 0.0015059335391295323 0 0.025799878947173404 0.002098667791583006 0 0.026174208009453057 0.0011991812419874742 0 0.025523657945513673 0.0015059335391295323 0 0.025373890584794317 0.0016681626084236424 0 0.025462895246286331 0.0020671245004469075 0 0.025523657945513673 0.0015059335391295323 0 0.024318654457014477 0.00340571419622725 0 0.024012901791674229 0.0023919441586073334 0 0.024746217608368148 0.0023640841038878911 0 0.024012901791674229 0.0023919441586073334 0 0.024746217608368148 0.0023640841038878911 0 0.024467834005453958 0.0016701821068025196 0 0.0250111675810347 0.0017477054911896137 0 0.024746217608368148 0.0023640841038878911 0 0.024467834005453958 0.0016701821068025196 0 0.0250111675810347 0.0017477054911896137 0 0.024467834005453958 0.0016701821068025196 0 0.024911431997713493 0.0013179900689172879 0 0.024012901791674229 0.0023919441586073334 0 0.024467834005453958 0.0016701821068025196 0 0.023909286305363472 0.0013467304608948396 0 0.024012901791674229 0.0023919441586073334 0 0.023909286305363472 0.0013467304608948396 0 0.023287069278090641 0.0016541294354560959 0 0.023909286305363472 0.0013467304608948396 0 0.024246954981905659 0.00082641332938572542 0 0.023380693448073381 0.00076372666665769557 0 0.024467834005453958 0.0016701821068025196 0 0.023909286305363472 0.0013467304608948396 0 0.024246954981905659 0.00082641332938572542 0 0.024467834005453958 0.0016701821068025196 0 0.024246954981905659 0.00082641332938572542 0 0.024911431997713493 0.0013179900689172879 0 0.024984073056947349 0.00075208114131877313 0 0.024246954981905659 0.00082641332938572542 0 0.024911431997713493 0.0013179900689172879 0 0.024984073056947349 0.00075208114131877313 0 0.024246954981905659 0.00082641332938572542 0 0.024475596566972752 3.8565966259991766e-05 0 0.024104925930421572 0.00044339139025500833 0 0.022869715707836691 -9.4941885304727908e-05 0 0.022994823948915132 -0.00024201153031791077 0 0.02305615303008067 7.6756320612167886e-05 0 0.022701814179639894 -0.00028369794411594663 0 0.024246954981905659 0.00082641332938572542 0 0.023943138434615666 0.0003035661251634656 0 0.024475596566972752 3.8565966259991766e-05 0 0.024246954981905659 0.00082641332938572542 0 0.023943138434615666 0.0003035661251634656 0 0.023380693448073381 0.00076372666665769557 0 0.023943138434615666 0.0003035661251634656 0 0.02383256393575665 -6.6854886871401344e-05 0 0.024475596566972752 3.8565966259991766e-05 0 0.021713034757003487 -0.00056746053508280791 0 0.021764003438157438 -0.0010372607691498793 0 0.022332511768253495 -0.00013227498879940161 0 0.021764003438157438 -0.0010372607691498793 0 0.022521113966856795 -2.8105330279994671e-05 0 0.022332511768253495 -0.00013227498879940161 0 0.023943138434615666 0.0003035661251634656 0 0.02383256393575665 -6.6854886871401344e-05 0 0.023446174220800732 -7.2960892494776074e-05 0 0.021795399203071039 -0.00013884125348609399 0 0.021713034757003487 -0.00056746053508280791 0 0.022332511768253495 -0.00013227498879940161 0 0.021238059393081654 -0.0011434588348831845 0 0.022869715707836691 -9.4941885304727908e-05 0 0.021795399203071039 -0.00013884125348609399 0 0.021713034757003487 -0.00056746053508280791 0 0.021370237709587295 -0.00014645844916023182 0 0.022642791916734257 -9.8332061612570711e-05 0 0.022869715707836691 -9.4941885304727908e-05 0 0.022642791916734257 -9.8332061612570711e-05 0 0.022071983358241069 -0.00012722184012410441 0 0.021808202936445909 -0.00014238255317811449 0 0.022521113966856795 -2.8105330279994671e-05 0 0.022332511768253495 -0.00013227498879940161 0 0.020671231837454337 -0.0011368565000384754 0 0.0216793127750988 -0.0011281321547429797 0 0.020746548747462502 -0.0017848336318878424 0 0.020671231837454337 -0.0011368565000384754 0 0.0216793127750988 -0.0011281321547429797 0 0.021768052178439419 -8.6973994720446131e-05 0 0.021713034757003487 -0.00056746053508280791 0 0.021764003438157438 -0.0010372607691498793 0 0.021447073528046427 -0.0012846286085446712 0 0.0216793127750988 -0.0011281321547429797 0 0.022320462162169274 -0.00055749475554330388 0 0.022747132877550574 -0.00078795979224056565 0 0.022661782491604585 -0.00023120247483330425 0 0.022869715707836691 -9.4941885304727908e-05 0 0.022994823948915132 -0.00024201153031791077 0 0.022320462162169274 -0.00055749475554330388 0 0.021768052178439419 -8.6973994720446131e-05 0 0.0216793127750988 -0.0011281321547429797 0 0.022320462162169274 -0.00055749475554330388 0 0.021768052178439419 -8.6973994720446131e-05 0 0.022994823948915132 -0.00024201153031791077 0 0.022320462162169274 -0.00055749475554330388 0 0.022747132877550574 -0.00078795979224056565 0 0.022994823948915132 -0.00024201153031791077 0 0.023370361198932047 -0.0006768677779130783 0 0.022747132877550574 -0.00078795979224056565 0 0.022994823948915132 -0.00024201153031791077 0 0.023903646472120926 -0.00061050181559875699 0 0.023370361198932047 -0.0006768677779130783 0 0.02353935159547596 -0.00051266730888667651 0 0.023903646472120926 -0.00061050181559875699 0 0.023370361198932047 -0.0006768677779130783 0 0.02353935159547596 -0.00051266730888667651 0 0.023370361198932047 -0.0006768677779130783 0 0.023408975858631775 -0.000800193533081007 0 0.023370361198932047 -0.0006768677779130783 0 0.023408975858631775 -0.000800193533081007 0 0.0230772337562676 -0.0010814748992108273 0 0.023408975858631775 -0.000800193533081007 0 0.0230772337562676 -0.0010814748992108273 0 0.023346241592383566 -0.0012674912619977585 0 0.0216793127750988 -0.0011281321547429797 0 0.022747132877550574 -0.00078795979224056565 0 0.022319057538924211 -0.0013856003446841021 0 0.023370361198932047 -0.0006768677779130783 0 0.0230772337562676 -0.0010814748992108273 0 0.022747132877550574 -0.00078795979224056565 0 0.0230772337562676 -0.0010814748992108273 0 0.022747132877550574 -0.00078795979224056565 0 0.022319057538924211 -0.0013856003446841021 0 0.022319057538924211 -0.0013856003446841021 0 0.02256217515841194 -0.0020845009349403794 0 0.021000132977014099 -0.0020702789963474178 0 0.0230772337562676 -0.0010814748992108273 0 0.022319057538924211 -0.0013856003446841021 0 0.02256217515841194 -0.0020845009349403794 0 0.021768750442519521 -0.0020843795471010944 0 0.02173707192511885 -0.0010451384152862558 0 0.0230772337562676 -0.0010814748992108273 0 0.02256217515841194 -0.0020845009349403794 0 0.023346241592383566 -0.0012674912619977585 0 0.02256217515841194 -0.0020845009349403794 0 0.023346241592383566 -0.0012674912619977585 0 0.023521485540774427 -0.001888982180887837 0 0.021073485300274801 -0.00013357759425093642 0 0.02173707192511885 -0.0010451384152862558 0 0.018778260746773627 -1.8141152881933643e-05 0 0.018698589160404688 -1.579657265456816e-05 0 0.018248413626370853 -0.00073203809104741761 0 0.021073485300274801 -0.00013357759425093642 0 0.017842079706266993 -0.00097457840310743353 0 0.02173707192511885 -0.0010451384152862558 0 0.019410960769804968 -0.0016046069225144374 0 0.020784774117862396 -0.0020191648449088928 0 0.021089332726034783 -0.0020007373880357453 0 0.020983946153420724 -0.0022816298227348731 0 0.018778260746773627 -1.8141152881933643e-05 0 0.018248413626370853 -0.00073203809104741761 0 0.01828974754831816 -0.00086592482756205546 0 0.018497673271423862 -0.00066188957338374113 0 0.0184006290176154 -0.00023069344817017423 0 0.018108472852771392 -0.00090353581917164275 0 0.020784774117862396 -0.0020191648449088928 0 0.020670689965028688 -0.0021157503600905295 0 0.020983946153420724 -0.0022816298227348731 0 0.020784774117862396 -0.0020191648449088928 0 0.020670689965028688 -0.0021157503600905295 0 0.021000132977014099 -0.0020702789963474178 0 0.020670689965028688 -0.0021157503600905295 0 0.021000132977014099 -0.0020702789963474178 0 0.020344564799939777 -0.0021578683880390894 0 0.019832921133291583 -0.0018897981193012909 0 0.020335339136581448 -0.0021597835000263456 0 0.02058987756439069 -0.0022034511091279865 0 0.021000132977014099 -0.0020702789963474178 0 0.020344564799939777 -0.0021578683880390894 0 0.02058987756439069 -0.0022034511091279865 0 0.020746548747462502 -0.0017848336318878424 0 0.021000132977014099 -0.0020702789963474178 0 0.0216793127750988 -0.0011281321547429797 0 0.022319057538924211 -0.0013856003446841021 0 0.021000132977014099 -0.0020702789963474178 0 0.0216793127750988 -0.0011281321547429797 0 0.020746548747462502 -0.0017848336318878424 0 0.021000132977014099 -0.0020702789963474178 0 0.021768750442519521 -0.0020843795471010944 0 0.021025162748938658 -0.002060490815831274 0 0.020825874719314491 -0.0014299860688911455 0 0.021012612659898077 -0.0020287375192951313 0 0.02006629295661027 -0.0014159889291569235 0 0.019670636482773615 -0.0016647461089527125 0 0.018758387396095363 -0.0013771937086875133 0 0.018138281067742706 -0.00155433788989421 0 0.017631107370195079 -0.0017495642014403094 0 0.017352192984365696 -0.0012692453685741168 0 0.018232116514103551 -0.0014282810552723312 0 0.018138281067742706 -0.00155433788989421 0 0.017352192984365696 -0.0012692453685741168 0 0.021238059393081654 -0.0011434588348831845 0 0.019670636482773615 -0.0016647461089527125 0 0.02058987756439069 -0.0022034511091279865 0 0.020746548747462502 -0.0017848336318878424 0 0.020089346517431762 -0.0019825496538657906 0 0.021764003438157438 -0.0010372607691498793 0 0.021012612659898077 -0.0020287375192951313 0 0.021447073528046427 -0.0012846286085446712 0 0.020671231837454337 -0.0011368565000384754 0 0.020746548747462502 -0.0017848336318878424 0 0.020089346517431762 -0.0019825496538657906 0 0.020825874719314491 -0.0014299860688911455 0 0.021012612659898077 -0.0020287375192951313 0 0.021447073528046427 -0.0012846286085446712 0 0.01832446716599068 -0.0012947508972750766 0 0.018138281067742706 -0.00155433788989421 0 0.018583409361080331 -0.0018606778230126763 0 0.019208916666094804 -0.0016055998809906835 0 0.018583409361080331 -0.0018606778230126763 0 0.019069823960790253 -0.0024789792622439358 0 0.019670636482773615 -0.0016647461089527125 0 0.019101179172287042 -0.0018707084541739962 0 0.019832921133291583 -0.0018897981193012909 0 0.019670636482773615 -0.0016647461089527125 0 0.019208916666094804 -0.0016055998809906835 0 0.01832446716599068 -0.0012947508972750766 0 0.018583409361080331 -0.0018606778230126763 0 0.018138281067742706 -0.00155433788989421 0 0.018583409361080331 -0.0018606778230126763 0 0.018090056036345139 -0.001829267600165937 0 0.018583409361080331 -0.0018606778230126763 0 0.018090056036345139 -0.001829267600165937 0 0.018061138036193549 -0.0021663983140574905 0 0.018090056036345139 -0.001829267600165937 0 0.017631107370195079 -0.0017495642014403094 0 0.018061138036193549 -0.0021663983140574905 0 0.017631107370195079 -0.0017495642014403094 0 0.017375241777987056 -0.0022014869851324265 0 0.018061138036193549 -0.0021663983140574905 0 0.018138281067742706 -0.00155433788989421 0 0.018090056036345139 -0.001829267600165937 0 0.017631107370195079 -0.0017495642014403094 0 0.016928396798450193 -0.001691708104238901 0 0.016821016811739222 -0.0021993106279867762 0 0.017375241777987056 -0.0022014869851324265 0 0.017631107370195079 -0.0017495642014403094 0 0.016928396798450193 -0.001691708104238901 0 0.017375241777987056 -0.0022014869851324265 0 0.016928396798450193 -0.001691708104238901 0 0.01598787548742828 -0.0020533778127667535 0 0.016821016811739222 -0.0021993106279867762 0 0.016928396798450193 -0.001691708104238901 0 0.016414181751834931 -0.0017628838356645547 0 0.01598787548742828 -0.0020533778127667535 0 0.016928396798450193 -0.001691708104238901 0 0.016824795477910985 -0.0012861938535322663 0 0.016414181751834931 -0.0017628838356645547 0 0.017631107370195079 -0.0017495642014403094 0 0.016928396798450193 -0.001691708104238901 0 0.017352192984365696 -0.0012692453685741168 0 0.016928396798450193 -0.001691708104238901 0 0.017352192984365696 -0.0012692453685741168 0 0.016824795477910985 -0.0012861938535322663 0 0.02006629295661027 -0.0014159889291569235 0 0.019707795285885853 -0.00083909415524827645 0 0.020240238883838572 -0.00090395388419107006 0 0.019707795285885853 -0.00083909415524827645 0 0.01895532035533435 -0.0005946905462921009 0 0.019886251950624528 -0.00067084872245428947 0 0.018758387396095363 -0.0013771937086875133 0 0.017821767351295079 -0.0010057324249010072 0 0.02006629295661027 -0.0014159889291569235 0 0.019707795285885853 -0.00083909415524827645 0 0.019130812163538322 -0.00082658080434724261 0 0.019886251950624528 -0.00067084872245428947 0 0.020239960190014568 -0.00067171115086616404 0 0.020240238883838572 -0.00090395388419107006 0 0.019707795285885853 -0.00083909415524827645 0 0.019886251950624528 -0.00067084872245428947 0 0.020240238883838572 -0.00090395388419107006 0 0.019707795285885853 -0.00083909415524827645 0 0.019130812163538322 -0.00082658080434724261 0 0.01895532035533435 -0.0005946905462921009 0 0.019295073961009553 -0.00010807782897879413 0 0.01895532035533435 -0.0005946905462921009 0 0.020500412715948435 -0.00039315760834980108 0 0.019295073961009553 -0.00010807782897879413 0 0.01895532035533435 -0.0005946905462921009 0 0.018069494946782949 -0.00017643825929103722 0 0.019295073961009553 -0.00010807782897879413 0 0.020500412715948435 -0.00039315760834980108 0 0.020680684059029394 -8.747159955320098e-05 0 0.019084531048925719 -0.00058370547201451982 0 0.020187002150728748 -0.00040582594910991329 0 0.01895532035533435 -0.0005946905462921009 0 0.019886251950624528 -0.00067084872245428947 0 0.020156516839173078 -0.00041682297344912232 0 0.020156464286895576 -0.00031179840614048383 0 0.021596980831752662 -0.0002706320682188328 0 0.019886251950624528 -0.00067084872245428947 0 0.020156516839173078 -0.00041682297344912232 0 0.020239960190014568 -0.00067171115086616404 0 0.020156516839173078 -0.00041682297344912232 0 0.020555086445522244 -0.00066187598545866316 0 0.021352958641623204 -0.00016697941897504611 0 0.020500412715948435 -0.00039315760834980108 0 0.020680684059029394 -8.747159955320098e-05 0 0.022123645630328044 -7.5739334052058585e-05 0 0.020187002150728748 -0.00040582594910991329 0 0.022302279056588211 -0.00018950795809283315 0 0.022314714364757196 -0.00043872587539247948 0 0.023632609480070343 -0.00037881691776120598 0 0.022947483052982255 0.00020011081236276937 0 0.021596980831752662 -0.0002706320682188328 0 0.022302279056588211 -0.00018950795809283315 0 0.020156516839173078 -0.00041682297344912232 0 0.020555086445522244 -0.00066187598545866316 0 0.020239960190014568 -0.00067171115086616404 0 0.020555086445522244 -0.00066187598545866316 0 0.020240238883838572 -0.00090395388419107006 0 0.020598274793310913 -0.0010473723183345644 0 0.020825874719314491 -0.0014299860688911455 0 0.02006629295661027 -0.0014159889291569235 0 0.020598274793310913 -0.0010473723183345644 0 0.020555086445522244 -0.00066187598545866316 0 0.020239960190014568 -0.00067171115086616404 0 0.020240238883838572 -0.00090395388419107006 0 0.020555086445522244 -0.00066187598545866316 0 0.020844599998901162 -0.00079326585354032254 0 0.020598274793310913 -0.0010473723183345644 0 0.020844599998901162 -0.00079326585354032254 0 0.020598274793310913 -0.0010473723183345644 0 0.021064268060574202 -0.0010768017455499751 0 0.020825874719314491 -0.0014299860688911455 0 0.020598274793310913 -0.0010473723183345644 0 0.021064268060574202 -0.0010768017455499751 0 0.02006629295661027 -0.0014159889291569235 0 0.020240238883838572 -0.00090395388419107006 0 0.020598274793310913 -0.0010473723183345644 0 0.021244963729066504 -0.0011921770948115837 0 0.022302279056588211 -0.00018950795809283315 0 0.021447073528046427 -0.0012846286085446712 0 0.021064268060574202 -0.0010768017455499751 0 0.021352958641623204 -0.00016697941897504611 0 0.020825874719314491 -0.0014299860688911455 0 0.021447073528046427 -0.0012846286085446712 0 0.021064268060574202 -0.0010768017455499751 0 0.020555086445522244 -0.00066187598545866316 0 0.020844599998901162 -0.00079326585354032254 0 0.021352958641623204 -0.00016697941897504611 0 0.020844599998901162 -0.00079326585354032254 0 0.021064268060574202 -0.0010768017455499751 0 0.021352958641623204 -0.00016697941897504611 0 0.021713034757003487 -0.00056746053508280791 0 0.021447073528046427 -0.0012846286085446712 0 0.021370237709587295 -0.00014645844916023182 0 0.022642791916734257 -9.8332061612570711e-05 0 0.022302279056588211 -0.00018950795809283315 0 0.023943138434615666 0.0003035661251634656 0 0.023446174220800732 -7.2960892494776074e-05 0 0.023380693448073381 0.00076372666665769557 0 0.022302279056588211 -0.00018950795809283315 0 0.023514860154270602 0.00074457510429957866 0 0.023632609480070343 -0.00037881691776120598 0 0.022947483052982255 0.00020011081236276937 0 0.023523096169999983 0.00077683664907753037 0 0.022947483052982255 0.00020011081236276937 0 0.022222684176841447 0.0010810462392483735 0 0.023523096169999983 0.00077683664907753037 0 0.022314714364757196 -0.00043872587539247948 0 0.022947483052982255 0.00020011081236276937 0 0.022222684176841447 0.0010810462392483735 0 0.022222684176841447 0.0010810462392483735 0 0.023523096169999983 0.00077683664907753037 0 0.023381609192922228 0.0019057967791277681 0 0.023514860154270602 0.00074457510429957866 0 0.023330693940795115 0.0017973727604570912 0 0.023909286305363472 0.0013467304608948396 0 0.023380693448073381 0.00076372666665769557 0 0.023287069278090641 0.0016541294354560959 0 0.022222684176841447 0.0010810462392483735 0 0.022617360428303701 0.0024378906359340002 0 0.021752650926776994 0.0023367309609094028 0 0.022222684176841447 0.0010810462392483735 0 0.023381609192922228 0.0019057967791277681 0 0.022617360428303701 0.0024378906359340002 0 0.021650806106415663 0.0033302715084630938 0 0.022657114729892742 0.0037438276806747409 0 0.022617360428303701 0.0024378906359340002 0 0.022657114729892742 0.0037438276806747409 0 0.022617360428303701 0.0024378906359340002 0 0.023228144187411901 0.0027736478377425166 0 0.023330693940795115 0.0017973727604570912 0 0.02324256704317219 0.0026760915640821805 0 0.024012901791674229 0.0023919441586073334 0 0.023287069278090641 0.0016541294354560959 0 0.023228144187411901 0.0027736478377425166 0 0.023381609192922228 0.0019057967791277681 0 0.022617360428303701 0.0024378906359340002 0 0.023228144187411901 0.0027736478377425166 0 0.023661610813318617 0.003269295701579974 0 0.024012901791674229 0.0023919441586073334 0 0.023228144187411901 0.0027736478377425166 0 0.019886242978645011 0.0039428772817960535 0 0.021650806106415663 0.0033302715084630938 0 0.020656398475668344 0.0026050587363545589 0 0.021650806106415663 0.0033302715084630938 0 0.022617360428303701 0.0024378906359340002 0 0.021752650926776994 0.0023367309609094028 0 0.021650806106415663 0.0033302715084630938 0 0.021752650926776994 0.0023367309609094028 0 0.020656398475668344 0.0026050587363545589 0 0.022222684176841447 0.0010810462392483735 0 0.021752650926776994 0.0023367309609094028 0 0.021167279527123967 0.0016646957341779551 0 0.020656398475668344 0.0026050587363545589 0 0.021167279527123967 0.0016646957341779551 0 0.02002335334662636 0.0016017540675400844 0 0.021752650926776994 0.0023367309609094028 0 0.020656398475668344 0.0026050587363545589 0 0.021167279527123967 0.0016646957341779551 0 0.021167279527123967 0.0016646957341779551 0 0.021076851065288543 0.00067248197253852243 0 0.02002335334662636 0.0016017540675400844 0 0.021076851065288543 0.00067248197253852243 0 0.019708891338369269 0.00036439291357533691 0 0.02002335334662636 0.0016017540675400844 0 0.022222684176841447 0.0010810462392483735 0 0.021167279527123967 0.0016646957341779551 0 0.021076851065288543 0.00067248197253852243 0 0.022314714364757196 -0.00043872587539247948 0 0.022222684176841447 0.0010810462392483735 0 0.021076851065288543 0.00067248197253852243 0 0.020903176703762186 -0.00055041686877507496 0 0.022314714364757196 -0.00043872587539247948 0 0.021076851065288543 0.00067248197253852243 0 0.020903176703762186 -0.00055041686877507496 0 0.021076851065288543 0.00067248197253852243 0 0.019708891338369269 0.00036439291357533691 0 0.019708891338369269 0.00036439291357533691 0 0.018194353932146808 -0.00014119083043294671 0 0.019238383493997115 -0.00070851802926324644 0 0.020903176703762186 -0.00055041686877507496 0 0.019708891338369269 0.00036439291357533691 0 0.019238383493997115 -0.00070851802926324644 0 0.019708891338369269 0.00036439291357533691 0 0.018194353932146808 -0.00014119083043294671 0 0.018432336635621663 0.0012884367573681461 0 0.018194353932146808 -0.00014119083043294671 0 0.018432336635621663 0.0012884367573681461 0 0.016946297955870198 0.00028454670383446494 0 0.019708891338369269 0.00036439291357533691 0 0.018432336635621663 0.0012884367573681461 0 0.02002335334662636 0.0016017540675400844 0 0.018432336635621663 0.0012884367573681461 0 0.02002335334662636 0.0016017540675400844 0 0.019205953556949155 0.0025389404865425779 0 0.020656398475668344 0.0026050587363545589 0 0.02002335334662636 0.0016017540675400844 0 0.019205953556949155 0.0025389404865425779 0 0.018432336635621663 0.0012884367573681461 0 0.019205953556949155 0.0025389404865425779 0 0.017846101322288924 0.0022628339800120469 0 0.019205953556949155 0.0025389404865425779 0 0.01818733152610727 0.0033510664657376977 0 0.017846101322288924 0.0022628339800120469 0 0.027486604408065766 0.001121864155482239 0 0.026079873512260848 0.0004005422956126112 0 0.019886242978645011 0.0039428772817960535 0 0.019205953556949155 0.0025389404865425779 0 0.01818733152610727 0.0033510664657376977 0 0.019886242978645011 0.0039428772817960535 0 0.020656398475668344 0.0026050587363545589 0 0.019205953556949155 0.0025389404865425779 0 0.032639081232153741 -0.00215397116624439 0 0.033776849144269601 -0.0026272916254943724 0 0.032320261128345761 -0.0035250282178706555 0 0.024029378468348499 -0.00068260625079378308 0 0.031985886708828751 -0.0035297032683331286 0 0.032639081232153741 -0.00215397116624439 0 0.032320261128345761 -0.0035250282178706555 0 0.031626767407627134 -0.0023108380835904795 0 0.026079873512260848 0.0004005422956126112 0 0.024029378468348499 -0.00068260625079378308 0 0.01818733152610727 0.0033510664657376977 0 0.017846101322288924 0.0022628339800120469 0 0.01667588743222452 0.0025440171261702968 0 0.017846101322288924 0.0022628339800120469 0 0.01667588743222452 0.0025440171261702968 0 0.016988841525410674 0.0014439194362684499 0 0.015455313643542173 0.0038805901373617363 0 0.015075914524111547 0.0020348030047418891 0 0.016988841525410674 0.0014439194362684499 0 0.024029378468348499 -0.00068260625079378308 0 0.01454944686216034 0.0036988874005842005 0 0.015075914524111547 0.0020348030047418891 0 0.016988841525410674 0.0014439194362684499 0 0.015690311852222805 0.00091221157404220853 0 0.015075914524111547 0.0020348030047418891 0 0.015690311852222805 0.00091221157404220853 0 0.013992031524110965 0.0011503878473341045 0 0.018432336635621663 0.0012884367573681461 0 0.017846101322288924 0.0022628339800120469 0 0.016988841525410674 0.0014439194362684499 0 0.018432336635621663 0.0012884367573681461 0 0.016988841525410674 0.0014439194362684499 0 0.016946297955870198 0.00028454670383446494 0 0.016946297955870198 0.00028454670383446494 0 0.015140492466063644 -0.00028123908429308317 0 0.016253881428672349 -0.00096421268917469853 0 0.016988841525410674 0.0014439194362684499 0 0.016946297955870198 0.00028454670383446494 0 0.015690311852222805 0.00091221157404220853 0 0.018194353932146808 -0.00014119083043294671 0 0.016946297955870198 0.00028454670383446494 0 0.016253881428672349 -0.00096421268917469853 0 0.016946297955870198 0.00028454670383446494 0 0.015690311852222805 0.00091221157404220853 0 0.015140492466063644 -0.00028123908429308317 0 0.015690311852222805 0.00091221157404220853 0 0.015140492466063644 -0.00028123908429308317 0 0.013992031524110965 0.0011503878473341045 0 0.015140492466063644 -0.00028123908429308317 0 0.015306042506841066 -0.00122505134067448 0 0.013657929253208112 -0.00078423704228481705 0 0.015140492466063644 -0.00028123908429308317 0 0.015306042506841066 -0.00122505134067448 0 0.016253881428672349 -0.00096421268917469853 0 0.01486403896837298 -0.001844365259217049 0 0.015785313595909248 -0.0018504268581364203 0 0.014724659357953784 -0.0025479631256951447 0 0.015306042506841066 -0.00122505134067448 0 0.01486403896837298 -0.001844365259217049 0 0.015785313595909248 -0.0018504268581364203 0 0.015785313595909248 -0.0018504268581364203 0 0.016253881428672349 -0.00096421268917469853 0 0.016337050193751097 -0.0013548578283353271 0 0.015306042506841066 -0.00122505134067448 0 0.015785313595909248 -0.0018504268581364203 0 0.016253881428672349 -0.00096421268917469853 0 0.018194353932146808 -0.00014119083043294671 0 0.016253881428672349 -0.00096421268917469853 0 0.019729139492795523 -0.0011615756830051871 0 0.016253881428672349 -0.00096421268917469853 0 0.016586683061283598 -0.0011918000401192549 0 0.016337050193751097 -0.0013548578283353271 0 0.016307555156585718 -0.0011310999049487865 0 0.01823456088308377 -0.00067640137567330429 0 0.018633411566623799 -0.00046487907823662201 0 0.01823456088308377 -0.00067640137567330429 0 0.020156464286895576 -0.00031179840614048383 0 0.01823456088308377 -0.00067640137567330429 0 0.017821767351295079 -0.0010057324249010072 0 0.01823456088308377 -0.00067640137567330429 0 0.019130812163538322 -0.00082658080434724261 0 0.01895532035533435 -0.0005946905462921009 0 0.018069494946782949 -0.00017643825929103722 0 0.016824795477910985 -0.0012861938535322663 0 0.016529743027102108 -0.0016192265179245206 0 0.016414181751834931 -0.0017628838356645547 0 0.016824795477910985 -0.0012861938535322663 0 0.016586683061283598 -0.0011918000401192549 0 0.016529743027102108 -0.0016192265179245206 0 0.016586683061283598 -0.0011918000401192549 0 0.016337050193751097 -0.0013548578283353271 0 0.016529743027102108 -0.0016192265179245206 0 0.015785313595909248 -0.0018504268581364203 0 0.016337050193751097 -0.0013548578283353271 0 0.016529743027102108 -0.0016192265179245206 0 0.015785313595909248 -0.0018504268581364203 0 0.016529743027102108 -0.0016192265179245206 0 0.016375886165855714 -0.0026892851559395916 0 0.01645122821372904 -0.0017940307511574991 0 0.016630314339559096 -0.0020963272280613357 0 0.016529743027102108 -0.0016192265179245206 0 0.0163005192075103 -0.0018949645992502376 0 0.016414181751834931 -0.0017628838356645547 0 0.016414181751834931 -0.0017628838356645547 0 0.016280511708754369 -0.0019707919092870623 0 0.01598787548742828 -0.0020533778127667535 0 0.0163005192075103 -0.0018949645992502376 0 0.016414181751834931 -0.0017628838356645547 0 0.016280511708754369 -0.0019707919092870623 0 0.016630314339559096 -0.0020963272280613357 0 0.012978585714165061 -0.0029368410955497048 0 0.0163005192075103 -0.0018949645992502376 0 0.016280511708754369 -0.0019707919092870623 0 0.016585668312210554 -0.0017924140170113981 0 0.016375886165855714 -0.0026892851559395916 0 0.015473642278567349 -0.0034740663088276796 0 0.015996065552002905 -0.0038081660651623239 0 0.016375886165855714 -0.0026892851559395916 0 0.015339667874832784 -0.0029302740514378679 0 0.015473642278567349 -0.0034740663088276796 0 0.015339667874832784 -0.0029302740514378679 0 0.014922013075736406 -0.0036167672512177774 0 0.014493336353441039 -0.0032357013039151692 0 0.015339667874832784 -0.0029302740514378679 0 0.014724659357953784 -0.0025479631256951447 0 0.014493336353441039 -0.0032357013039151692 0 0.015339667874832784 -0.0029302740514378679 0 0.015473642278567349 -0.0034740663088276796 0 0.014922013075736406 -0.0036167672512177774 0 0.014922013075736406 -0.0036167672512177774 0 0.014493336353441039 -0.0032357013039151692 0 0.014237879360920915 -0.0038460866663265997 0 0.015785313595909248 -0.0018504268581364203 0 0.015339667874832784 -0.0029302740514378679 0 0.014724659357953784 -0.0025479631256951447 0 0.015785313595909248 -0.0018504268581364203 0 0.016375886165855714 -0.0026892851559395916 0 0.015339667874832784 -0.0029302740514378679 0 0.015396981542098424 -0.0051401254414900283 0 0.014887787672374819 -0.0048024754937748392 0 0.015218910993042945 -0.0040464182604338103 0 0.0061841432817092493 -0.00376765975094048 0 0.012978585714165061 -0.0029368410955497048 0 0.0061841432817092493 -0.00376765975094048 0 0.011356398933418416 -0.0051599898642194575 0 0.011356398933418416 -0.0051599898642194575 0 0.014960089378052854 -0.0047055555049459342 0 0.014409695293752049 -0.0047861901752628451 0 0.014462686831315184 -0.0046346086561118612 0 0.014054043152722018 -0.0042637086701342907 0 0.0043798409533544937 -0.0045669207949317206 0 0.0072425814381517255 -0.0049834415868857595 0 0.0068504828392472955 -0.0061374062708421332 0 0.0054604811101705061 -0.0057645164019212063 0 0.011356398933418416 -0.0051599898642194575 0 0.011356398933418416 -0.0051599898642194575 0 0.015085165747502077 -0.0036587172064753235 0 0.014942981341396759 -0.004852183335022563 0 0.014659463379203038 -0.0041193742343950245 0 0.014054043152722018 -0.0042637086701342907 0 0.014942981341396759 -0.004852183335022563 0 0.015218910993042945 -0.0040464182604338103 0 0.014659463379203038 -0.0041193742343950245 0 0.014922013075736406 -0.0036167672512177774 0 0.014659463379203038 -0.0041193742343950245 0 0.014237879360920915 -0.0038460866663265997 0 0.015473642278567349 -0.0034740663088276796 0 0.014922013075736406 -0.0036167672512177774 0 0.015218910993042945 -0.0040464182604338103 0 0.014922013075736406 -0.0036167672512177774 0 0.015218910993042945 -0.0040464182604338103 0 0.014659463379203038 -0.0041193742343950245 0 0.015473642278567349 -0.0034740663088276796 0 0.015218910993042945 -0.0040464182604338103 0 0.015596248489478807 -0.0039514889042642646 0 0.015396981542098424 -0.0051401254414900283 0 0.015218910993042945 -0.0040464182604338103 0 0.015596248489478807 -0.0039514889042642646 0 0.015396981542098424 -0.0051401254414900283 0 0.015596248489478807 -0.0039514889042642646 0 0.015996065552002905 -0.0038081660651623239 0 0.015473642278567349 -0.0034740663088276796 0 0.015596248489478807 -0.0039514889042642646 0 0.015996065552002905 -0.0038081660651623239 0 0.012978585714165061 -0.0029368410955497048 0 0.011972897138930436 -0.0015193683021526125 0 0.016280511708754369 -0.0019707919092870623 0 0.016585668312210554 -0.0017924140170113981 0 0.016198216827343421 -0.00087641492410604142 0 0.016280511708754369 -0.0019707919092870623 0 0.01598787548742828 -0.0020533778127667535 0 0.016198216827343421 -0.00087641492410604142 0 0.015121530453257207 -0.0010535521507924125 0 0.016198216827343421 -0.00087641492410604142 0 0.014448964549550124 -0.00015234961044739505 0 0.01598787548742828 -0.0020533778127667535 0 0.015121530453257207 -0.0010535521507924125 0 0.016198216827343421 -0.00087641492410604142 0 0.0077593666911526899 -0.0029247934776883327 0 0.0074769974311284472 -0.0038416098438525089 0 0.0068752039294670622 -0.0030646490377401665 0 -0.0033833507358529522 -0.0040990495593180316 0 -0.0033016717268100613 -0.0039088675244277884 0 -0.0026443451389593555 -0.004292606536440256 0 0.0077593666911526899 -0.0029247934776883327 0 0.0068752039294670622 -0.0030646490377401665 0 0.006985270853448051 -0.0024446389994286287 0 0.016198216827343421 -0.00087641492410604142 0 0.01484850040234836 0.001035243274166904 0 0.014448964549550124 -0.00015234961044739505 0 0.011972897138930436 -0.0015193683021526125 0 0.0055526088503625769 -0.0038810685112181421 0 -0.00044489618983202788 -0.0034509492361941866 0 0.0055526088503625769 -0.0038810685112181421 0 0.0068752039294670622 -0.0030646490377401665 0 0.006985270853448051 -0.0024446389994286287 0 0.0062785984722634651 -0.0022827513076796595 0 -0.0027213951924031669 -0.0040003038172867203 0 -0.0035355012251751111 -0.0038191337344842891 0 -0.0035234261173018519 -0.0035918308859005611 0 -0.0033833507358529522 -0.0040990495593180316 0 -0.0035234261173018519 -0.0035918308859005611 0 -0.0034424393810405531 -0.0037799883329892843 0 -0.00044489618983202788 -0.0034509492361941866 0 -0.0042508932228179598 -0.0035056484735968268 0 -0.0035037701665676497 -0.0035847224642408348 0 -0.0035234261173018519 -0.0035918308859005611 0 -0.0034424393810405531 -0.0037799883329892843 0 -0.0035037701665676497 -0.0035847224642408348 0 -0.0035234261173018519 -0.0035918308859005611 0 -0.0035410469533319398 -0.0034077753536980362 0 -0.0033833507358529522 -0.0040990495593180316 0 -0.0033016717268100613 -0.0039088675244277884 0 -0.0034424393810405531 -0.0037799883329892843 0 -0.0033016717268100613 -0.0039088675244277884 0 -0.0034424393810405531 -0.0037799883329892843 0 -0.0033971898595132523 -0.0037166258528033408 0 -0.0035037701665676497 -0.0035847224642408348 0 -0.0034424393810405531 -0.0037799883329892843 0 -0.0033971898595132523 -0.0037166258528033408 0 -0.0033016717268100613 -0.0039088675244277884 0 -0.0033971898595132523 -0.0037166258528033408 0 -0.0031865235606112255 -0.0039020264102346803 0 -0.0031865235606112255 -0.0039020264102346803 0 -0.0028493054734195305 -0.0040104732322665893 0 -0.0030030019391766218 -0.0041958591999908508 0 -0.0031865235606112255 -0.0039020264102346803 0 -0.0028493054734195305 -0.0040104732322665893 0 -0.003312678566581388 -0.0036742190151059736 0 -0.0028493054734195305 -0.0040104732322665893 0 -0.0030030019391766218 -0.0041958591999908508 0 -0.0027059141713936131 -0.0042857215740537647 0 -0.0030030019391766218 -0.0041958591999908508 0 -0.002814537504923486 -0.0044227725552963655 0 -0.0027059141713936131 -0.0042857215740537647 0 -0.0033016717268100613 -0.0039088675244277884 0 -0.0031865235606112255 -0.0039020264102346803 0 -0.0030030019391766218 -0.0041958591999908508 0 0.0061841432817092493 -0.00376765975094048 0 -0.00044489618983202788 -0.0034509492361941866 0 -0.0027017748562931333 -0.0045077452732348068 0 -0.0033833507358529522 -0.0040990495593180316 0 -0.0026443451389593555 -0.004292606536440256 0 -0.0042162918788443407 -0.003785648439463839 0 0.00046477450890950253 -0.0040375561262686087 0 -0.0033016717268100613 -0.0039088675244277884 0 -0.0030030019391766218 -0.0041958591999908508 0 -0.0028129626064378379 -0.0047490731554524369 0 -0.002814537504923486 -0.0044227725552963655 0 -0.0027326536518579581 -0.0045886870670389327 0 -0.0027059141713936131 -0.0042857215740537647 0 -0.0030030019391766218 -0.0041958591999908508 0 -0.002814537504923486 -0.0044227725552963655 0 -0.0028129626064378379 -0.0047490731554524369 0 -0.002814537504923486 -0.0044227725552963655 0 -0.0027326536518579581 -0.0045886870670389327 0 -0.0028129626064378379 -0.0047490731554524369 0 0.0043798409533544937 -0.0045669207949317206 0 0.0072425814381517255 -0.0049834415868857595 0 0.0049763303695564021 -0.0029228135520731049 0 -0.00023934957476081921 -0.0046407469402859778 0 0.00046477450890950253 -0.0040375561262686087 0 0.0061841432817092493 -0.00376765975094048 0 0.00046477450890950253 -0.0040375561262686087 0 0.0003838507442013288 -0.0063741813435425326 0 0.00089624429666602631 -0.0048024480104651183 0 0.0013380848721151522 -0.0058055186029003112 0 -0.0024668513292727154 -0.0049454633273117244 0 -0.0027326536518579581 -0.0045886870670389327 0 -0.0022740649137707489 -0.004358039179872584 0 0.0054604811101705061 -0.0057645164019212063 0 -0.0014321107490026595 -0.0047921146487759966 0 0.0054604811101705061 -0.0057645164019212063 0 0.00046477450890950253 -0.0040375561262686087 0 -0.0024668513292727154 -0.0049454633273117244 0 -0.0027326536518579581 -0.0045886870670389327 0 -0.0027619090444966649 -0.0047011249740810529 0 -0.0027326536518579581 -0.0045886870670389327 0 -0.0022740649137707489 -0.004358039179872584 0 -0.0027059141713936131 -0.0042857215740537647 0 -0.0028493054734195305 -0.0040104732322665893 0 -0.0022740649137707489 -0.004358039179872584 0 -0.0026719037685994174 -0.0037719059522691757 0 -0.0028493054734195305 -0.0040104732322665893 0 -0.0022740649137707489 -0.004358039179872584 0 -0.0027059141713936131 -0.0042857215740537647 0 -0.0022740649137707489 -0.004358039179872584 0 -0.0026719037685994174 -0.0037719059522691757 0 -0.0016989682835823181 -0.0039627450196521984 0 -0.0028493054734195305 -0.0040104732322665893 0 -0.0026719037685994174 -0.0037719059522691757 0 -0.003312678566581388 -0.0036742190151059736 0 -0.0026719037685994174 -0.0037719059522691757 0 -0.003312678566581388 -0.0036742190151059736 0 -0.0035579779277661429 -0.0032870115545297431 0 -0.0026719037685994174 -0.0037719059522691757 0 -0.0033315261608143497 -0.0030794449181047508 0 -0.0035579779277661429 -0.0032870115545297431 0 -0.0033315261608143497 -0.0030794449181047508 0 -0.0039857764882114234 -0.0028846501835059187 0 -0.0035579779277661429 -0.0032870115545297431 0 -0.0026719037685994174 -0.0037719059522691757 0 -0.0033315261608143497 -0.0030794449181047508 0 -0.0023661845167893087 -0.0029310399762837815 0 -0.0026719037685994174 -0.0037719059522691757 0 -0.0023661845167893087 -0.0029310399762837815 0 -0.0016989682835823181 -0.0039627450196521984 0 -0.0023661845167893087 -0.0029310399762837815 0 -0.0036959797660033231 -0.0026752163564083826 0 -0.0025552048458296708 -0.0016403369938275479 0 -0.0033315261608143497 -0.0030794449181047508 0 -0.0023661845167893087 -0.0029310399762837815 0 -0.0036959797660033231 -0.0026752163564083826 0 -0.0036959797660033231 -0.0026752163564083826 0 -0.005048317630365882 -0.0025363316399859043 0 -0.0039857764882114234 -0.0028846501835059187 0 -0.0033315261608143497 -0.0030794449181047508 0 -0.0036959797660033231 -0.0026752163564083826 0 -0.0039857764882114234 -0.0028846501835059187 0 -0.0036959797660033231 -0.0026752163564083826 0 -0.005048317630365882 -0.0025363316399859043 0 -0.0025552048458296708 -0.0016403369938275479 0 -0.005048317630365882 -0.0025363316399859043 0 -0.0025552048458296708 -0.0016403369938275479 0 -0.0042226442759828436 -0.00093194601762114013 0 -0.0036496687792587543 -0.0032337725770340223 0 -0.0034418753241077958 -0.0034032367443210029 0 -0.0038345035852848353 -0.0035415859405975281 0 -0.0039739204953072498 -0.002937085161922065 0 -0.0036496687792587543 -0.0032337725770340223 0 -0.0038345035852848353 -0.0035415859405975281 0 -0.0039739204953072498 -0.002937085161922065 0 -0.0036496687792587543 -0.0032337725770340223 0 -0.0035629234431212345 -0.0031225251866254622 0 -0.005048317630365882 -0.0025363316399859043 0 -0.0039739204953072498 -0.002937085161922065 0 -0.0039857764882114234 -0.0028846501835059187 0 -0.005048317630365882 -0.0025363316399859043 0 -0.0039739204953072498 -0.002937085161922065 0 -0.0038345035852848353 -0.0035415859405975281 0 -0.0039739204953072498 -0.002937085161922065 0 -0.0039857764882114234 -0.0028846501835059187 0 -0.0037226295897283507 -0.0030691786611578569 0 -0.0039739204953072498 -0.002937085161922065 0 -0.0037226295897283507 -0.0030691786611578569 0 -0.0035629234431212345 -0.0031225251866254622 0 -0.0037226295897283507 -0.0030691786611578569 0 -0.0034841951198110927 -0.0031599492685936621 0 -0.0035629234431212345 -0.0031225251866254622 0 -0.0037226295897283507 -0.0030691786611578569 0 -0.0035754331051496484 -0.0032318929972654847 0 -0.0036933271356508609 -0.0031834566537521209 0 -0.0037226295897283507 -0.0030691786611578569 0 -0.0035754331051496484 -0.0032318929972654847 0 -0.0034841951198110927 -0.0031599492685936621 0 -0.0039857764882114234 -0.0028846501835059187 0 -0.0037226295897283507 -0.0030691786611578569 0 -0.0036933271356508609 -0.0031834566537521209 0 -0.0039857764882114234 -0.0028846501835059187 0 -0.0036933271356508609 -0.0031834566537521209 0 -0.0035579779277661429 -0.0032870115545297431 0 -0.0036933271356508609 -0.0031834566537521209 0 -0.0035579779277661429 -0.0032870115545297431 0 -0.003546580396482259 -0.0034603278435623216 0 -0.003312678566581388 -0.0036742190151059736 0 -0.0035579779277661429 -0.0032870115545297431 0 -0.003546580396482259 -0.0034603278435623216 0 -0.0033971898595132523 -0.0037166258528033408 0 -0.003312678566581388 -0.0036742190151059736 0 -0.003546580396482259 -0.0034603278435623216 0 -0.0035037701665676497 -0.0035847224642408348 0 -0.0033971898595132523 -0.0037166258528033408 0 -0.003546580396482259 -0.0034603278435623216 0 -0.0033971898595132523 -0.0037166258528033408 0 -0.0031865235606112255 -0.0039020264102346803 0 -0.003312678566581388 -0.0036742190151059736 0 -0.0035754331051496484 -0.0032318929972654847 0 -0.003546580396482259 -0.0034603278435623216 0 -0.0035410469533319398 -0.0034077753536980362 0 -0.0035754331051496484 -0.0032318929972654847 0 -0.0036933271356508609 -0.0031834566537521209 0 -0.003546580396482259 -0.0034603278435623216 0 -0.0035037701665676497 -0.0035847224642408348 0 -0.003546580396482259 -0.0034603278435623216 0 -0.0035410469533319398 -0.0034077753536980362 0 -0.0035754331051496484 -0.0032318929972654847 0 -0.0035306735584602175 -0.0032351739697585508 0 -0.0033507332221144599 -0.0032224822268502335 0 -0.0035306735584602175 -0.0032351739697585508 0 -0.0027964647971211133 -0.003242493905812301 0 -0.0033507332221144599 -0.0032224822268502335 0 -0.0035754331051496484 -0.0032318929972654847 0 -0.0035410469533319398 -0.0034077753536980362 0 -0.0035306735584602175 -0.0032351739697585508 0 0.00068068515197854779 -0.0060068930475273034 0 -0.001878113321591533 -0.0055380211191329264 0 -0.0027964647971211133 -0.003242493905812301 0 -0.001878113321591533 -0.0055380211191329264 0 -0.0036723941208438838 -0.0035563675615169995 0 -0.0022255134332561178 -0.0084212241182532333 0 -0.0024814149270145206 -0.006350933313223138 0 0.0059668361237976133 -0.0041720173855975019 0 -0.0017991876216944603 -0.0048448318123252739 0 -0.0025051915686800656 -0.0034186375793530135 0 0.00068068515197854779 -0.0060068930475273034 0 -0.001878113321591533 -0.0055380211191329264 0 -0.00068998493398652802 -0.0070960678582425657 0 -0.001878113321591533 -0.0055380211191329264 0 -0.0027964647971211133 -0.003242493905812301 0 -0.0036723941208438838 -0.0035563675615169995 0 -0.0027964647971211133 -0.003242493905812301 0 -0.0031941541447321922 -0.0031830313079623048 0 -0.0036723941208438838 -0.0035563675615169995 0 -0.0027964647971211133 -0.003242493905812301 0 -0.0031941541447321922 -0.0031830313079623048 0 -0.0032050860772680611 -0.0031986565985977775 0 -0.0027964647971211133 -0.003242493905812301 0 -0.0033507332221144599 -0.0032224822268502335 0 -0.0032050860772680611 -0.0031986565985977775 0 -0.0035754331051496484 -0.0032318929972654847 0 -0.0033507332221144599 -0.0032224822268502335 0 -0.0034841951198110927 -0.0031599492685936621 0 -0.0033507332221144599 -0.0032224822268502335 0 -0.0034841951198110927 -0.0031599492685936621 0 -0.0032050860772680611 -0.0031986565985977775 0 -0.0035629234431212345 -0.0031225251866254622 0 -0.0032050860772680611 -0.0031986565985977775 0 -0.0033143954361025008 -0.0032145258552068426 0 -0.0034841951198110927 -0.0031599492685936621 0 -0.0035629234431212345 -0.0031225251866254622 0 -0.0032050860772680611 -0.0031986565985977775 0 -0.0031742111156205502 -0.0031508080477053863 0 -0.0033143954361025008 -0.0032145258552068426 0 -0.003085540049864876 -0.0032057585889912186 0 -0.0032050860772680611 -0.0031986565985977775 0 -0.0031742111156205502 -0.0031508080477053863 0 -0.0033143954361025008 -0.0032145258552068426 0 -0.0031941541447321922 -0.0031830313079623048 0 -0.0031742111156205502 -0.0031508080477053863 0 -0.0031055557862481255 -0.0031233923971819822 0 -0.0031941541447321922 -0.0031830313079623048 0 -0.0032050860772680611 -0.0031986565985977775 0 -0.0031742111156205502 -0.0031508080477053863 0 -0.0031742111156205502 -0.0031508080477053863 0 -0.003085540049864876 -0.0032057585889912186 0 -0.0031055557862481255 -0.0031233923971819822 0 -0.0032180695622956532 -0.0033857927572258019 0 -0.0033143954361025008 -0.0032145258552068426 0 -0.003085540049864876 -0.0032057585889912186 0 -0.0032180695622956532 -0.0033857927572258019 0 -0.0030091785881113317 -0.0034155824576195949 0 -0.003085540049864876 -0.0032057585889912186 0 -0.0036496687792587543 -0.0032337725770340223 0 -0.0035629234431212345 -0.0031225251866254622 0 -0.0033143954361025008 -0.0032145258552068426 0 -0.0032180695622956532 -0.0033857927572258019 0 -0.0034418753241077958 -0.0034032367443210029 0 -0.0033143954361025008 -0.0032145258552068426 0 -0.0036496687792587543 -0.0032337725770340223 0 -0.0034418753241077958 -0.0034032367443210029 0 -0.0033143954361025008 -0.0032145258552068426 0 -0.0017842311094874957 -0.0048740575062755686 0 -0.0023990042443475424 -0.003888963226954431 0 -0.002380928189715718 -0.0036689907128049978 0 -0.0017424004331762267 -0.004297160089181744 0 -0.0022848893163378444 -0.0037909719069114077 0 -0.0023990042443475424 -0.003888963226954431 0 -0.0021580510845352102 -0.0053643543451739146 0 -0.0028941562157032952 -0.0053783461690993057 0 -0.0017842311094874957 -0.0048740575062755686 0 -0.0023990042443475424 -0.003888963226954431 0 -0.0021580510845352102 -0.0053643543451739146 0 -0.0017842311094874957 -0.0048740575062755686 0 -0.00055792190741031178 -0.0056850998256076767 0 -0.002380928189715718 -0.0036689907128049978 0 -0.002876644960973021 -0.0033602851759469889 0 -0.002974441943131277 -0.0030263359248662754 0 -0.002380928189715718 -0.0036689907128049978 0 -0.002876644960973021 -0.0033602851759469889 0 -0.0030091785881113317 -0.0034155824576195949 0 -0.0027751191969383488 -0.003552126680868808 0 -0.002876644960973021 -0.0033602851759469889 0 -0.0030091785881113317 -0.0034155824576195949 0 -0.003085540049864876 -0.0032057585889912186 0 -0.002876644960973021 -0.0033602851759469889 0 -0.003085540049864876 -0.0032057585889912186 0 -0.002974441943131277 -0.0030263359248662754 0 -0.00055792190741031178 -0.0056850998256076767 0 -0.00087748612971479774 -0.0066944221127406165 0 -0.00049994370232794697 -0.0071323153663503808 0 -0.003085540049864876 -0.0032057585889912186 0 -0.002974441943131277 -0.0030263359248662754 0 -0.0031055557862481255 -0.0031233923971819822 0 -0.0031941541447321922 -0.0031830313079623048 0 -0.002974441943131277 -0.0030263359248662754 0 -0.0031055557862481255 -0.0031233923971819822 0 -0.00055792190741031178 -0.0056850998256076767 0 -0.0015163763755977309 -0.006034576749130661 0 -0.00087748612971479774 -0.0066944221127406165 0 -0.0015163763755977309 -0.006034576749130661 0 -0.0012577322916539489 -0.0067291340326507609 0 -0.00087748612971479774 -0.0066944221127406165 0 -0.0017842311094874957 -0.0048740575062755686 0 -0.00055792190741031178 -0.0056850998256076767 0 -0.0015163763755977309 -0.006034576749130661 0 -0.0021580510845352102 -0.0053643543451739146 0 -0.0023655160192515992 -0.0068686678405871582 0 -0.0028941562157032952 -0.0053783461690993057 0 -0.0017842311094874957 -0.0048740575062755686 0 -0.0015163763755977309 -0.006034576749130661 0 -0.0021580510845352102 -0.0053643543451739146 0 -0.0015163763755977309 -0.006034576749130661 0 -0.0021580510845352102 -0.0053643543451739146 0 -0.0023655160192515992 -0.0068686678405871582 0 -0.0012745576070275881 -0.0066334802332264431 0 -0.00050743850208678299 -0.0077159887139027893 0 -0.0015163763755977309 -0.006034576749130661 0 -0.0018897728672723571 -0.0067289377393547518 0 -0.0012577322916539489 -0.0067291340326507609 0 -0.00050743850208678299 -0.0077159887139027893 0 -0.00042481761885374057 -0.008908200883826772 0 -0.0018897728672723571 -0.0067289377393547518 0 -0.0012577322916539489 -0.0067291340326507609 0 -0.00075232273939388654 -0.0073979902461615904 0 -0.0018897728672723571 -0.0067289377393547518 0 -0.00079335155668647868 -0.0076309531522632855 0 -0.00035126682844205826 -0.0084032185628982025 0 0.00050577316777441214 -0.011210251045310987 0 0.00036069086244735934 -0.0095283365300951762 0 0.00074744273252549238 -0.010085514983789236 0 -0.00087748612971479774 -0.0066944221127406165 0 -0.00075232273939388654 -0.0073979902461615904 0 -0.00049994370232794697 -0.0071323153663503808 0 -0.0012577322916539489 -0.0067291340326507609 0 -0.00087748612971479774 -0.0066944221127406165 0 -0.00075232273939388654 -0.0073979902461615904 0 -0.0018897728672723571 -0.0067289377393547518 0 -0.00075232273939388654 -0.0073979902461615904 0 -0.00079335155668647868 -0.0076309531522632855 0 -0.0031941541447321922 -0.0031830313079623048 0 -0.002974441943131277 -0.0030263359248662754 0 -0.0036723941208438838 -0.0035563675615169995 0 -0.00055792190741031178 -0.0056850998256076767 0 -0.00049994370232794697 -0.0071323153663503808 0 0.00016619022744677369 -0.0076576163057943247 0 -0.0017424004331762267 -0.004297160089181744 0 -0.0024814149270145206 -0.006350933313223138 0 -0.00049994370232794697 -0.0071323153663503808 0 0.00016619022744677369 -0.0076576163057943247 0 -0.00033255602803217762 -0.0079568494206548341 0 -0.00075232273939388654 -0.0073979902461615904 0 -0.00049994370232794697 -0.0071323153663503808 0 -0.00033255602803217762 -0.0079568494206548341 0 0.00016619022744677369 -0.0076576163057943247 0 -0.00033663867733671774 -0.0084401931953424787 0 0.00048099928546043482 -0.0085974652444006146 0 0.00016619022744677369 -0.0076576163057943247 0 -0.00033255602803217762 -0.0079568494206548341 0 -0.00033663867733671774 -0.0084401931953424787 0 -0.00033255602803217762 -0.0079568494206548341 0 -0.00035126682844205826 -0.0084032185628982025 0 -0.00033663867733671774 -0.0084401931953424787 0 0.00050577316777441214 -0.011210251045310987 0 0.00036069086244735934 -0.0095283365300951762 0 -0.00035126682844205826 -0.0084032185628982025 0 0.00036069086244735934 -0.0095283365300951762 0 0.00030228133760117098 -0.0088322318611167034 0 0.00084463502864178842 -0.0093914077419370717 0 -0.00033255602803217762 -0.0079568494206548341 0 -0.00079335155668647868 -0.0076309531522632855 0 -0.00035126682844205826 -0.0084032185628982025 0 -0.00075232273939388654 -0.0073979902461615904 0 -0.00033255602803217762 -0.0079568494206548341 0 -0.00079335155668647868 -0.0076309531522632855 0 0.00036069086244735934 -0.0095283365300951762 0 -0.00035126682844205826 -0.0084032185628982025 0 0.00030228133760117098 -0.0088322318611167034 0 -0.00035126682844205826 -0.0084032185628982025 0 0.00030228133760117098 -0.0088322318611167034 0 0.00011768757500249889 -0.008254409330639945 0 0.012118407807990643 -0.0031386051501745582 0 0.010909399648877658 -0.0028776487246413313 0 0.018720671911276344 -0.0040740860216222337 0 0.018709933458730406 -0.0041216123362680223 0 0.018755721977946713 -0.0040583014892218577 0 0.018774422323943954 -0.003963783094644977 0 0.018826016593017247 -0.003729539693968862 0 0.017960776510063562 -0.0036847257319084963 0 0.010909399648877658 -0.0028776487246413313 0 0.0046673114118929515 -0.0032477089127689765 0 0.018709933458730406 -0.0041216123362680223 0 0.018774422323943954 -0.003963783094644977 0 0.018755721977946713 -0.0040583014892218577 0 0.018709933458730406 -0.0041216123362680223 0 0.018774422323943954 -0.003963783094644977 0 0.017960776510063562 -0.0036847257319084963 0 0.010909399648877658 -0.0028776487246413313 0 0.015353332717788997 -0.0014168388431571885 0 -0.00035126682844205826 -0.0084032185628982025 0 0.00011768757500249889 -0.008254409330639945 0 -0.00033663867733671774 -0.0084401931953424787 0 0.018679829726671902 -0.0033737328803151397 0 0.017960776510063562 -0.0036847257319084963 0 0.018226313629927521 -0.003129404217019122 0 0.018826016593017247 -0.003729539693968862 0 0.018679829726671902 -0.0033737328803151397 0 0.017960776510063562 -0.0036847257319084963 0 0.017960776510063562 -0.0036847257319084963 0 0.018226313629927521 -0.003129404217019122 0 0.01772720365063286 -0.0030583972724771346 0 0.0046673114118929515 -0.0032477089127689765 0 0.0059668361237976133 -0.0041720173855975019 0 0.011557472815022151 0.00052631918285171286 0 0.011323202230941782 0.0015415369440914303 0 0.01222826990833171 0.00081410789614394399 0 0.011323202230941782 0.0015415369440914303 0 0.012605628191445145 0.0013360340605599555 0 0.01222826990833171 0.00081410789614394399 0 0.010179208595315337 0.0017763009041465172 0 0.011557472815022151 0.00052631918285171286 0 0.011323202230941782 0.0015415369440914303 0 -0.001878113321591533 -0.0055380211191329264 0 -0.00068998493398652802 -0.0070960678582425657 0 -0.0022255134332561178 -0.0084212241182532333 0 0.0059668361237976133 -0.0041720173855975019 0 0.009117760224678681 -0.00032167299313214006 0 0.012605628191445145 0.0013360340605599555 0 0.01222826990833171 0.00081410789614394399 0 0.0129002769005119 0.00079503577242008203 0 -0.0035355012251751111 -0.0038191337344842891 0 -0.0035234261173018519 -0.0035918308859005611 0 -0.0035306735584602175 -0.0032351739697585508 0 0.0055526088503625769 -0.0038810685112181421 0 0.0059668361237976133 -0.0041720173855975019 0 0.01484850040234836 0.001035243274166904 0 0.01245669037409676 0.0015774995717003611 0 0.0129002769005119 0.00079503577242008203 0 0.0055526088503625769 -0.0038810685112181421 0 -0.0017991876216944603 -0.0048448318123252739 0 0.0039146733207376851 -0.010060408477569864 0 -0.00068998493398652802 -0.0070960678582425657 0 -0.0022255134332561178 -0.0084212241182532333 0 0.0039146733207376851 -0.010060408477569864 0 0.00068068515197854779 -0.0060068930475273034 0 -0.00068998493398652802 -0.0070960678582425657 0 -0.0035234261173018519 -0.0035918308859005611 0 -0.0035410469533319398 -0.0034077753536980362 0 -0.0035306735584602175 -0.0032351739697585508 0 0.014448964549550124 -0.00015234961044739505 0 0.0129002769005119 0.00079503577242008203 0 0.013499175202599733 -0.0010610825311949236 0 0.01484850040234836 0.001035243274166904 0 0.014448964549550124 -0.00015234961044739505 0 0.0129002769005119 0.00079503577242008203 0 0.015353332717788997 -0.0014168388431571885 0 0.015139231444774085 -0.001967491943058355 0 0.011557472815022151 0.00052631918285171286 0 0.01222826990833171 0.00081410789614394399 0 0.013499175202599733 -0.0010610825311949236 0 0.01222826990833171 0.00081410789614394399 0 0.0129002769005119 0.00079503577242008203 0 0.013499175202599733 -0.0010610825311949236 0 0.017960776510063562 -0.0036847257319084963 0 0.016969994065410131 -0.0029702734006038975 0 0.01772720365063286 -0.0030583972724771346 0 0.016969994065410131 -0.0029702734006038975 0 0.017846287848229392 -0.002536919249688525 0 0.01772720365063286 -0.0030583972724771346 0 0.015121530453257207 -0.0010535521507924125 0 0.014448964549550124 -0.00015234961044739505 0 0.013499175202599733 -0.0010610825311949236 0 0.01598787548742828 -0.0020533778127667535 0 0.015121530453257207 -0.0010535521507924125 0 0.013499175202599733 -0.0010610825311949236 0 0.01598787548742828 -0.0020533778127667535 0 0.016969994065410131 -0.0029702734006038975 0 0.016821016811739222 -0.0021993106279867762 0 0.015918783080215989 -0.0020746999384149496 0 0.015139231444774085 -0.001967491943058355 0 0.016969994065410131 -0.0029702734006038975 0 0.017375241777987056 -0.0022014869851324265 0 0.017846287848229392 -0.002536919249688525 0 0.016969994065410131 -0.0029702734006038975 0 0.016821016811739222 -0.0021993106279867762 0 0.017375241777987056 -0.0022014869851324265 0 0.017375241777987056 -0.0022014869851324265 0 0.017846287848229392 -0.002536919249688525 0 0.018061138036193549 -0.0021663983140574905 0 0.017846287848229392 -0.002536919249688525 0 0.018061138036193549 -0.0021663983140574905 0 0.018356946873963269 -0.0026978698590559547 0 0.018583409361080331 -0.0018606778230126763 0 0.018061138036193549 -0.0021663983140574905 0 0.018512783797544032 -0.0023031174287760259 0 0.018583409361080331 -0.0018606778230126763 0 0.018512783797544032 -0.0023031174287760259 0 0.019069823960790253 -0.0024789792622439358 0 0.018512783797544032 -0.0023031174287760259 0 0.018356946873963269 -0.0026978698590559547 0 0.019069823960790253 -0.0024789792622439358 0 0.018061138036193549 -0.0021663983140574905 0 0.018512783797544032 -0.0023031174287760259 0 0.018356946873963269 -0.0026978698590559547 0 0.018356946873963269 -0.0026978698590559547 0 0.018715318056732742 -0.002998977832224661 0 0.018226313629927521 -0.003129404217019122 0 0.018356946873963269 -0.0026978698590559547 0 0.018715318056732742 -0.002998977832224661 0 0.019069823960790253 -0.0024789792622439358 0 0.018679829726671902 -0.0033737328803151397 0 0.018715318056732742 -0.002998977832224661 0 0.019239431503487645 -0.0030807944491288114 0 0.018679829726671902 -0.0033737328803151397 0 0.018715318056732742 -0.002998977832224661 0 0.018226313629927521 -0.003129404217019122 0 0.017846287848229392 -0.002536919249688525 0 0.018226313629927521 -0.003129404217019122 0 0.01772720365063286 -0.0030583972724771346 0 0.017846287848229392 -0.002536919249688525 0 0.018356946873963269 -0.0026978698590559547 0 0.018226313629927521 -0.003129404217019122 0 0.019896263770571649 -0.0031761749478529172 0 0.020479925574171276 -0.0025100763072898719 0 0.020758032686773072 -0.0029531333853277495 0 0.019863681181833962 -0.0026964389896551571 0 0.019896263770571649 -0.0031761749478529172 0 0.020479925574171276 -0.0025100763072898719 0 0.019863681181833962 -0.0026964389896551571 0 0.019239431503487645 -0.0030807944491288114 0 0.019069823960790253 -0.0024789792622439358 0 0.019863681181833962 -0.0026964389896551571 0 0.019896263770571649 -0.0031761749478529172 0 0.019239431503487645 -0.0030807944491288114 0 0.018715318056732742 -0.002998977832224661 0 0.019239431503487645 -0.0030807944491288114 0 0.019069823960790253 -0.0024789792622439358 0 0.019863681181833962 -0.0026964389896551571 0 0.019069823960790253 -0.0024789792622439358 0 0.020344564799939777 -0.0021578683880390894 0 0.019208916666094804 -0.0016055998809906835 0 0.019069823960790253 -0.0024789792622439358 0 0.020344564799939777 -0.0021578683880390894 0 0.020670689965028688 -0.0021157503600905295 0 0.020344564799939777 -0.0021578683880390894 0 0.020479925574171276 -0.0025100763072898719 0 0.019863681181833962 -0.0026964389896551571 0 0.020344564799939777 -0.0021578683880390894 0 0.020479925574171276 -0.0025100763072898719 0 0.020479925574171276 -0.0025100763072898719 0 0.020983946153420724 -0.0022816298227348731 0 0.020758032686773072 -0.0029531333853277495 0 0.019410960769804968 -0.0016046069225144374 0 0.019298358014030799 -0.0021123284027862997 0 0.020670689965028688 -0.0021157503600905295 0 0.020479925574171276 -0.0025100763072898719 0 0.020983946153420724 -0.0022816298227348731 0 0.018248413626370853 -0.00073203809104741761 0 0.01828974754831816 -0.00086592482756205546 0 0.017831249955564031 -0.0013716420178058958 0 0.018497673271423862 -0.00066188957338374113 0 0.018108472852771392 -0.00090353581917164275 0 0.0183777540855753 -0.0013761434073259161 0 0.017842079706266993 -0.00097457840310743353 0 0.01796935098927388 -0.0015105644995099233 0 0.018108472852771392 -0.00090353581917164275 0 0.017837448410610354 -0.0016097487824333738 0 0.0183777540855753 -0.0013761434073259161 0 0.01828974754831816 -0.00086592482756205546 0 0.017831249955564031 -0.0013716420178058958 0 0.017837448410610354 -0.0016097487824333738 0 0.019298358014030799 -0.0021123284027862997 0 0.019062073796109406 -0.0031151549963179129 0 0.019896263770571649 -0.0031761749478529172 0 0.020758032686773072 -0.0029531333853277495 0 0.020227805414249619 -0.0038411097573914661 0 0.017831249955564031 -0.0013716420178058958 0 0.017837448410610354 -0.0016097487824333738 0 0.017497056851816482 -0.0019815682172962907 0 0.017837448410610354 -0.0016097487824333738 0 0.017497056851816482 -0.0019815682172962907 0 0.017823064679350881 -0.0019818291387877838 0 0.015755570485822146 -0.00080243241787122629 0 0.016294140622014928 -0.00055835919313587483 0 0.017837448410610354 -0.0016097487824333738 0 0.017823064679350881 -0.0019818291387877838 0 0.0183777540855753 -0.0013761434073259161 0 0.013846456111335422 0.00015077949105078023 0 0.014079109057705558 0.00016927603878848048 0 0.014121816153011071 0.00024766915521017311 0 0.013846456111335422 0.00015077949105078023 0 0.013930698998255551 -1.2297115152025869e-05 0 0.01385242109996903 -1.9822026681630573e-05 0 0.013846456111335422 0.00015077949105078023 0 0.013930698998255551 -1.2297115152025869e-05 0 0.014079109057705558 0.00016927603878848048 0 0.015755570485822146 -0.00080243241787122629 0 0.015938139111620172 -0.0021202051773065327 0 0.017497056851816482 -0.0019815682172962907 0 0.017823064679350881 -0.0019818291387877838 0 0.017178285019246436 -0.0026233759996999507 0 0.019062073796109406 -0.0031151549963179129 0 0.015938139111620172 -0.0021202051773065327 0 0.020227805414249619 -0.0038411097573914661 0 0.01943947578834378 -0.0037909692746916869 0 0.019656704567088262 -0.0049007062518691665 0 0.019896263770571649 -0.0031761749478529172 0 0.020227805414249619 -0.0038411097573914661 0 0.01943947578834378 -0.0037909692746916869 0 0.019896263770571649 -0.0031761749478529172 0 0.01943947578834378 -0.0037909692746916869 0 0.019194981805304365 -0.0034818460818052247 0 0.018826016593017247 -0.003729539693968862 0 0.01943947578834378 -0.0037909692746916869 0 0.019194981805304365 -0.0034818460818052247 0 0.018679829726671902 -0.0033737328803151397 0 0.019239431503487645 -0.0030807944491288114 0 0.019194981805304365 -0.0034818460818052247 0 0.019896263770571649 -0.0031761749478529172 0 0.019239431503487645 -0.0030807944491288114 0 0.019194981805304365 -0.0034818460818052247 0 0.018826016593017247 -0.003729539693968862 0 0.018679829726671902 -0.0033737328803151397 0 0.019194981805304365 -0.0034818460818052247 0 0.01943947578834378 -0.0037909692746916869 0 0.018975030779267127 -0.0039443039295858143 0 0.018926596747835794 -0.0040773698470335986 0 0.021069781236424844 -0.0038522277467480624 0 0.013323806664709845 -0.0045749416228383034 0 0.018774422323943954 -0.003963783094644977 0 0.018826016593017247 -0.003729539693968862 0 0.018975030779267127 -0.0039443039295858143 0 0.01943947578834378 -0.0037909692746916869 0 0.018926596747835794 -0.0040773698470335986 0 0.018871459646341401 -0.0043725407047634302 0 0.018826016593017247 -0.003729539693968862 0 0.01943947578834378 -0.0037909692746916869 0 0.018975030779267127 -0.0039443039295858143 0 0.018975030779267127 -0.0039443039295858143 0 0.018815433709319845 -0.004051845744278932 0 0.018926596747835794 -0.0040773698470335986 0 0.018774422323943954 -0.003963783094644977 0 0.018975030779267127 -0.0039443039295858143 0 0.018815433709319845 -0.004051845744278932 0 0.018774422323943954 -0.003963783094644977 0 0.018815433709319845 -0.004051845744278932 0 0.018755721977946713 -0.0040583014892218577 0 0.018720671911276344 -0.0040740860216222337 0 0.018815433709319845 -0.004051845744278932 0 0.018755721977946713 -0.0040583014892218577 0 0.018720671911276344 -0.0040740860216222337 0 0.018815433709319845 -0.004051845744278932 0 0.018659151421862637 -0.0040411645451307468 0 0.018659151421862637 -0.0040411645451307468 0 0.018926596747835794 -0.0040773698470335986 0 0.018807183962011271 -0.0042367913302217078 0 0.018720671911276344 -0.0040740860216222337 0 0.018745244044076178 -0.0040720404525201636 0 0.018659151421862637 -0.0040411645451307468 0 0.010909399648877658 -0.0028776487246413313 0 0.012292914403537724 -0.0057407043046051416 0 0.018745244044076178 -0.0040720404525201636 0 0.018659151421862637 -0.0040411645451307468 0 0.018542318933802246 -0.0039154956852357281 0 0.00030228133760117098 -0.0088322318611167034 0 0.00011768757500249889 -0.008254409330639945 0 0.0014043632111570663 -0.0090418277328006818 0 0.01454247262107467 -0.0060478942025789318 0 0.012292914403537724 -0.0057407043046051416 0 0.018815433709319845 -0.004051845744278932 0 0.018659151421862637 -0.0040411645451307468 0 0.018926596747835794 -0.0040773698470335986 0 0.018926596747835794 -0.0040773698470335986 0 0.018871459646341401 -0.0043725407047634302 0 0.018807183962011271 -0.0042367913302217078 0 0.013323806664709845 -0.0045749416228383034 0 0.012292914403537724 -0.0057407043046051416 0 0.0094672347238546912 -0.0046380297849670056 0 0.011880203753076076 -0.0068549321776702771 0 0.010008087902815458 -0.004076573335401238 0 0.0013248572966724412 -0.0096862129367526924 0 0.0014043632111570663 -0.0090418277328006818 0 0.0019302907429175993 -0.0098403848884225185 0 0.012292914403537724 -0.0057407043046051416 0 0.008186787963598903 -0.006561269071408516 0 0.013323806664709845 -0.0045749416228383034 0 0.008186787963598903 -0.006561269071408516 0 0.00030228133760117098 -0.0088322318611167034 0 0.00084463502864178842 -0.0093914077419370717 0 0.0014043632111570663 -0.0090418277328006818 0 0.00036069086244735934 -0.0095283365300951762 0 0.00084463502864178842 -0.0093914077419370717 0 0.00074744273252549238 -0.010085514983789236 0 0.0013248572966724412 -0.0096862129367526924 0 0.00084463502864178842 -0.0093914077419370717 0 0.00074744273252549238 -0.010085514983789236 0 0.0013248572966724412 -0.0096862129367526924 0 0.00084463502864178842 -0.0093914077419370717 0 0.0014043632111570663 -0.0090418277328006818 0 0.01943947578834378 -0.0037909692746916869 0 0.019207525534301228 -0.0053227820444552345 0 0.019656704567088262 -0.0049007062518691665 0 0.011660828613432853 -0.0041510955201796394 0 0.014242040581774524 -0.0014923227639026127 0 0.012615439780307125 -0.0050321741985039272 0 0.013591850483771904 -2.4164962682121839e-05 0 0.013622682818204135 -0.00011666000348325218 0 0.013494520633169506 -0.00017041343560823141 0 0.013323806664709845 -0.0045749416228383034 0 0.015938139111620172 -0.0021202051773065327 0 0.015938139111620172 -0.0021202051773065327 0 0.0097307950490036158 -0.0030466864093095744 0 0.013591850483771904 -2.4164962682121839e-05 0 0.013622682818204135 -0.00011666000348325218 0 0.013733292494479004 -6.5760169924899042e-05 0 0.0092655151093176333 -0.0027473604708977322 0 0.0071743504955593829 -0.00082734130460154689 0 0.0063162278670210441 -0.0026801492598040361 0 0.013622682818204135 -0.00011666000348325218 0 0.013517233973624705 -0.00019074637109698007 0 0.013799094674914565 -0.00017351022000688211 0 0.0048589495707202588 -0.0050655338802624277 0 0.0013569775660323246 -0.0027694504449632829 0 4.076513221398361e-05 -0.0049405640937187608 0 0.00024210556508059527 -0.004462790898057946 0 -0.0008528673755313779 -0.0036450099852177236 0 0.0051795046682768736 -0.0052590605600459119 0 0.0057290303364361935 -0.0049758391150639368 0 0.0035661323739932462 -0.0018202449216091158 0 0.0090829240397296458 -0.0032212178714472266 0 0.0049107541048098264 -0.0019625104854157035 0 0.0090829240397296458 -0.0032212178714472266 0 0.010948447914645082 -0.000581903614779913 0 0.0051795046682768736 -0.0052590605600459119 0 0.0035661323739932462 -0.0018202449216091158 0 0.0025496247826836929 -0.0028655310040139438 0 0.013622682818204135 -0.00011666000348325218 0 0.013517233973624705 -0.00019074637109698007 0 0.013494520633169506 -0.00017041343560823141 0 0.0083889966745953615 -0.002456199233828883 0 0.010144119207913228 -0.0040737389093392822 0 0.01085440681996061 -0.002507607261111195 0 0.0090829240397296458 -0.0032212178714472266 0 0.0073950362346513364 -0.0042734139003772244 0 0.0097307950490036158 -0.0030466864093095744 0 0.0073950362346513364 -0.0042734139003772244 0 0.0081285977726857535 -0.0044362566845330253 0 0.0085857706598834391 -0.0034269616772177464 0 0.0093013703891817404 -0.0044873548756998562 0 0.0090829240397296458 -0.0032212178714472266 0 0.0097307950490036158 -0.0030466864093095744 0 0.0051795046682768736 -0.0052590605600459119 0 0.0055985367785501439 -0.0052687399768914876 0 0.0057290303364361935 -0.0049758391150639368 0 0.0013248572966724412 -0.0096862129367526924 0 0.00074744273252549238 -0.010085514983789236 0 0.0016631058430334059 -0.01012225216518834 0 0.0011493050714784269 -0.0089429325999163083 0 0.0037341791325433025 -0.0079635768913964948 0 0.00050577316777441214 -0.011210251045310987 0 0.00074744273252549238 -0.010085514983789236 0 0.0016284895860628769 -0.010093246658893339 0 0.0013248572966724412 -0.0096862129367526924 0 0.0016631058430334059 -0.01012225216518834 0 0.0019302907429175993 -0.0098403848884225185 0 0.0038812183150468186 -0.0049986681269012269 0 0.0041005784616266012 -0.005172271724309117 0 0.0037830328024271169 -0.0058456523694500918 0 0.0011628198612234721 -0.0064174923989452452 0 0.0011580204916514807 -0.0064163047440205841 0 0.0011459480417241096 -0.0063884311693982003 0 0.0037341791325433025 -0.0079635768913964948 0 0.008186787963598903 -0.006561269071408516 0 0.0069398365315601427 -0.0071302851061894141 0 0.0069846678272801619 -0.0070878756794259794 0 0.006992952642482151 -0.0071283636269166787 0 0.0037341791325433025 -0.0079635768913964948 0 0.0057224687096462442 -0.0058957749484695272 0 0.013323806664709845 -0.0045749416228383034 0 0.0097307950490036158 -0.0030466864093095744 0 0.010027154647397106 -0.0061832445575341483 0 0.0081285977726857535 -0.0044362566845330253 0 0.0093013703891817404 -0.0044873548756998562 0 0.010027154647397106 -0.0061832445575341483 0 0.0093013703891817404 -0.0044873548756998562 0 0.011004759099508023 -0.0051678833275194298 0 0.0093013703891817404 -0.0044873548756998562 0 0.011004759099508023 -0.0051678833275194298 0 0.010554001650512176 -0.0034695184354928198 0 0.008186787963598903 -0.006561269071408516 0 0.0057224687096462442 -0.0058957749484695272 0 0.0085857706598834391 -0.0034269616772177464 0 0.0093013703891817404 -0.0044873548756998562 0 0.010554001650512176 -0.0034695184354928198 0 0.0073950362346513364 -0.0042734139003772244 0 0.0057224687096462442 -0.0058957749484695272 0 0.0057224687096462442 -0.0058957749484695272 0 0.0048589495707202588 -0.0050655338802624277 0 0.0044296402997789737 -0.0061366268315336059 0 0.0059568764338094812 -0.0061703681344516328 0 0.0048201131117707983 -0.0052743590244224165 0 0.0073950362346513364 -0.0042734139003772244 0 0.0048589495707202588 -0.0050655338802624277 0 0.0057224687096462442 -0.0058957749484695272 0 0.0020851086641365457 -0.005592041359232843 0 0.0048589495707202588 -0.0050655338802624277 0 0.0020851086641365457 -0.005592041359232843 0 -0.00050743850208678299 -0.0077159887139027893 0 0.0037341791325433025 -0.0079635768913964948 0 0.0011728080249274167 -0.0063854422166806602 0 0.0011628198612234721 -0.0064174923989452452 0 0.0011459480417241096 -0.0063884311693982003 0 0.0020851086641365457 -0.005592041359232843 0 -0.0010897250122278406 -0.0050607880945145213 0 -3.8280866621890052e-06 -0.0051732642494444966 0 0.00029281993446100531 -0.0044450884724241508 0 3.4322967479712854e-05 -0.0045131957271125692 0 -0.00050743850208678299 -0.0077159887139027893 0 -0.0010897250122278406 -0.0050607880945145213 0 0.0011728080249274167 -0.0063854422166806602 0 0.0011459480417241096 -0.0063884311693982003 0 0.0011426248564301571 -0.0063277048586719209 0 0.0020851086641365457 -0.005592041359232843 0 0.00021920467053841898 -0.003815012395834367 0 0.00030678904968604848 -0.0034487148302204027 0 -0.0008528673755313779 -0.0036450099852177236 0 -0.00066994595205106106 -0.0025950667958868825 0 0.00024210556508059527 -0.004462790898057946 0 0.00030678904968604848 -0.0034487148302204027 0 -0.0008528673755313779 -0.0036450099852177236 0 -0.00066994595205106106 -0.0025950667958868825 0 0.0003709061470110753 -0.0024563394803095544 0 -0.00099094717623544794 -0.001506697103509776 0 -0.0026621457093493946 -0.00397908816543136 0 -0.0010897250122278406 -0.0050607880945145213 0 -0.0027489973845356997 -0.0039109764701711148 0 -0.0028549959356262106 -0.0041987288580563669 0 -0.0029440463103895774 -0.0039645836203045714 0 0.00030678904968604848 -0.0034487148302204027 0 -0.00066994595205106106 -0.0025950667958868825 0 0.0003709061470110753 -0.0024563394803095544 0 -0.0010897250122278406 -0.0050607880945145213 0 -0.0011487993488653858 -0.0036229760711851394 0 0.00029281993446100531 -0.0044450884724241508 0 3.4322967479712854e-05 -0.0045131957271125692 0 7.8822352421135879e-05 -0.0038537682842583235 0 0.00021920467053841898 -0.003815012395834367 0 -0.0011487993488653858 -0.0036229760711851394 0 0.00074536664935776278 0.00049916654894730146 0 -0.0020461058320222418 0.0015091549324902423 0 0.0024320969774342151 0.00039333792672661424 0 0.00095048783356181329 0.00073927618928072941 0 0.00051646831615791481 0.0021403567505206226 0 -0.004197900251296979 0.0019906667637200641 0 -0.0041374295547387816 0.0015735003464945152 0 -0.0034397919547722424 0.0013119725995005091 0 -0.004197900251296979 0.0019906667637200641 0 -0.0041374295547387816 0.0015735003464945152 0 -0.0045491187781817695 0.001586125255545202 0 -0.0008528673755313779 -0.0036450099852177236 0 -0.00066994595205106106 -0.0025950667958868825 0 -0.0017105691586696945 -0.0023727823049653259 0 0.0013569775660323246 -0.0027694504449632829 0 -0.0019832614159519448 -0.00017248940652170764 0 0.0035661323739932462 -0.0018202449216091158 0 -4.7531561759073865e-05 -0.00048828824175700029 0 0.0014319977336797248 0.0013061133975552682 0 0.00074536664935776278 0.00049916654894730146 0 -0.0019832614159519448 -0.00017248940652170764 0 0.00074536664935776278 0.00049916654894730146 0 0.0049107541048098264 -0.0019625104854157035 0 0.0035661323739932462 -0.0018202449216091158 0 -4.7531561759073865e-05 -0.00048828824175700029 0 0.0025496247826836929 -0.0028655310040139438 0 0.0050654429500703287 0.001094837567342502 0 0.0071743504955593829 -0.00082734130460154689 0 0.0041816265574278989 1.4931535687591126e-05 0 0.0024320969774342151 0.00039333792672661424 0 0.0018199634593106724 -0.00035660213394406523 0 0.00095048783356181329 0.00073927618928072941 0 0.00074536664935776278 0.00049916654894730146 0 0.0049518046633186749 0.00035275529112034881 0 0.0049518046633186749 0.00035275529112034881 0 0.0030298285600742982 0.00063159582245136416 0 0.0090544472486475073 0.0003051417016476589 0 0.0090715361156589718 -0.00029136031231477805 0 0.0085986975222006549 -0.00027854812867198126 0 0.0090544472486475073 0.0003051417016476589 0 0.0090715361156589718 -0.00029136031231477805 0 0.0095600295002681111 -0.0003046680741037731 0 0.011807270764686909 -0.00016302365948660233 0 0.010948447914645082 -0.000581903614779913 0 0.0049518046633186749 0.00035275529112034881 0 0.010948447914645082 -0.000581903614779913 0 0.0071743504955593829 -0.00082734130460154689 0 0.0041816265574278989 1.4931535687591126e-05 0 0.0063162278670210441 -0.0026801492598040361 0 0.013846456111335422 0.00015077949105078023 0 0.013733292494479004 -6.5760169924899042e-05 0 0.01385242109996903 -1.9822026681630573e-05 0 0.013846456111335422 0.00015077949105078023 0 0.013591850483771904 -2.4164962682121839e-05 0 0.013733292494479004 -6.5760169924899042e-05 0 0.013622682818204135 -0.00011666000348325218 0 0.013799094674914565 -0.00017351022000688211 0 0.013733292494479004 -6.5760169924899042e-05 0 0.010948447914645082 -0.000581903614779913 0 0.013101702790055157 -0.00077652400837845104 0 0.013791312604137743 -8.0768153160896858e-05 0 0.013733292494479004 -6.5760169924899042e-05 0 0.01385242109996903 -1.9822026681630573e-05 0 0.013872246743392339 -6.2636576911387548e-06 0 0.013930698998255551 -1.2297115152025869e-05 0 0.01385242109996903 -1.9822026681630573e-05 0 0.013872246743392339 -6.2636576911387548e-06 0 0.013791312604137743 -8.0768153160896858e-05 0 0.01385242109996903 -1.9822026681630573e-05 0 0.013872246743392339 -6.2636576911387548e-06 0 0.013930698998255551 -1.2297115152025869e-05 0 0.013818306066564146 2.7719164344456077e-05 0 0.01434088478578787 -8.8410926193276166e-06 0 0.012841753790592776 -0.00023611215406094417 0 0.013818306066564146 2.7719164344456077e-05 0 0.013507215393867315 -3.0945929994656842e-05 0 0.013714489129241361 7.1594952645224769e-05 0 0.013930698998255551 -1.2297115152025869e-05 0 0.014224615310875372 -6.9024029650101746e-05 0 0.014096512633590652 8.1501151635583353e-05 0 0.013930698998255551 -1.2297115152025869e-05 0 0.013818306066564146 2.7719164344456077e-05 0 0.013507215393867315 -3.0945929994656842e-05 0 0.014136911043285554 0.00028943181022075099 0 0.014120856769239333 0.00025298009609734794 0 0.014180857171244449 0.00018646507352674694 0 0.012841753790592776 -0.00023611215406094417 0 0.01438826249281001 0.000285342999024308 0 0.0048793491157599509 0.00050644599707150035 0 0.0049851806149448508 0.00050485103514104227 0 0.0049155734714077101 0.00061114576045153974 0 0.0085461786290212047 0.00075178165673615209 0 0.0096572961715968159 -6.7624062065820489e-05 0 0.013474100499821598 0.00011131003734069498 0 0.013714489129241361 7.1594952645224769e-05 0 0.013739344955342403 0.00010698863166095669 0 0.012841753790592776 -0.00023611215406094417 0 0.0085461786290212047 0.00075178165673615209 0 0.013507215393867315 -3.0945929994656842e-05 0 0.013474100499821598 0.00011131003734069498 0 0.013714489129241361 7.1594952645224769e-05 0 0.0049518046633186749 0.00035275529112034881 0 0.0096572961715968159 -6.7624062065820489e-05 0 0.013872246743392339 -6.2636576911387548e-06 0 0.013818306066564146 2.7719164344456077e-05 0 0.013749612206780287 9.1191566473516927e-05 0 0.011807270764686909 -0.00016302365948660233 0 0.0096572961715968159 -6.7624062065820489e-05 0 0.013818306066564146 2.7719164344456077e-05 0 0.013714489129241361 7.1594952645224769e-05 0 0.013749612206780287 9.1191566473516927e-05 0 0.010345973484800481 0.00036596183492984796 0 0.0096572961715968159 -6.7624062065820489e-05 0 0.0050622725334671225 0.00063185719819845417 0 0.0049851806149448508 0.00050485103514104227 0 0.0049758943545004678 0.0006330927689207305 0 0.0049851806149448508 0.00050485103514104227 0 0.0049758943545004678 0.0006330927689207305 0 0.0049155734714077101 0.00061114576045153974 0 0.0050622725334671225 0.00063185719819845417 0 0.0049758943545004678 0.0006330927689207305 0 0.0049867502663742316 0.00071559411308385712 0 0.0049758943545004678 0.0006330927689207305 0 0.0049155734714077101 0.00061114576045153974 0 0.0048998096535008747 0.00069552820946709975 0 0.0048793491157599509 0.00050644599707150035 0 0.0049155734714077101 0.00061114576045153974 0 0.0048052889071639243 0.00069105403371249154 0 0.0085461786290212047 0.00075178165673615209 0 0.0025908853328802518 0.00046900072851154532 0 0.0049155734714077101 0.00061114576045153974 0 0.0048998096535008747 0.00069552820946709975 0 0.0048052889071639243 0.00069105403371249154 0 -0.0017187008712809082 0.00052004971422216011 0 -0.0016607079649902123 0.00055837162196107043 0 -0.0016408082480307855 -3.3384333490106357e-05 0 0.0011170454655108004 0.00090344815759368989 0 0.00032507944934664744 0.0015828801804272145 0 0.0011903498839798299 0.00053301030136342878 0 -0.0013951124870455046 5.1573058653800704e-05 0 0.0011170454655108004 0.00090344815759368989 0 -0.0022186693879326798 0.00059749020588883007 0 0.0048998096535008747 0.00069552820946709975 0 0.0048065668038711198 0.00071818905260737228 0 0.0048974889908286476 0.00080101138384224512 0 0.0048998096535008747 0.00069552820946709975 0 0.0048052889071639243 0.00069105403371249154 0 0.0048065668038711198 0.00071818905260737228 0 0.0025908853328802518 0.00046900072851154532 0 0.0011903498839798299 0.00053301030136342878 0 0.0025908853328802518 0.00046900072851154532 0 0.0011170454655108004 0.00090344815759368989 0 0.0018511579636930468 0.00066531534223166074 0 0.0017860950733127455 0.0004542769793608932 0 0.0018639663203557891 0.00050735678385863917 0 0.0011170454655108004 0.00090344815759368989 0 0.0011903498839798299 0.00053301030136342878 0 0.0048998096535008747 0.00069552820946709975 0 0.0049867502663742316 0.00071559411308385712 0 0.0048974889908286476 0.00080101138384224512 0 0.00095048783356181329 0.00073927618928072941 0 0.00051646831615791481 0.0021403567505206226 0 8.0854435502073811e-05 0.0018381923778876296 0 0.0030298285600742982 0.00063159582245136416 0 0.00032507944934664744 0.0015828801804272145 0 0.0049758943545004678 0.0006330927689207305 0 0.0048998096535008747 0.00069552820946709975 0 0.0049867502663742316 0.00071559411308385712 0 0.00073712423407223731 -7.1206504447399516e-07 0 -0.00055715096741648456 3.8269923129704855e-05 0 0.00034361870754807646 0.00045662143390685624 0 0.0037507777739445359 -2.0674592642182547e-05 0 0.0037485290179266615 -2.7398147430745364e-05 0 0.0037903419223274662 -7.8004592104068371e-07 0 -0.0012402684710460458 0.00032428232508626721 0 -0.00055715096741648456 3.8269923129704855e-05 0 0.00034361870754807646 0.00045662143390685624 0 -0.0012402684710460458 0.00032428232508626721 0 -0.0011862724946231301 3.9599035442425285e-05 0 -0.0016408082480307855 -3.3384333490106357e-05 0 -0.0012402684710460458 0.00032428232508626721 0 -0.00055715096741648456 3.8269923129704855e-05 0 -0.0011862724946231301 3.9599035442425285e-05 0 0.0011903498839798299 0.00053301030136342878 0 0.002003859986124647 5.7235701638603334e-05 0 0.0037507777739445359 -2.0674592642182547e-05 0 0.0037903419223274662 -7.8004592104068371e-07 0 0.0037740369188721109 -1.0941783565077739e-05 0 0.0037507777739445359 -2.0674592642182547e-05 0 0.0037740369188721109 -1.0941783565077739e-05 0 0.0037486061090796397 3.2952396316942675e-05 0 0.0025908853328802518 0.00046900072851154532 0 0.0066193421638584523 0.00030038055397608901 0 0.0037903419223274662 -7.8004592104068371e-07 0 0.003576163734225834 -4.1831873582864576e-08 0 0.0037671437602864715 -5.0616417623535205e-05 0 0.002003859986124647 5.7235701638603334e-05 0 0.0035720119295209046 4.8882937544675482e-08 0 0.0037903419223274662 -7.8004592104068371e-07 0 0.0037671437602864715 -5.0616417623535205e-05 0 0.0037740369188721109 -1.0941783565077739e-05 0 0.00073712423407223731 -7.1206504447399516e-07 0 0.00034361870754807646 0.00045662143390685624 0 0.0035688583075939601 2.4944208374578059e-06 0 0.0037671437602864715 -5.0616417623535205e-05 0 0.004392893866847907 5.5384160183839905e-08 0 0.0038734438843797078 0.00011652907753665592 0 0.003576163734225834 -4.1831873582864576e-08 0 0.0037671437602864715 -5.0616417623535205e-05 0 0.004392893866847907 5.5384160183839905e-08 0 0.0047664134453735503 0.00037739998234197463 0 0.0066193421638584523 0.00030038055397608901 0 0.0037671437602864715 -5.0616417623535205e-05 0 0.0038734438843797078 0.00011652907753665592 0 0.0037740369188721109 -1.0941783565077739e-05 0 0.0047664134453735503 0.00037739998234197463 0 0.0091034677585992655 0.00065973343724626862 0 0.0043996025993253713 1.531337966430093e-06 0 0.0058252435403575303 0.00027957039612590609 0 0.0064204858241774035 -7.7636218640255925e-05 0 0.0043967089276102725 4.4266371935891328e-07 0 0.0047664134453735503 0.00037739998234197463 0 0.0051780937870984792 0.00079422342373911144 0 0.0076232117632184194 5.6018162262496691e-05 0 0.0078596696051100902 0.00085429701710116983 0 0.0055965057089621137 0.00071641139664677816 0 0.0055887349872242725 0.00027774722036608108 0 0.0057642075424449418 0.00071236120847621199 0 0.0038734438843797078 0.00011652907753665592 0 0.0037740369188721109 -1.0941783565077739e-05 0 0.0037486061090796397 3.2952396316942675e-05 0 0.0091034677585992655 0.00065973343724626862 0 0.0066193421638584523 0.00030038055397608901 0 0.010063446626090749 0.00087480328335299261 0 0.0084165775657680623 0.00025012923292174545 0 0.0086087078292582716 0.00090413357526950163 0 0.010175749229079713 -0.00028059511453165144 0 0.010063446626090749 0.00087480328335299261 0 0.0084165775657680623 0.00025012923292174545 0 0.0085461786290212047 0.00075178165673615209 0 0.0066193421638584523 0.00030038055397608901 0 0.014080145340345072 0.00028891554889429519 0 0.014120856769239333 0.00025298009609734794 0 0.014102193330152453 0.00025244092757205859 0 0.0091034677585992655 0.00065973343724626862 0 0.010987169251085485 -8.7130034155733432e-05 0 0.014136911043285554 0.00028943181022075099 0 0.014080145340345072 0.00028891554889429519 0 0.014120856769239333 0.00025298009609734794 0 0.012841753790592776 -0.00023611215406094417 0 0.0091034677585992655 0.00065973343724626862 0 0.0066906026433234348 9.2746023906626945e-05 0 0.0064204858241774035 -7.7636218640255925e-05 0 0.0074749523925308325 -0.00014895149425212664 0 0.0043996025993253713 1.531337966430093e-06 0 0.0064204858241774035 -7.7636218640255925e-05 0 0.0073911340984816713 -1.1797854006763438e-06 0 0.0058252435403575303 0.00027957039612590609 0 0.0066906026433234348 9.2746023906626945e-05 0 0.0064204858241774035 -7.7636218640255925e-05 0 0.0064204858241774035 -7.7636218640255925e-05 0 0.0073911340984816713 -1.1797854006763438e-06 0 0.0074749523925308325 -0.00014895149425212664 0 0.0073911340984816713 -1.1797854006763438e-06 0 0.0074749523925308325 -0.00014895149425212664 0 0.010386148869704757 3.1804748115513815e-07 0 0.010987169251085485 -8.7130034155733432e-05 0 0.012030020311950331 1.55506733377292e-05 0 0.0074749523925308325 -0.00014895149425212664 0 0.010386148869704757 3.1804748115513815e-07 0 0.010180435128963583 6.163932917988929e-05 0 0.014102193330152453 0.00025244092757205859 0 0.014232320997852044 0.00023415669145156399 0 0.014036416384932693 0.00035149350472606111 0 0.014102193330152453 0.00025244092757205859 0 0.014180857171244449 0.00018646507352674694 0 0.014232320997852044 0.00023415669145156399 0 0.014120856769239333 0.00025298009609734794 0 0.014102193330152453 0.00025244092757205859 0 0.014180857171244449 0.00018646507352674694 0 0.014224615310875372 -6.9024029650101746e-05 0 0.014180857171244449 0.00018646507352674694 0 0.014096512633590652 8.1501151635583353e-05 0 0.013930698998255551 -1.2297115152025869e-05 0 0.014096512633590652 8.1501151635583353e-05 0 0.014079109057705558 0.00016927603878848048 0 0.014180857171244449 0.00018646507352674694 0 0.014096512633590652 8.1501151635583353e-05 0 0.014079109057705558 0.00016927603878848048 0 0.014079109057705558 0.00016927603878848048 0 0.014232320997852044 0.00023415669145156399 0 0.014121816153011071 0.00024766915521017311 0 0.014180857171244449 0.00018646507352674694 0 0.014079109057705558 0.00016927603878848048 0 0.014232320997852044 0.00023415669145156399 0 0.014232320997852044 0.00023415669145156399 0 0.014121816153011071 0.00024766915521017311 0 0.014329378604545679 0.00012504630332547592 0 0.016294140622014928 -0.00055835919313587483 0 0.01641675208828117 -0.00049194331936713625 0 0.018497673271423862 -0.00066188957338374113 0 0.0183777540855753 -0.0013761434073259161 0 0.018910197608335132 -0.00079353506176965162 0 0.014232320997852044 0.00023415669145156399 0 0.014329378604545679 0.00012504630332547592 0 0.014380872801954058 2.5863017623214634e-05 0 0.014380872801954058 2.5863017623214634e-05 0 0.013386568818556264 9.3347826881160382e-08 0 0.014036416384932693 0.00035149350472606111 0 0.013381442898984557 2.0995946490883043e-07 0 0.010386148869704757 3.1804748115513815e-07 0 0.010180435128963583 6.163932917988929e-05 0 0.013381730873598697 -4.5227009486779927e-07 0 0.012030020311950331 1.55506733377292e-05 0 0.014232320997852044 0.00023415669145156399 0 0.014380872801954058 2.5863017623214634e-05 0 0.014036416384932693 0.00035149350472606111 0 0.016506675611916592 -0.0049903739218566919 0 0.018667413721404673 -0.0034104828267755784 0 0.018968080778740706 -0.006472106651679032 0 0.016843629157218376 -0.0058211808335620592 0 0.015446117435542008 -0.007712980552475773 0 0.016506675611916592 -0.0049903739218566919 0 0.015335826585377176 -0.0043198419151107325 0 0.015079337564877145 -0.0049654115192001918 0 0.016506675611916592 -0.0049903739218566919 0 0.015335826585377176 -0.0043198419151107325 0 0.01540615806380191 -0.0030158724607675085 0 0.015335826585377176 -0.0043198419151107325 0 0.01540615806380191 -0.0030158724607675085 0 0.015033934354193377 -0.0042759804712651402 0 0.015335826585377176 -0.0043198419151107325 0 0.015079337564877145 -0.0049654115192001918 0 0.015033934354193377 -0.0042759804712651402 0 0.015985367739601429 -0.0038167184249332355 0 0.015033934354193377 -0.0042759804712651402 0 0.01573355252323879 -0.0034751622540777141 0 0.015939385731519956 -0.0032715243046265311 0 0.015009386333122144 -0.0042078985545787179 0 0.016506675611916592 -0.0049903739218566919 0 0.01540615806380191 -0.0030158724607675085 0 0.018667413721404673 -0.0034104828267755784 0 0.01540615806380191 -0.0030158724607675085 0 0.018667413721404673 -0.0034104828267755784 0 0.01874524034874412 -0.00010043520454553658 0 0.015939385731519956 -0.0032715243046265311 0 0.016668637338463983 -0.0022728633585411108 0 0.018667413721404673 -0.0034104828267755784 0 0.021952075446958937 -0.00094874705499605361 0 0.01874524034874412 -0.00010043520454553658 0 0.018667413721404673 -0.0034104828267755784 0 0.021656265071954679 -0.0047864218624260992 0 0.021952075446958937 -0.00094874705499605361 0 0.024644778080423646 -0.0028293037900619911 0 0.021656265071954679 -0.0047864218624260992 0 0.021952075446958937 -0.00094874705499605361 0 0.020780767303704106 -0.0062699729978587283 0 0.019905316425613672 -0.0064654957222857971 0 0.019436330397344291 -0.0070394348214606745 0 0.017424264936216655 -0.0088219574696347062 0 0.01690358235865241 -0.011028973385564427 0 0.020780767303704106 -0.0062699729978587283 0 0.016420662522143362 -0.011475875947816837 0 0.019434406125429935 -0.010132696002338761 0 0.01690358235865241 -0.011028973385564427 0 0.018524086218318619 -0.011268323647297988 0 0.019037714071335636 -0.007886376943919143 0 0.019434406125429935 -0.010132696002338761 0 0.01690358235865241 -0.011028973385564427 0 0.018667413721404673 -0.0034104828267755784 0 0.021656265071954679 -0.0047864218624260992 0 0.018968080778740706 -0.006472106651679032 0 0.019905316425613672 -0.0064654957222857971 0 0.015446117435542008 -0.007712980552475773 0 0.017424264936216655 -0.0088219574696347062 0 0.015572159328781469 -0.010625485301914227 0 0.01690358235865241 -0.011028973385564427 0 0.011226369019742008 -0.0088676333611533049 0 0.01112840219867145 -0.007590358389088862 0 0.0099273891603489511 -0.0081839442417482346 0 0.01112840219867145 -0.007590358389088862 0 0.0099273891603489511 -0.0081839442417482346 0 0.010486749324092326 -0.0063951406662718629 0 0.015572159328781469 -0.010625485301914227 0 0.01690358235865241 -0.011028973385564427 0 0.017642875524075851 -0.011542594154608834 0 0.015446117435542008 -0.007712980552475773 0 0.014331500539525401 -0.010014166044904051 0 0.0099273891603489511 -0.0081839442417482346 0 0.010486749324092326 -0.0063951406662718629 0 0.008839730386270955 -0.0077007181246474023 0 0.019434406125429935 -0.010132696002338761 0 0.018524086218318619 -0.011268323647297988 0 0.019463394956381972 -0.012321777150636868 0 0.018524086218318619 -0.011268323647297988 0 0.017642875524075851 -0.011542594154608834 0 0.019463394956381972 -0.012321777150636868 0 0.01690358235865241 -0.011028973385564427 0 0.018524086218318619 -0.011268323647297988 0 0.017642875524075851 -0.011542594154608834 0 0.014331500539525401 -0.010014166044904051 0 0.010279928187185598 -0.0072999043084266274 0 0.0096550647178475588 -0.0067676008509810351 0 0.010279928187185598 -0.0072999043084266274 0 0.010486749324092326 -0.0063951406662718629 0 0.007983230714322137 -0.0079482141804867248 0 0.0073693587316545099 -0.0066011632628553123 0 0.01112840219867145 -0.007590358389088862 0 0.010486749324092326 -0.0063951406662718629 0 0.012057365289512716 -0.0066554796087360986 0 0.010486749324092326 -0.0063951406662718629 0 0.012057365289512716 -0.0066554796087360986 0 0.012497392885551418 -0.0055842924866973224 0 0.012057365289512716 -0.0066554796087360986 0 0.01422928430759538 -0.0060344266464182799 0 0.012497392885551418 -0.0055842924866973224 0 0.012057365289512716 -0.0066554796087360986 0 0.012464740059529879 -0.0079325873122689863 0 0.01422928430759538 -0.0060344266464182799 0 0.01112840219867145 -0.007590358389088862 0 0.012057365289512716 -0.0066554796087360986 0 0.012464740059529879 -0.0079325873122689863 0 0.014210994192878183 -0.0067247649129676887 0 0.014379055437514832 -0.0061720619482184581 0 0.016506675611916592 -0.0049903739218566919 0 0.016063128325067989 -0.005488146822947744 0 0.015079337564877145 -0.0049654115192001918 0 0.016506675611916592 -0.0049903739218566919 0 0.016683041903760732 -0.0051728775222981815 0 0.016063128325067989 -0.005488146822947744 0 0.015446117435542008 -0.007712980552475773 0 0.014210994192878183 -0.0067247649129676887 0 0.011226369019742008 -0.0088676333611533049 0 0.01112840219867145 -0.007590358389088862 0 0.012464740059529879 -0.0079325873122689863 0 0.016063128325067989 -0.005488146822947744 0 0.015079337564877145 -0.0049654115192001918 0 0.01422928430759538 -0.0060344266464182799 0 0.015079337564877145 -0.0049654115192001918 0 0.01422928430759538 -0.0060344266464182799 0 0.014607748487584723 -0.0050777526750145768 0 0.01422928430759538 -0.0060344266464182799 0 0.014287980256801476 -0.0052497704278715879 0 0.014607748487584723 -0.0050777526750145768 0 0.01422928430759538 -0.0060344266464182799 0 0.013768293746632115 -0.0053177998361785984 0 0.012497392885551418 -0.0055842924866973224 0 0.01422928430759538 -0.0060344266464182799 0 0.014287980256801476 -0.0052497704278715879 0 0.013768293746632115 -0.0053177998361785984 0 0.014287980256801476 -0.0052497704278715879 0 0.014555401022177459 -0.0047705357093992661 0 0.014065253221157229 -0.0047772351523825583 0 0.014287980256801476 -0.0052497704278715879 0 0.014555401022177459 -0.0047705357093992661 0 0.014607748487584723 -0.0050777526750145768 0 0.014555401022177459 -0.0047705357093992661 0 0.01470893437550923 -0.0044488847754846541 0 0.014771898914723348 -0.0045610682514540743 0 0.014555401022177459 -0.0047705357093992661 0 0.01470893437550923 -0.0044488847754846541 0 0.014623223034536 -0.0043961076397248163 0 0.014771898914723348 -0.0045610682514540743 0 0.014839542872506037 -0.0042272535531650158 0 0.015044483675055093 -0.0040490014471186121 0 0.01470893437550923 -0.0044488847754846541 0 0.014771898914723348 -0.0045610682514540743 0 0.014839542872506037 -0.0042272535531650158 0 0.014555401022177459 -0.0047705357093992661 0 0.014771898914723348 -0.0045610682514540743 0 0.014607748487584723 -0.0050777526750145768 0 0.015079337564877145 -0.0049654115192001918 0 0.014607748487584723 -0.0050777526750145768 0 0.015033934354193377 -0.0042759804712651402 0 0.014771898914723348 -0.0045610682514540743 0 0.014607748487584723 -0.0050777526750145768 0 0.015033934354193377 -0.0042759804712651402 0 0.014636834233144682 -0.0040225065257803883 0 0.014705438865340165 -0.0042084651975741868 0 0.014814513675171169 -0.0039636182557267439 0 0.014645907412327189 -0.0037704944932094907 0 0.014636834233144682 -0.0040225065257803883 0 0.014814513675171169 -0.0039636182557267439 0 0.01470893437550923 -0.0044488847754846541 0 0.014705438865340165 -0.0042084651975741868 0 0.014839542872506037 -0.0042272535531650158 0 0.014705438865340165 -0.0042084651975741868 0 0.014839542872506037 -0.0042272535531650158 0 0.014814513675171169 -0.0039636182557267439 0 0.01470893437550923 -0.0044488847754846541 0 0.014705438865340165 -0.0042084651975741868 0 0.014623223034536 -0.0043961076397248163 0 0.014839542872506037 -0.0042272535531650158 0 0.014814513675171169 -0.0039636182557267439 0 0.015068557080838792 -0.0037455018166282833 0 0.014926120990217492 -0.0036286670582291779 0 0.014814513675171169 -0.0039636182557267439 0 0.015068557080838792 -0.0037455018166282833 0 0.014645907412327189 -0.0037704944932094907 0 0.014926120990217492 -0.0036286670582291779 0 0.014814513675171169 -0.0039636182557267439 0 0.014926120990217492 -0.0036286670582291779 0 0.015337947081710006 -0.0032431648046455752 0 0.015068557080838792 -0.0037455018166282833 0 0.015068557080838792 -0.0037455018166282833 0 0.015360420386691612 -0.0035584000121772629 0 0.015044483675055093 -0.0040490014471186121 0 0.014839542872506037 -0.0042272535531650158 0 0.015068557080838792 -0.0037455018166282833 0 0.015044483675055093 -0.0040490014471186121 0 0.015337947081710006 -0.0032431648046455752 0 0.015068557080838792 -0.0037455018166282833 0 0.015360420386691612 -0.0035584000121772629 0 0.015337947081710006 -0.0032431648046455752 0 0.015360420386691612 -0.0035584000121772629 0 0.015695953457008308 -0.0032255613004716064 0 0.015033934354193377 -0.0042759804712651402 0 0.015044483675055093 -0.0040490014471186121 0 0.015413738364387766 -0.003623791580922046 0 0.014771898914723348 -0.0045610682514540743 0 0.015033934354193377 -0.0042759804712651402 0 0.015044483675055093 -0.0040490014471186121 0 0.015360420386691612 -0.0035584000121772629 0 0.015044483675055093 -0.0040490014471186121 0 0.015413738364387766 -0.003623791580922046 0 0.015033934354193377 -0.0042759804712651402 0 0.015413738364387766 -0.003623791580922046 0 0.01573355252323879 -0.0034751622540777141 0 0.015413738364387766 -0.003623791580922046 0 0.01573355252323879 -0.0034751622540777141 0 0.015788194927568628 -0.0032825437378502156 0 0.015360420386691612 -0.0035584000121772629 0 0.015413738364387766 -0.003623791580922046 0 0.015706601014221382 -0.0032916443074092476 0 0.015413738364387766 -0.003623791580922046 0 0.015788194927568628 -0.0032825437378502156 0 0.015706601014221382 -0.0032916443074092476 0 0.015788194927568628 -0.0032825437378502156 0 0.015706601014221382 -0.0032916443074092476 0 0.015999278307434851 -0.0031722720497064732 0 0.015788194927568628 -0.0032825437378502156 0 0.015970129433571581 -0.0032048568686323616 0 0.015999278307434851 -0.0031722720497064732 0 0.015788194927568628 -0.0032825437378502156 0 0.015970129433571581 -0.0032048568686323616 0 0.015917728250704789 -0.003268049538056113 0 0.01573355252323879 -0.0034751622540777141 0 0.015788194927568628 -0.0032825437378502156 0 0.015917728250704789 -0.003268049538056113 0 0.015337947081710006 -0.0032431648046455752 0 0.016070348701389323 -0.0030420820878003982 0 0.015695953457008308 -0.0032255613004716064 0 0.015360420386691612 -0.0035584000121772629 0 0.015695953457008308 -0.0032255613004716064 0 0.015706601014221382 -0.0032916443074092476 0 0.015706601014221382 -0.0032916443074092476 0 0.016118263922015097 -0.003104117080819408 0 0.015999278307434851 -0.0031722720497064732 0 0.015695953457008308 -0.0032255613004716064 0 0.015706601014221382 -0.0032916443074092476 0 0.016118263922015097 -0.003104117080819408 0 0.016070348701389323 -0.0030420820878003982 0 0.015695953457008308 -0.0032255613004716064 0 0.016118263922015097 -0.003104117080819408 0 0.016070348701389323 -0.0030420820878003982 0 0.016118263922015097 -0.003104117080819408 0 0.016719256900859167 -0.0030651284876963471 0 0.016118263922015097 -0.003104117080819408 0 0.016719256900859167 -0.0030651284876963471 0 0.016456530541491883 -0.0031542474758879599 0 0.016456530541491883 -0.0031542474758879599 0 0.015999278307434851 -0.0031722720497064732 0 0.016185168544119052 -0.0032149655536421358 0 0.016118263922015097 -0.003104117080819408 0 0.016456530541491883 -0.0031542474758879599 0 0.015999278307434851 -0.0031722720497064732 0 0.017270407273205352 -0.0033048093159976197 0 0.016591633596570697 -0.0034637905449412289 0 0.016456530541491883 -0.0031542474758879599 0 0.016591633596570697 -0.0034637905449412289 0 0.016456530541491883 -0.0031542474758879599 0 0.016185168544119052 -0.0032149655536421358 0 0.017270407273205352 -0.0033048093159976197 0 0.016719256900859167 -0.0030651284876963471 0 0.016456530541491883 -0.0031542474758879599 0 0.015970129433571581 -0.0032048568686323616 0 0.01598617070892237 -0.0032223752033210852 0 0.015917728250704789 -0.003268049538056113 0 0.015970129433571581 -0.0032048568686323616 0 0.015999278307434851 -0.0031722720497064732 0 0.016185168544119052 -0.0032149655536421358 0 0.016591633596570697 -0.0034637905449412289 0 0.016185168544119052 -0.0032149655536421358 0 0.016093753474028812 -0.003327546923412486 0 0.015970129433571581 -0.0032048568686323616 0 0.016185168544119052 -0.0032149655536421358 0 0.016093753474028812 -0.003327546923412486 0 0.015918761448204526 -0.0034984667315633216 0 0.016093753474028812 -0.003327546923412486 0 0.01598617070892237 -0.0032223752033210852 0 0.015970129433571581 -0.0032048568686323616 0 0.016093753474028812 -0.003327546923412486 0 0.01598617070892237 -0.0032223752033210852 0 0.015918761448204526 -0.0034984667315633216 0 0.016022033185538766 -0.0032269682902682163 0 0.01598617070892237 -0.0032223752033210852 0 0.02448110322274755 0.00084178297111950514 0 0.024053158929144492 0.0013264304958696543 0 0.016022033185538766 -0.0032269682902682163 0 0.016074580857667671 -0.0032287343978378404 0 0.016267946793276814 -0.0031757484778654095 0 0.016074580857667671 -0.0032287343978378404 0 0.016291977891203662 -0.0033240052469603043 0 0.016267946793276814 -0.0031757484778654095 0 0.016022033185538766 -0.0032269682902682163 0 0.016074580857667671 -0.0032287343978378404 0 0.01598617070892237 -0.0032223752033210852 0 0.016074580857667671 -0.0032287343978378404 0 0.01598617070892237 -0.0032223752033210852 0 0.015917728250704789 -0.003268049538056113 0 0.016074580857667671 -0.0032287343978378404 0 0.015917728250704789 -0.003268049538056113 0 0.01603568865267058 -0.0034468488264299594 0 0.016074580857667671 -0.0032287343978378404 0 0.01603568865267058 -0.0034468488264299594 0 0.016291977891203662 -0.0033240052469603043 0 0.015985367739601429 -0.0038167184249332355 0 0.01603568865267058 -0.0034468488264299594 0 0.016273301191404219 -0.0035164586287699893 0 0.01603568865267058 -0.0034468488264299594 0 0.016273301191404219 -0.0035164586287699893 0 0.016291977891203662 -0.0033240052469603043 0 0.01573355252323879 -0.0034751622540777141 0 0.015917728250704789 -0.003268049538056113 0 0.01603568865267058 -0.0034468488264299594 0 0.015985367739601429 -0.0038167184249332355 0 0.01573355252323879 -0.0034751622540777141 0 0.01603568865267058 -0.0034468488264299594 0 0.024684366451429206 0.001310146319626803 0 0.021952075446958937 -0.00094874705499605361 0 0.023243328191381651 0.0029803796639610194 0 0.024644778080423646 -0.0028293037900619911 0 0.024684366451429206 0.001310146319626803 0 0.021952075446958937 -0.00094874705499605361 0 0.016668637338463983 -0.0022728633585411108 0 0.024379889889635339 0.0012830384737795972 0 0.021952075446958937 -0.00094874705499605361 0 0.01874524034874412 -0.00010043520454553658 0 0.023243328191381651 0.0029803796639610194 0 0.016273301191404219 -0.0035164586287699893 0 0.016291977891203662 -0.0033240052469603043 0 0.016538635406449332 -0.003320479488590052 0 0.024379889889635339 0.0012830384737795972 0 0.024053158929144492 0.0013264304958696543 0 0.016291977891203662 -0.0033240052469603043 0 0.016538635406449332 -0.003320479488590052 0 0.016267946793276814 -0.0031757484778654095 0 0.031137622829010461 0.0067883287675451149 0 0.030816165253788847 0.0055242373150393648 0 0.029275618994312115 0.0052462003864560064 0 0.024684366451429206 0.001310146319626803 0 0.023653017110980522 0.0027287421088043034 0 0.028148863899270959 0.0015452931893885546 0 0.024183894024542064 0.0017469118858396168 0 0.024379889889635339 0.0012830384737795972 0 0.031137622829010461 0.0067883287675451149 0 0.030816165253788847 0.0055242373150393648 0 0.032016220168145669 0.005616943029007909 0 0.030816165253788847 0.0055242373150393648 0 0.030992888111075412 0.0049253069107530103 0 0.030300981934171276 0.0049918027585975 0 0.030816165253788847 0.0055242373150393648 0 0.032016220168145669 0.005616943029007909 0 0.031791263206461147 0.0050567795692914846 0 0.032821793210493388 0.0050053347011336374 0 0.032016220168145669 0.005616943029007909 0 0.031791263206461147 0.0050567795692914846 0 0.031798360342811791 0.0045271102191322314 0 0.032821793210493388 0.0050053347011336374 0 0.031791263206461147 0.0050567795692914846 0 0.030664851747230111 0.004585339887825092 0 0.031798360342811791 0.0045271102191322314 0 0.030992888111075412 0.0049253069107530103 0 0.030816165253788847 0.0055242373150393648 0 0.031791263206461147 0.0050567795692914846 0 0.030992888111075412 0.0049253069107530103 0 0.031798360342811791 0.0045271102191322314 0 0.031791263206461147 0.0050567795692914846 0 0.030992888111075412 0.0049253069107530103 0 0.030664851747230111 0.004585339887825092 0 0.030992888111075412 0.0049253069107530103 0 0.030300981934171276 0.0049918027585975 0 0.030664851747230111 0.004585339887825092 0 0.030087899031910798 0.0049618877131948182 0 0.030300981934171276 0.0049918027585975 0 0.030087899031910798 0.0049618877131948182 0 0.030300981934171276 0.0049918027585975 0 0.029275618994312115 0.0052462003864560064 0 0.030816165253788847 0.0055242373150393648 0 0.030300981934171276 0.0049918027585975 0 0.029275618994312115 0.0052462003864560064 0 0.030087899031910798 0.0049618877131948182 0 0.029275618994312115 0.0052462003864560064 0 0.030157094017287538 0.0050989889159485094 0 0.023476745633145602 -0.0033752424286707036 0 0.024511003516060552 -0.0033366303932668919 0 0.024263764194131902 -0.0041243691977654821 0 0.030087899031910798 0.0049618877131948182 0 0.030157094017287538 0.0050989889159485094 0 0.029743045675670907 0.0047308006510879182 0 0.026689124074346617 0.00068037972007574811 0 0.027311350111009748 0.001220610534693116 0 0.030405775777515111 0.0042347344829674278 0 0.030087899031910798 0.0049618877131948182 0 0.029743045675670907 0.0047308006510879182 0 0.024869227034948736 -0.0023057118311353409 0 0.026484702944995428 -0.0026929016276344359 0 0.025433150005346544 -0.0036620247990335089 0 0.026484702944995428 -0.0026929016276344359 0 0.026513813871736618 -0.0038392054231860323 0 0.025433150005346544 -0.0036620247990335089 0 0.026484702944995428 -0.0026929016276344359 0 0.026513813871736618 -0.0038392054231860323 0 0.027170257555730857 -0.0034190189926233609 0 0.026513813871736618 -0.0038392054231860323 0 0.025433150005346544 -0.0036620247990335089 0 0.025934944267515529 -0.0048444349675930117 0 0.024869227034948736 -0.0023057118311353409 0 0.024511003516060552 -0.0033366303932668919 0 0.025433150005346544 -0.0036620247990335089 0 0.023476745633145602 -0.0033752424286707036 0 0.024869227034948736 -0.0023057118311353409 0 0.024511003516060552 -0.0033366303932668919 0 0.024511003516060552 -0.0033366303932668919 0 0.025433150005346544 -0.0036620247990335089 0 0.024263764194131902 -0.0041243691977654821 0 0.024263764194131902 -0.0041243691977654821 0 0.024997355015920091 -0.0046212766680651298 0 0.023955356282106141 -0.0049361320005943277 0 0.025433150005346544 -0.0036620247990335089 0 0.024263764194131902 -0.0041243691977654821 0 0.024997355015920091 -0.0046212766680651298 0 0.024997355015920091 -0.0046212766680651298 0 0.025934944267515529 -0.0048444349675930117 0 0.024630428954140856 -0.0055364796322632717 0 0.024997355015920091 -0.0046212766680651298 0 0.023955356282106141 -0.0049361320005943277 0 0.024630428954140856 -0.0055364796322632717 0 0.023955356282106141 -0.0049361320005943277 0 0.024630428954140856 -0.0055364796322632717 0 0.02367710265359995 -0.0056426747059578229 0 0.025433150005346544 -0.0036620247990335089 0 0.024997355015920091 -0.0046212766680651298 0 0.025934944267515529 -0.0048444349675930117 0 0.025639284113564413 -0.0061163110942167717 0 0.024804684724299895 -0.0067230058939602511 0 0.025914758189012989 -0.0081389719655852004 0 0.025639284113564413 -0.0061163110942167717 0 0.026899539022399221 -0.0059005908433816005 0 0.025914758189012989 -0.0081389719655852004 0 0.025997195260583143 -0.0072800147004857011 0 0.015903497535172194 -0.0053914045398933174 0 0.025934944267515529 -0.0048444349675930117 0 0.025639284113564413 -0.0061163110942167717 0 0.026899539022399221 -0.0059005908433816005 0 0.025934944267515529 -0.0048444349675930117 0 0.025639284113564413 -0.0061163110942167717 0 0.024630428954140856 -0.0055364796322632717 0 0.024630428954140856 -0.0055364796322632717 0 0.023943752888553955 -0.0064508901702463924 0 0.02367710265359995 -0.0056426747059578229 0 0.025639284113564413 -0.0061163110942167717 0 0.024630428954140856 -0.0055364796322632717 0 0.024804684724299895 -0.0067230058939602511 0 0.024630428954140856 -0.0055364796322632717 0 0.024804684724299895 -0.0067230058939602511 0 0.023943752888553955 -0.0064508901702463924 0 0.024804684724299895 -0.0067230058939602511 0 0.023943752888553955 -0.0064508901702463924 0 0.024267379875644032 -0.0074400839013577767 0 0.023943752888553955 -0.0064508901702463924 0 0.022890805517651634 -0.006139279805229607 0 0.023390538819350083 -0.0073075611770818845 0 0.022890805517651634 -0.006139279805229607 0 0.022298852366955536 -0.0070671816018598281 0 0.023390538819350083 -0.0073075611770818845 0 0.022890805517651634 -0.006139279805229607 0 0.02367710265359995 -0.0056426747059578229 0 0.023234364721018207 -0.0052375551210906614 0 0.023943752888553955 -0.0064508901702463924 0 0.022890805517651634 -0.006139279805229607 0 0.02367710265359995 -0.0056426747059578229 0 0.022890805517651634 -0.006139279805229607 0 0.022524818780042866 -0.0053360546589515268 0 0.021697655357491644 -0.0059319608769857332 0 0.022890805517651634 -0.006139279805229607 0 0.022524818780042866 -0.0053360546589515268 0 0.023234364721018207 -0.0052375551210906614 0 0.022890805517651634 -0.006139279805229607 0 0.021697655357491644 -0.0059319608769857332 0 0.022298852366955536 -0.0070671816018598281 0 0.020780767303704106 -0.0062699729978587283 0 0.025088433172500164 -0.0015422881141016773 0 0.024644778080423646 -0.0028293037900619911 0 0.024684366451429206 0.001310146319626803 0 0.028148863899270959 0.0015452931893885546 0 0.020136317239827568 -0.0073418489259837252 0 0.021697655357491644 -0.0059319608769857332 0 0.021469518470376866 -0.0052445642243909973 0 0.020780767303704106 -0.0062699729978587283 0 0.021011346457312632 -0.0065446527500991909 0 0.022524818780042866 -0.0053360546589515268 0 0.021697655357491644 -0.0059319608769857332 0 0.021469518470376866 -0.0052445642243909973 0 0.023653017110980522 0.0027287421088043034 0 0.029275618994312115 0.0052462003864560064 0 0.028148863899270959 0.0015452931893885546 0 0.024379889889635339 0.0012830384737795972 0 0.030500699535719527 0.0065959350743313343 0 0.029275618994312115 0.0052462003864560064 0 0.030157094017287538 0.0050989889159485094 0 0.028148863899270959 0.0015452931893885546 0 0.026689124074346617 0.00068037972007574811 0 0.025088433172500164 -0.0015422881141016773 0 0.023476745633145602 -0.0033752424286707036 0 0.021469518470376866 -0.0052445642243909973 0 0.023173113007029428 -0.0046931060774922755 0 0.023476745633145602 -0.0033752424286707036 0 0.024263764194131902 -0.0041243691977654821 0 0.023173113007029428 -0.0046931060774922755 0 0.024263764194131902 -0.0041243691977654821 0 0.023955356282106141 -0.0049361320005943277 0 0.023173113007029428 -0.0046931060774922755 0 0.023955356282106141 -0.0049361320005943277 0 0.023173113007029428 -0.0046931060774922755 0 0.023234364721018207 -0.0052375551210906614 0 0.023955356282106141 -0.0049361320005943277 0 0.02367710265359995 -0.0056426747059578229 0 0.023234364721018207 -0.0052375551210906614 0 0.022524818780042866 -0.0053360546589515268 0 0.021469518470376866 -0.0052445642243909973 0 0.023173113007029428 -0.0046931060774922755 0 0.022524818780042866 -0.0053360546589515268 0 0.023173113007029428 -0.0046931060774922755 0 0.023234364721018207 -0.0052375551210906614 0 0.024029378468348499 -0.00068260625079378308 0 0.021130598793447291 -0.0015530878900392449 0 0.031194847492628824 -0.0043360930918079901 0 0.029900144772111996 -0.0043099788169028335 0 0.030029598786494961 -0.0027952142420369424 0 0.031194847492628824 -0.0043360930918079901 0 0.029900144772111996 -0.0043099788169028335 0 0.029612632468961109 -0.0055699745129335178 0 0.029900144772111996 -0.0043099788169028335 0 0.028688555349559192 -0.0048472683363703552 0 0.029612632468961109 -0.0055699745129335178 0 0.029900144772111996 -0.0043099788169028335 0 0.030029598786494961 -0.0027952142420369424 0 0.028982306248580128 -0.0038760204721569138 0 0.028904099024778106 -0.0023997913515573909 0 0.030029598786494961 -0.0027952142420369424 0 0.028433612529676678 -0.0030769677411475521 0 0.030029598786494961 -0.0027952142420369424 0 0.028433612529676678 -0.0030769677411475521 0 0.028982306248580128 -0.0038760204721569138 0 0.028068293314274108 -0.0024148047635159657 0 0.028904099024778106 -0.0023997913515573909 0 0.028433612529676678 -0.0030769677411475521 0 0.028433612529676678 -0.0030769677411475521 0 0.028244043302376721 -0.0038444633656115096 0 0.028982306248580128 -0.0038760204721569138 0 0.028244043302376721 -0.0038444633656115096 0 0.028982306248580128 -0.0038760204721569138 0 0.028688555349559192 -0.0048472683363703552 0 0.029900144772111996 -0.0043099788169028335 0 0.028982306248580128 -0.0038760204721569138 0 0.028688555349559192 -0.0048472683363703552 0 0.028244043302376721 -0.0038444633656115096 0 0.028688555349559192 -0.0048472683363703552 0 0.027555597928914086 -0.0047970330431002057 0 0.027555597928914086 -0.0047970330431002057 0 0.027771199698926798 -0.0031861248947661169 0 0.025539889874743506 -0.0053061460170150589 0 0.027629110095056444 -0.0033273787175015523 0 0.026512646651746141 -0.0047565950802716857 0 0.028244043302376721 -0.0038444633656115096 0 0.027555597928914086 -0.0047970330431002057 0 0.027771199698926798 -0.0031861248947661169 0 0.027771199698926798 -0.0031861248947661169 0 0.027774862295879454 -0.0031091103749627418 0 0.027617154254691998 -0.004141122962031671 0 0.028433612529676678 -0.0030769677411475521 0 0.028244043302376721 -0.0038444633656115096 0 0.027771199698926798 -0.0031861248947661169 0 0.028735275012584115 -0.0023656693818420124 0 0.027989279044589026 -0.0029856520411382917 0 0.028068293314274108 -0.0024148047635159657 0 0.027771199698926798 -0.0031861248947661169 0 0.027774862295879454 -0.0031091103749627418 0 0.028068293314274108 -0.0024148047635159657 0 0.028433612529676678 -0.0030769677411475521 0 0.027771199698926798 -0.0031861248947661169 0 0.028216838653031526 -0.0022600451465829043 0 0.029475523507238255 -0.0023004416396816734 0 0.027774862295879454 -0.0031091103749627418 0 0.027504052496645618 -0.0017731904814525328 0 0.026484702944995428 -0.0026929016276344359 0 0.027428329086243632 -0.0027001266783846759 0 0.027774862295879454 -0.0031091103749627418 0 0.027428329086243632 -0.0027001266783846759 0 0.027170257555730857 -0.0034190189926233609 0 0.028216838653031526 -0.0022600451465829043 0 0.027774862295879454 -0.0031091103749627418 0 0.027428329086243632 -0.0027001266783846759 0 0.026484702944995428 -0.0026929016276344359 0 0.027428329086243632 -0.0027001266783846759 0 0.027170257555730857 -0.0034190189926233609 0 0.027774862295879454 -0.0031091103749627418 0 0.027170257555730857 -0.0034190189926233609 0 0.027617154254691998 -0.004141122962031671 0 0.026513813871736618 -0.0038392054231860323 0 0.027170257555730857 -0.0034190189926233609 0 0.027617154254691998 -0.004141122962031671 0 0.026512646651746141 -0.0047565950802716857 0 0.025997195260583143 -0.0072800147004857011 0 0.026513813871736618 -0.0038392054231860323 0 0.025934944267515529 -0.0048444349675930117 0 0.027617154254691998 -0.004141122962031671 0 0.025934944267515529 -0.0048444349675930117 0 0.027617154254691998 -0.004141122962031671 0 0.026899539022399221 -0.0059005908433816005 0 0.025539889874743506 -0.0053061460170150589 0 0.025570205706946025 -0.0071702774453254918 0 0.023642075009279482 -0.0079616024511712184 0 0.023642075009279482 -0.0079616024511712184 0 0.024776640818654296 -0.0090609139514039334 0 0.021942474044415291 -0.010704513593391543 0 0.025570205706946025 -0.0071702774453254918 0 0.023642075009279482 -0.0079616024511712184 0 0.024776640818654296 -0.0090609139514039334 0 0.0078537423003813972 -0.00057551034679291545 0 0.0097150311121493773 -0.00076680726966948725 0 0.010220415985903453 0.001040238755027177 0 0.015947872487310218 -0.0050339614897873339 0 0.018951175026455769 -0.0030721616877872125 0 0.025570205706946025 -0.0071702774453254918 0 0.024776640818654296 -0.0090609139514039334 0 0.027518554391461135 -0.0072612956103479493 0 0.027555597928914086 -0.0047970330431002057 0 0.025539889874743506 -0.0053061460170150589 0 0.027518554391461135 -0.0072612956103479493 0 0.025539889874743506 -0.0053061460170150589 0 0.025570205706946025 -0.0071702774453254918 0 0.027518554391461135 -0.0072612956103479493 0 0.010220415985903453 0.001040238755027177 0 0.011774848820001493 0.00047252552805504143 0 0.012952381651492978 0.0024986874684543954 0 0.028688555349559192 -0.0048472683363703552 0 0.027555597928914086 -0.0047970330431002057 0 0.027518554391461135 -0.0072612956103479493 0 0.028688555349559192 -0.0048472683363703552 0 0.027518554391461135 -0.0072612956103479493 0 0.029612632468961109 -0.0055699745129335178 0 0.018951175026455769 -0.0030721616877872125 0 0.021130598793447291 -0.0015530878900392449 0 0.0097150311121493773 -0.00076680726966948725 0 0.010220415985903453 0.001040238755027177 0 0.011774848820001493 0.00047252552805504143 0 0.0097150311121493773 -0.00076680726966948725 0 0.011774848820001493 0.00047252552805504143 0 0.012123430881548878 -0.0014406169743776806 0 0.015140492466063644 -0.00028123908429308317 0 0.013992031524110965 0.0011503878473341045 0 0.013657929253208112 -0.00078423704228481705 0 0.013956946741392735 0.0011055541871569285 0 0.012845889294539363 -0.0011139288574743003 0 0.011774848820001493 0.00047252552805504143 0 0.013992031524110965 0.0011503878473341045 0 0.012123430881548878 -0.0014406169743776806 0 0.015075914524111547 0.0020348030047418891 0 0.013992031524110965 0.0011503878473341045 0 0.012952381651492978 0.0024986874684543954 0 0.011774848820001493 0.00047252552805504143 0 0.013992031524110965 0.0011503878473341045 0 0.012952381651492978 0.0024986874684543954 0 0.015455313643542173 0.0038805901373617363 0 0.015075914524111547 0.0020348030047418891 0 0.012952381651492978 0.0024986874684543954 0 0.01486403896837298 -0.001844365259217049 0 0.013657929253208112 -0.00078423704228481705 0 0.01403844742555563 -0.002195075160967661 0 0.015306042506841066 -0.00122505134067448 0 0.01486403896837298 -0.001844365259217049 0 0.013657929253208112 -0.00078423704228481705 0 0.0097150311121493773 -0.00076680726966948725 0 0.012123430881548878 -0.0014406169743776806 0 0.0093818100414149001 -0.0024685941660888681 0 0.012845889294539363 -0.0011139288574743003 0 0.012192325222893508 -0.0023644692608803791 0 0.013657929253208112 -0.00078423704228481705 0 0.013243219956158108 -0.0019854265148503414 0 0.01403844742555563 -0.002195075160967661 0 0.012123430881548878 -0.0014406169743776806 0 0.010334025059837687 -0.0036337032937725075 0 0.0093818100414149001 -0.0024685941660888681 0 0.010334025059837687 -0.0036337032937725075 0 0.0087372276294748457 -0.0035823678032873975 0 0.0093818100414149001 -0.0024685941660888681 0 0.0087372276294748457 -0.0035823678032873975 0 0.0080462830252615337 -0.0030557748841325244 0 0.0077809930229277794 -0.0040150403129042512 0 0.0093818100414149001 -0.0024685941660888681 0 0.0084227475013143281 -0.0019160204259650385 0 0.0080462830252615337 -0.0030557748841325244 0 0.0087372276294748457 -0.0035823678032873975 0 0.0093818100414149001 -0.0024685941660888681 0 0.0080462830252615337 -0.0030557748841325244 0 0.0097150311121493773 -0.00076680726966948725 0 0.0093818100414149001 -0.0024685941660888681 0 0.0084227475013143281 -0.0019160204259650385 0 0.0078537423003813972 -0.00057551034679291545 0 0.0097150311121493773 -0.00076680726966948725 0 0.0084227475013143281 -0.0019160204259650385 0 0.0078537423003813972 -0.00057551034679291545 0 0.0072307821677408401 -0.002536987655450696 0 0.0060567661022171322 -0.0020952629940232119 0 0.0078537423003813972 -0.00057551034679291545 0 0.0084227475013143281 -0.0019160204259650385 0 0.0072307821677408401 -0.002536987655450696 0 0.015947872487310218 -0.0050339614897873339 0 0.015903497535172194 -0.0053914045398933174 0 0.0072307821677408401 -0.002536987655450696 0 0.0080462830252615337 -0.0030557748841325244 0 0.0071912160876852595 -0.003707140896360506 0 0.0084227475013143281 -0.0019160204259650385 0 0.0072307821677408401 -0.002536987655450696 0 0.0080462830252615337 -0.0030557748841325244 0 0.0080462830252615337 -0.0030557748841325244 0 0.0071912160876852595 -0.003707140896360506 0 0.0077809930229277794 -0.0040150403129042512 0 0.0072307821677408401 -0.002536987655450696 0 0.0071912160876852595 -0.003707140896360506 0 0.0064211709304376483 -0.0035012118080098749 0 0.0071912160876852595 -0.003707140896360506 0 0.0077809930229277794 -0.0040150403129042512 0 0.0069168291487723245 -0.0044433018711535566 0 0.0071912160876852595 -0.003707140896360506 0 0.0069168291487723245 -0.0044433018711535566 0 0.0066385461522250793 -0.0040373045528879188 0 0.0077809930229277794 -0.0040150403129042512 0 0.007501094701647104 -0.0046619351289055198 0 0.0069168291487723245 -0.0044433018711535566 0 0.0069168291487723245 -0.0044433018711535566 0 0.0066294071752890519 -0.0052206524190401048 0 0.00631025608413616 -0.0045148128533723242 0 0.007501094701647104 -0.0046619351289055198 0 0.0069168291487723245 -0.0044433018711535566 0 0.0066294071752890519 -0.0052206524190401048 0 0.0066294071752890519 -0.0052206524190401048 0 0.0074951798073333888 -0.0054608390339634426 0 0.0066146906047109761 -0.0056822704828352472 0 0.0066294071752890519 -0.0052206524190401048 0 0.0075733523023076869 -0.0050718694173422047 0 0.0074951798073333888 -0.0054608390339634426 0 0.007501094701647104 -0.0046619351289055198 0 0.0066294071752890519 -0.0052206524190401048 0 0.0075733523023076869 -0.0050718694173422047 0 0.0075733523023076869 -0.0050718694173422047 0 0.0083547746568486073 -0.0051201442366239584 0 0.0079546100482121972 -0.0047992000655580356 0 0.0039058698070807826 -0.0097174654738230101 0 0.0033352854496765424 -0.0083439599426325204 0 0.0046054194187668115 -0.0081929266969016611 0 0.0074951798073333888 -0.0054608390339634426 0 0.0083933977259025103 -0.005214228168662495 0 0.0070690844789201993 -0.0058883551714974201 0 0.0075733523023076869 -0.0050718694173422047 0 0.0074951798073333888 -0.0054608390339634426 0 0.0083547746568486073 -0.0051201442366239584 0 0.0078444927112069508 -0.0056155523440210358 0 0.0056453471839601199 -0.0073379649585070244 0 0.0074951798073333888 -0.0054608390339634426 0 0.0083933977259025103 -0.005214228168662495 0 0.0083547746568486073 -0.0051201442366239584 0 0.0078444927112069508 -0.0056155523440210358 0 0.0079047375764932318 -0.0055873612576096097 0 0.010334025059837687 -0.0036337032937725075 0 0.0085454780084225478 -0.0053028678998147073 0 0.0083547746568486073 -0.0051201442366239584 0 0.010334025059837687 -0.0036337032937725075 0 0.0083547746568486073 -0.0051201442366239584 0 0.008420869991834997 -0.004336048686167316 0 0.0083547746568486073 -0.0051201442366239584 0 0.0079546100482121972 -0.0047992000655580356 0 0.008420869991834997 -0.004336048686167316 0 0.007501094701647104 -0.0046619351289055198 0 0.0079546100482121972 -0.0047992000655580356 0 0.008420869991834997 -0.004336048686167316 0 0.007501094701647104 -0.0046619351289055198 0 0.0075733523023076869 -0.0050718694173422047 0 0.0079546100482121972 -0.0047992000655580356 0 0.0087372276294748457 -0.0035823678032873975 0 0.0077809930229277794 -0.0040150403129042512 0 0.008420869991834997 -0.004336048686167316 0 0.0077809930229277794 -0.0040150403129042512 0 0.007501094701647104 -0.0046619351289055198 0 0.008420869991834997 -0.004336048686167316 0 0.010334025059837687 -0.0036337032937725075 0 0.0087372276294748457 -0.0035823678032873975 0 0.008420869991834997 -0.004336048686167316 0 0.013243219956158108 -0.0019854265148503414 0 0.013491640508452425 -0.0031381464945448977 0 0.01394921386479416 -0.0028452080350295393 0 0.013243219956158108 -0.0019854265148503414 0 0.012722676979333301 -0.0031469578986914933 0 0.013491640508452425 -0.0031381464945448977 0 0.012192325222893508 -0.0023644692608803791 0 0.0078444927112069508 -0.0056155523440210358 0 0.012722676979333301 -0.0031469578986914933 0 0.013491640508452425 -0.0031381464945448977 0 0.013847386043214985 -0.0040961435325191113 0 0.0078444927112069508 -0.0056155523440210358 0 0.0083755405440874443 -0.0062297600801663779 0 0.013491640508452425 -0.0031381464945448977 0 0.013963852686783438 -0.0034590097860348985 0 0.013847386043214985 -0.0040961435325191113 0 0.013491640508452425 -0.0031381464945448977 0 0.013963852686783438 -0.0034590097860348985 0 0.01394921386479416 -0.0028452080350295393 0 0.013963852686783438 -0.0034590097860348985 0 0.014493336353441039 -0.0032357013039151692 0 0.014237879360920915 -0.0038460866663265997 0 0.013963852686783438 -0.0034590097860348985 0 0.014493336353441039 -0.0032357013039151692 0 0.01394921386479416 -0.0028452080350295393 0 0.014724659357953784 -0.0025479631256951447 0 0.014493336353441039 -0.0032357013039151692 0 0.01394921386479416 -0.0028452080350295393 0 0.013243219956158108 -0.0019854265148503414 0 0.01394921386479416 -0.0028452080350295393 0 0.01403844742555563 -0.002195075160967661 0 0.014724659357953784 -0.0025479631256951447 0 0.01394921386479416 -0.0028452080350295393 0 0.01403844742555563 -0.002195075160967661 0 0.01486403896837298 -0.001844365259217049 0 0.014724659357953784 -0.0025479631256951447 0 0.01403844742555563 -0.002195075160967661 0 0.021490113918554012 -0.0096223167523051302 0 0.022701211048038857 -0.0087593346920687241 0 0.023829940726055186 -0.0096707055814376618 0 0.021490113918554012 -0.0096223167523051302 0 0.023829940726055186 -0.0096707055814376618 0 0.0216124591221135 -0.01107496048615979 0 0.00686007406504998 -0.0017705003882442824 0 0.0062394638947720028 -0.0032640950958234762 0 0.0050278891642317972 -0.0032458953722743038 0 0.015672771419462845 -0.005519963995894289 0 0.013425190381978962 -0.0071709281182007565 0 0.019434406125429935 -0.010132696002338761 0 0.021490113918554012 -0.0096223167523051302 0 0.02129919998979507 -0.0081927285681804712 0 0.019434406125429935 -0.010132696002338761 0 0.021490113918554012 -0.0096223167523051302 0 0.0216124591221135 -0.01107496048615979 0 0.019037714071335636 -0.007886376943919143 0 0.019434406125429935 -0.010132696002338761 0 0.02129919998979507 -0.0081927285681804712 0 0.021697655357491644 -0.0059319608769857332 0 0.02129919998979507 -0.0081927285681804712 0 0.022298852366955536 -0.0070671816018598281 0 0.019037714071335636 -0.007886376943919143 0 0.021697655357491644 -0.0059319608769857332 0 0.02129919998979507 -0.0081927285681804712 0 0.02129919998979507 -0.0081927285681804712 0 0.022298852366955536 -0.0070671816018598281 0 0.022565598997653941 -0.0078116871089607305 0 0.021490113918554012 -0.0096223167523051302 0 0.02129919998979507 -0.0081927285681804712 0 0.022701211048038857 -0.0087593346920687241 0 0.02129919998979507 -0.0081927285681804712 0 0.022565598997653941 -0.0078116871089607305 0 0.022701211048038857 -0.0087593346920687241 0 0.022565598997653941 -0.0078116871089607305 0 0.022701211048038857 -0.0087593346920687241 0 0.023860811409112868 -0.0083639965275571267 0 0.022565598997653941 -0.0078116871089607305 0 0.023390538819350083 -0.0073075611770818845 0 0.023860811409112868 -0.0083639965275571267 0 0.022298852366955536 -0.0070671816018598281 0 0.022565598997653941 -0.0078116871089607305 0 0.023390538819350083 -0.0073075611770818845 0 0.015903497535172194 -0.0053914045398933174 0 0.015672771419462845 -0.005519963995894289 0 0.023943752888553955 -0.0064508901702463924 0 0.023390538819350083 -0.0073075611770818845 0 0.024267379875644032 -0.0074400839013577767 0 0.023860811409112868 -0.0083639965275571267 0 0.025914758189012989 -0.0081389719655852004 0 0.023829940726055186 -0.0096707055814376618 0 0.023390538819350083 -0.0073075611770818845 0 0.024267379875644032 -0.0074400839013577767 0 0.023860811409112868 -0.0083639965275571267 0 0.024267379875644032 -0.0074400839013577767 0 0.023860811409112868 -0.0083639965275571267 0 0.025914758189012989 -0.0081389719655852004 0 0.024804684724299895 -0.0067230058939602511 0 0.024267379875644032 -0.0074400839013577767 0 0.025914758189012989 -0.0081389719655852004 0 0.022701211048038857 -0.0087593346920687241 0 0.023860811409112868 -0.0083639965275571267 0 0.023829940726055186 -0.0096707055814376618 0 0.0072307821677408401 -0.002536987655450696 0 0.0060567661022171322 -0.0020952629940232119 0 0.0064211709304376483 -0.0035012118080098749 0 0.015903497535172194 -0.0053914045398933174 0 0.0063252447811034907 -0.0029865480416681623 0 0.0060567661022171322 -0.0020952629940232119 0 0.0064211709304376483 -0.0035012118080098749 0 0.005597466339433279 -0.0037299442546016004 0 0.0064211709304376483 -0.0035012118080098749 0 0.005597466339433279 -0.0037299442546016004 0 0.0061060378525315141 -0.0040349260146191638 0 0.0064211709304376483 -0.0035012118080098749 0 0.0066385461522250793 -0.0040373045528879188 0 0.0061060378525315141 -0.0040349260146191638 0 0.0071912160876852595 -0.003707140896360506 0 0.0064211709304376483 -0.0035012118080098749 0 0.0066385461522250793 -0.0040373045528879188 0 0.0093321753618486342 -0.00031306358579264132 0 0.00686007406504998 -0.0017705003882442824 0 0.0078251197723255041 -0.0026584574738805281 0 0.00686007406504998 -0.0017705003882442824 0 0.0078251197723255041 -0.0026584574738805281 0 0.0062394638947720028 -0.0032640950958234762 0 0.0078251197723255041 -0.0026584574738805281 0 0.0062394638947720028 -0.0032640950958234762 0 0.0058205163243907976 -0.0045801695787988173 0 0.0063252447811034907 -0.0029865480416681623 0 0.0060084179411809746 -0.0043793726015302886 0 0.005597466339433279 -0.0037299442546016004 0 0.0059115080181651927 -0.0043804272768292523 0 0.0058205163243907976 -0.0045801695787988173 0 0.005597466339433279 -0.0037299442546016004 0 0.0059115080181651927 -0.0043804272768292523 0 0.0061060378525315141 -0.0040349260146191638 0 0.0059115080181651927 -0.0043804272768292523 0 0.0058205163243907976 -0.0045801695787988173 0 0.0059929007817717799 -0.0049010005518693427 0 0.0069168291487723245 -0.0044433018711535566 0 0.0066385461522250793 -0.0040373045528879188 0 0.00631025608413616 -0.0045148128533723242 0 0.0066385461522250793 -0.0040373045528879188 0 0.0061060378525315141 -0.0040349260146191638 0 0.00631025608413616 -0.0045148128533723242 0 0.0059115080181651927 -0.0043804272768292523 0 0.0061060378525315141 -0.0040349260146191638 0 0.00631025608413616 -0.0045148128533723242 0 0.0059115080181651927 -0.0043804272768292523 0 0.00631025608413616 -0.0045148128533723242 0 0.0059929007817717799 -0.0049010005518693427 0 0.0066294071752890519 -0.0052206524190401048 0 0.0059929007817717799 -0.0049010005518693427 0 0.0057585305254176456 -0.0055849837926575246 0 0.0066294071752890519 -0.0052206524190401048 0 0.0057585305254176456 -0.0055849837926575246 0 0.0059828361652652191 -0.0058533184952653406 0 0.0066294071752890519 -0.0052206524190401048 0 0.00631025608413616 -0.0045148128533723242 0 0.0059929007817717799 -0.0049010005518693427 0 0.0058205163243907976 -0.0045801695787988173 0 0.0057585305254176456 -0.0055849837926575246 0 0.0053359236158523182 -0.0048861748764772823 0 0.0061959595182890142 -0.0058147024066503919 0 0.0048645638263307691 -0.0054919272384623035 0 0.0058205163243907976 -0.0045801695787988173 0 0.0059929007817717799 -0.0049010005518693427 0 0.0057585305254176456 -0.0055849837926575246 0 0.0061747464546054393 -0.0067549413222540572 0 0.0073693587316545099 -0.0066011632628553123 0 0.0059639044195996969 -0.005842633871123968 0 0.0057585305254176456 -0.0055849837926575246 0 0.0061747464546054393 -0.0067549413222540572 0 0.0059639044195996969 -0.005842633871123968 0 0.0062394638947720028 -0.0032640950958234762 0 0.0058205163243907976 -0.0045801695787988173 0 0.0052938919140811244 -0.0041219342768499109 0 0.0058205163243907976 -0.0045801695787988173 0 0.0053359236158523182 -0.0048861748764772823 0 0.0052938919140811244 -0.0041219342768499109 0 0.0062394638947720028 -0.0032640950958234762 0 0.0052938919140811244 -0.0041219342768499109 0 0.0050278891642317972 -0.0032458953722743038 0 0.019434406125429935 -0.010132696002338761 0 0.0216124591221135 -0.01107496048615979 0 0.019463394956381972 -0.012321777150636868 0 0.0053359236158523182 -0.0048861748764772823 0 0.0052938919140811244 -0.0041219342768499109 0 0.0037748677280678069 -0.0042364764288907453 0 0.013425190381978962 -0.0071709281182007565 0 0.010279928187185598 -0.0072999043084266274 0 0.0052938919140811244 -0.0041219342768499109 0 0.0050278891642317972 -0.0032458953722743038 0 0.0037748677280678069 -0.0042364764288907453 0 0.0048645638263307691 -0.0054919272384623035 0 0.010279928187185598 -0.0072999043084266274 0 0.0061747464546054393 -0.0067549413222540572 0 0.007983230714322137 -0.0079482141804867248 0 0.0073693587316545099 -0.0066011632628553123 0 0.0073693587316545099 -0.0066011632628553123 0 0.0075059955905479514 -0.0054680735003981521 0 0.0059639044195996969 -0.005842633871123968 0 0.0075059955905479514 -0.0054680735003981521 0 0.0054078770576230142 -0.0052555335272765355 0 0.0073168556629531192 -0.004229514101620052 0 0.0075059955905479514 -0.0054680735003981521 0 0.0054078770576230142 -0.0052555335272765355 0 0.0059639044195996969 -0.005842633871123968 0 0.0054078770576230142 -0.0052555335272765355 0 0.0059639044195996969 -0.005842633871123968 0 0.005660806392805127 -0.0056264273539590069 0 0.0057585305254176456 -0.0055849837926575246 0 0.0059639044195996969 -0.005842633871123968 0 0.005660806392805127 -0.0056264273539590069 0 0.0057585305254176456 -0.0055849837926575246 0 0.0059828361652652191 -0.0058533184952653406 0 0.005660806392805127 -0.0056264273539590069 0 0.0059828361652652191 -0.0058533184952653406 0 0.0057216097687172078 -0.0058955982862856802 0 0.005660806392805127 -0.0056264273539590069 0 0.0057216097687172078 -0.0058955982862856802 0 0.005660806392805127 -0.0056264273539590069 0 0.0058846419553323899 -0.0055193784402041484 0 0.0054078770576230142 -0.0052555335272765355 0 0.005660806392805127 -0.0056264273539590069 0 0.0058846419553323899 -0.0055193784402041484 0 0.0052903573067407334 -0.0052191224919744227 0 0.0042731396622914313 -0.0044625018129452751 0 0.0026220005111939871 -0.003497055260894299 0 0.0034466964004374137 -0.0021858436026355298 0 0.005741284461821791 -0.0029260665553857055 0 0.0054078770576230142 -0.0052555335272765355 0 0.0026220005111939871 -0.003497055260894299 0 0.005741284461821791 -0.0029260665553857055 0 0.0057216097687172078 -0.0058955982862856802 0 0.0058846419553323899 -0.0055193784402041484 0 0.0051158587477582538 -0.0054683632129218767 0 0.0042731396622914313 -0.0044625018129452751 0 0.0031819657300321937 -0.0033511515706136433 0 0.0026220005111939871 -0.003497055260894299 0 0.0014177782736246041 -0.0023903983362598418 0 0.0024061783388816555 -0.0015537493174360175 0 0.0026220005111939871 -0.003497055260894299 0 0.0034466964004374137 -0.0021858436026355298 0 0.0024061783388816555 -0.0015537493174360175 0 0.005741284461821791 -0.0029260665553857055 0 0.0068963568115509447 -0.0011072778643350662 0 0.0088768366371979046 -0.0026652380968513654 0 0.005741284461821791 -0.0029260665553857055 0 0.0073168556629531192 -0.004229514101620052 0 0.0088768366371979046 -0.0026652380968513654 0 0.0054078770576230142 -0.0052555335272765355 0 0.005741284461821791 -0.0029260665553857055 0 0.0073168556629531192 -0.004229514101620052 0 0.0015851014486804075 -0.0066647770123631359 0 0.0019817744567130267 -0.0079391891767589366 0 0.0023635415338662861 -0.0070140930615678627 0 0.0003838507442013288 -0.0063741813435425326 0 0.0015851014486804075 -0.0066647770123631359 0 0.0013380848721151522 -0.0058055186029003112 0 0.0003838507442013288 -0.0063741813435425326 0 0.0015851014486804075 -0.0066647770123631359 0 0.0019817744567130267 -0.0079391891767589366 0 0.014409695293752049 -0.0047861901752628451 0 0.014054043152722018 -0.0042637086701342907 0 0.013847386043214985 -0.0040961435325191113 0 0.0054604811101705061 -0.0057645164019212063 0 0.0083755405440874443 -0.0062297600801663779 0 0.0015851014486804075 -0.0066647770123631359 0 0.0022330818185589624 -0.0060022758351899559 0 0.0013380848721151522 -0.0058055186029003112 0 0.0015851014486804075 -0.0066647770123631359 0 0.0023635415338662861 -0.0070140930615678627 0 0.0022330818185589624 -0.0060022758351899559 0 0.014659463379203038 -0.0041193742343950245 0 0.014054043152722018 -0.0042637086701342907 0 0.014237879360920915 -0.0038460866663265997 0 0.014054043152722018 -0.0042637086701342907 0 0.014237879360920915 -0.0038460866663265997 0 0.013847386043214985 -0.0040961435325191113 0 0.013963852686783438 -0.0034590097860348985 0 0.014237879360920915 -0.0038460866663265997 0 0.013847386043214985 -0.0040961435325191113 0 0.0019817744567130267 -0.0079391891767589366 0 0.0029235153510515496 -0.0075556501035713187 0 0.0023635415338662861 -0.0070140930615678627 0 0.0039058698070807826 -0.0097174654738230101 0 0.0019817744567130267 -0.0079391891767589366 0 0.0033352854496765424 -0.0083439599426325204 0 0.0019817744567130267 -0.0079391891767589366 0 0.0033352854496765424 -0.0083439599426325204 0 0.0029235153510515496 -0.0075556501035713187 0 0.0033352854496765424 -0.0083439599426325204 0 0.0029235153510515496 -0.0075556501035713187 0 0.0037854377280698527 -0.0076080902629064922 0 0.0029235153510515496 -0.0075556501035713187 0 0.0032715236998368058 -0.0067596957722735398 0 0.0037854377280698527 -0.0076080902629064922 0 0.0032715236998368058 -0.0067596957722735398 0 0.0037084829187426396 -0.0056690448939075051 0 0.0022330818185589624 -0.0060022758351899559 0 0.0029235153510515496 -0.0075556501035713187 0 0.0032715236998368058 -0.0067596957722735398 0 0.0023635415338662861 -0.0070140930615678627 0 0.0032715236998368058 -0.0067596957722735398 0 0.0023635415338662861 -0.0070140930615678627 0 0.0022330818185589624 -0.0060022758351899559 0 0.0032715236998368058 -0.0067596957722735398 0 0.0054428091878067639 -0.0063450906909661717 0 0.0037084829187426396 -0.0056690448939075051 0 0.0032715236998368058 -0.0067596957722735398 0 0.0037854377280698527 -0.0076080902629064922 0 0.0054428091878067639 -0.0063450906909661717 0 0.0037854377280698527 -0.0076080902629064922 0 0.0046054194187668115 -0.0081929266969016611 0 0.0054428091878067639 -0.0063450906909661717 0 0.0056453471839601199 -0.0073379649585070244 0 0.0056962407078444757 -0.0062354980712905411 0 0.0033352854496765424 -0.0083439599426325204 0 0.0037854377280698527 -0.0076080902629064922 0 0.0046054194187668115 -0.0081929266969016611 0 0.0074951798073333888 -0.0054608390339634426 0 0.0070690844789201993 -0.0058883551714974201 0 0.0066146906047109761 -0.0056822704828352472 0 0.0070690844789201993 -0.0058883551714974201 0 0.0066146906047109761 -0.0056822704828352472 0 0.0054428091878067639 -0.0063450906909661717 0 0.0066294071752890519 -0.0052206524190401048 0 0.0059828361652652191 -0.0058533184952653406 0 0.0066146906047109761 -0.0056822704828352472 0 0.0059828361652652191 -0.0058533184952653406 0 0.0066146906047109761 -0.0056822704828352472 0 0.0054428091878067639 -0.0063450906909661717 0 0.0059828361652652191 -0.0058533184952653406 0 0.0057216097687172078 -0.0058955982862856802 0 0.0054428091878067639 -0.0063450906909661717 0 0.0057216097687172078 -0.0058955982862856802 0 0.0054428091878067639 -0.0063450906909661717 0 0.0051158587477582538 -0.0054683632129218767 0 0.0051158587477582538 -0.0054683632129218767 0 0.0050240930300822408 -0.0042550173559020802 0 0.003834931235160292 -0.0047412209621161541 0 0.0058846419553323899 -0.0055193784402041484 0 0.0051158587477582538 -0.0054683632129218767 0 0.0050240930300822408 -0.0042550173559020802 0 0.003834931235160292 -0.0047412209621161541 0 0.0037084829187426396 -0.0056690448939075051 0 0.0023056256468072345 -0.004489363700498788 0 0.0051158587477582538 -0.0054683632129218767 0 0.003834931235160292 -0.0047412209621161541 0 0.0037084829187426396 -0.0056690448939075051 0 0.0054428091878067639 -0.0063450906909661717 0 0.0051158587477582538 -0.0054683632129218767 0 0.0037084829187426396 -0.0056690448939075051 0 0.0022330818185589624 -0.0060022758351899559 0 0.0023056256468072345 -0.004489363700498788 0 0.0016480119923136963 -0.0052508444767652533 0 0.0037084829187426396 -0.0056690448939075051 0 0.0022330818185589624 -0.0060022758351899559 0 0.0023056256468072345 -0.004489363700498788 0 0.00089624429666602631 -0.0048024480104651183 0 0.0023056256468072345 -0.004489363700498788 0 0.0016480119923136963 -0.0052508444767652533 0 0.00089624429666602631 -0.0048024480104651183 0 0.0023056256468072345 -0.004489363700498788 0 0.001062892216172222 -0.0034225354630784775 0 0.00089624429666602631 -0.0048024480104651183 0 0.0016480119923136963 -0.0052508444767652533 0 0.0013380848721151522 -0.0058055186029003112 0 0.0022330818185589624 -0.0060022758351899559 0 0.0016480119923136963 -0.0052508444767652533 0 0.0013380848721151522 -0.0058055186029003112 0 -0.00019878096678785324 -0.0035067196794870727 0 7.0745677761240076e-05 -0.0023614032182670244 0 -0.0023661845167893087 -0.0029310399762837815 0 -0.0016989682835823181 -0.0039627450196521984 0 6.5692549074631919e-05 -0.0023651524896052202 0 0.001062892216172222 -0.0034225354630784775 0 0.0014407265649497584 -0.0030134141604997592 0 6.5692549074631919e-05 -0.0023651524896052202 0 -0.0014321107490026595 -0.0047921146487759966 0 -0.00019878096678785324 -0.0035067196794870727 0 0.0023056256468072345 -0.004489363700498788 0 0.001062892216172222 -0.0034225354630784775 0 0.0014407265649497584 -0.0030134141604997592 0 0.0023056256468072345 -0.004489363700498788 0 0.0014407265649497584 -0.0030134141604997592 0 0.0030551185721594252 -0.0030240290170477258 0 0.0018082145101876049 -0.0026031828458668868 0 -0.00021649055292501736 -0.0021500151559851596 0 0.0005907558347375279 -0.0020820130452366965 0 -1.3337213540935305e-05 -0.0017622043763869059 0 -0.00064027239417721832 -0.0019327405509753373 0 0.0014407265649497584 -0.0030134141604997592 0 0.0030551185721594252 -0.0030240290170477258 0 0.000271013152690709 -0.0023176435540294355 0 0.0014407265649497584 -0.0030134141604997592 0 0.000271013152690709 -0.0023176435540294355 0 6.5692549074631919e-05 -0.0023651524896052202 0 0.0005907558347375279 -0.0020820130452366965 0 0.00053542317071952688 -0.0015602116191140655 0 -1.3337213540935305e-05 -0.0017622043763869059 0 0.0005907558347375279 -0.0020820130452366965 0 0.0012384030374258538 -0.0014663405395184295 0 0.00053542317071952688 -0.0015602116191140655 0 0.0031819657300321937 -0.0033511515706136433 0 0.0018082145101876049 -0.0026031828458668868 0 0.0050240930300822408 -0.0042550173559020802 0 0.003834931235160292 -0.0047412209621161541 0 0.0030551185721594252 -0.0030240290170477258 0 0.003834931235160292 -0.0047412209621161541 0 0.0023056256468072345 -0.004489363700498788 0 0.0030551185721594252 -0.0030240290170477258 0 0.0014177782736246041 -0.0023903983362598418 0 0.0005907558347375279 -0.0020820130452366965 0 0.0017235892507410553 -0.0015736918569634161 0 0.0012384030374258538 -0.0014663405395184295 0 0.0017235892507410553 -0.0015736918569634161 0 0.0019254749747433459 -0.0012134191323439735 0 0.0005907558347375279 -0.0020820130452366965 0 0.0012384030374258538 -0.0014663405395184295 0 0.0017235892507410553 -0.0015736918569634161 0 0.0012384030374258538 -0.0014663405395184295 0 0.0014493009140279949 -0.0011559875157632865 0 0.0019254749747433459 -0.0012134191323439735 0 0.0012384030374258538 -0.0014663405395184295 0 0.00097782609315610978 -0.0012369608080798381 0 0.0014493009140279949 -0.0011559875157632865 0 0.00097782609315610978 -0.0012369608080798381 0 0.0014493009140279949 -0.0011559875157632865 0 0.00126258697196955 -0.00093281610900404315 0 0.0014493009140279949 -0.0011559875157632865 0 0.00126258697196955 -0.00093281610900404315 0 0.0017205793395889866 -0.00086033175691880063 0 0.0013796489579967154 -0.00065605639424520638 0 0.00126258697196955 -0.00093281610900404315 0 0.0017205793395889866 -0.00086033175691880063 0 0.0013796489579967154 -0.00065605639424520638 0 0.0016159756985460755 -0.00059250296063341121 0 0.0017205793395889866 -0.00086033175691880063 0 0.0013796489579967154 -0.00065605639424520638 0 0.0011260534881695093 -0.00044254941814304708 0 0.0014555435944902456 -0.00037914173312901468 0 0.0013796489579967154 -0.00065605639424520638 0 0.0016159756985460755 -0.00059250296063341121 0 0.0014555435944902456 -0.00037914173312901468 0 0.0011260534881695093 -0.00044254941814304708 0 0.0010809549928628682 -0.0007351880980708853 0 0.00074810808904011018 -0.0006651475947239418 0 0.0013796489579967154 -0.00065605639424520638 0 0.0011260534881695093 -0.00044254941814304708 0 0.0010809549928628682 -0.0007351880980708853 0 0.0013796489579967154 -0.00065605639424520638 0 0.0010809549928628682 -0.0007351880980708853 0 0.00126258697196955 -0.00093281610900404315 0 0.00097782609315610978 -0.0012369608080798381 0 0.00126258697196955 -0.00093281610900404315 0 0.00085933161064612727 -0.00096179030952168098 0 0.0010809549928628682 -0.0007351880980708853 0 0.00126258697196955 -0.00093281610900404315 0 0.00085933161064612727 -0.00096179030952168098 0 0.00097782609315610978 -0.0012369608080798381 0 0.00085933161064612727 -0.00096179030952168098 0 0.00051578109608013342 -0.0012070765695309435 0 0.00056438749382340509 -0.00094441005742391297 0 0.00085933161064612727 -0.00096179030952168098 0 0.00051578109608013342 -0.0012070765695309435 0 0.00056438749382340509 -0.00094441005742391297 0 0.00085933161064612727 -0.00096179030952168098 0 0.00074810808904011018 -0.0006651475947239418 0 0.00074810808904011018 -0.0006651475947239418 0 0.00031160628331096082 -0.00044893680071006876 0 0.00079909022989182402 -0.00030044464930878201 0 0.0010809549928628682 -0.0007351880980708853 0 0.00085933161064612727 -0.00096179030952168098 0 0.00074810808904011018 -0.0006651475947239418 0 0.00056438749382340509 -0.00094441005742391297 0 0.00074810808904011018 -0.0006651475947239418 0 0.00035931639800222432 -0.00079894474950481498 0 0.0011260534881695093 -0.00044254941814304708 0 0.00074810808904011018 -0.0006651475947239418 0 0.00079909022989182402 -0.00030044464930878201 0 -2.5946024079308893e-06 -0.00083313751178264173 0 -0.00022137330888821413 -0.00055423772870980112 0 0.00031160628331096082 -0.00044893680071006876 0 0.00035931639800222432 -0.00079894474950481498 0 -2.5946024079308893e-06 -0.00083313751178264173 0 0.00031160628331096082 -0.00044893680071006876 0 0.00074810808904011018 -0.0006651475947239418 0 0.00035931639800222432 -0.00079894474950481498 0 0.00031160628331096082 -0.00044893680071006876 0 0.00035931639800222432 -0.00079894474950481498 0 0.0001961219057934312 -0.0010589838798165526 0 -2.5946024079308893e-06 -0.00083313751178264173 0 0.0001961219057934312 -0.0010589838798165526 0 0.00051578109608013342 -0.0012070765695309435 0 -9.957364736590363e-05 -0.0014176112882367854 0 0.00056438749382340509 -0.00094441005742391297 0 0.00035931639800222432 -0.00079894474950481498 0 0.0001961219057934312 -0.0010589838798165526 0 0.00056438749382340509 -0.00094441005742391297 0 0.0001961219057934312 -0.0010589838798165526 0 0.00051578109608013342 -0.0012070765695309435 0 0.00051578109608013342 -0.0012070765695309435 0 0.00053542317071952688 -0.0015602116191140655 0 -9.957364736590363e-05 -0.0014176112882367854 0 0.00097782609315610978 -0.0012369608080798381 0 0.00051578109608013342 -0.0012070765695309435 0 0.00053542317071952688 -0.0015602116191140655 0 0.0012384030374258538 -0.0014663405395184295 0 0.00097782609315610978 -0.0012369608080798381 0 0.00053542317071952688 -0.0015602116191140655 0 0.00053542317071952688 -0.0015602116191140655 0 -1.3337213540935305e-05 -0.0017622043763869059 0 -9.957364736590363e-05 -0.0014176112882367854 0 -1.3337213540935305e-05 -0.0017622043763869059 0 -0.00064027239417721832 -0.0019327405509753373 0 -0.00033775423427813634 -0.0016664630621012831 0 -0.00064027239417721832 -0.0019327405509753373 0 -0.00059375913521043824 -0.0015293504473389815 0 -0.0012722168720760447 -0.0014717822476403304 0 -0.00064027239417721832 -0.0019327405509753373 0 -0.00059375913521043824 -0.0015293504473389815 0 -0.00033775423427813634 -0.0016664630621012831 0 -0.00059375913521043824 -0.0015293504473389815 0 -9.957364736590363e-05 -0.0014176112882367854 0 -0.00042078303443507836 -0.0013091200076387861 0 -0.00059375913521043824 -0.0015293504473389815 0 -0.00033775423427813634 -0.0016664630621012831 0 -9.957364736590363e-05 -0.0014176112882367854 0 -1.3337213540935305e-05 -0.0017622043763869059 0 -0.00033775423427813634 -0.0016664630621012831 0 -9.957364736590363e-05 -0.0014176112882367854 0 0.0001961219057934312 -0.0010589838798165526 0 -9.957364736590363e-05 -0.0014176112882367854 0 -0.00022218417960725683 -0.0011044806281667176 0 -9.957364736590363e-05 -0.0014176112882367854 0 -0.00042078303443507836 -0.0013091200076387861 0 -0.00022218417960725683 -0.0011044806281667176 0 0.0001961219057934312 -0.0010589838798165526 0 -0.00022218417960725683 -0.0011044806281667176 0 -2.5946024079308893e-06 -0.00083313751178264173 0 -0.00022218417960725683 -0.0011044806281667176 0 -2.5946024079308893e-06 -0.00083313751178264173 0 -0.00048831146578429043 -0.00086581264516299571 0 -2.5946024079308893e-06 -0.00083313751178264173 0 -0.00048831146578429043 -0.00086581264516299571 0 -0.00022137330888821413 -0.00055423772870980112 0 -0.00048831146578429043 -0.00086581264516299571 0 -0.00095609039271714216 -0.00061454936182942475 0 -0.00022137330888821413 -0.00055423772870980112 0 -0.00048831146578429043 -0.00086581264516299571 0 -0.00077956536812019608 -0.001171536748987593 0 -0.00095609039271714216 -0.00061454936182942475 0 -0.00059375913521043824 -0.0015293504473389815 0 -0.00077956536812019608 -0.001171536748987593 0 -0.0012722168720760447 -0.0014717822476403304 0 -0.00022218417960725683 -0.0011044806281667176 0 -0.00048831146578429043 -0.00086581264516299571 0 -0.00077956536812019608 -0.001171536748987593 0 -0.00059375913521043824 -0.0015293504473389815 0 -0.00042078303443507836 -0.0013091200076387861 0 -0.00077956536812019608 -0.001171536748987593 0 -0.00042078303443507836 -0.0013091200076387861 0 -0.00022218417960725683 -0.0011044806281667176 0 -0.00077956536812019608 -0.001171536748987593 0 -0.00077956536812019608 -0.001171536748987593 0 -0.001692022064402591 -0.00097353378988682495 0 -0.00095609039271714216 -0.00061454936182942475 0 -0.00077956536812019608 -0.001171536748987593 0 -0.0012722168720760447 -0.0014717822476403304 0 -0.001692022064402591 -0.00097353378988682495 0 -0.0025552048458296708 -0.0016403369938275479 0 -0.0012722168720760447 -0.0014717822476403304 0 -0.001692022064402591 -0.00097353378988682495 0 -0.0025552048458296708 -0.0016403369938275479 0 -0.00064027239417721832 -0.0019327405509753373 0 -0.0012722168720760447 -0.0014717822476403304 0 -0.0023661845167893087 -0.0029310399762837815 0 -0.0025552048458296708 -0.0016403369938275479 0 6.5692549074631919e-05 -0.0023651524896052202 0 -0.0025552048458296708 -0.0016403369938275479 0 0.000271013152690709 -0.0023176435540294355 0 6.5692549074631919e-05 -0.0023651524896052202 0 -0.0023062148584761469 -0.0015613208188572942 0 -0.00021649055292501736 -0.0021500151559851596 0 0.0032895849323837578 -0.00054137619830272297 0 0.0025139920082168162 -0.0010539560005321357 0 0.0019452989115176264 -0.0010878840205754696 0 0.00022063879522126308 -0.00087064328094244806 0 0.0032895849323837578 -0.00054137619830272297 0 0.0019452989115176264 -0.0010878840205754696 0 0.0034418469561953396 0.0001297658607781234 0 0.0031483176236627212 -0.00045340957542327543 0 0.006508666556681985 0.0012490864128991176 0 0.0068963568115509447 -0.0011072778643350662 0 0.0032895849323837578 -0.00054137619830272297 0 0.006508666556681985 0.0012490864128991176 0 0.0068963568115509447 -0.0011072778643350662 0 0.0081700137950059398 0.00057698399713030041 0 0.005741284461821791 -0.0029260665553857055 0 0.0068963568115509447 -0.0011072778643350662 0 0.0032895849323837578 -0.00054137619830272297 0 0.0034466964004374137 -0.0021858436026355298 0 0.005741284461821791 -0.0029260665553857055 0 0.0032895849323837578 -0.00054137619830272297 0 0.0034466964004374137 -0.0021858436026355298 0 0.0032895849323837578 -0.00054137619830272297 0 0.0024061783388816555 -0.0015537493174360175 0 0.0014177782736246041 -0.0023903983362598418 0 0.0024061783388816555 -0.0015537493174360175 0 0.0017235892507410553 -0.0015736918569634161 0 0.0017235892507410553 -0.0015736918569634161 0 0.0025139920082168162 -0.0010539560005321357 0 0.0019254749747433459 -0.0012134191323439735 0 0.0024061783388816555 -0.0015537493174360175 0 0.0017235892507410553 -0.0015736918569634161 0 0.0025139920082168162 -0.0010539560005321357 0 0.0032895849323837578 -0.00054137619830272297 0 0.0024061783388816555 -0.0015537493174360175 0 0.0025139920082168162 -0.0010539560005321357 0 0.0025139920082168162 -0.0010539560005321357 0 0.0022819269812998761 -0.0012203879822598718 0 0.0019254749747433459 -0.0012134191323439735 0 0.0025139920082168162 -0.0010539560005321357 0 0.0022819269812998761 -0.0012203879822598718 0 0.0021688224150995259 -0.0014219498119401068 0 0.0025139920082168162 -0.0010539560005321357 0 0.0021688224150995259 -0.0014219498119401068 0 0.0019452989115176264 -0.0010878840205754696 0 0.0022819269812998761 -0.0012203879822598718 0 0.0019254749747433459 -0.0012134191323439735 0 0.0020674868789055502 -0.00096732042374429316 0 0.0014493009140279949 -0.0011559875157632865 0 0.0019254749747433459 -0.0012134191323439735 0 0.0017205793395889866 -0.00086033175691880063 0 0.0019254749747433459 -0.0012134191323439735 0 0.0017205793395889866 -0.00086033175691880063 0 0.0020674868789055502 -0.00096732042374429316 0 0.0017205793395889866 -0.00086033175691880063 0 0.0020674868789055502 -0.00096732042374429316 0 0.0020181612117696483 -0.00071215964539876771 0 0.0020674868789055502 -0.00096732042374429316 0 0.0020181612117696483 -0.00071215964539876771 0 0.0023143252497000431 -0.00079530504984310279 0 0.0020181612117696483 -0.00071215964539876771 0 0.0023143252497000431 -0.00079530504984310279 0 0.0020631204750259959 -0.00044824875785157435 0 0.0020181612117696483 -0.00071215964539876771 0 0.0018408832216440919 -0.0004784785460335869 0 0.0020631204750259959 -0.00044824875785157435 0 0.0017205793395889866 -0.00086033175691880063 0 0.0020181612117696483 -0.00071215964539876771 0 0.0018408832216440919 -0.0004784785460335869 0 0.0016159756985460755 -0.00059250296063341121 0 0.0017205793395889866 -0.00086033175691880063 0 0.0018408832216440919 -0.0004784785460335869 0 0.0022819269812998761 -0.0012203879822598718 0 0.0021688224150995259 -0.0014219498119401068 0 0.0023143252497000431 -0.00079530504984310279 0 0.0022819269812998761 -0.0012203879822598718 0 0.0020674868789055502 -0.00096732042374429316 0 0.0023143252497000431 -0.00079530504984310279 0 0.0021688224150995259 -0.0014219498119401068 0 0.0026152452087432735 -0.0028403278836395536 0 0.0016616665489884044 -0.0032667819233902482 0 0.0020954980827998654 -0.0012671027383191055 0 0.002663973983973225 -0.0022624445503742793 0 -0.00095074201958895163 -0.0023390151518065967 0 -0.0021170578160598515 -0.0023403678474292616 0 0.0021688224150995259 -0.0014219498119401068 0 -0.00077028453195701944 -0.0022744565180799715 0 0.0016616665489884044 -0.0032667819233902482 0 0.0021688224150995259 -0.0014219498119401068 0 0.0019452989115176264 -0.0010878840205754696 0 0.00017021451512694234 -0.0016254609093069134 0 0.0021688224150995259 -0.0014219498119401068 0 0.00017021451512694234 -0.0016254609093069134 0 -0.00077028453195701944 -0.0022744565180799715 0 0.00022063879522126308 -0.00087064328094244806 0 0.0019452989115176264 -0.0010878840205754696 0 0.00017021451512694234 -0.0016254609093069134 0 0.00022063879522126308 -0.00087064328094244806 0 0.00017021451512694234 -0.0016254609093069134 0 -8.7268937997679588e-05 -0.0016640326025629316 0 0.00017021451512694234 -0.0016254609093069134 0 -0.00028451060272000896 -0.0019517982668583417 0 -8.7268937997679588e-05 -0.0016640326025629316 0 0.00017021451512694234 -0.0016254609093069134 0 -0.00077028453195701944 -0.0022744565180799715 0 -0.00028451060272000896 -0.0019517982668583417 0 -0.00077028453195701944 -0.0022744565180799715 0 -0.00028451060272000896 -0.0019517982668583417 0 -0.00071819785501141807 -0.001211795272002172 0 -0.00028451060272000896 -0.0019517982668583417 0 1.4498414206473895e-05 -0.0016508357253500554 0 -0.00071819785501141807 -0.001211795272002172 0 1.4498414206473895e-05 -0.0016508357253500554 0 0.0002920409704769864 -0.0013360729391445332 0 -0.00071819785501141807 -0.001211795272002172 0 -0.00028451060272000896 -0.0019517982668583417 0 -5.0014840003965968e-06 -0.001763019838724335 0 -0.00015610240485209174 -0.0018364855955462251 0 -0.00028451060272000896 -0.0019517982668583417 0 -5.0014840003965968e-06 -0.001763019838724335 0 1.4498414206473895e-05 -0.0016508357253500554 0 -5.0014840003965968e-06 -0.001763019838724335 0 1.4498414206473895e-05 -0.0016508357253500554 0 0.00016156694284693684 -0.0016281055022821418 0 1.4498414206473895e-05 -0.0016508357253500554 0 0.00016156694284693684 -0.0016281055022821418 0 0.0002920409704769864 -0.0013360729391445332 0 0.003213648603247765 -0.0021043857310531155 0 0.00068334806578414101 -0.00025551173489060485 0 0.00061203719366597243 -0.00085729953392386146 0 0.0023929787900715854 -0.0025620573782125316 0 0.003213648603247765 -0.0021043857310531155 0 0.00061203719366597243 -0.00085729953392386146 0 0.0022957749666973051 -0.00062912608386331639 0 0.0013534936270780255 -0.00094750694399406334 0 0.0025483943007527285 -0.001252259937131439 0 0.00022981653143880961 -0.0010884063292427022 0 0.00016156694284693684 -0.0016281055022821418 0 0.00027897030989053437 -0.001837270899107613 0 0.0002920409704769864 -0.0013360729391445332 0 0.0036639009252756065 -0.0023303733938515548 0 0.0025609006769178235 -0.00072963429503749243 0 0.00068334806578414101 -0.00025551173489060485 0 0.00016156694284693684 -0.0016281055022821418 0 0.00012131197720807857 -0.0017454098909318605 0 0.00027897030989053437 -0.001837270899107613 0 -5.0014840003965968e-06 -0.001763019838724335 0 0.00016156694284693684 -0.0016281055022821418 0 0.00012131197720807857 -0.0017454098909318605 0 -5.0014840003965968e-06 -0.001763019838724335 0 0.00012131197720807857 -0.0017454098909318605 0 3.4865424266800027e-06 -0.0018032022700497871 0 3.4865424266800027e-06 -0.0018032022700497871 0 0.00027897030989053437 -0.001837270899107613 0 -7.8438692791322191e-05 -0.0018587038972302493 0 0.00012131197720807857 -0.0017454098909318605 0 3.4865424266800027e-06 -0.0018032022700497871 0 0.00027897030989053437 -0.001837270899107613 0 0.0042894687149352606 -0.00020188392299418719 0 0.0089729921535982946 0.00023276751059741926 0 0.0052378330565838209 0.00032203745667805806 0 0.0044610971755049784 -0.00011407545111318103 0 0.0055344471450644002 -0.00054457263720393339 0 0.0025483943007527285 -0.001252259937131439 0 0.0042894687149352606 -0.00020188392299418719 0 0.00022063879522126308 -0.00087064328094244806 0 -0.00027087021610647005 -0.0017895836603378464 0 -0.0002111372354085981 -0.0017982631507180566 0 0.00022063879522126308 -0.00087064328094244806 0 -8.7268937997679588e-05 -0.0016640326025629316 0 -0.0002111372354085981 -0.0017982631507180566 0 0.0034418469561953396 0.0001297658607781234 0 0.0042894687149352606 -0.00020188392299418719 0 0.0042894687149352606 -0.00020188392299418719 0 0.0036855365698792008 -0.00011214056202641427 0 -0.00028451060272000896 -0.0019517982668583417 0 -8.7268937997679588e-05 -0.0016640326025629316 0 -0.00015610240485209174 -0.0018364855955462251 0 -8.7268937997679588e-05 -0.0016640326025629316 0 -0.00015610240485209174 -0.0018364855955462251 0 -0.0002111372354085981 -0.0017982631507180566 0 -5.0014840003965968e-06 -0.001763019838724335 0 3.4865424266800027e-06 -0.0018032022700497871 0 -0.00015610240485209174 -0.0018364855955462251 0 3.4865424266800027e-06 -0.0018032022700497871 0 -7.8438692791322191e-05 -0.0018587038972302493 0 -0.0002111372354085981 -0.0017982631507180566 0 3.4865424266800027e-06 -0.0018032022700497871 0 -0.00015610240485209174 -0.0018364855955462251 0 -0.0002111372354085981 -0.0017982631507180566 0 0.00036994123418262526 0.0016260626843509188 0 0.00081558524409272983 0.0016361483618969959 0 0.001040191120536139 0.0020274529072926862 0 0.00042787371829509571 0.0014675676340665409 0 0.00045802619449174231 0.0012786965881589703 0 -2.0010811359172261e-05 0.0014159140888818135 0 0.00066961264507436143 0.0014739597976569344 0 0.00071871199333660971 0.0012318899778213722 0 0.00095613517379240765 0.0012740704149622807 0 0.00066961264507436143 0.0014739597976569344 0 0.00045802619449174231 0.0012786965881589703 0 0.00071871199333660971 0.0012318899778213722 0 0.00066961264507436143 0.0014739597976569344 0 0.00042787371829509571 0.0014675676340665409 0 0.00045802619449174231 0.0012786965881589703 0 0.00066961264507436143 0.0014739597976569344 0 0.00036994123418262526 0.0016260626843509188 0 0.00081558524409272983 0.0016361483618969959 0 0.0012155961513594378 0.00075766232221305169 0 0.00083391671705859596 0.0013080624707257605 0 0.00066961264507436143 0.0014739597976569344 0 0.00036994123418262526 0.0016260626843509188 0 0.00042787371829509571 0.0014675676340665409 0 0.0012155961513594378 0.00075766232221305169 0 0.0022957749666973051 -0.00062912608386331639 0 0.00035622972158853372 0.0016095600702001442 0 0.00042787371829509571 0.0014675676340665409 0 -2.0010811359172261e-05 0.0014159140888818135 0 0.0051195342032428082 -0.0014911083160342778 0 0.0036639009252756065 -0.0023303733938515548 0 0.0037760089002364301 -0.0008576992020251727 0 0.0036639009252756065 -0.0023303733938515548 0 0.0037760089002364301 -0.0008576992020251727 0 0.0025609006769178235 -0.00072963429503749243 0 0.0025483943007527285 -0.001252259937131439 0 0.0022957749666973051 -0.00062912608386331639 0 0.0019175585233046849 -0.00036846573447238249 0 0.0019779881042839044 -0.00058231844516288904 0 0.0022059488229650898 -0.00055464699982809413 0 0.0018253198115291457 -0.00042561340568469377 0 0.0019175585233046849 -0.00036846573447238249 0 0.0019779881042839044 -0.00058231844516288904 0 0.0052378330565838209 0.00032203745667805806 0 0.0059229540445106359 -0.00032433264306614589 0 0.0055344471450644002 -0.00054457263720393339 0 0.0025483943007527285 -0.001252259937131439 0 0.0037260607239091698 -0.00024895139378144178 0 0.00045802619449174231 0.0012786965881589703 0 -2.0010811359172261e-05 0.0014159140888818135 0 0.0005427144261607263 0.00077472515837128211 0 0.0022957749666973051 -0.00062912608386331639 0 0.0011076783377165947 0.00034347059842950968 0 0.0005427144261607263 0.00077472515837128211 0 0.00071871199333660971 0.0012318899778213722 0 0.00086509158726455417 0.001081556344365713 0 0.00045802619449174231 0.0012786965881589703 0 0.0005427144261607263 0.00077472515837128211 0 0.00071871199333660971 0.0012318899778213722 0 0.0022059488229650898 -0.00055464699982809413 0 0.0021568790396644878 -0.00082410120680245205 0 0.0024850322023160488 -0.0010440430570379387 0 0.0019779881042839044 -0.00058231844516288904 0 0.0022059488229650898 -0.00055464699982809413 0 0.0021568790396644878 -0.00082410120680245205 0 0.012677988322721628 0.00017789038127048897 0 0.012502981290454665 -0.00064116144092321082 0 0.013086879455062986 -0.00051574672653737007 0 0.0037260607239091698 -0.00024895139378144178 0 0.0072683991599643586 -0.00035561477130932059 0 0.0072683991599643586 -0.00035561477130932059 0 0.0089729921535982946 0.00023276751059741926 0 0.0059229540445106359 -0.00032433264306614589 0 0.0066077790136793383 -0.00097602797257445942 0 0.0055344471450644002 -0.00054457263720393339 0 0.010890921958649116 0.0012037116669275673 0 0.011717557024012884 -0.00080110164816430708 0 0.010357503462794383 -0.0010315904027424542 0 0.012677988322721628 0.00017789038127048897 0 0.010890921958649116 0.0012037116669275673 0 0.011717557024012884 -0.00080110164816430708 0 0.011717557024012884 -0.00080110164816430708 0 0.010357503462794383 -0.0010315904027424542 0 0.011287236554681758 -0.0023951859807010097 0 0.011717557024012884 -0.00080110164816430708 0 0.011287236554681758 -0.0023951859807010097 0 0.012841489649941888 -0.0018399790166365145 0 0.012677988322721628 0.00017789038127048897 0 0.011717557024012884 -0.00080110164816430708 0 0.012502981290454665 -0.00064116144092321082 0 0.011717557024012884 -0.00080110164816430708 0 0.012502981290454665 -0.00064116144092321082 0 0.012841489649941888 -0.0018399790166365145 0 0.012502981290454665 -0.00064116144092321082 0 0.013173418152690162 -0.00086632808673364043 0 0.012841489649941888 -0.0018399790166365145 0 0.013173418152690162 -0.00086632808673364043 0 0.012841489649941888 -0.0018399790166365145 0 0.013454826626450761 -0.0010952416457484446 0 0.012502981290454665 -0.00064116144092321082 0 0.013173418152690162 -0.00086632808673364043 0 0.013086879455062986 -0.00051574672653737007 0 0.0088597913031361712 0.0022587664177401707 0 0.0081700137950059398 0.00057698399713030041 0 0.0094619652509296218 0.00043052578512047565 0 0.006508666556681985 0.0012490864128991176 0 0.0088597913031361712 0.0022587664177401707 0 0.0081700137950059398 0.00057698399713030041 0 0.0081700137950059398 0.00057698399713030041 0 0.0094619652509296218 0.00043052578512047565 0 0.0088161176597779511 -0.00068667581970887172 0 0.010890921958649116 0.0012037116669275673 0 0.0094619652509296218 0.00043052578512047565 0 0.010357503462794383 -0.0010315904027424542 0 0.0088597913031361712 0.0022587664177401707 0 0.010890921958649116 0.0012037116669275673 0 0.0094619652509296218 0.00043052578512047565 0 0.010357503462794383 -0.0010315904027424542 0 0.0088161176597779511 -0.00068667581970887172 0 0.0088768366371979046 -0.0026652380968513654 0 0.0094619652509296218 0.00043052578512047565 0 0.010357503462794383 -0.0010315904027424542 0 0.0088161176597779511 -0.00068667581970887172 0 0.0068963568115509447 -0.0011072778643350662 0 0.0081700137950059398 0.00057698399713030041 0 0.0088161176597779511 -0.00068667581970887172 0 0.0068963568115509447 -0.0011072778643350662 0 0.0088161176597779511 -0.00068667581970887172 0 0.0088768366371979046 -0.0026652380968513654 0 0.0073168556629531192 -0.004229514101620052 0 0.0088768366371979046 -0.0026652380968513654 0 0.0093925808260996932 -0.00450869571497544 0 0.0088768366371979046 -0.0026652380968513654 0 0.010438705127267422 -0.0034628965203119034 0 0.0093925808260996932 -0.00450869571497544 0 0.0088768366371979046 -0.0026652380968513654 0 0.010438705127267422 -0.0034628965203119034 0 0.011287236554681758 -0.0023951859807010097 0 0.010357503462794383 -0.0010315904027424542 0 0.0088768366371979046 -0.0026652380968513654 0 0.011287236554681758 -0.0023951859807010097 0 0.011287236554681758 -0.0023951859807010097 0 0.012841489649941888 -0.0018399790166365145 0 0.012725419295881743 -0.0029337957806635077 0 0.012841489649941888 -0.0018399790166365145 0 0.012725419295881743 -0.0029337957806635077 0 0.013520660303229104 -0.0026705506760321654 0 0.012725419295881743 -0.0029337957806635077 0 0.013413096580624296 -0.0032760033093651867 0 0.013520660303229104 -0.0026705506760321654 0 0.012725419295881743 -0.0029337957806635077 0 0.01307995656145307 -0.0036798442309028132 0 0.013413096580624296 -0.0032760033093651867 0 0.012725419295881743 -0.0029337957806635077 0 0.01307995656145307 -0.0036798442309028132 0 0.01194974705542425 -0.0036922014803760128 0 0.011287236554681758 -0.0023951859807010097 0 0.012725419295881743 -0.0029337957806635077 0 0.01194974705542425 -0.0036922014803760128 0 0.010438705127267422 -0.0034628965203119034 0 0.011287236554681758 -0.0023951859807010097 0 0.01194974705542425 -0.0036922014803760128 0 0.010438705127267422 -0.0034628965203119034 0 0.01194974705542425 -0.0036922014803760128 0 0.01169339904626512 -0.0046527118220485181 0 0.01194974705542425 -0.0036922014803760128 0 0.01169339904626512 -0.0046527118220485181 0 0.012748089143749754 -0.0042087647121879391 0 0.01169339904626512 -0.0046527118220485181 0 0.012748089143749754 -0.0042087647121879391 0 0.013238487185384172 -0.0047937205829729178 0 0.01307995656145307 -0.0036798442309028132 0 0.012748089143749754 -0.0042087647121879391 0 0.013542440564260853 -0.0042444118329509886 0 0.01307995656145307 -0.0036798442309028132 0 0.01194974705542425 -0.0036922014803760128 0 0.012748089143749754 -0.0042087647121879391 0 0.012748089143749754 -0.0042087647121879391 0 0.013238487185384172 -0.0047937205829729178 0 0.013542440564260853 -0.0042444118329509886 0 0.013238487185384172 -0.0047937205829729178 0 0.014065253221157229 -0.0047772351523825583 0 0.013542440564260853 -0.0042444118329509886 0 0.013238487185384172 -0.0047937205829729178 0 0.013768293746632115 -0.0053177998361785984 0 0.012497392885551418 -0.0055842924866973224 0 0.013238487185384172 -0.0047937205829729178 0 0.013768293746632115 -0.0053177998361785984 0 0.014065253221157229 -0.0047772351523825583 0 0.01169339904626512 -0.0046527118220485181 0 0.013238487185384172 -0.0047937205829729178 0 0.012497392885551418 -0.0055842924866973224 0 0.010486749324092326 -0.0063951406662718629 0 0.01169339904626512 -0.0046527118220485181 0 0.012497392885551418 -0.0055842924866973224 0 0.010486749324092326 -0.0063951406662718629 0 0.01169339904626512 -0.0046527118220485181 0 0.0093925808260996932 -0.00450869571497544 0 0.010486749324092326 -0.0063951406662718629 0 0.0075059955905479514 -0.0054680735003981521 0 0.0093925808260996932 -0.00450869571497544 0 0.010486749324092326 -0.0063951406662718629 0 0.0073693587316545099 -0.0066011632628553123 0 0.0075059955905479514 -0.0054680735003981521 0 0.0075059955905479514 -0.0054680735003981521 0 0.0073168556629531192 -0.004229514101620052 0 0.0093925808260996932 -0.00450869571497544 0 0.010438705127267422 -0.0034628965203119034 0 0.01169339904626512 -0.0046527118220485181 0 0.0093925808260996932 -0.00450869571497544 0 0.014546250446319629 -0.0041709498076568114 0 0.01457351149677398 -0.0039831614820555368 0 0.014634079226361089 -0.0041341207433009978 0 0.014546250446319629 -0.0041709498076568114 0 0.014454748058659901 -0.0039462082103963588 0 0.01457351149677398 -0.0039831614820555368 0 0.01457351149677398 -0.0039831614820555368 0 0.014562514312463049 -0.0040650998873181044 0 0.014634079226361089 -0.0041341207433009978 0 0.014562514312463049 -0.0040650998873181044 0 0.014538243249458642 -0.0040847970474259193 0 0.014634079226361089 -0.0041341207433009978 0 0.014496048407368753 -0.0040278462784511275 0 0.014636834233144682 -0.0040225065257803883 0 0.014634079226361089 -0.0041341207433009978 0 0.014496048407368753 -0.0040278462784511275 0 0.014538243249458642 -0.0040847970474259193 0 0.014634079226361089 -0.0041341207433009978 0 0.014636834233144682 -0.0040225065257803883 0 0.014705438865340165 -0.0042084651975741868 0 0.014634079226361089 -0.0041341207433009978 0 0.014705438865340165 -0.0042084651975741868 0 0.014634079226361089 -0.0041341207433009978 0 0.014641283200397006 -0.0042349631382324615 0 0.014705438865340165 -0.0042084651975741868 0 0.014641283200397006 -0.0042349631382324615 0 0.014623223034536 -0.0043961076397248163 0 0.014546250446319629 -0.0041709498076568114 0 0.014634079226361089 -0.0041341207433009978 0 0.014641283200397006 -0.0042349631382324615 0 0.014546250446319629 -0.0041709498076568114 0 0.014641283200397006 -0.0042349631382324615 0 0.014623223034536 -0.0043961076397248163 0 0.014555401022177459 -0.0047705357093992661 0 0.014623223034536 -0.0043961076397248163 0 0.014393418686009412 -0.0044131617942776112 0 0.014546250446319629 -0.0041709498076568114 0 0.014623223034536 -0.0043961076397248163 0 0.014393418686009412 -0.0044131617942776112 0 0.014555401022177459 -0.0047705357093992661 0 0.014393418686009412 -0.0044131617942776112 0 0.014065253221157229 -0.0047772351523825583 0 0.014287980256801476 -0.0052497704278715879 0 0.013768293746632115 -0.0053177998361785984 0 0.014065253221157229 -0.0047772351523825583 0 0.014393418686009412 -0.0044131617942776112 0 0.014065253221157229 -0.0047772351523825583 0 0.014059515878092144 -0.0041714787086939717 0 0.014065253221157229 -0.0047772351523825583 0 0.013542440564260853 -0.0042444118329509886 0 0.014059515878092144 -0.0041714787086939717 0 0.014059515878092144 -0.0041714787086939717 0 0.014230235867227955 -0.0037990423524532821 0 0.013736862185906893 -0.0037392169317434477 0 0.013542440564260853 -0.0042444118329509886 0 0.014059515878092144 -0.0041714787086939717 0 0.013736862185906893 -0.0037392169317434477 0 0.01307995656145307 -0.0036798442309028132 0 0.013542440564260853 -0.0042444118329509886 0 0.013736862185906893 -0.0037392169317434477 0 0.014546250446319629 -0.0041709498076568114 0 0.014393418686009412 -0.0044131617942776112 0 0.014341684852344746 -0.0041149291339016882 0 0.014393418686009412 -0.0044131617942776112 0 0.014059515878092144 -0.0041714787086939717 0 0.014341684852344746 -0.0041149291339016882 0 0.014059515878092144 -0.0041714787086939717 0 0.014341684852344746 -0.0041149291339016882 0 0.014230235867227955 -0.0037990423524532821 0 0.014546250446319629 -0.0041709498076568114 0 0.014454748058659901 -0.0039462082103963588 0 0.014341684852344746 -0.0041149291339016882 0 0.014454748058659901 -0.0039462082103963588 0 0.014341684852344746 -0.0041149291339016882 0 0.014230235867227955 -0.0037990423524532821 0 0.014454748058659901 -0.0039462082103963588 0 0.014230235867227955 -0.0037990423524532821 0 0.014434653080018371 -0.0036789168170414102 0 0.014230235867227955 -0.0037990423524532821 0 0.014213122680135509 -0.0034529820116911171 0 0.013871858885194828 -0.0033034008926145202 0 0.014230235867227955 -0.0037990423524532821 0 0.014213122680135509 -0.0034529820116911171 0 0.014434653080018371 -0.0036789168170414102 0 0.014213122680135509 -0.0034529820116911171 0 0.014320641318048352 -0.0033833088474012536 0 0.014434653080018371 -0.0036789168170414102 0 0.01307995656145307 -0.0036798442309028132 0 0.013736862185906893 -0.0037392169317434477 0 0.013413096580624296 -0.0032760033093651867 0 0.014230235867227955 -0.0037990423524532821 0 0.013736862185906893 -0.0037392169317434477 0 0.013871858885194828 -0.0033034008926145202 0 0.013736862185906893 -0.0037392169317434477 0 0.013871858885194828 -0.0033034008926145202 0 0.013413096580624296 -0.0032760033093651867 0 0.013871858885194828 -0.0033034008926145202 0 0.013520660303229104 -0.0026705506760321654 0 0.014162048945833991 -0.0030482556557028186 0 0.013520660303229104 -0.0026705506760321654 0 0.014162048945833991 -0.0030482556557028186 0 0.013807498028418939 -0.0024449875856545245 0 0.012841489649941888 -0.0018399790166365145 0 0.013520660303229104 -0.0026705506760321654 0 0.013807498028418939 -0.0024449875856545245 0 0.013871858885194828 -0.0033034008926145202 0 0.013413096580624296 -0.0032760033093651867 0 0.013520660303229104 -0.0026705506760321654 0 0.014162048945833991 -0.0030482556557028186 0 0.014434930091706244 -0.003357644291821379 0 0.014281868892768232 -0.0027999919314972339 0 0.014320641318048352 -0.0033833088474012536 0 0.014162048945833991 -0.0030482556557028186 0 0.014434930091706244 -0.003357644291821379 0 0.014213122680135509 -0.0034529820116911171 0 0.014320641318048352 -0.0033833088474012536 0 0.014162048945833991 -0.0030482556557028186 0 0.014213122680135509 -0.0034529820116911171 0 0.013871858885194828 -0.0033034008926145202 0 0.014162048945833991 -0.0030482556557028186 0 0.014434930091706244 -0.003357644291821379 0 0.014599180842275723 -0.0036675948100525243 0 0.014281868892768232 -0.0027999919314972339 0 0.014434930091706244 -0.003357644291821379 0 0.014434653080018371 -0.0036789168170414102 0 0.014540089951659325 -0.0037679796615162318 0 0.014434930091706244 -0.003357644291821379 0 0.014540089951659325 -0.0037679796615162318 0 0.014538991922898996 -0.0036574853806811318 0 0.014320641318048352 -0.0033833088474012536 0 0.014434930091706244 -0.003357644291821379 0 0.014434653080018371 -0.0036789168170414102 0 0.01457351149677398 -0.0039831614820555368 0 0.014434653080018371 -0.0036789168170414102 0 0.014540089951659325 -0.0037679796615162318 0 0.014454748058659901 -0.0039462082103963588 0 0.01457351149677398 -0.0039831614820555368 0 0.014434653080018371 -0.0036789168170414102 0 0.014471233428932124 -0.0041076269896702169 0 0.014562514312463049 -0.0040650998873181044 0 0.01455488690903433 -0.0039726158833329646 0 0.01457351149677398 -0.0039831614820555368 0 0.014540089951659325 -0.0037679796615162318 0 0.01455488690903433 -0.0039726158833329646 0 0.01457351149677398 -0.0039831614820555368 0 0.014562514312463049 -0.0040650998873181044 0 0.01455488690903433 -0.0039726158833329646 0 0.014540089951659325 -0.0037679796615162318 0 0.01455488690903433 -0.0039726158833329646 0 0.014553834077690961 -0.0038215770021324848 0 0.014490756924046666 -0.0040223730190789382 0 0.01455488690903433 -0.0039726158833329646 0 0.014553834077690961 -0.0038215770021324848 0 0.014490756924046666 -0.0040223730190789382 0 0.014471233428932124 -0.0041076269896702169 0 0.01455488690903433 -0.0039726158833329646 0 0.014490756924046666 -0.0040223730190789382 0 0.014553834077690961 -0.0038215770021324848 0 0.014599180842275723 -0.0036675948100525243 0 0.014434930091706244 -0.003357644291821379 0 0.014538991922898996 -0.0036574853806811318 0 0.014599180842275723 -0.0036675948100525243 0 0.014553834077690961 -0.0038215770021324848 0 0.014538991922898996 -0.0036574853806811318 0 0.014599180842275723 -0.0036675948100525243 0 0.014540089951659325 -0.0037679796615162318 0 0.014553834077690961 -0.0038215770021324848 0 0.014538991922898996 -0.0036574853806811318 0 0.0030564065733258033 7.0744633153054073e-05 0 0.0030767310034913909 -0.00068990270701873332 0 0.0021210760727409066 -0.00013684443895871896 0 0.0047176032410833693 -0.0016586915361704324 0 0.0051811624771468893 -0.0014073546732460212 0 0.0054517747466658528 -0.0021733473010480246 0 0.0039767420137003275 -0.0012244229127298366 0 0.0034787250648994454 -0.00099976343346429449 0 0.0029801117856559948 2.3166836096645915e-05 0 0.0034787250648994454 -0.00099976343346429449 0 0.0053312064996567047 -0.0013881897203819693 0 0.0036913737438567787 -0.0017070313881189551 0 0.0035350398625172736 -0.0010956933074772442 0 0.010052022973478198 -0.0026445500825368457 0 0.0096239122287990041 -0.0018633671594502435 0 0.0051811624771468893 -0.0014073546732460212 0 0.0054517747466658528 -0.0021733473010480246 0 0.0066826583518608314 -0.0019253510710640009 0 0.0034787250648994454 -0.00099976343346429449 0 0.0096239122287990041 -0.0018633671594502435 0 0.0024675453893210873 1.1320479883361061e-05 0 0.0022192040686410735 0.00068190239675534219 0 0.0016201141955356165 0.00061124889707676866 0 0.0022192040686410735 0.00068190239675534219 0 0.0016201141955356165 0.00061124889707676866 0 0.0018969785913168164 0.0010910645504210667 0 0.0034787250648994454 -0.00099976343346429449 0 0.0026659633500421762 0.00015734365548726532 0 0.0053312064996567047 -0.0013881897203819693 0 0.0035350398625172736 -0.0010956933074772442 0 0.0036048303843817372 -0.0003589679086207461 0 0.0024675453893210873 1.1320479883361061e-05 0 0.0022192040686410735 0.00068190239675534219 0 0.0028022301521738974 0.0005854170342629155 0 0.0022192040686410735 0.00068190239675534219 0 0.0028022301521738974 0.0005854170342629155 0 0.002477083338826101 0.001103194060917391 0 0.0031322292162546481 9.603531696789419e-05 0 0.0024675453893210873 1.1320479883361061e-05 0 0.0028022301521738974 0.0005854170342629155 0 0.012604922385442096 -0.001949518384868144 0 0.01454164997601934 -0.0016848132877898688 0 0.012841489649941888 -0.0018399790166365145 0 0.013454826626450761 -0.0010952416457484446 0 0.013870626750968066 -0.0011984633232718215 0 0.013173418152690162 -0.00086632808673364043 0 0.013086879455062986 -0.00051574672653737007 0 0.013836352627946793 -0.000691604876714106 0 0.013173418152690162 -0.00086632808673364043 0 0.013454826626450761 -0.0010952416457484446 0 0.013836352627946793 -0.000691604876714106 0 0.013454826626450761 -0.0010952416457484446 0 0.013870626750968066 -0.0011984633232718215 0 0.013836352627946793 -0.000691604876714106 0 0.014162048945833991 -0.0030482556557028186 0 0.013807498028418939 -0.0024449875856545245 0 0.014281868892768232 -0.0027999919314972339 0 0.0024850322023160488 -0.0010440430570379387 0 0.0036913737438567787 -0.0017070313881189551 0 0.0035350398625172736 -0.0010956933074772442 0 0.013870626750968066 -0.0011984633232718215 0 0.013836352627946793 -0.000691604876714106 0 0.014354262129435705 -0.0010268902437757172 0 0.0080589468970533023 -0.00079937736282129502 0 0.0096239122287990041 -0.0018633671594502435 0 0.01454164997601934 -0.0016848132877898688 0 0.0096239122287990041 -0.0018633671594502435 0 0.0026659633500421762 0.00015734365548726532 0 0.0012297334924957814 0.00090174398230613367 0 0.0024850322023160488 -0.0010440430570379387 0 0.0035350398625172736 -0.0010956933074772442 0 0.0027655463338287995 -0.00082350033191970571 0 0.0036048303843817372 -0.0003589679086207461 0 0.0027655463338287995 -0.00082350033191970571 0 0.0011696751582960711 0.00095377285716528621 0 0.0035350398625172736 -0.0010956933074772442 0 0.0036048303843817372 -0.0003589679086207461 0 0.0027655463338287995 -0.00082350033191970571 0 0.0022059488229650898 -0.00055464699982809413 0 0.0024850322023160488 -0.0010440430570379387 0 0.0027655463338287995 -0.00082350033191970571 0 0.012677988322721628 0.00017789038127048897 0 0.013086879455062986 -0.00051574672653737007 0 0.013836352627946793 -0.000691604876714106 0 0.0072683991599643586 -0.00035561477130932059 0 0.0080589468970533023 -0.00079937736282129502 0 0.0011076783377165947 0.00034347059842950968 0 0.0028126249631528562 -0.00088105546634659605 0 0.0005427144261607263 0.00077472515837128211 0 0.0027655463338287995 -0.00082350033191970571 0 0.0011696751582960711 0.00095377285716528621 0 0.00095613517379240765 0.0012740704149622807 0 0.0011696751582960711 0.00095377285716528621 0 0.0012090719669737551 0.0011461247304542185 0 0.00095613517379240765 0.0012740704149622807 0 0.00086509158726455417 0.001081556344365713 0 0.0011696751582960711 0.00095377285716528621 0 0.00071871199333660971 0.0012318899778213722 0 0.00095613517379240765 0.0012740704149622807 0 0.00086509158726455417 0.001081556344365713 0 0.0005427144261607263 0.00077472515837128211 0 0.00086509158726455417 0.001081556344365713 0 0.0011696751582960711 0.00095377285716528621 0 0.0011696751582960711 0.00095377285716528621 0 0.0012090719669737551 0.0011461247304542185 0 0.0014393187424905029 0.00096905357723033536 0 0.0012090719669737551 0.0011461247304542185 0 0.0014393187424905029 0.00096905357723033536 0 0.0012277966272017048 0.0014376312891429379 0 0.0016201141955356165 0.00061124889707676866 0 0.0011696751582960711 0.00095377285716528621 0 0.0014393187424905029 0.00096905357723033536 0 0.0016201141955356165 0.00061124889707676866 0 0.0014393187424905029 0.00096905357723033536 0 0.0018969785913168164 0.0010910645504210667 0 0.0014393187424905029 0.00096905357723033536 0 0.0016080266420593948 0.0014198483929578703 0 0.0018969785913168164 0.0010910645504210667 0 0.0014393187424905029 0.00096905357723033536 0 0.0016080266420593948 0.0014198483929578703 0 0.0012277966272017048 0.0014376312891429379 0 0.0016080266420593948 0.0014198483929578703 0 0.0012277966272017048 0.0014376312891429379 0 0.0014934384330780911 0.0019603024473196207 0 0.0012277966272017048 0.0014376312891429379 0 0.00081558524409272983 0.0016361483618969959 0 0.001040191120536139 0.0020274529072926862 0 0.00095613517379240765 0.0012740704149622807 0 0.0012090719669737551 0.0011461247304542185 0 0.0012277966272017048 0.0014376312891429379 0 0.00095613517379240765 0.0012740704149622807 0 0.0012277966272017048 0.0014376312891429379 0 0.00081558524409272983 0.0016361483618969959 0 0.00066961264507436143 0.0014739597976569344 0 0.00095613517379240765 0.0012740704149622807 0 0.00081558524409272983 0.0016361483618969959 0 0.0031875686425114759 0.001048289931642462 0 0.0028022301521738974 0.0005854170342629155 0 0.002477083338826101 0.001103194060917391 0 0.0031875686425114759 0.001048289931642462 0 0.002477083338826101 0.001103194060917391 0 0.0027698526416567275 0.0015647395360381851 0 0.002477083338826101 0.001103194060917391 0 0.0018969785913168164 0.0010910645504210667 0 0.0021304530433701946 0.0017491282605900844 0 0.0022192040686410735 0.00068190239675534219 0 0.002477083338826101 0.001103194060917391 0 0.0018969785913168164 0.0010910645504210667 0 0.0016080266420593948 0.0014198483929578703 0 0.0018969785913168164 0.0010910645504210667 0 0.0021304530433701946 0.0017491282605900844 0 0.0016080266420593948 0.0014198483929578703 0 0.0021304530433701946 0.0017491282605900844 0 0.0014934384330780911 0.0019603024473196207 0 0.002477083338826101 0.001103194060917391 0 0.0021304530433701946 0.0017491282605900844 0 0.0027698526416567275 0.0015647395360381851 0 0.0021304530433701946 0.0017491282605900844 0 0.0027698526416567275 0.0015647395360381851 0 0.0028006642808962321 0.0020230732571339793 0 0.0021304530433701946 0.0017491282605900844 0 0.002299690084892665 0.0024368280854612568 0 0.0028006642808962321 0.0020230732571339793 0 0.0021304530433701946 0.0017491282605900844 0 0.0016981959382205559 0.0024107227202550042 0 0.002299690084892665 0.0024368280854612568 0 0.0021304530433701946 0.0017491282605900844 0 0.0016981959382205559 0.0024107227202550042 0 0.0014934384330780911 0.0019603024473196207 0 0.0016981959382205559 0.0024107227202550042 0 0.002299690084892665 0.0024368280854612568 0 0.0015845577210555049 0.0029162418620638265 0 0.0016981959382205559 0.0024107227202550042 0 0.0011036022093373927 0.0025086526350663768 0 0.0015845577210555049 0.0029162418620638265 0 0.001040191120536139 0.0020274529072926862 0 0.0011036022093373927 0.0025086526350663768 0 0.00060584851196607606 0.0020940734509295625 0 0.0012277966272017048 0.0014376312891429379 0 0.001040191120536139 0.0020274529072926862 0 0.0014934384330780911 0.0019603024473196207 0 0.001040191120536139 0.0020274529072926862 0 0.0014934384330780911 0.0019603024473196207 0 0.0011036022093373927 0.0025086526350663768 0 0.0016981959382205559 0.0024107227202550042 0 0.0014934384330780911 0.0019603024473196207 0 0.0011036022093373927 0.0025086526350663768 0 0.0011036022093373927 0.0025086526350663768 0 0.001089645635898116 0.0030527773318896655 0 0.00056015400369754736 0.0028345844474715887 0 -0.00050036870110620082 0.0021592936975506983 0 -0.0032335744412799704 0.00090875481234573496 0 0.0011036022093373927 0.0025086526350663768 0 0.001089645635898116 0.0030527773318896655 0 0.0015845577210555049 0.0029162418620638265 0 -0.0023483489364919488 0.0010431585105746474 0 0.0010331610002288995 0.0031924407569262525 0 -0.0016271654467991665 0.0034464534339914595 0 -0.00050036870110620082 0.0021592936975506983 0 0.00087911373080735132 0.0030370913928466727 0 -0.0023483489364919488 0.0010431585105746474 0 -0.0016271654467991665 0.0034464534339914595 0 -0.0045393872816431539 0.0028151966148712614 0 -0.0023483489364919488 0.0010431585105746474 0 -0.0045393872816431539 0.0028151966148712614 0 -0.0058421348347824963 -0.00042314928298050464 0 0.002299690084892665 0.0024368280854612568 0 0.0015845577210555049 0.0029162418620638265 0 0.0025330683058374598 0.0029646651499806386 0 0.0015845577210555049 0.0029162418620638265 0 0.0018878447914848768 0.0032613928781069688 0 0.0025330683058374598 0.0029646651499806386 0 0.001089645635898116 0.0030527773318896655 0 0.0015845577210555049 0.0029162418620638265 0 0.0010331610002288995 0.0031924407569262525 0 0.0015845577210555049 0.0029162418620638265 0 0.0010331610002288995 0.0031924407569262525 0 0.0018878447914848768 0.0032613928781069688 0 0.0010331610002288995 0.0031924407569262525 0 0.0018878447914848768 0.0032613928781069688 0 0.00186514150992143 0.0037991862330949162 0 0.0010331610002288995 0.0031924407569262525 0 0.00186514150992143 0.0037991862330949162 0 0.0012374190889315312 0.0045708281954819473 0 0.00186514150992143 0.0037991862330949162 0 0.0012374190889315312 0.0045708281954819473 0 0.002583021495392909 0.0043680640700084665 0 0.0012374190889315312 0.0045708281954819473 0 0.00072152166932102648 0.0067748500463480103 0 0.0019266061670371029 0.0061632268719354994 0 0.0012374190889315312 0.0045708281954819473 0 0.00072152166932102648 0.0067748500463480103 0 -0.0017272129196883245 0.0066627894071680481 0 0.00099045640259958672 0.0046009408096239377 0 -0.0017041421207476437 0.0051282851929481937 0 0.0012374190889315312 0.0045708281954819473 0 -0.0027564031944608252 0.0046522794966228371 0 -0.0017272129196883245 0.0066627894071680481 0 0.0010331610002288995 0.0031924407569262525 0 0.0012374190889315312 0.0045708281954819473 0 -0.00059011491256536765 0.0055488095242036302 0 0.0010331610002288995 0.0031924407569262525 0 -0.0016271654467991665 0.0034464534339914595 0 -0.00059011491256536765 0.0055488095242036302 0 -0.0016271654467991665 0.0034464534339914595 0 -0.0029623411119255871 0.0046262427703172718 0 -0.00059011491256536765 0.0055488095242036302 0 -0.0016271654467991665 0.0034464534339914595 0 -0.0045393872816431539 0.0028151966148712614 0 -0.0029623411119255871 0.0046262427703172718 0 -0.0045393872816431539 0.0028151966148712614 0 -0.0029623411119255871 0.0046262427703172718 0 -0.0050479461202771895 0.0048492061675410418 0 -0.0029623411119255871 0.0046262427703172718 0 -0.0040398558824610072 0.0065868067058785819 0 -0.0050479461202771895 0.0048492061675410418 0 -0.0054682107772206709 0.0060477884007341352 0 -0.0017041421207476437 0.0051282851929481937 0 -0.0029623411119255871 0.0046262427703172718 0 -0.0040398558824610072 0.0065868067058785819 0 -0.00059011491256536765 0.0055488095242036302 0 -0.006907389919661242 0.0054772198025878705 0 -0.0027564031944608252 0.0046522794966228371 0 -0.0045543758308933206 0.0064259026690513133 0 -0.0027564031944608252 0.0046522794966228371 0 -0.0045543758308933206 0.0064259026690513133 0 -0.0017272129196883245 0.0066627894071680481 0 -0.0045543758308933206 0.0064259026690513133 0 -0.0041758095566001539 0.0078525577978220754 0 -0.0017272129196883245 0.0066627894071680481 0 -0.0045543758308933206 0.0064259026690513133 0 -0.0041758095566001539 0.0078525577978220754 0 -0.0062301122357693133 0.007570232017461152 0 -0.0041758095566001539 0.0078525577978220754 0 -0.0026726189858714698 0.0088221195042790749 0 -0.0017272129196883245 0.0066627894071680481 0 -0.0062301122357693133 0.007570232017461152 0 -0.0071263865886451857 0.0096687060128543452 0 -0.0085240567208991445 0.0066454121401697619 0 -0.006907389919661242 0.0054772198025878705 0 -0.0062301122357693133 0.007570232017461152 0 -0.0085240567208991445 0.0066454121401697619 0 -0.006907389919661242 0.0054772198025878705 0 -0.0045543758308933206 0.0064259026690513133 0 -0.0062301122357693133 0.007570232017461152 0 -0.0041758095566001539 0.0078525577978220754 0 -0.0062301122357693133 0.007570232017461152 0 -0.0055606925161430024 0.008915146002658492 0 -0.0055606925161430024 0.008915146002658492 0 -0.0071263865886451857 0.0096687060128543452 0 -0.0047295318487087798 0.010283194856948846 0 -0.0062301122357693133 0.007570232017461152 0 -0.0055606925161430024 0.008915146002658492 0 -0.0071263865886451857 0.0096687060128543452 0 -0.0041758095566001539 0.0078525577978220754 0 -0.0047295318487087798 0.010283194856948846 0 -0.0026726189858714698 0.0088221195042790749 0 -0.0047295318487087798 0.010283194856948846 0 -0.0026726189858714698 0.0088221195042790749 0 -0.0023102562956431446 0.011158263907287016 0 -0.0041758095566001539 0.0078525577978220754 0 -0.0055606925161430024 0.008915146002658492 0 -0.0047295318487087798 0.010283194856948846 0 -0.0026726189858714698 0.0088221195042790749 0 -0.00044609039036771087 0.0082365960180416416 0 -0.0023102562956431446 0.011158263907287016 0 -0.0048582344792070962 0.0051836622210297261 0 -0.0072810346110821159 0.0048752306272949924 0 -0.00044609039036771087 0.0082365960180416416 0 0.0013143026471029307 0.0089694232571585486 0 -0.0023102562956431446 0.011158263907287016 0 -0.010799036488687375 -0.00075203460950065877 0 -0.011568927441349023 -0.0003471912620278983 0 -0.010643187579701625 -0.00058140217177455103 0 -0.0048582344792070962 0.0051836622210297261 0 -0.0082226857904164497 0.0028572827192113355 0 0.0013143026471029307 0.0089694232571585486 0 0.0012616747113809433 0.0082083402786164734 0 0.0016279022889634693 0.0077689412568945331 0 0.0013143026471029307 0.0089694232571585486 0 0.0012616747113809433 0.0082083402786164734 0 0.00073931981429644874 0.0079700434148868189 0 0.0012616747113809433 0.0082083402786164734 0 0.0012562640577670921 0.0075136169694424975 0 0.0016279022889634693 0.0077689412568945331 0 0.0012616747113809433 0.0082083402786164734 0 0.00073931981429644874 0.0079700434148868189 0 0.0012562640577670921 0.0075136169694424975 0 -0.00044609039036771087 0.0082365960180416416 0 0.0013143026471029307 0.0089694232571585486 0 0.00073931981429644874 0.0079700434148868189 0 -0.00044609039036771087 0.0082365960180416416 0 0.00073931981429644874 0.0079700434148868189 0 0.00072152166932102648 0.0067748500463480103 0 0.0012562640577670921 0.0075136169694424975 0 0.00072152166932102648 0.0067748500463480103 0 0.0017883153789646773 0.0069631176945228563 0 0.00073931981429644874 0.0079700434148868189 0 0.0012562640577670921 0.0075136169694424975 0 0.00072152166932102648 0.0067748500463480103 0 0.00072152166932102648 0.0067748500463480103 0 0.0017883153789646773 0.0069631176945228563 0 0.0019266061670371029 0.0061632268719354994 0 -0.00044609039036771087 0.0082365960180416416 0 0.00072152166932102648 0.0067748500463480103 0 -0.0017272129196883245 0.0066627894071680481 0 -0.0026726189858714698 0.0088221195042790749 0 -0.00044609039036771087 0.0082365960180416416 0 -0.0017272129196883245 0.0066627894071680481 0 -0.012995558438689219 0.0077987785595712939 0 -0.013221085731283465 0.005998099554410218 0 -0.015856166110016341 0.0073263850994317046 0 -0.012995558438689219 0.0077987785595712939 0 -0.015062192300373995 0.0094722956415923699 0 -0.015856166110016341 0.0073263850994317046 0 -0.012995558438689219 0.0077987785595712939 0 -0.015062192300373995 0.0094722956415923699 0 -0.012874599640973775 0.0097687338505350781 0 -0.015062192300373995 0.0094722956415923699 0 -0.012874599640973775 0.0097687338505350781 0 -0.013675286842108178 0.011699680208046128 0 -0.012995558438689219 0.0077987785595712939 0 -0.012874599640973775 0.0097687338505350781 0 -0.011585025344170132 0.0086228277052830728 0 -0.012874599640973775 0.0097687338505350781 0 -0.011729681339987188 0.010015205303712792 0 -0.011585025344170132 0.0086228277052830728 0 -0.011729681339987188 0.010015205303712792 0 -0.010829976517673414 0.0098255928223083076 0 -0.011585025344170132 0.0086228277052830728 0 -0.010829976517673414 0.0098255928223083076 0 -0.011585025344170132 0.0086228277052830728 0 -0.010068069647807773 0.0082870359068249258 0 -0.0095811116865274579 0.0098607132909021115 0 -0.0095468226549199724 0.0090138715099695732 0 -0.010147111608955164 0.010457795890719383 0 -0.0095468226549199724 0.0090138715099695732 0 -0.010068069647807773 0.0082870359068249258 0 -0.010147111608955164 0.010457795890719383 0 -0.0089293121013277795 0.0094239018923125573 0 -0.0095468226549199724 0.0090138715099695732 0 -0.0085240567208991445 0.0066454121401697619 0 -0.010829976517673414 0.0098255928223083076 0 -0.010068069647807773 0.0082870359068249258 0 -0.009731095012646027 0.011016257527825384 0 -0.010208906279266471 0.0082314338285760721 0 -0.0093502556200002005 0.011295957820783254 0 -0.0089293121013277795 0.0094239018923125573 0 -0.0095811116865274579 0.0098607132909021115 0 -0.0095468226549199724 0.0090138715099695732 0 -0.006907389919661242 0.0054772198025878705 0 -0.0085240567208991445 0.0066454121401697619 0 -0.010781191857795237 0.0068180533541482005 0 -0.007874343601691907 0.010146201846602896 0 -0.0086399741427012969 0.0064822561887952551 0 -0.0095468226549199724 0.0090138715099695732 0 -0.010068069647807773 0.0082870359068249258 0 -0.0085240567208991445 0.0066454121401697619 0 -0.010068069647807773 0.0082870359068249258 0 -0.0085240567208991445 0.0066454121401697619 0 -0.010781191857795237 0.0068180533541482005 0 -0.012711657017903721 0.0077690442600761777 0 -0.0094536901750373378 0.0071114774686870472 0 -0.012995558438689219 0.0077987785595712939 0 -0.0081401916446140702 0.0074923115559445176 0 -0.0092737504159774355 0.0056884532436942822 0 -0.012995558438689219 0.0077987785595712939 0 -0.011585025344170132 0.0086228277052830728 0 -0.010781191857795237 0.0068180533541482005 0 -0.011585025344170132 0.0086228277052830728 0 -0.010068069647807773 0.0082870359068249258 0 -0.010781191857795237 0.0068180533541482005 0 -0.0081401916446140702 0.0074923115559445176 0 -0.0092737504159774355 0.0056884532436942822 0 -0.0066849044410804415 0.0058068406689975125 0 -0.0092737504159774355 0.0056884532436942822 0 -0.0066849044410804415 0.0058068406689975125 0 -0.0075973907880822174 0.0043305065283288082 0 -0.0092737504159774355 0.0056884532436942822 0 -0.010717160466593493 0.0029547405142458759 0 -0.011274303612103801 0.0049688125457101771 0 -0.0066849044410804415 0.0058068406689975125 0 -0.0050479461202771895 0.0048492061675410418 0 -0.0075973907880822174 0.0043305065283288082 0 -0.0054682107772206709 0.0060477884007341352 0 -0.0094536901750373378 0.0071114774686870472 0 -0.0040398558824610072 0.0065868067058785819 0 -0.0081401916446140702 0.0074923115559445176 0 -0.0066849044410804415 0.0058068406689975125 0 -0.0040398558824610072 0.0065868067058785819 0 -0.0066849044410804415 0.0058068406689975125 0 -0.0050479461202771895 0.0048492061675410418 0 -0.0045393872816431539 0.0028151966148712614 0 -0.0075973907880822174 0.0043305065283288082 0 -0.0074987479734141532 0.0020458375275468408 0 -0.0045393872816431539 0.0028151966148712614 0 -0.0050479461202771895 0.0048492061675410418 0 -0.0075973907880822174 0.0043305065283288082 0 -0.0075973907880822174 0.0043305065283288082 0 -0.0092941833550648258 0.003470729500872737 0 -0.0074987479734141532 0.0020458375275468408 0 -0.0092737504159774355 0.0056884532436942822 0 -0.0075973907880822174 0.0043305065283288082 0 -0.010717160466593493 0.0029547405142458759 0 -0.0075604565268456124 0.0043228696520671303 0 -0.010929283428667379 0.0028323168827277014 0 -0.0092941833550648258 0.003470729500872737 0 -0.011157708365196086 0.0026472214673092264 0 -0.0090622960765995297 0.0018280197710283275 0 -0.010717160466593493 0.0029547405142458759 0 -0.012505447589003498 0.0036102789347512401 0 -0.013242254733686577 0.0019656853191230093 0 -0.010929283428667379 0.0028323168827277014 0 -0.0065579432104349222 0.0049543327925091318 0 -0.010717160466593493 0.0029547405142458759 0 -0.012505447589003498 0.0036102789347512401 0 -0.011274303612103801 0.0049688125457101771 0 -0.012995558438689219 0.0077987785595712939 0 -0.013221085731283465 0.005998099554410218 0 -0.011274303612103801 0.0049688125457101771 0 -0.012995558438689219 0.0077987785595712939 0 -0.0092737504159774355 0.0056884532436942822 0 -0.011274303612103801 0.0049688125457101771 0 -0.012505447589003498 0.0036102789347512401 0 -0.011274303612103801 0.0049688125457101771 0 -0.014682646224495987 0.0047742836819991809 0 -0.012535333467637876 0.0048414816436727704 0 -0.012141876256382819 0.0055130018509180053 0 -0.013221085731283465 0.005998099554410218 0 -0.011274303612103801 0.0049688125457101771 0 -0.014795498399541479 0.0049138030075047898 0 -0.012141876256382819 0.0055130018509180053 0 -0.016083021808256732 0.0073872471736704552 0 -0.013221085731283465 0.005998099554410218 0 -0.014795498399541479 0.0049138030075047898 0 -0.015856166110016341 0.0073263850994317046 0 -0.0049214212702958556 0.0084256400310468611 0 -0.004187068308241784 0.0069279458855301176 0 -0.0056301679361926912 0.0073414178064069319 0 -0.012141876256382819 0.0055130018509180053 0 -0.0065579432104349222 0.0049543327925091318 0 -0.012505447589003498 0.0036102789347512401 0 -0.014682646224495987 0.0047742836819991809 0 -0.013242254733686577 0.0019656853191230093 0 0.00072072036380463908 0.0081390319082878075 0 -0.00013536858472250601 0.005624615976320386 0 0.0020469184027114341 0.0054310993535027982 0 0.00072072036380463908 0.0081390319082878075 0 -0.00013536858472250601 0.005624615976320386 0 -0.0024055212515784476 0.006972078962124208 0 -0.004187068308241784 0.0069279458855301176 0 -0.00567762838853511 0.0062647576344521463 0 -0.0056301679361926912 0.0073414178064069319 0 -0.0065579432104349222 0.0049543327925091318 0 -0.0030530359083604805 0.0070468854340763202 0 -0.011157708365196086 0.0026472214673092264 0 -0.010089354741017027 0.00052110414296266231 0 -0.0090622960765995297 0.0018280197710283275 0 -0.0065579432104349222 0.0049543327925091318 0 -0.0039556877818386783 0.0028299393050002109 0 -0.010089354741017027 0.00052110414296266231 0 -0.0090622960765995297 0.0018280197710283275 0 -0.0082847749012544304 0.00036508743868330929 0 0.0020469184027114341 0.0054310993535027982 0 0.0032069251010382015 0.0028339010896262559 0 0.0025804904798716125 0.0025608045336033588 0 -0.0039556877818386783 0.0028299393050002109 0 -0.0018760567811397853 0.0019242445058730467 0 -0.010089354741017027 0.00052110414296266231 0 -0.0082847749012544304 0.00036508743868330929 0 -0.0089671277031583684 -0.0016552183283462393 0 0.0020469184027114341 0.0054310993535027982 0 0.0010735921542442833 0.0036638622076208931 0 0.0025804904798716125 0.0025608045336033588 0 -0.00013536858472250601 0.005624615976320386 0 0.0020469184027114341 0.0054310993535027982 0 0.0010735921542442833 0.0036638622076208931 0 0.0010735921542442833 0.0036638622076208931 0 0.00026962016593873648 0.0019008210588482676 0 -0.0017608833679051798 0.0038643598875110832 0 -0.00013536858472250601 0.005624615976320386 0 -0.0024055212515784476 0.006972078962124208 0 -0.0017608833679051798 0.0038643598875110832 0 -0.00013536858472250601 0.005624615976320386 0 0.0010735921542442833 0.0036638622076208931 0 -0.0017608833679051798 0.0038643598875110832 0 -0.0045393872816431539 0.0028151966148712614 0 -0.0074987479734141532 0.0020458375275468408 0 -0.0058421348347824963 -0.00042314928298050464 0 -0.0074987479734141532 0.0020458375275468408 0 -0.0082847749012544304 0.00036508743868330929 0 -0.0058421348347824963 -0.00042314928298050464 0 -0.0092941833550648258 0.003470729500872737 0 -0.0074987479734141532 0.0020458375275468408 0 -0.0090622960765995297 0.0018280197710283275 0 -0.0074987479734141532 0.0020458375275468408 0 -0.0090622960765995297 0.0018280197710283275 0 -0.0082847749012544304 0.00036508743868330929 0 0.00056015400369754736 0.0028345844474715887 0 0.00041648326443538992 0.0024702782058359431 0 -7.4541073453786419e-05 0.0025718980777860094 0 -0.0082847749012544304 0.00036508743868330929 0 -0.0058421348347824963 -0.00042314928298050464 0 -0.0089671277031583684 -0.0016552183283462393 0 -0.0032335744412799704 0.00090875481234573496 0 -0.0018760567811397853 0.0019242445058730467 0 0.0011036022093373927 0.0025086526350663768 0 0.00056015400369754736 0.0028345844474715887 0 0.00041648326443538992 0.0024702782058359431 0 0.00041648326443538992 0.0024702782058359431 0 0.00017030813341002398 0.0021250934922097267 0 0.00060584851196607606 0.0020940734509295625 0 0.0011036022093373927 0.0025086526350663768 0 0.00041648326443538992 0.0024702782058359431 0 0.00060584851196607606 0.0020940734509295625 0 -0.0018760567811397853 0.0019242445058730467 0 0.0024396942483820971 0.0010796203004726126 0 0.0030787652565327488 0.0027750789842801793 0 0.0040925758896427321 0.00058888478623414053 0 0.0026890827774685619 0.0015176606993300378 0 0.00041648326443538992 0.0024702782058359431 0 -7.4541073453786419e-05 0.0025718980777860094 0 0.00017030813341002398 0.0021250934922097267 0 0.0012155961513594378 0.00075766232221305169 0 0.0024396942483820971 0.0010796203004726126 0 0.0051195342032428082 -0.0014911083160342778 0 0.0037760089002364301 -0.0008576992020251727 0 0.0040925758896427321 0.00058888478623414053 0 0.0040925758896427321 0.00058888478623414053 0 0.0026890827774685619 0.0015176606993300378 0 0.0028013920808068345 0.00025571381964927046 0 0.0037760089002364301 -0.0008576992020251727 0 0.0028013920808068345 0.00025571381964927046 0 0.0025609006769178235 -0.00072963429503749243 0 0.0037760089002364301 -0.0008576992020251727 0 0.0040925758896427321 0.00058888478623414053 0 0.0028013920808068345 0.00025571381964927046 0 0.0012155961513594378 0.00075766232221305169 0 0.00077116948998754461 0.0021768371824376223 0 0.00040734264419442316 0.0016543538306785449 0 0.00017030813341002398 0.0021250934922097267 0 0.00060584851196607606 0.0020940734509295625 0 0.00040734264419442316 0.0016543538306785449 0 0.001040191120536139 0.0020274529072926862 0 0.00060584851196607606 0.0020940734509295625 0 0.00026962016593873648 0.0019008210588482676 0 -0.0015335735354621374 0.00089839861593699749 0 -0.0017608833679051798 0.0038643598875110832 0 0.00026962016593873648 0.0019008210588482676 0 0.0015645321204999809 0.0019723267358823745 0 0.00094842138717235284 0.0011688092116603258 0 0.00026962016593873648 0.0019008210588482676 0 0.00094842138717235284 0.0011688092116603258 0 -6.9446326729339709e-05 0.00064218563978402706 0 0.00026962016593873648 0.0019008210588482676 0 -6.9446326729339709e-05 0.00064218563978402706 0 -0.0015335735354621374 0.00089839861593699749 0 0.0010735921542442833 0.0036638622076208931 0 0.0025804904798716125 0.0025608045336033588 0 0.0015645321204999809 0.0019723267358823745 0 0.0010735921542442833 0.0036638622076208931 0 0.00026962016593873648 0.0019008210588482676 0 0.0015645321204999809 0.0019723267358823745 0 0.0030787652565327488 0.0027750789842801793 0 0.0025804904798716125 0.0025608045336033588 0 0.0026890827774685619 0.0015176606993300378 0 0.0025804904798716125 0.0025608045336033588 0 0.0026890827774685619 0.0015176606993300378 0 0.0015645321204999809 0.0019723267358823745 0 -0.0018760567811397853 0.0019242445058730467 0 0.00046095299085725328 0.002697830666963772 0 0.0026890827774685619 0.0015176606993300378 0 0.0015645321204999809 0.0019723267358823745 0 0.0018247277217287069 0.00091339449030939962 0 0.0015645321204999809 0.0019723267358823745 0 0.00094842138717235284 0.0011688092116603258 0 0.0018247277217287069 0.00091339449030939962 0 0.0018274859500736324 0.00013262440784507796 0 0.0011487346673005872 0.00044820350787463334 0 0.00068334806578414101 -0.00025551173489060485 0 0.00094842138717235284 0.0011688092116603258 0 0.0018247277217287069 0.00091339449030939962 0 0.0011487346673005872 0.00044820350787463334 0 0.0018247277217287069 0.00091339449030939962 0 0.0018274859500736324 0.00013262440784507796 0 0.0011487346673005872 0.00044820350787463334 0 0.0026890827774685619 0.0015176606993300378 0 0.0018247277217287069 0.00091339449030939962 0 0.0028013920808068345 0.00025571381964927046 0 0.0018247277217287069 0.00091339449030939962 0 0.0018274859500736324 0.00013262440784507796 0 0.0028013920808068345 0.00025571381964927046 0 0.0018274859500736324 0.00013262440784507796 0 0.0028013920808068345 0.00025571381964927046 0 0.0025609006769178235 -0.00072963429503749243 0 0.0018274859500736324 0.00013262440784507796 0 0.0025609006769178235 -0.00072963429503749243 0 0.00068334806578414101 -0.00025551173489060485 0 0.00068334806578414101 -0.00025551173489060485 0 0.00061203719366597243 -0.00085729953392386146 0 -6.9446326729339709e-05 0.00064218563978402706 0 0.00022981653143880961 -0.0010884063292427022 0 -0.0013750611887151458 0.00076634760572709263 0 0.00061203719366597243 -0.00085729953392386146 0 -6.9446326729339709e-05 0.00064218563978402706 0 -0.0015335735354621374 0.00089839861593699749 0 0.0002920409704769864 -0.0013360729391445332 0 -0.00071819785501141807 -0.001211795272002172 0 -0.0015335735354621374 0.00089839861593699749 0 0.0011487346673005872 0.00044820350787463334 0 0.00068334806578414101 -0.00025551173489060485 0 -6.9446326729339709e-05 0.00064218563978402706 0 0.00094842138717235284 0.0011688092116603258 0 0.0011487346673005872 0.00044820350787463334 0 -6.9446326729339709e-05 0.00064218563978402706 0 -0.00077028453195701944 -0.0022744565180799715 0 -0.00071819785501141807 -0.001211795272002172 0 -0.0037476474578909754 0.00041709127226891853 0 -0.00071819785501141807 -0.001211795272002172 0 -0.0015335735354621374 0.00089839861593699749 0 -0.0037476474578909754 0.00041709127226891853 0 -0.0015335735354621374 0.00089839861593699749 0 -0.0043523769944558109 0.0029689495577405116 0 -0.0017608833679051798 0.0038643598875110832 0 -0.0015335735354621374 0.00089839861593699749 0 -0.0043523769944558109 0.0029689495577405116 0 -0.0037476474578909754 0.00041709127226891853 0 -0.0043523769944558109 0.0029689495577405116 0 -0.0037476474578909754 0.00041709127226891853 0 -0.0065189392282133081 0.0025716719977225905 0 -0.0037476474578909754 0.00041709127226891853 0 -0.0065551042136338181 0.00082967010199133597 0 -0.0065189392282133081 0.0025716719977225905 0 -0.0037476474578909754 0.00041709127226891853 0 -0.0055602936026588386 -0.0014852960605327258 0 -0.0065551042136338181 0.00082967010199133597 0 -0.00077028453195701944 -0.0022744565180799715 0 -0.0037476474578909754 0.00041709127226891853 0 -0.0055602936026588386 -0.0014852960605327258 0 -0.0021170578160598515 -0.0023403678474292616 0 -0.0018017293816487807 -0.00058506583209981045 0 -0.0055602936026588386 -0.0014852960605327258 0 -0.0074164158419912181 0.00029204354419423364 0 -0.009181898013584492 9.1190170433164326e-05 0 0.0026152452087432735 -0.0028403278836395536 0 0.0016616665489884044 -0.0032667819233902482 0 0.0031109413138662835 -0.0037831603751524146 0 0.002663973983973225 -0.0022624445503742793 0 -0.0018017293816487807 -0.00058506583209981045 0 -0.0074164158419912181 0.00029204354419423364 0 -0.009181898013584492 9.1190170433164326e-05 0 -0.008349082495055898 0.0017075978613923376 0 -0.0055602936026588386 -0.0014852960605327258 0 -0.0074164158419912181 0.00029204354419423364 0 -0.0065551042136338181 0.00082967010199133597 0 0.0017663572274710681 -0.00014917944184848216 0 0.0016469573799474809 -0.00032863922554346041 0 0.0015493626206702876 -7.8434959149248471e-05 0 0.0017663572274710681 -0.00014917944184848216 0 0.0016469573799474809 -0.00032863922554346041 0 0.0018408832216440919 -0.0004784785460335869 0 0.0016159756985460755 -0.00059250296063341121 0 0.0016469573799474809 -0.00032863922554346041 0 0.0018408832216440919 -0.0004784785460335869 0 0.0017663572274710681 -0.00014917944184848216 0 0.0018408832216440919 -0.0004784785460335869 0 0.0019613002428830796 -0.00013823560447539851 0 0.0023143252497000431 -0.00079530504984310279 0 0.0020631204750259959 -0.00044824875785157435 0 0.0021581793635192465 -1.6282865687479069e-05 0 0.0020631204750259959 -0.00044824875785157435 0 0.0021581793635192465 -1.6282865687479069e-05 0 0.0019613002428830796 -0.00013823560447539851 0 0.0018408832216440919 -0.0004784785460335869 0 0.0020631204750259959 -0.00044824875785157435 0 0.0019613002428830796 -0.00013823560447539851 0 -0.0021488726566718359 -0.00062612635160075618 0 -0.0034013972350692878 -3.0370704784661522e-05 0 -0.0037572175587635586 0.0020665741666882655 0 -0.0018017293816487807 -0.00058506583209981045 0 -0.0014872959633052531 0.00039002957297023822 0 0.0021581793635192465 -1.6282865687479069e-05 0 0.001976087943937463 0.00011693733910318677 0 0.0019613002428830796 -0.00013823560447539851 0 0.001976087943937463 0.00011693733910318677 0 0.0017253516467771758 7.2035290199815673e-05 0 0.0014251697157073293 0.00043319121060699423 0 0.0017663572274710681 -0.00014917944184848216 0 0.0019613002428830796 -0.00013823560447539851 0 0.0017253516467771758 7.2035290199815673e-05 0 0.001976087943937463 0.00011693733910318677 0 0.0019613002428830796 -0.00013823560447539851 0 0.0017253516467771758 7.2035290199815673e-05 0 0.0017663572274710681 -0.00014917944184848216 0 0.0017253516467771758 7.2035290199815673e-05 0 0.0015493626206702876 -7.8434959149248471e-05 0 -0.0050052961672356318 0.0022362308286652879 0 -0.0083698753195249262 0.0041165652925831703 0 -0.0018144145633265925 0.0014643638575359372 0 -0.0019048090455747869 0.0019973796233731223 0 -0.0029914666004540137 0.0020592924923314515 0 -0.0014872959633052531 0.00039002957297023822 0 -0.0050052961672356318 0.0022362308286652879 0 -0.0018017293816487807 -0.00058506583209981045 0 -0.0050052961672356318 0.0022362308286652879 0 -0.009181898013584492 9.1190170433164326e-05 0 -0.010116163332094027 0.0017882527880712213 0 -0.008349082495055898 0.0017075978613923376 0 -0.010116163332094027 0.0017882527880712213 0 -0.008349082495055898 0.0017075978613923376 0 -0.0087088796815575666 0.0037259318041541179 0 -0.0050052961672356318 0.0022362308286652879 0 -0.004523666846447367 0.0032601810850951991 0 -0.0074164158419912181 0.00029204354419423364 0 -0.0065551042136338181 0.00082967010199133597 0 -0.008349082495055898 0.0017075978613923376 0 -0.0065551042136338181 0.00082967010199133597 0 -0.008349082495055898 0.0017075978613923376 0 -0.0065189392282133081 0.0025716719977225905 0 -0.008349082495055898 0.0017075978613923376 0 -0.0065189392282133081 0.0025716719977225905 0 -0.0087088796815575666 0.0037259318041541179 0 -0.0065189392282133081 0.0025716719977225905 0 -0.0087088796815575666 0.0037259318041541179 0 -0.006317656367300379 0.0054601829249654463 0 -0.0087088796815575666 0.0037259318041541179 0 -0.0088351599048660818 0.0056626170054189405 0 -0.006317656367300379 0.0054601829249654463 0 -0.005956667633286776 0.0024912959992678509 0 -0.006188825375057873 0.0037967323723471472 0 -0.0066225282491451593 0.0036045324256911804 0 -0.010116163332094027 0.0017882527880712213 0 -0.0087088796815575666 0.0037259318041541179 0 -0.010468047495988403 0.0044070850889477179 0 -0.0087088796815575666 0.0037259318041541179 0 -0.010468047495988403 0.0044070850889477179 0 -0.0088351599048660818 0.0056626170054189405 0 -0.010468047495988403 0.0044070850889477179 0 -0.010696327892556859 0.006418504154173825 0 -0.0088351599048660818 0.0056626170054189405 0 -0.0093863155753085743 0.0057350125849265979 0 -0.0098064973534894278 0.0070473989589507607 0 -0.0083698753195249262 0.0041165652925831703 0 -0.0093863155753085743 0.0057350125849265979 0 -0.006188825375057873 0.0037967323723471472 0 -0.0064176927311313196 0.0050652491838825454 0 -0.0066471769307635429 0.0043000374326992033 0 -0.010696327892556859 0.006418504154173825 0 -0.0088351599048660818 0.0056626170054189405 0 -0.0089172057246159672 0.0072477818656224496 0 -0.0077561914861539486 0.0063692911189472904 0 -0.0088351599048660818 0.0056626170054189405 0 -0.0089172057246159672 0.0072477818656224496 0 -0.0077561914861539486 0.0063692911189472904 0 -0.0088351599048660818 0.0056626170054189405 0 -0.006317656367300379 0.0054601829249654463 0 -0.0077561914861539486 0.0063692911189472904 0 -0.006317656367300379 0.0054601829249654463 0 -0.0070464475290472521 0.0069966396183711744 0 -0.00567762838853511 0.0062647576344521463 0 -0.006317656367300379 0.0054601829249654463 0 -0.0070464475290472521 0.0069966396183711744 0 -0.0030530359083604805 0.0070468854340763202 0 -0.0065910570348548699 0.0053823303606188692 0 -0.0024055212515784476 0.006972078962124208 0 -0.0017608833679051798 0.0038643598875110832 0 -0.006317656367300379 0.0054601829249654463 0 -0.0043523769944558109 0.0029689495577405116 0 -0.0017608833679051798 0.0038643598875110832 0 -0.006317656367300379 0.0054601829249654463 0 -0.0043523769944558109 0.0029689495577405116 0 -0.0065189392282133081 0.0025716719977225905 0 -0.006317656367300379 0.0054601829249654463 0 -0.0016195070502580922 0.00092413837387807435 0 -0.0028634125359867208 -0.00013596251497469589 0 -0.0029671353873737725 0.0019624384214891087 0 -0.0016195070502580922 0.00092413837387807435 0 -0.0016776065760791613 0.0022446203847292815 0 -0.0029671353873737725 0.0019624384214891087 0 -0.0016195070502580922 0.00092413837387807435 0 -0.00082037505991226886 0.001747271074226839 0 -0.0016776065760791613 0.0022446203847292815 0 -0.0025552048458296708 -0.0016403369938275479 0 -0.001692022064402591 -0.00097353378988682495 0 -0.0028634125359867208 -0.00013596251497469589 0 -0.0016195070502580922 0.00092413837387807435 0 -0.0015880317488310683 -0.00018497626323490479 0 -0.0028634125359867208 -0.00013596251497469589 0 -0.001692022064402591 -0.00097353378988682495 0 -0.0015880317488310683 -0.00018497626323490479 0 -0.0028634125359867208 -0.00013596251497469589 0 -0.001692022064402591 -0.00097353378988682495 0 -0.0015880317488310683 -0.00018497626323490479 0 -0.00095609039271714216 -0.00061454936182942475 0 -0.0016195070502580922 0.00092413837387807435 0 -0.0015880317488310683 -0.00018497626323490479 0 -0.00084317311704914123 0.00011188268435830352 0 -0.0015880317488310683 -0.00018497626323490479 0 -0.00084317311704914123 0.00011188268435830352 0 -0.00095609039271714216 -0.00061454936182942475 0 -0.00084317311704914123 0.00011188268435830352 0 -0.00095609039271714216 -0.00061454936182942475 0 -0.00011019999168956511 2.9972964286653772e-05 0 -0.00095609039271714216 -0.00061454936182942475 0 -0.00022137330888821413 -0.00055423772870980112 0 -0.00011019999168956511 2.9972964286653772e-05 0 -0.00084317311704914123 0.00011188268435830352 0 -0.00011019999168956511 2.9972964286653772e-05 0 -0.00035510511028251216 0.00055305361273637354 0 -0.00011019999168956511 2.9972964286653772e-05 0 -0.00035510511028251216 0.00055305361273637354 0 0.00020543744451177368 0.0005100150241937123 0 -0.00035510511028251216 0.00055305361273637354 0 -0.00086794680510572837 0.00095861223358098308 0 -0.00022507900544448551 0.0011901798469029629 0 -0.00035510511028251216 0.00055305361273637354 0 -0.00022507900544448551 0.0011901798469029629 0 0.00020543744451177368 0.0005100150241937123 0 -0.00084317311704914123 0.00011188268435830352 0 -0.00035510511028251216 0.00055305361273637354 0 -0.00086794680510572837 0.00095861223358098308 0 -0.0016195070502580922 0.00092413837387807435 0 -0.00084317311704914123 0.00011188268435830352 0 -0.00086794680510572837 0.00095861223358098308 0 -0.00086794680510572837 0.00095861223358098308 0 -0.00082037505991226886 0.001747271074226839 0 -0.00022507900544448551 0.0011901798469029629 0 -0.0016195070502580922 0.00092413837387807435 0 -0.00086794680510572837 0.00095861223358098308 0 -0.00082037505991226886 0.001747271074226839 0 -0.00022507900544448551 0.0011901798469029629 0 0.00022224541388251212 0.0013708590554835291 0 -0.00016142272691536301 0.001981872304385515 0 -0.00082037505991226886 0.001747271074226839 0 -0.00022507900544448551 0.0011901798469029629 0 -0.00016142272691536301 0.001981872304385515 0 0.00022224541388251212 0.0013708590554835291 0 0.0011495035191377082 0.00090485928665696351 0 -0.00016142272691536301 0.001981872304385515 0 0.00071040263429567767 0.0013240914169670459 0 2.8189910630947487e-05 0.0018560768665899928 0 0.00022224541388251212 0.0013708590554835291 0 0.00071844676765673101 0.0010003864911990769 0 0.00026152608145710993 0.00099133390256431002 0 -0.00022507900544448551 0.0011901798469029629 0 0.00022224541388251212 0.0013708590554835291 0 0.00026152608145710993 0.00099133390256431002 0 0.00022224541388251212 0.0013708590554835291 0 0.00071844676765673101 0.0010003864911990769 0 0.0011495035191377082 0.00090485928665696351 0 0.00054334775322255455 0.00068319152150821561 0 0.00020543744451177368 0.0005100150241937123 0 0.00068374846736271361 0.00029766976490278952 0 0.00071844676765673101 0.0010003864911990769 0 0.00054334775322255455 0.00068319152150821561 0 0.00026152608145710993 0.00099133390256431002 0 0.00071844676765673101 0.0010003864911990769 0 0.00094946576968299207 0.00080609814674526535 0 0.0011495035191377082 0.00090485928665696351 0 0.00071844676765673101 0.0010003864911990769 0 0.00086450421559532804 0.00061938233984665659 0 0.00094946576968299207 0.00080609814674526535 0 0.00071844676765673101 0.0010003864911990769 0 0.00086450421559532804 0.00061938233984665659 0 0.00054334775322255455 0.00068319152150821561 0 0.00086450421559532804 0.00061938233984665659 0 0.00054334775322255455 0.00068319152150821561 0 0.00068374846736271361 0.00029766976490278952 0 -0.00022507900544448551 0.0011901798469029629 0 0.00026152608145710993 0.00099133390256431002 0 0.00020543744451177368 0.0005100150241937123 0 0.00054334775322255455 0.00068319152150821561 0 0.00026152608145710993 0.00099133390256431002 0 0.00020543744451177368 0.0005100150241937123 0 0.00020543744451177368 0.0005100150241937123 0 0.00047243125698723541 9.3215775474810662e-06 0 0.00068374846736271361 0.00029766976490278952 0 -0.00011019999168956511 2.9972964286653772e-05 0 0.00020543744451177368 0.0005100150241937123 0 0.00047243125698723541 9.3215775474810662e-06 0 -0.00022137330888821413 -0.00055423772870980112 0 -0.00011019999168956511 2.9972964286653772e-05 0 0.00031160628331096082 -0.00044893680071006876 0 -0.00011019999168956511 2.9972964286653772e-05 0 0.00047243125698723541 9.3215775474810662e-06 0 0.00031160628331096082 -0.00044893680071006876 0 0.00047243125698723541 9.3215775474810662e-06 0 0.00031160628331096082 -0.00044893680071006876 0 0.00079909022989182402 -0.00030044464930878201 0 0.00047243125698723541 9.3215775474810662e-06 0 0.00079909022989182402 -0.00030044464930878201 0 0.00087184469805420394 2.3865105108362785e-05 0 0.00079909022989182402 -0.00030044464930878201 0 0.00087184469805420394 2.3865105108362785e-05 0 0.0010436931154712314 -0.00015562462946746834 0 0.00047243125698723541 9.3215775474810662e-06 0 0.00087184469805420394 2.3865105108362785e-05 0 0.00068374846736271361 0.00029766976490278952 0 0.00087184469805420394 2.3865105108362785e-05 0 0.00068374846736271361 0.00029766976490278952 0 0.00093838566951497202 0.00032070911580774693 0 0.00086450421559532804 0.00061938233984665659 0 0.00068374846736271361 0.00029766976490278952 0 0.00093838566951497202 0.00032070911580774693 0 0.00093838566951497202 0.00032070911580774693 0 0.0011152980714546751 9.3569363818489209e-05 0 0.0011544948618835169 0.00043472362954439717 0 0.0011152980714546751 9.3569363818489209e-05 0 0.0013494637249463414 0.00015660413463654783 0 0.0011544948618835169 0.00043472362954439717 0 0.0011152980714546751 9.3569363818489209e-05 0 0.001286231838506029 -0.00013909987856716182 0 0.0013494637249463414 0.00015660413463654783 0 0.00087184469805420394 2.3865105108362785e-05 0 0.0011152980714546751 9.3569363818489209e-05 0 0.0010436931154712314 -0.00015562462946746834 0 0.00087184469805420394 2.3865105108362785e-05 0 0.00093838566951497202 0.00032070911580774693 0 0.0011152980714546751 9.3569363818489209e-05 0 0.0011152980714546751 9.3569363818489209e-05 0 0.0010436931154712314 -0.00015562462946746834 0 0.001286231838506029 -0.00013909987856716182 0 0.0011260534881695093 -0.00044254941814304708 0 0.0010436931154712314 -0.00015562462946746834 0 0.001286231838506029 -0.00013909987856716182 0 0.0011260534881695093 -0.00044254941814304708 0 0.00079909022989182402 -0.00030044464930878201 0 0.0010436931154712314 -0.00015562462946746834 0 0.0016159756985460755 -0.00059250296063341121 0 0.0016469573799474809 -0.00032863922554346041 0 0.0014555435944902456 -0.00037914173312901468 0 0.0011260534881695093 -0.00044254941814304708 0 0.001286231838506029 -0.00013909987856716182 0 0.0014555435944902456 -0.00037914173312901468 0 0.001286231838506029 -0.00013909987856716182 0 0.0014555435944902456 -0.00037914173312901468 0 0.0015493626206702876 -7.8434959149248471e-05 0 0.0016469573799474809 -0.00032863922554346041 0 0.0014555435944902456 -0.00037914173312901468 0 0.0015493626206702876 -7.8434959149248471e-05 0 0.0015493626206702876 -7.8434959149248471e-05 0 0.0013494637249463414 0.00015660413463654783 0 0.0015207510580940553 0.00016415415863140355 0 0.0017253516467771758 7.2035290199815673e-05 0 0.0015493626206702876 -7.8434959149248471e-05 0 0.0015207510580940553 0.00016415415863140355 0 0.001286231838506029 -0.00013909987856716182 0 0.0015493626206702876 -7.8434959149248471e-05 0 0.0013494637249463414 0.00015660413463654783 0 0.0013494637249463414 0.00015660413463654783 0 0.0015207510580940553 0.00016415415863140355 0 0.0014251697157073293 0.00043319121060699423 0 0.0013494637249463414 0.00015660413463654783 0 0.0014251697157073293 0.00043319121060699423 0 0.0011544948618835169 0.00043472362954439717 0 0.0017253516467771758 7.2035290199815673e-05 0 0.0015207510580940553 0.00016415415863140355 0 0.0014251697157073293 0.00043319121060699423 0 -0.0019048090455747869 0.0019973796233731223 0 -0.0029914666004540137 0.0020592924923314515 0 -0.0025225723915047412 0.0030479342572534546 0 -0.0014872959633052531 0.00039002957297023822 0 -7.5772899762970543e-05 0.0016425960623293267 0 0.001976087943937463 0.00011693733910318677 0 0.0014251697157073293 0.00043319121060699423 0 0.0012795607612599569 0.00076884686400046883 0 0.0014251697157073293 0.00043319121060699423 0 0.0011986670800383042 0.00062124262344272153 0 0.0011544948618835169 0.00043472362954439717 0 0.0011986670800383042 0.00062124262344272153 0 0.0011544948618835169 0.00043472362954439717 0 0.0010587673831279291 0.00070391017503482797 0 0.00086450421559532804 0.00061938233984665659 0 0.0011544948618835169 0.00043472362954439717 0 0.0010587673831279291 0.00070391017503482797 0 0.00086450421559532804 0.00061938233984665659 0 0.00093838566951497202 0.00032070911580774693 0 0.0011544948618835169 0.00043472362954439717 0 0.0011986670800383042 0.00062124262344272153 0 0.0010587673831279291 0.00070391017503482797 0 0.0011495035191377082 0.00090485928665696351 0 0.00086450421559532804 0.00061938233984665659 0 0.0010587673831279291 0.00070391017503482797 0 0.00094946576968299207 0.00080609814674526535 0 0.0010587673831279291 0.00070391017503482797 0 0.00094946576968299207 0.00080609814674526535 0 0.0011495035191377082 0.00090485928665696351 0 0.0014251697157073293 0.00043319121060699423 0 0.0012795607612599569 0.00076884686400046883 0 0.0011495035191377082 0.00090485928665696351 0 0.0014251697157073293 0.00043319121060699423 0 0.0011986670800383042 0.00062124262344272153 0 0.0011495035191377082 0.00090485928665696351 0 -7.5772899762970543e-05 0.0016425960623293267 0 0.00071040263429567767 0.0013240914169670459 0 0.0012149861114250397 0.0013612833150946446 0 0.0010324102614475866 0.0014540401086137651 0 0.00066395260373077738 0.0021305144644581451 0 0.0012149861114250397 0.0013612833150946446 0 0.00093157730582455747 0.0029825731559851437 0 0.00066395260373077738 0.0021305144644581451 0 -0.0029914666004540137 0.0020592924923314515 0 -0.0025225723915047412 0.0030479342572534546 0 -0.0033437483015176786 0.0040158311144094863 0 -7.5772899762970543e-05 0.0016425960623293267 0 -0.0018332110367712028 0.0040685563168509709 0 -0.0025225723915047412 0.0030479342572534546 0 -0.0033437483015176786 0.0040158311144094863 0 -0.0031492421923528247 0.0041023457811433899 0 -0.004523666846447367 0.0032601810850951991 0 -0.0049813986018879429 0.0044458625374496916 0 -0.0066225282491451593 0.0036045324256911804 0 -0.0066471769307635429 0.0043000374326992033 0 -0.0072586413620802353 0.0046885159107703991 0 -0.006188825375057873 0.0037967323723471472 0 -0.0066225282491451593 0.0036045324256911804 0 -0.0066471769307635429 0.0043000374326992033 0 -0.0064176927311313196 0.0050652491838825454 0 -0.0066471769307635429 0.0043000374326992033 0 -0.0072586413620802353 0.0046885159107703991 0 -0.0093863155753085743 0.0057350125849265979 0 -0.0049813986018879429 0.0044458625374496916 0 -0.0084694092024105161 0.0061685680447556351 0 -0.0085137285811732119 0.0061732592479040995 0 -0.0085132080792181732 0.0061534275419660176 0 -0.0084694092024105161 0.0061685680447556351 0 -0.0085137807544609298 0.0061932697826252298 0 -0.0085137285811732119 0.0061732592479040995 0 -0.0085137807544609298 0.0061932697826252298 0 -0.0085137285811732119 0.0061732592479040995 0 -0.0085133322623860298 0.0061689983206692596 0 -0.0083787041401065694 0.0051417997760408686 0 -0.0043196847074826305 0.0050503169641368268 0 -0.0085137807544609298 0.0061932697826252298 0 -0.0085929840192026426 0.0061649079673661289 0 -0.0086045266379963098 0.0061819811551447282 0 -0.0043196847074826305 0.0050503169641368268 0 -0.0051557612069646711 0.005635043949378804 0 -0.0085137285811732119 0.0061732592479040995 0 -0.0085133322623860298 0.0061689983206692596 0 -0.0085132080792181732 0.0061534275419660176 0 -0.0043196847074826305 0.0050503169641368268 0 -0.0049813986018879429 0.0044458625374496916 0 -0.0036490448523198221 0.0052257958208511328 0 -0.0034910341966404293 0.0034359566934802055 0 -0.0027705373581466304 0.0037514003292689166 0 -0.0043196847074826305 0.0050503169641368268 0 -0.0018332110367712028 0.0040685563168509709 0 -0.0018332110367712028 0.0040685563168509709 0 -0.0049813986018879429 0.0044458625374496916 0 0.00093355417187765887 0.0037676883913574564 0 -0.00014302345357762616 0.003188726674354892 0 -6.5961917423754913e-05 0.003889382779129205 0 0.00088492740786532298 0.0041773036736444322 0 0.00093355417187765887 0.0037676883913574564 0 -6.5961917423754913e-05 0.003889382779129205 0 -0.0043196847074826305 0.0050503169641368268 0 -0.0013014586983295189 0.0049169717891881046 0 -0.0037095321854181359 0.0055993469320885338 0 -0.0036750692225842939 0.0055888898143186165 0 -0.0036461081504973888 0.0056126373638280894 0 -0.0037095321854181359 0.0055993469320885338 0 -0.0037063369603247717 0.0055947199445565837 0 -0.0036750692225842939 0.0055888898143186165 0 -0.0036750692225842939 0.0055888898143186165 0 -0.0036461081504973888 0.0056126373638280894 0 -0.0036353509426236843 0.0055855419793799984 0 -0.0018332110367712028 0.0040685563168509709 0 0.0002529726507169479 0.0029419932640055622 0 0.0010324102614475866 0.0014540401086137651 0 0.00066395260373077738 0.0021305144644581451 0 -0.00016142272691536301 0.001981872304385515 0 0.00093157730582455747 0.0029825731559851437 0 0.00023021302053286569 0.0022687429733942947 0 -0.00014930922768280715 0.0025469932338960844 0 0.00093157730582455747 0.0029825731559851437 0 0.00066395260373077738 0.0021305144644581451 0 0.00023021302053286569 0.0022687429733942947 0 0.00023021302053286569 0.0022687429733942947 0 -0.00016142272691536301 0.001981872304385515 0 -0.00014930922768280715 0.0025469932338960844 0 0.00066395260373077738 0.0021305144644581451 0 0.00023021302053286569 0.0022687429733942947 0 -0.00016142272691536301 0.001981872304385515 0 0.0002529726507169479 0.0029419932640055622 0 -0.0017403269220215051 0.0022173605873280263 0 -0.00014302345357762616 0.003188726674354892 0 -0.0012853679269743395 0.0036096076476349022 0 -0.0014990140487500521 0.0033613656998026024 0 -0.00082037505991226886 0.001747271074226839 0 -0.00014930922768280715 0.0025469932338960844 0 -0.0016776065760791613 0.0022446203847292815 0 -0.00014302345357762616 0.003188726674354892 0 -0.0014990140487500521 0.0033613656998026024 0 -0.0016776065760791613 0.0022446203847292815 0 -0.00082037505991226886 0.001747271074226839 0 -0.00016142272691536301 0.001981872304385515 0 -0.00014930922768280715 0.0025469932338960844 0 -0.0013014586983295189 0.0049169717891881046 0 -0.0031598287231392273 0.0044045347429497762 0 -0.0036461081504973888 0.0056126373638280894 0 -0.0036353509426236843 0.0055855419793799984 0 -0.0035911609731795434 0.0056179821464355803 0 -0.0043782402049868238 0.0055876027363890007 0 -0.0050531296959040236 0.0045284484571097208 0 -0.0055055596107563172 0.0053768754605789896 0 -0.00014302345357762616 0.003188726674354892 0 -6.5961917423754913e-05 0.003889382779129205 0 -0.0012853679269743395 0.0036096076476349022 0 -0.0039936898582476586 0.0055842322408723478 0 -0.0031598287231392273 0.0044045347429497762 0 -0.0050531296959040236 0.0045284484571097208 0 -0.0060655116568390068 0.004735158730383375 0 -0.0068373299085780059 0.0035721219960171409 0 -0.0050531296959040236 0.0045284484571097208 0 -0.0055055596107563172 0.0053768754605789896 0 -0.0060655116568390068 0.004735158730383375 0 -0.0055055596107563172 0.0053768754605789896 0 -0.0060061964929374037 0.0060101442151960409 0 -0.0062297875849772807 0.0054228941703477135 0 -0.0055055596107563172 0.0053768754605789896 0 -0.0060655116568390068 0.004735158730383375 0 -0.0062297875849772807 0.0054228941703477135 0 -0.0031598287231392273 0.0044045347429497762 0 -0.0055167536388286836 0.00336202395586827 0 -0.0012136322163390895 0.0036419129387796232 0 -0.0014990140487500521 0.0033613656998026024 0 -0.0039507067002281619 0.0033600038485551795 0 -0.0031598287231392273 0.0044045347429497762 0 -0.0028163710556965431 0.0043477153111741969 0 -0.0014990140487500521 0.0033613656998026024 0 -0.0016776065760791613 0.0022446203847292815 0 -0.0029671353873737725 0.0019624384214891087 0 -0.0057627840153776835 0.0072417550715175982 0 -0.0056802934568165996 0.0075323028702337282 0 -0.0067957331857869934 0.0073498595317251121 0 -0.0056802934568165996 0.0075323028702337282 0 -0.0053820497792297362 0.0079863041907558014 0 -0.0067957331857869934 0.0073498595317251121 0 -0.0057627840153776835 0.0072417550715175982 0 -0.0056802934568165996 0.0075323028702337282 0 -0.0051129981688723273 0.0074453173601614847 0 -0.0057627840153776835 0.0072417550715175982 0 -0.0057820279966825103 0.0065984542055794338 0 -0.004956932615681346 0.0067448925492240835 0 -0.0057627840153776835 0.0072417550715175982 0 -0.004956932615681346 0.0067448925492240835 0 -0.0051129981688723273 0.0074453173601614847 0 -0.0057627840153776835 0.0072417550715175982 0 -0.0057820279966825103 0.0065984542055794338 0 -0.006307288242313692 0.0069679709080435826 0 -0.0057820279966825103 0.0065984542055794338 0 -0.0064595965306456843 0.0065923623424372539 0 -0.006307288242313692 0.0069679709080435826 0 -0.0057820279966825103 0.0065984542055794338 0 -0.0060061964929374037 0.0060101442151960409 0 -0.0052569314062625976 0.0061198169464959989 0 -0.0057820279966825103 0.0065984542055794338 0 -0.0060061964929374037 0.0060101442151960409 0 -0.0064595965306456843 0.0065923623424372539 0 -0.0055055596107563172 0.0053768754605789896 0 -0.0060061964929374037 0.0060101442151960409 0 -0.0052569314062625976 0.0061198169464959989 0 -0.0057820279966825103 0.0065984542055794338 0 -0.0052569314062625976 0.0061198169464959989 0 -0.004956932615681346 0.0067448925492240835 0 -0.0043782402049868238 0.0055876027363890007 0 -0.0055055596107563172 0.0053768754605789896 0 -0.0052569314062625976 0.0061198169464959989 0 -0.0043782402049868238 0.0055876027363890007 0 -0.004956932615681346 0.0067448925492240835 0 -0.0036305738461371515 0.0067994181873152594 0 -0.0045602136008882754 0.0067840450489288513 0 -0.0049031189306286077 0.006995213948830778 0 -0.0043782402049868238 0.0055876027363890007 0 -0.0052569314062625976 0.0061198169464959989 0 -0.004956932615681346 0.0067448925492240835 0 -0.004956932615681346 0.0067448925492240835 0 -0.0045813603551117269 0.0072631868557333059 0 -0.0043458289184308534 0.0068707581900858492 0 -0.004956932615681346 0.0067448925492240835 0 -0.0051129981688723273 0.0074453173601614847 0 -0.0045813603551117269 0.0072631868557333059 0 -0.0051129981688723273 0.0074453173601614847 0 -0.0045813603551117269 0.0072631868557333059 0 -0.0047626586143991638 0.0078324152313750221 0 -0.010020603160233277 0.0077608253420817473 0 -0.0094773370643888178 0.007978358790464669 0 -0.0041426282308083305 0.0071210341502602149 0 -0.0043537931711136475 0.0071299625384812207 0 -0.0042899172790697273 0.0078524253976189669 0 -0.0045813603551117269 0.0072631868557333059 0 -0.0043537931711136475 0.0071299625384812207 0 -0.0042899172790697273 0.0078524253976189669 0 -0.010020603160233277 0.0077608253420817473 0 -0.0090972300968859398 0.0073769322126451082 0 -0.0086564345825849778 0.0071568580136783877 0 -0.0085190846263122396 0.0073168999701625093 0 -0.0086822734948406709 0.007311313742087368 0 -0.0041426282308083305 0.0071210341502602149 0 -0.0043537931711136475 0.0071299625384812207 0 -0.0043029893843986727 0.0069293031423443962 0 -0.010020603160233277 0.0077608253420817473 0 -0.0061707443497120819 0.0072687974041525348 0 -0.0046344107034927261 0.0070560926470614486 0 -0.0049031189306286077 0.006995213948830778 0 -0.0045813603551117269 0.0072631868557333059 0 -0.0043537931711136475 0.0071299625384812207 0 -0.0043949051287026268 0.0069283484258514357 0 -0.0043537931711136475 0.0071299625384812207 0 -0.0043029893843986727 0.0069293031423443962 0 -0.0043949051287026268 0.0069283484258514357 0 -0.0051557612069646711 0.005635043949378804 0 -0.0090972300968859398 0.0073769322126451082 0 -0.0043782402049868238 0.0055876027363890007 0 -0.0036305738461371515 0.0067994181873152594 0 -0.0035524517088447775 0.0066686348473170374 0 -0.0051557612069646711 0.005635043949378804 0 -0.0050841168598948754 0.0069489487029520368 0 -0.0037063369603247717 0.0055947199445565837 0 -0.0036750692225842939 0.0055888898143186165 0 -0.003681173373488447 0.005554558781208239 0 -0.0059652680369404933 0.0055632712571213813 0 -0.0070272646639495612 0.0073415049680750693 0 -0.0063356951854702638 0.0075560816391984642 0 -0.0049827361886178589 0.0076503498716384609 0 -0.005650881042383561 0.0076264536002908206 0 -0.0053749493849308584 0.0071626506742117789 0 -0.0061707443497120819 0.0072687974041525348 0 -0.0049031189306286077 0.006995213948830778 0 -0.0061707443497120819 0.0072687974041525348 0 -0.0050841168598948754 0.0069489487029520368 0 -0.0049031189306286077 0.006995213948830778 0 -0.0050841168598948754 0.0069489487029520368 0 -0.0039936898582476586 0.0055842322408723478 0 -0.0050841168598948754 0.0069489487029520368 0 -0.0036750692225842939 0.0055888898143186165 0 -0.0036353509426236843 0.0055855419793799984 0 -0.003681173373488447 0.005554558781208239 0 -0.0068712185694653873 0.0075370039066929182 0 -0.0070272646639495612 0.0073415049680750693 0 -0.0063356951854702638 0.0075560816391984642 0 -0.0061707443497120819 0.0072687974041525348 0 -0.0090972300968859398 0.0073769322126451082 0 -0.0085137807544609298 0.0061932697826252298 0 -0.0085762168842673132 0.0062775617431949909 0 -0.0085213182555171057 0.0063611291647798366 0 -0.0086045266379963098 0.0061819811551447282 0 -0.0086572640866923803 0.0063623253375365441 0 -0.0085762168842673132 0.0062775617431949909 0 -0.0084694092024105161 0.0061685680447556351 0 -0.0085137807544609298 0.0061932697826252298 0 -0.0085213182555171057 0.0063611291647798366 0 -0.0086572640866923803 0.0063623253375365441 0 -0.0085762168842673132 0.0062775617431949909 0 -0.0085213182555171057 0.0063611291647798366 0 -0.0093863155753085743 0.0057350125849265979 0 -0.014621057598147314 0.007302758803753414 0 -0.0085137807544609298 0.0061932697826252298 0 -0.0086045266379963098 0.0061819811551447282 0 -0.0085762168842673132 0.0062775617431949909 0 -0.0090972300968859398 0.0073769322126451082 0 -0.014621057598147314 0.007302758803753414 0 -0.013010999651520947 0.007883450971067886 0 -0.014908057570167091 0.0083432669925071166 0 -0.01454883075111575 0.0060369876356689096 0 -0.013010999651520947 0.007883450971067886 0 -0.013101719123149223 0.008407302443950989 0 -0.014908057570167091 0.0083432669925071166 0 -0.010020603160233277 0.0077608253420817473 0 -0.019094429639767367 0.0075542820026357838 0 -0.014621057598147314 0.007302758803753414 0 -0.019094429639767367 0.0075542820026357838 0 -0.019094429639767367 0.0075542820026357838 0 -0.022653371323524085 0.0080394843140484777 0 -0.022290801415136161 0.0089919122137122384 0 -0.024158177302775231 0.010870783707939551 0 -0.023063353750703338 0.010635719676570413 0 -0.019094429639767367 0.0075542820026357838 0 -0.020300794175805523 0.0089025991694391664 0 -0.015390366293596698 0.0081809491124858018 0 -0.014610437918980416 0.0075145944829468989 0 -0.015244882371263114 0.0071109503560195736 0 -0.02341966439444575 0.0075433214795390504 0 -0.022290801415136161 0.0089919122137122384 0 -0.024158177302775231 0.010870783707939551 0 -0.012504187706348318 0.0078389884681649997 0 -0.020300794175805523 0.0089025991694391664 0 -0.012504187706348318 0.0078389884681649997 0 -0.020156853341339952 0.0075501808310036791 0 -0.012504187706348318 0.0078389884681649997 0 -0.0094773370643888178 0.007978358790464669 0 -0.015390366293596698 0.0081809491124858018 0 -0.014610437918980416 0.0075145944829468989 0 -0.014710039106270405 0.0081750679622504159 0 -0.014802379330507619 0.008838138009416777 0 -0.015390366293596698 0.0081809491124858018 0 -0.014710039106270405 0.0081750679622504159 0 -0.0044686015551820167 0.0085529311730269415 0 -0.0042899172790697273 0.0078524253976189669 0 -0.0047626586143991638 0.0078324152313750221 0 -0.0045813603551117269 0.0072631868557333059 0 -0.0042899172790697273 0.0078524253976189669 0 -0.0047626586143991638 0.0078324152313750221 0 -0.0044686015551820167 0.0085529311730269415 0 -0.0047626586143991638 0.0078324152313750221 0 -0.0053820497792297362 0.0079863041907558014 0 -0.0051129981688723273 0.0074453173601614847 0 -0.0047626586143991638 0.0078324152313750221 0 -0.0053820497792297362 0.0079863041907558014 0 -0.017064075142050605 0.005389356482049289 0 -0.017072137765192546 0.0053227254610117361 0 -0.017172916899203364 0.0053113175922369386 0 -0.013457578304417454 0.0070335623878060097 0 -0.013912127978313801 0.0069099361166108384 0 -0.013866996268310516 0.0066474031140995602 0 -0.013457578304417454 0.0070335623878060097 0 -0.013912127978313801 0.0069099361166108384 0 -0.013535935166223369 0.0072873639909670287 0 -0.014634798597080174 0.0061504910332756966 0 -0.020156853341339952 0.0075501808310036791 0 -0.012504187706348318 0.0078389884681649997 0 -0.0089550242146077246 0.0074613817795360048 0 -0.017064075142050605 0.005389356482049289 0 -0.017072137765192546 0.0053227254610117361 0 -0.016942242548183842 0.0053521880960091615 0 -0.017072137765192546 0.0053227254610117361 0 -0.016942242548183842 0.0053521880960091615 0 -0.016983745663328668 0.0052916845616442732 0 -0.017064075142050605 0.005389356482049289 0 -0.016942242548183842 0.0053521880960091615 0 -0.016814230195486557 0.0054438795328096831 0 -0.013912127978313801 0.0069099361166108384 0 -0.013866996268310516 0.0066474031140995602 0 -0.014577675659515803 0.0063528363819285007 0 -0.0089550242146077246 0.0074613817795360048 0 -0.010862077595765672 0.0066814657486255888 0 -0.014634798597080174 0.0061504910332756966 0 -0.015755616469961663 0.0059135110506046799 0 -0.017064075142050605 0.005389356482049289 0 -0.016607472532407151 0.005635340457977883 0 -0.016814230195486557 0.0054438795328096831 0 -0.0056802934568165996 0.0075323028702337282 0 -0.0051129981688723273 0.0074453173601614847 0 -0.0053820497792297362 0.0079863041907558014 0 -0.016886654600236979 0.0055642067236869631 0 -0.019144318867732171 0.0068727937430760029 0 -0.017623545780696435 0.0073289276262120456 0 -0.011401988846105262 0.0071776702447612925 0 -0.015223593037523967 0.0069524532954053416 0 -0.016886654600236979 0.0055642067236869631 0 -0.017623545780696435 0.0073289276262120456 0 -0.015856166110016341 0.0073263850994317046 0 -0.012141876256382819 0.0055130018509180053 0 -0.011401988846105262 0.0071776702447612925 0 -0.014906330677108778 0.0057369495815612686 0 -0.016886654600236979 0.0055642067236869631 0 -0.015856166110016341 0.0073263850994317046 0 -0.00567762838853511 0.0062647576344521463 0 -0.0056301679361926912 0.0073414178064069319 0 -0.0070464475290472521 0.0069966396183711744 0 -0.0049214212702958556 0.0084256400310468611 0 -0.0070582940955952926 0.0084639561417314928 0 -0.0056301679361926912 0.0073414178064069319 0 -0.0070582940955952926 0.0084639561417314928 0 -0.0056301679361926912 0.0073414178064069319 0 -0.0070464475290472521 0.0069966396183711744 0 -0.0070582940955952926 0.0084639561417314928 0 -0.0070464475290472521 0.0069966396183711744 0 -0.0094773923770635673 0.0087086883246358208 0 -0.0070464475290472521 0.0069966396183711744 0 -0.0089172057246159672 0.0072477818656224496 0 -0.0094773923770635673 0.0087086883246358208 0 -0.0077561914861539486 0.0063692911189472904 0 -0.0070464475290472521 0.0069966396183711744 0 -0.0089172057246159672 0.0072477818656224496 0 -0.0089172057246159672 0.0072477818656224496 0 -0.010866006821113418 0.0077801373201643398 0 -0.0094773923770635673 0.0087086883246358208 0 -0.012690980013430449 0.0088323828650052789 0 -0.010866006821113418 0.0077801373201643398 0 -0.0094773923770635673 0.0087086883246358208 0 -0.0122034357656599 0.0057005183439403258 0 -0.012690980013430449 0.0088323828650052789 0 -0.010866006821113418 0.0077801373201643398 0 -0.0122034357656599 0.0057005183439403258 0 -0.0089172057246159672 0.0072477818656224496 0 -0.010866006821113418 0.0077801373201643398 0 -0.014621057598147314 0.007302758803753414 0 -0.015223593037523967 0.0069524532954053416 0 -0.022491706632068637 0.0051586862763431567 0 -0.019436930338078032 0.0053089111444980805 0 -0.021150638705601375 0.0070799580921242344 0 -0.022491706632068637 0.0051586862763431567 0 -0.023096781219513637 0.0076856435257086362 0 -0.021150638705601375 0.0070799580921242344 0 -0.019436930338078032 0.0053089111444980805 0 -0.019144318867732171 0.0068727937430760029 0 -0.021150638705601375 0.0070799580921242344 0 -0.016886654600236979 0.0055642067236869631 0 -0.019436930338078032 0.0053089111444980805 0 -0.019144318867732171 0.0068727937430760029 0 -0.019144318867732171 0.0068727937430760029 0 -0.020383595043851423 0.0082262965919309913 0 -0.021150638705601375 0.0070799580921242344 0 -0.019144318867732171 0.0068727937430760029 0 -0.020383595043851423 0.0082262965919309913 0 -0.01909750459451694 0.008432058205162251 0 -0.020383595043851423 0.0082262965919309913 0 -0.021150638705601375 0.0070799580921242344 0 -0.022290801415136161 0.0089919122137122384 0 -0.023096781219513637 0.0076856435257086362 0 -0.021150638705601375 0.0070799580921242344 0 -0.022290801415136161 0.0089919122137122384 0 -0.020383595043851423 0.0082262965919309913 0 -0.022290801415136161 0.0089919122137122384 0 -0.020802416065051049 0.0096262948397973051 0 -0.022290801415136161 0.0089919122137122384 0 -0.020802416065051049 0.0096262948397973051 0 -0.0221182331397159 0.010480782109986824 0 -0.022290801415136161 0.0089919122137122384 0 -0.0221182331397159 0.010480782109986824 0 -0.023063353750703338 0.010635719676570413 0 -0.01909750459451694 0.008432058205162251 0 -0.020802416065051049 0.0096262948397973051 0 -0.019278301733381062 0.010555686680757957 0 -0.020383595043851423 0.0082262965919309913 0 -0.01909750459451694 0.008432058205162251 0 -0.020802416065051049 0.0096262948397973051 0 -0.01909750459451694 0.008432058205162251 0 -0.017285636855756129 0.0085348425451159376 0 -0.019278301733381062 0.010555686680757957 0 -0.017285636855756129 0.0085348425451159376 0 -0.017089743495634611 0.010267302470213556 0 -0.019278301733381062 0.010555686680757957 0 -0.01909750459451694 0.008432058205162251 0 -0.017623545780696435 0.0073289276262120456 0 -0.017285636855756129 0.0085348425451159376 0 -0.019144318867732171 0.0068727937430760029 0 -0.01909750459451694 0.008432058205162251 0 -0.017623545780696435 0.0073289276262120456 0 -0.017623545780696435 0.0073289276262120456 0 -0.017285636855756129 0.0085348425451159376 0 -0.015856166110016341 0.0073263850994317046 0 -0.015062192300373995 0.0094722956415923699 0 -0.017285636855756129 0.0085348425451159376 0 -0.015856166110016341 0.0073263850994317046 0 -0.015062192300373995 0.0094722956415923699 0 -0.017285636855756129 0.0085348425451159376 0 -0.017089743495634611 0.010267302470213556 0 -0.015062192300373995 0.0094722956415923699 0 -0.017089743495634611 0.010267302470213556 0 -0.016055471108721221 0.012171541981113351 0 -0.017089743495634611 0.010267302470213556 0 -0.016055471108721221 0.012171541981113351 0 -0.019455964802592769 0.012749382647054842 0 -0.016055471108721221 0.012171541981113351 0 -0.019455964802592769 0.012749382647054842 0 -0.017048145246115299 0.014795681386066186 0 -0.020250685604687464 0.011998833849001467 0 -0.016153108035974025 0.016704562446687068 0 -0.017089743495634611 0.010267302470213556 0 -0.019455964802592769 0.012749382647054842 0 -0.019278301733381062 0.010555686680757957 0 -0.019455964802592769 0.012749382647054842 0 -0.019278301733381062 0.010555686680757957 0 -0.02137652111129135 0.011484140309729907 0 -0.020802416065051049 0.0096262948397973051 0 -0.019278301733381062 0.010555686680757957 0 -0.02137652111129135 0.011484140309729907 0 -0.020802416065051049 0.0096262948397973051 0 -0.02137652111129135 0.011484140309729907 0 -0.0221182331397159 0.010480782109986824 0 -0.0221182331397159 0.010480782109986824 0 -0.022857471680720914 0.011377732217852939 0 -0.023063353750703338 0.010635719676570413 0 -0.02137652111129135 0.011484140309729907 0 -0.0221182331397159 0.010480782109986824 0 -0.022857471680720914 0.011377732217852939 0 -0.02137652111129135 0.011484140309729907 0 -0.022857471680720914 0.011377732217852939 0 -0.022939253013556336 0.012365378379664206 0 -0.02137652111129135 0.011484140309729907 0 -0.022939253013556336 0.012365378379664206 0 -0.021495160402799633 0.013128373915149993 0 -0.022939253013556336 0.012365378379664206 0 -0.021495160402799633 0.013128373915149993 0 -0.022951624567795113 0.014314404460899457 0 -0.019455964802592769 0.012749382647054842 0 -0.021495160402799633 0.013128373915149993 0 -0.020883155266085588 0.015121734337829113 0 -0.019455964802592769 0.012749382647054842 0 -0.02137652111129135 0.011484140309729907 0 -0.021495160402799633 0.013128373915149993 0 -0.021495160402799633 0.013128373915149993 0 -0.020883155266085588 0.015121734337829113 0 -0.022951624567795113 0.014314404460899457 0 -0.020883155266085588 0.015121734337829113 0 -0.022951624567795113 0.014314404460899457 0 -0.024003256663954 0.016468565612795149 0 -0.020883155266085588 0.015121734337829113 0 -0.024003256663954 0.016468565612795149 0 -0.022460413675580399 0.017952440941387999 0 -0.020883155266085588 0.015121734337829113 0 -0.020116909901108357 0.016824981945915914 0 -0.022460413675580399 0.017952440941387999 0 -0.020883155266085588 0.015121734337829113 0 -0.019107114126602587 0.014464106267458502 0 -0.020116909901108357 0.016824981945915914 0 -0.031429083785477742 0.0034805755528447046 0 -0.025370803833335155 0.0061857299232789299 0 -0.019107114126602587 0.014464106267458502 0 -0.020116909901108357 0.016824981945915914 0 -0.018278801012269495 0.015925126721125303 0 -0.040539336509270281 -0.0088708811335386686 0 -0.041483352594125632 -0.0093635041986530349 0 -0.039407336160140409 -0.0099463566433110832 0 -0.016153108035974025 0.016704562446687068 0 -0.025370803833335155 0.0061857299232789299 0 -0.019455964802592769 0.012749382647054842 0 -0.020883155266085588 0.015121734337829113 0 -0.019107114126602587 0.014464106267458502 0 -0.017175066070457178 0.0053035313780066201 0 -0.017099975293368173 0.0052880260144688579 0 -0.017149279953272284 0.0053065176539084579 0 -0.017175066070457178 0.0053035313780066201 0 -0.017099975293368173 0.0052880260144688579 0 -0.017022377427460517 0.0052360832849157853 0 -0.016983745663328668 0.0052916845616442732 0 -0.017099975293368173 0.0052880260144688579 0 -0.017022377427460517 0.0052360832849157853 0 -0.017072137765192546 0.0053227254610117361 0 -0.016983745663328668 0.0052916845616442732 0 -0.017099975293368173 0.0052880260144688579 0 -0.017072137765192546 0.0053227254610117361 0 -0.017099975293368173 0.0052880260144688579 0 -0.017172916899203364 0.0053113175922369386 0 -0.017099975293368173 0.0052880260144688579 0 -0.017149279953272284 0.0053065176539084579 0 -0.017172916899203364 0.0053113175922369386 0 -0.017149279953272284 0.0053065176539084579 0 -0.017172916899203364 0.0053113175922369386 0 -0.01716364678855609 0.0053528329163404021 0 -0.017175066070457178 0.0053035313780066201 0 -0.017149279953272284 0.0053065176539084579 0 -0.01716364678855609 0.0053528329163404021 0 -0.020156853341339952 0.0075501808310036791 0 -0.024040571040459344 0.0069380851316942719 0 -0.029778791039919043 0.0086504570492351579 0 -0.029797743836271498 0.0087026142890295633 0 -0.029935425070806796 0.0087294114939373679 0 -0.018846438597716904 0.0084526822226816192 0 -0.020084719007870303 0.0086465876904691149 0 -0.019929803086528603 0.007559980421844509 0 -0.018985777148854636 0.0093688076473981852 0 -0.018846438597716904 0.0084526822226816192 0 -0.020084719007870303 0.0086465876904691149 0 -0.020156853341339952 0.0075501808310036791 0 -0.024910300814628066 0.010125624828129495 0 -0.020300794175805523 0.0089025991694391664 0 -0.024910300814628066 0.010125624828129495 0 -0.024104467112685355 0.010905687082000348 0 -0.02367488639212997 0.011846643714427129 0 -0.024340458980507611 0.012416482826715503 0 -0.024104467112685355 0.010905687082000348 0 -0.023809378531428695 0.011103760781962579 0 -0.02367488639212997 0.011846643714427129 0 -0.020300794175805523 0.0089025991694391664 0 -0.021176032616809271 0.0088947940287768205 0 -0.024158177302775231 0.010870783707939551 0 -0.023063353750703338 0.010635719676570413 0 -0.023809378531428695 0.011103760781962579 0 -0.022857471680720914 0.011377732217852939 0 -0.023063353750703338 0.010635719676570413 0 -0.023809378531428695 0.011103760781962579 0 -0.022857471680720914 0.011377732217852939 0 -0.022939253013556336 0.012365378379664206 0 -0.02367488639212997 0.011846643714427129 0 -0.022857471680720914 0.011377732217852939 0 -0.023809378531428695 0.011103760781962579 0 -0.02367488639212997 0.011846643714427129 0 -0.022939253013556336 0.012365378379664206 0 -0.02367488639212997 0.011846643714427129 0 -0.024340458980507611 0.012416482826715503 0 -0.024910300814628066 0.010125624828129495 0 -0.028481578948940774 0.011480038759260828 0 -0.022939253013556336 0.012365378379664206 0 -0.022951624567795113 0.014314404460899457 0 -0.024340458980507611 0.012416482826715503 0 -0.022900014645687614 0.014880099997458514 0 -0.024910300814628066 0.010125624828129495 0 -0.022951624567795113 0.014314404460899457 0 -0.024003256663954 0.016468565612795149 0 -0.026303474615615732 0.014809079801182614 0 -0.022951624567795113 0.014314404460899457 0 -0.025780322371452575 0.011733284147851205 0 -0.026303474615615732 0.014809079801182614 0 -0.024003256663954 0.016468565612795149 0 -0.026303474615615732 0.014809079801182614 0 -0.026846684398281317 0.017380630602973242 0 -0.028481578948940774 0.011480038759260828 0 -0.027701297548318873 0.014950803049397797 0 -0.030039183418957126 0.0087933245067069454 0 -0.02993928504568966 0.008788974902100951 0 -0.030133228240672022 0.0087602750138715425 0 -0.030039183418957126 0.0087933245067069454 0 -0.030141031920196321 0.0088365587083326074 0 -0.030133228240672022 0.0087602750138715425 0 -0.029797743836271498 0.0087026142890295633 0 -0.02993928504568966 0.008788974902100951 0 -0.029935425070806796 0.0087294114939373679 0 -0.030039183418957126 0.0087933245067069454 0 -0.02993928504568966 0.008788974902100951 0 -0.029935425070806796 0.0087294114939373679 0 -0.017175066070457178 0.0053035313780066201 0 -0.01716364678855609 0.0053528329163404021 0 -0.017268753055434207 0.005440924084188007 0 -0.01716364678855609 0.0053528329163404021 0 -0.01725468876111973 0.0056058655682410894 0 -0.017268753055434207 0.005440924084188007 0 -0.030039183418957126 0.0087933245067069454 0 -0.029935425070806796 0.0087294114939373679 0 -0.030141031920196321 0.0088365587083326074 0 -0.024040571040459344 0.0069380851316942719 0 -0.023282494424264274 0.007452892305555449 0 -0.01725468876111973 0.0056058655682410894 0 -0.017430876343615807 0.0056942720627709987 0 -0.017460854126049613 0.0055116682028326308 0 -0.01725468876111973 0.0056058655682410894 0 -0.017268753055434207 0.005440924084188007 0 -0.017460854126049613 0.0055116682028326308 0 -0.017200334871006497 0.0053146487655990641 0 -0.017375106862292034 0.0054634179331245585 0 -0.017175066070457178 0.0053035313780066201 0 -0.017268753055434207 0.005440924084188007 0 -0.017460854126049613 0.0055116682028326308 0 -0.017430876343615807 0.0056942720627709987 0 -0.017385563756619558 0.0058340641450052716 0 -0.01752251046381488 0.0059195879694172969 0 -0.030141031920196321 0.0088365587083326074 0 -0.030301974785667277 0.0087789901864199788 0 -0.030224707685231191 0.008571782110105796 0 -0.01725468876111973 0.0056058655682410894 0 -0.017430876343615807 0.0056942720627709987 0 -0.017385563756619558 0.0058340641450052716 0 -0.023282494424264274 0.007452892305555449 0 -0.026510696308052459 0.0059589938465921212 0 -0.030141031920196321 0.0088365587083326074 0 -0.030224707685231191 0.008571782110105796 0 -0.030133252892542841 0.0085231280596077576 0 -0.030301974785667277 0.0087789901864199788 0 -0.030224707685231191 0.008571782110105796 0 -0.030182918654685833 0.0083178945955691246 0 -0.030301974785667277 0.0087789901864199788 0 -0.03039005072729618 0.0092377426391970479 0 -0.031014113385075613 0.0094309917742986787 0 -0.029141662464308504 0.010228428509676665 0 -0.036686946545367909 0.0042334597645031051 0 -0.030029171867547558 0.0080717523278909936 0 -0.026510696308052459 0.0059589938465921212 0 -0.030224707685231191 0.008571782110105796 0 -0.030112398133119576 0.0084914388310492819 0 -0.030182918654685833 0.0083178945955691246 0 -0.027416557826593826 0.019688176867400486 0 -0.026846684398281317 0.017380630602973242 0 -0.024933118545215734 0.018895744748876179 0 -0.037703492959582217 0.0047908547983996908 0 -0.027701297548318873 0.014950803049397797 0 -0.030301974785667277 0.0087789901864199788 0 -0.03039005072729618 0.0092377426391970479 0 -0.030133228240672022 0.0087602750138715425 0 -0.030141031920196321 0.0088365587083326074 0 -0.030301974785667277 0.0087789901864199788 0 -0.030133228240672022 0.0087602750138715425 0 -0.024003256663954 0.016468565612795149 0 -0.026846684398281317 0.017380630602973242 0 -0.024933118545215734 0.018895744748876179 0 -0.037703492959582217 0.0047908547983996908 0 -0.035802577792067414 0.0059175845776324168 0 -0.048657402992114684 -0.0064625073591510302 0 -0.04639491103720246 -0.0075297994100955532 0 -0.046463061153890761 -0.0059899125432906521 0 -0.048657402992114684 -0.0064625073591510302 0 -0.046463061153890761 -0.0059899125432906521 0 -0.047458323716448723 -0.004903718351552201 0 -0.046463061153890761 -0.0059899125432906521 0 -0.047458323716448723 -0.004903718351552201 0 -0.046006773339170332 -0.0046729484692251419 0 -0.047458323716448723 -0.004903718351552201 0 -0.047895778358849006 -0.0037262435007866667 0 -0.047003501374723693 -0.0034915628051455207 0 -0.047458323716448723 -0.004903718351552201 0 -0.046006773339170332 -0.0046729484692251419 0 -0.047003501374723693 -0.0034915628051455207 0 -0.047458323716448723 -0.004903718351552201 0 -0.047895778358849006 -0.0037262435007866667 0 -0.049061326167528681 -0.0041082218711391344 0 -0.048657402992114684 -0.0064625073591510302 0 -0.047458323716448723 -0.004903718351552201 0 -0.049061326167528681 -0.0041082218711391344 0 -0.037703492959582217 0.0047908547983996908 0 -0.048942358472137924 -0.0052118785372793717 0 -0.038582925967518153 0.002374641559304429 0 -0.038902623264936508 0.0025117756641022913 0 -0.038406960105382346 0.00098177356659235227 0 -0.046151522516577059 -0.0037901603358951861 0 -0.046801296999216299 -0.002220586708150256 0 -0.047217158584355177 -0.003418244807147136 0 -0.037703492959582217 0.0047908547983996908 0 -0.036686946545367909 0.0042334597645031051 0 -0.030112398133119576 0.0084914388310492819 0 -0.030098911561311725 0.0082703928445426768 0 -0.030182918654685833 0.0083178945955691246 0 -0.026510696308052459 0.0059589938465921212 0 -0.034602590789623036 0.003341393980593685 0 -0.034602590789623036 0.003341393980593685 0 -0.036686946545367909 0.0042334597645031051 0 -0.036686946545367909 0.0042334597645031051 0 -0.042339042575058265 -0.00040213699083741091 0 -0.046801296999216299 -0.002220586708150256 0 -0.047217158584355177 -0.003418244807147136 0 -0.047966263025613576 -0.0020598485086669258 0 -0.034602590789623036 0.003341393980593685 0 -0.042339042575058265 -0.00040213699083741091 0 -0.040448534093163485 0.0005564087620160865 0 -0.04052770771885137 0.00062616793195690765 0 -0.040581863005706625 0.00058392491563029618 0 -0.034602590789623036 0.003341393980593685 0 -0.035027993375669135 0.0022074414011753712 0 -0.026510696308052459 0.0059589938465921212 0 -0.022733270263501845 0.0046490194498631432 0 -0.029195286652506574 0.003877491825266068 0 -0.029228023660752056 0.0039536964336361223 0 -0.02937686161416108 0.0039493561569704135 0 -0.029228023660752056 0.0039536964336361223 0 -0.02937686161416108 0.0039493561569704135 0 -0.029410371454510004 0.0040403464813120061 0 -0.042842543793632455 -0.0076474727414621848 0 -0.041494712567328361 -0.0076168423520540192 0 -0.04264448087769529 -0.0063829941386721626 0 -0.041494712567328361 -0.0076168423520540192 0 -0.041368105736289081 -0.0059241758619067988 0 -0.040005542348638914 -0.0072394500876487144 0 -0.041494712567328361 -0.0076168423520540192 0 -0.040539336509270281 -0.0088708811335386686 0 -0.040005542348638914 -0.0072394500876487144 0 -0.041494712567328361 -0.0076168423520540192 0 -0.040539336509270281 -0.0088708811335386686 0 -0.041483352594125632 -0.0093635041986530349 0 -0.031429083785477742 0.0034805755528447046 0 -0.033023741988524577 0.0046581562326795632 0 -0.042842543793632455 -0.0076474727414621848 0 -0.041494712567328361 -0.0076168423520540192 0 -0.041483352594125632 -0.0093635041986530349 0 -0.042842543793632455 -0.0076474727414621848 0 -0.041483352594125632 -0.0093635041986530349 0 -0.043861619935448931 -0.0085969670233780916 0 -0.035802577792067414 0.0059175845776324168 0 -0.033023741988524577 0.0046581562326795632 0 -0.024003256663954 0.016468565612795149 0 -0.024933118545215734 0.018895744748876179 0 -0.022460413675580399 0.017952440941387999 0 -0.04639491103720246 -0.0075297994100955532 0 -0.043861619935448931 -0.0085969670233780916 0 -0.044697666407520431 -0.0062098461132322359 0 -0.04639491103720246 -0.0075297994100955532 0 -0.046463061153890761 -0.0059899125432906521 0 -0.044697666407520431 -0.0062098461132322359 0 -0.042842543793632455 -0.0076474727414621848 0 -0.043861619935448931 -0.0085969670233780916 0 -0.044697666407520431 -0.0062098461132322359 0 -0.042842543793632455 -0.0076474727414621848 0 -0.044697666407520431 -0.0062098461132322359 0 -0.04264448087769529 -0.0063829941386721626 0 -0.046463061153890761 -0.0059899125432906521 0 -0.044697666407520431 -0.0062098461132322359 0 -0.046006773339170332 -0.0046729484692251419 0 -0.046006773339170332 -0.0046729484692251419 0 -0.044705937011381619 -0.0042633245768312717 0 -0.045861357452841173 -0.0032612572857578202 0 -0.046006773339170332 -0.0046729484692251419 0 -0.045861357452841173 -0.0032612572857578202 0 -0.047003501374723693 -0.0034915628051455207 0 -0.044697666407520431 -0.0062098461132322359 0 -0.046006773339170332 -0.0046729484692251419 0 -0.044705937011381619 -0.0042633245768312717 0 -0.044697666407520431 -0.0062098461132322359 0 -0.044705937011381619 -0.0042633245768312717 0 -0.043130295827967569 -0.004834681872139905 0 -0.043130295827967569 -0.004834681872139905 0 -0.041902391371519167 -0.0040829953597536391 0 -0.043604587796024663 -0.0035390634158915094 0 -0.044705937011381619 -0.0042633245768312717 0 -0.043130295827967569 -0.004834681872139905 0 -0.043604587796024663 -0.0035390634158915094 0 -0.043130295827967569 -0.004834681872139905 0 -0.04264448087769529 -0.0063829941386721626 0 -0.041368105736289081 -0.0059241758619067988 0 -0.044697666407520431 -0.0062098461132322359 0 -0.043130295827967569 -0.004834681872139905 0 -0.04264448087769529 -0.0063829941386721626 0 -0.041494712567328361 -0.0076168423520540192 0 -0.04264448087769529 -0.0063829941386721626 0 -0.041368105736289081 -0.0059241758619067988 0 -0.041368105736289081 -0.0059241758619067988 0 -0.041902391371519167 -0.0040829953597536391 0 -0.03967270205541891 -0.0052577833877662334 0 -0.043130295827967569 -0.004834681872139905 0 -0.041368105736289081 -0.0059241758619067988 0 -0.041902391371519167 -0.0040829953597536391 0 -0.041902391371519167 -0.0040829953597536391 0 -0.040133740253568043 -0.0038378229204274476 0 -0.03967270205541891 -0.0052577833877662334 0 -0.03967270205541891 -0.0052577833877662334 0 -0.038361955826799417 -0.0054777079820357419 0 -0.03785492633454926 -0.0037347728061732457 0 -0.040133740253568043 -0.0038378229204274476 0 -0.03967270205541891 -0.0052577833877662334 0 -0.03785492633454926 -0.0037347728061732457 0 -0.038361955826799417 -0.0054777079820357419 0 -0.038672388133556349 -0.0066192523142896585 0 -0.037251442362640608 -0.0062444679875127938 0 -0.03967270205541891 -0.0052577833877662334 0 -0.038361955826799417 -0.0054777079820357419 0 -0.038672388133556349 -0.0066192523142896585 0 -0.03967270205541891 -0.0052577833877662334 0 -0.038672388133556349 -0.0066192523142896585 0 -0.040005542348638914 -0.0072394500876487144 0 -0.041368105736289081 -0.0059241758619067988 0 -0.03967270205541891 -0.0052577833877662334 0 -0.040005542348638914 -0.0072394500876487144 0 -0.038672388133556349 -0.0066192523142896585 0 -0.040005542348638914 -0.0072394500876487144 0 -0.038855841330758263 -0.0076830365990749796 0 -0.040005542348638914 -0.0072394500876487144 0 -0.038855841330758263 -0.0076830365990749796 0 -0.039526414811893125 -0.0082183586187061682 0 -0.038672388133556349 -0.0066192523142896585 0 -0.037833939702186584 -0.0073005740029555757 0 -0.037251442362640608 -0.0062444679875127938 0 -0.038672388133556349 -0.0066192523142896585 0 -0.038855841330758263 -0.0076830365990749796 0 -0.037833939702186584 -0.0073005740029555757 0 -0.038182706138633803 -0.0082281487692474099 0 -0.037669268895088481 -0.0081908481353421339 0 -0.037833939702186584 -0.0073005740029555757 0 -0.038855841330758263 -0.0076830365990749796 0 -0.038182706138633803 -0.0082281487692474099 0 -0.037833939702186584 -0.0073005740029555757 0 -0.03891861151720858 -0.0084127930532549161 0 -0.038182706138633803 -0.0082281487692474099 0 -0.039023371557173871 -0.0091328529319237382 0 -0.038855841330758263 -0.0076830365990749796 0 -0.03891861151720858 -0.0084127930532549161 0 -0.038182706138633803 -0.0082281487692474099 0 -0.038182706138633803 -0.0082281487692474099 0 -0.037910180329255867 -0.0087466582680796514 0 -0.037669268895088481 -0.0081908481353421339 0 -0.029951117232812435 -0.0029736164534501851 0 -0.030625602934870957 -0.0031610824200702038 0 -0.030189060578183984 -0.0033655444587360876 0 -0.038182706138633803 -0.0082281487692474099 0 -0.037910180329255867 -0.0087466582680796514 0 -0.038891877585837349 -0.0090143202200682528 0 -0.038678018154975319 -0.0088024413052375915 0 -0.037125505531687669 -0.0080995933847755486 0 -0.033060931247209158 -0.0057000292535935226 0 -0.037125505531687669 -0.0080995933847755486 0 -0.03891861151720858 -0.0084127930532549161 0 -0.039434195903412884 -0.0088733005636699568 0 -0.039023371557173871 -0.0091328529319237382 0 -0.039434195903412884 -0.0088733005636699568 0 -0.039023371557173871 -0.0091328529319237382 0 -0.039498539829657675 -0.0093430755899116345 0 -0.040539336509270281 -0.0088708811335386686 0 -0.040005542348638914 -0.0072394500876487144 0 -0.039526414811893125 -0.0082183586187061682 0 -0.040539336509270281 -0.0088708811335386686 0 -0.039434195903412884 -0.0088733005636699568 0 -0.039498539829657675 -0.0093430755899116345 0 -0.040539336509270281 -0.0088708811335386686 0 -0.039434195903412884 -0.0088733005636699568 0 -0.039526414811893125 -0.0082183586187061682 0 -0.038855841330758263 -0.0076830365990749796 0 -0.03891861151720858 -0.0084127930532549161 0 -0.039526414811893125 -0.0082183586187061682 0 -0.03891861151720858 -0.0084127930532549161 0 -0.039434195903412884 -0.0088733005636699568 0 -0.039526414811893125 -0.0082183586187061682 0 -0.033954858879841877 -0.009675756943546358 0 -0.03026660355230856 -0.0085707615253083364 0 -0.033230715054638683 -0.0049170614068741077 0 -0.036304968996241964 -0.0084855550467266352 0 -0.031368052585777191 -0.0071013496706226094 0 -0.035763861258155803 -0.0074380007499450672 0 -0.030140561259789353 -0.0044698399737069924 0 -0.036304968996241964 -0.0084855550467266352 0 -0.035763861258155803 -0.0074380007499450672 0 -0.033060931247209158 -0.0057000292535935226 0 -0.035763861258155803 -0.0074380007499450672 0 -0.029951117232812435 -0.0029736164534501851 0 -0.029379192351263943 -0.0028284851441102207 0 -0.029649606316955023 -0.0032927242187625327 0 -0.037910180329255867 -0.0087466582680796514 0 -0.037669268895088481 -0.0081908481353421339 0 -0.036735538394515134 -0.0084527207904681548 0 -0.035763861258155803 -0.0074380007499450672 0 -0.040676994819706901 -0.0075601902996182534 0 -0.036735538394515134 -0.0084527207904681548 0 -0.037833939702186584 -0.0073005740029555757 0 -0.037251442362640608 -0.0062444679875127938 0 -0.042984267948565795 -0.010329349931523936 0 -0.042415445415895495 -0.0087186745632819133 0 -0.043669616050500473 -0.0079648257023827509 0 -0.037669268895088481 -0.0081908481353421339 0 -0.036735538394515134 -0.0084527207904681548 0 -0.037833939702186584 -0.0073005740029555757 0 -0.041516047638144857 -0.0099215635193583979 0 -0.042415445415895495 -0.0087186745632819133 0 -0.041160248903960195 -0.0077720721206475246 0 -0.041516047638144857 -0.0099215635193583979 0 -0.042984267948565795 -0.010329349931523936 0 -0.042415445415895495 -0.0087186745632819133 0 -0.042415445415895495 -0.0087186745632819133 0 -0.043669616050500473 -0.0079648257023827509 0 -0.042531792821986276 -0.0070489508470738633 0 -0.042415445415895495 -0.0087186745632819133 0 -0.042531792821986276 -0.0070489508470738633 0 -0.041160248903960195 -0.0077720721206475246 0 -0.042531792821986276 -0.0070489508470738633 0 -0.041281299767475049 -0.0066603309471076405 0 -0.041160248903960195 -0.0077720721206475246 0 -0.040676994819706901 -0.0075601902996182534 0 -0.043055284480627384 -0.0044072068003382266 0 -0.043669616050500473 -0.0079648257023827509 0 -0.042531792821986276 -0.0070489508470738633 0 -0.044154852100518935 -0.0059525138350967656 0 -0.038361955826799417 -0.0054777079820357419 0 -0.037251442362640608 -0.0062444679875127938 0 -0.03785492633454926 -0.0037347728061732457 0 -0.043320369670837119 -0.007254537852796835 0 -0.043055284480627384 -0.0044072068003382266 0 -0.042531792821986276 -0.0070489508470738633 0 -0.04339641475949866 -0.0053206355543093456 0 -0.045850739426134615 -0.0056098940388010646 0 -0.041281299767475049 -0.0066603309471076405 0 -0.041479844450009948 -0.0051358914728105859 0 -0.04339641475949866 -0.0053206355543093456 0 -0.042531792821986276 -0.0070489508470738633 0 -0.041281299767475049 -0.0066603309471076405 0 -0.04339641475949866 -0.0053206355543093456 0 -0.041379455565501773 -0.0066841793951329977 0 -0.041931686015679238 -0.0053003662153591688 0 -0.041281299767475049 -0.0066603309471076405 0 -0.039964416532529579 -0.0069178247738028772 0 -0.041479844450009948 -0.0051358914728105859 0 -0.041281299767475049 -0.0066603309471076405 0 -0.039964416532529579 -0.0069178247738028772 0 -0.040623542237654332 -0.0073208407304965481 0 -0.041131866907262733 -0.0071145369347814002 0 -0.040429269550581001 -0.0054147116560707455 0 -0.04256931145711642 -0.0052272908350668619 0 -0.041131866907262733 -0.0071145369347814002 0 -0.0390324809636272 -0.0065783941911936325 0 -0.040429269550581001 -0.0054147116560707455 0 -0.041379455565501773 -0.0066841793951329977 0 -0.032135010353490964 -0.0074693004441070852 0 -0.039964416532529579 -0.0069178247738028772 0 -0.039754824276202534 -0.0078113874889149115 0 -0.040166625309375259 -0.0077972428233168169 0 -0.039964416532529579 -0.0069178247738028772 0 -0.039754824276202534 -0.0078113874889149115 0 -0.039290667711111324 -0.0078939804495590567 0 -0.041131866907262733 -0.0071145369347814002 0 -0.0390324809636272 -0.0065783941911936325 0 -0.039655773607801433 -0.0089595351533916824 0 -0.039754824276202534 -0.0078113874889149115 0 -0.040166625309375259 -0.0077972428233168169 0 -0.039857357037504537 -0.0080490311858781981 0 -0.040166625309375259 -0.0077972428233168169 0 -0.041160248903960195 -0.0077720721206475246 0 -0.040259742887991237 -0.0080801063447222231 0 -0.041281299767475049 -0.0066603309471076405 0 -0.041160248903960195 -0.0077720721206475246 0 -0.040623542237654332 -0.0073208407304965481 0 -0.039964416532529579 -0.0069178247738028772 0 -0.040166625309375259 -0.0077972428233168169 0 -0.040623542237654332 -0.0073208407304965481 0 -0.040166625309375259 -0.0077972428233168169 0 -0.041160248903960195 -0.0077720721206475246 0 -0.040623542237654332 -0.0073208407304965481 0 -0.025557441698207003 -0.0079653563716110352 0 -0.026346248627174804 -0.0077106889239946181 0 -0.025903460756011132 -0.00819777288557497 0 -0.025557441698207003 -0.0079653563716110352 0 -0.025802800305775607 -0.0074733299607438412 0 -0.026346248627174804 -0.0077106889239946181 0 -0.025557441698207003 -0.0079653563716110352 0 -0.025485043095419626 -0.0076878359217576239 0 -0.025270893927473691 -0.0077995729201014415 0 -0.025557441698207003 -0.0079653563716110352 0 -0.025485043095419626 -0.0076878359217576239 0 -0.025802800305775607 -0.0074733299607438412 0 -0.025485043095419626 -0.0076878359217576239 0 -0.025802800305775607 -0.0074733299607438412 0 -0.025310054659325992 -0.0075104638464247014 0 -0.026145200064080602 -0.008379331208466189 0 -0.025342671833030805 -0.0084685445588070195 0 -0.026372233129173514 -0.0087733099784071296 0 -0.032830971570450777 -0.0074165143002195661 0 -0.032135010353490964 -0.0074693004441070852 0 -0.026346248627174804 -0.0077106889239946181 0 -0.026559332937202147 -0.0085379072942190787 0 -0.026145200064080602 -0.008379331208466189 0 -0.026346248627174804 -0.0077106889239946181 0 -0.026145200064080602 -0.008379331208466189 0 -0.025903460756011132 -0.00819777288557497 0 -0.026559332937202147 -0.0085379072942190787 0 -0.026145200064080602 -0.008379331208466189 0 -0.026372233129173514 -0.0087733099784071296 0 -0.026145200064080602 -0.008379331208466189 0 -0.025903460756011132 -0.00819777288557497 0 -0.025342671833030805 -0.0084685445588070195 0 -0.025557441698207003 -0.0079653563716110352 0 -0.025903460756011132 -0.00819777288557497 0 -0.025342671833030805 -0.0084685445588070195 0 -0.020652884828885869 -0.0059909142249203167 0 -0.02286306708251613 -0.0056563154445878755 0 -0.016279345173468192 -0.0033971385397112241 0 -0.016752582406036706 -0.0037856507044383113 0 -0.017594314984272462 -0.0037117332879006305 0 -0.0163650464063416 -0.0039019697243938595 0 -0.016752582406036706 -0.0037856507044383113 0 -0.016578255860156339 -0.004363688298475425 0 -0.0163650464063416 -0.0039019697243938595 0 -0.016578255860156339 -0.004363688298475425 0 -0.015999112774307881 -0.0042231697413262674 0 -0.016279345173468192 -0.0033971385397112241 0 -0.016367072458173024 -0.0036554297843794489 0 -0.016752582406036706 -0.0037856507044383113 0 -0.0163650464063416 -0.0039019697243938595 0 -0.016367072458173024 -0.0036554297843794489 0 -0.016089819284926633 -0.0035431755815136124 0 -0.0163650464063416 -0.0039019697243938595 0 -0.016367072458173024 -0.0036554297843794489 0 -0.016752582406036706 -0.0037856507044383113 0 -0.016279345173468192 -0.0033971385397112241 0 -0.016367072458173024 -0.0036554297843794489 0 -0.016089819284926633 -0.0035431755815136124 0 -0.016752582406036706 -0.0037856507044383113 0 -0.017363862029613146 -0.0040019549425942677 0 -0.016578255860156339 -0.004363688298475425 0 -0.01641446033294713 -0.004252563987952619 0 -0.014855353624225461 -0.0031263611027880873 0 -0.016752582406036706 -0.0037856507044383113 0 -0.017363862029613146 -0.0040019549425942677 0 -0.017594314984272462 -0.0037117332879006305 0 -0.018915664876408247 -0.0057518181941067434 0 -0.020531041734044804 -0.0036366854944555886 0 -0.022115852921718381 -0.0041114880195897196 0 -0.027143482458479459 -0.006010898153925184 0 -0.027085638478128921 -0.0060593836996783871 0 -0.027123922895878786 -0.0060681315931252729 0 -0.032135010353490964 -0.0074693004441070852 0 -0.02286306708251613 -0.0056563154445878755 0 -0.02286306708251613 -0.0056563154445878755 0 -0.023085535677766666 -0.0054080263345549703 0 -0.01299997264425325 -0.0024521538241108159 0 -0.012775321983341251 -0.0026209589453066143 0 -0.012808859060058327 -0.0022219342412694997 0 -0.012775321983341251 -0.0026209589453066143 0 -0.012808859060058327 -0.0022219342412694997 0 -0.012692058237832345 -0.0026008590312814098 0 -0.01641446033294713 -0.004252563987952619 0 -0.023085535677766666 -0.0054080263345549703 0 -0.01641446033294713 -0.004252563987952619 0 -0.02286306708251613 -0.0056563154445878755 0 -0.012808859060058327 -0.0022219342412694997 0 -0.01243621884614666 -0.0019501898265683246 0 -0.012885829253661997 -0.0017363423632863223 0 -0.012808859060058327 -0.0022219342412694997 0 -0.013073647511206961 -0.0019644440782279121 0 -0.012885829253661997 -0.0017363423632863223 0 -0.013073647511206961 -0.0019644440782279121 0 -0.013093453697292283 -0.0016883321643298727 0 -0.012885829253661997 -0.0017363423632863223 0 -0.01299997264425325 -0.0024521538241108159 0 -0.012808859060058327 -0.0022219342412694997 0 -0.013073647511206961 -0.0019644440782279121 0 -0.01299997264425325 -0.0024521538241108159 0 -0.013073647511206961 -0.0019644440782279121 0 -0.013316934619579082 -0.0015982151913787842 0 -0.01641446033294713 -0.004252563987952619 0 -0.012493835389185599 -0.0012091824405578426 0 -0.013202147098881638 -0.0018939613700363555 0 -0.013326625425660012 -0.0016328138773664283 0 -0.013333845309558633 -0.0017732636993370648 0 -0.013202147098881638 -0.0018939613700363555 0 -0.013326625425660012 -0.0016328138773664283 0 -0.013316934619579082 -0.0015982151913787842 0 -0.013073647511206961 -0.0019644440782279121 0 -0.013169629623480342 -0.0017019024537037204 0 -0.013316934619579082 -0.0015982151913787842 0 -0.013073647511206961 -0.0019644440782279121 0 -0.013169629623480342 -0.0017019024537037204 0 -0.013093453697292283 -0.0016883321643298727 0 -0.013326625425660012 -0.0016328138773664283 0 -0.013333845309558633 -0.0017732636993370648 0 -0.013544133749012517 -0.001670844872632951 0 -0.039931443476809533 -0.0082411084093019539 0 -0.041160248903960195 -0.0077720721206475246 0 -0.040259742887991237 -0.0080801063447222231 0 -0.036304968996241964 -0.0084855550467266352 0 -0.04192704855789868 -0.0081298408072025714 0 -0.039931443476809533 -0.0082411084093019539 0 -0.039964910705650697 -0.0082023491423265198 0 -0.040259742887991237 -0.0080801063447222231 0 -0.036304968996241964 -0.0084855550467266352 0 -0.035824620257876097 -0.008373375647783874 0 -0.039964910705650697 -0.0082023491423265198 0 -0.040259742887991237 -0.0080801063447222231 0 -0.039857357037504537 -0.0080490311858781981 0 -0.040166625309375259 -0.0077972428233168169 0 -0.040259742887991237 -0.0080801063447222231 0 -0.039857357037504537 -0.0080490311858781981 0 -0.039964910705650697 -0.0082023491423265198 0 -0.039857357037504537 -0.0080490311858781981 0 -0.039450204394824891 -0.0082050089296573994 0 -0.029821762870149246 -0.0079245179211006166 0 -0.03005255104543901 -0.0079193101315214696 0 -0.029860768119896925 -0.007429535481511265 0 -0.039857357037504537 -0.0080490311858781981 0 -0.039450204394824891 -0.0082050089296573994 0 -0.039415740333171766 -0.0081359531521531282 0 -0.039754824276202534 -0.0078113874889149115 0 -0.039857357037504537 -0.0080490311858781981 0 -0.039415740333171766 -0.0081359531521531282 0 -0.039754824276202534 -0.0078113874889149115 0 -0.039290667711111324 -0.0078939804495590567 0 -0.039415740333171766 -0.0081359531521531282 0 -0.027143482458479459 -0.006010898153925184 0 -0.027123922895878786 -0.0060681315931252729 0 -0.02714522513385292 -0.0060585242335108331 0 -0.032135010353490964 -0.0074693004441070852 0 -0.026642517958280921 -0.0054293108890330257 0 -0.026484010523773211 -0.0058970934547672351 0 -0.026642517958280921 -0.0054293108890330257 0 -0.023650094805171586 -0.0043243382858165029 0 -0.021833136689399801 -0.0037788732764228584 0 -0.022207578563919538 -0.0050736644102409318 0 -0.023085535677766666 -0.0054080263345549703 0 -0.026484010523773211 -0.0058970934547672351 0 -0.023085535677766666 -0.0054080263345549703 0 -0.026642517958280921 -0.0054293108890330257 0 -0.035824620257876097 -0.008373375647783874 0 -0.026484010523773211 -0.0058970934547672351 0 -0.029821762870149246 -0.0079245179211006166 0 -0.029860768119896925 -0.007429535481511265 0 -0.029425754040538203 -0.0074323668756896928 0 -0.026484010523773211 -0.0058970934547672351 0 -0.02072702230898275 -0.0042268616563286218 0 -0.012808859060058327 -0.0022219342412694997 0 -0.012692058237832345 -0.0026008590312814098 0 -0.01243621884614666 -0.0019501898265683246 0 -0.02938442714511863 -0.0078861888232227926 0 -0.029821762870149246 -0.0079245179211006166 0 -0.029425754040538203 -0.0074323668756896928 0 -0.02938442714511863 -0.0078861888232227926 0 -0.029425754040538203 -0.0074323668756896928 0 -0.028675431306252136 -0.00705154751108719 0 -0.029425754040538203 -0.0074323668756896928 0 -0.029357334618450314 -0.0066685825376344944 0 -0.028675431306252136 -0.00705154751108719 0 -0.01243621884614666 -0.0019501898265683246 0 -0.012587647318838945 -0.0014971315782674355 0 -0.012885829253661997 -0.0017363423632863223 0 -0.029860768119896925 -0.007429535481511265 0 -0.029425754040538203 -0.0074323668756896928 0 -0.029357334618450314 -0.0066685825376344944 0 -0.02072702230898275 -0.0042268616563286218 0 -0.021135462967452789 -0.0048656330557614296 0 -0.01243621884614666 -0.0019501898265683246 0 -0.012587647318838945 -0.0014971315782674355 0 -0.012198211017131325 -0.0012921490420851663 0 -0.012587647318838945 -0.0014971315782674355 0 -0.012198211017131325 -0.0012921490420851663 0 -0.012523452912877486 -0.0011783989590085401 0 -0.012198211017131325 -0.0012921490420851663 0 -0.012523452912877486 -0.0011783989590085401 0 -0.012316029712476539 -0.00075871705674944272 0 -0.012198211017131325 -0.0012921490420851663 0 -0.012316029712476539 -0.00075871705674944272 0 -0.011978641868084403 -0.0005954601121085474 0 -0.012523452912877486 -0.0011783989590085401 0 -0.012316029712476539 -0.00075871705674944272 0 -0.012604822498928829 -0.00081791001461430676 0 -0.029357334618450314 -0.0066685825376344944 0 -0.028727732938626429 -0.0059742165663780929 0 -0.028124124498299263 -0.0062471282491271063 0 -0.029357334618450314 -0.0066685825376344944 0 -0.028675431306252136 -0.00705154751108719 0 -0.028124124498299263 -0.0062471282491271063 0 -0.021135462967452789 -0.0048656330557614296 0 -0.017554515671448275 0.00040457370691580056 0 -0.013359863086964944 -0.0011858070955377076 0 -0.013309841857905715 -0.0013134529828061415 0 -0.013422885624686628 -0.001325913583667519 0 -0.013359863086964944 -0.0011858070955377076 0 -0.013309841857905715 -0.0013134529828061415 0 -0.013200242298468785 -0.0012072224304285571 0 -0.013309841857905715 -0.0013134529828061415 0 -0.013335540468360161 -0.0014536264363816734 0 -0.013213316105341098 -0.0014126728744904588 0 -0.013309841857905715 -0.0013134529828061415 0 -0.013213316105341098 -0.0014126728744904588 0 -0.013200242298468785 -0.0012072224304285571 0 -0.013309841857905715 -0.0013134529828061415 0 -0.013335540468360161 -0.0014536264363816734 0 -0.013422885624686628 -0.001325913583667519 0 -0.013335540468360161 -0.0014536264363816734 0 -0.013430656361747052 -0.0015188431535749817 0 -0.013422885624686628 -0.001325913583667519 0 -0.013326625425660012 -0.0016328138773664283 0 -0.013316934619579082 -0.0015982151913787842 0 -0.013430656361747052 -0.0015188431535749817 0 -0.013335540468360161 -0.0014536264363816734 0 -0.013316934619579082 -0.0015982151913787842 0 -0.013430656361747052 -0.0015188431535749817 0 -0.013335540468360161 -0.0014536264363816734 0 -0.013316934619579082 -0.0015982151913787842 0 -0.013266427247852831 -0.0015067939816406891 0 -0.013335540468360161 -0.0014536264363816734 0 -0.013266427247852831 -0.0015067939816406891 0 -0.013213316105341098 -0.0014126728744904588 0 -0.013266427247852831 -0.0015067939816406891 0 -0.013193687862846954 -0.0015640858908181649 0 -0.013213316105341098 -0.0014126728744904588 0 -0.013316934619579082 -0.0015982151913787842 0 -0.013266427247852831 -0.0015067939816406891 0 -0.013193687862846954 -0.0015640858908181649 0 -0.013169629623480342 -0.0017019024537037204 0 -0.013316934619579082 -0.0015982151913787842 0 -0.013193687862846954 -0.0015640858908181649 0 -0.013193687862846954 -0.0015640858908181649 0 -0.013093453697292283 -0.0016883321643298727 0 -0.013073885362440666 -0.0015174889804322699 0 -0.013169629623480342 -0.0017019024537037204 0 -0.013193687862846954 -0.0015640858908181649 0 -0.013093453697292283 -0.0016883321643298727 0 -0.013193687862846954 -0.0015640858908181649 0 -0.013073885362440666 -0.0015174889804322699 0 -0.013213316105341098 -0.0014126728744904588 0 -0.013073885362440666 -0.0015174889804322699 0 -0.013087411967576351 -0.0013351292211390637 0 -0.013213316105341098 -0.0014126728744904588 0 -0.013087411967576351 -0.0013351292211390637 0 -0.013213316105341098 -0.0014126728744904588 0 -0.013200242298468785 -0.0012072224304285571 0 -0.013087411967576351 -0.0013351292211390637 0 -0.013200242298468785 -0.0012072224304285571 0 -0.013045916825591405 -0.0011820630654373354 0 -0.013087411967576351 -0.0013351292211390637 0 -0.012868044368561621 -0.001326794150946735 0 -0.013045916825591405 -0.0011820630654373354 0 -0.013073885362440666 -0.0015174889804322699 0 -0.013087411967576351 -0.0013351292211390637 0 -0.012868044368561621 -0.001326794150946735 0 -0.013093453697292283 -0.0016883321643298727 0 -0.013073885362440666 -0.0015174889804322699 0 -0.012885829253661997 -0.0017363423632863223 0 -0.013073885362440666 -0.0015174889804322699 0 -0.012868044368561621 -0.001326794150946735 0 -0.012885829253661997 -0.0017363423632863223 0 -0.012587647318838945 -0.0014971315782674355 0 -0.012868044368561621 -0.001326794150946735 0 -0.012885829253661997 -0.0017363423632863223 0 -0.012587647318838945 -0.0014971315782674355 0 -0.012523452912877486 -0.0011783989590085401 0 -0.012868044368561621 -0.001326794150946735 0 -0.012523452912877486 -0.0011783989590085401 0 -0.012758142736860453 -0.0010539580671084807 0 -0.012604822498928829 -0.00081791001461430676 0 -0.012523452912877486 -0.0011783989590085401 0 -0.012868044368561621 -0.001326794150946735 0 -0.012758142736860453 -0.0010539580671084807 0 -0.012758142736860453 -0.0010539580671084807 0 -0.012604822498928829 -0.00081791001461430676 0 -0.01284321085689738 -0.00075404435286091263 0 -0.01284321085689738 -0.00075404435286091263 0 -0.012952847303261589 -0.0010255872676896332 0 -0.013095304303496588 -0.00079692875461264995 0 -0.012758142736860453 -0.0010539580671084807 0 -0.01284321085689738 -0.00075404435286091263 0 -0.012952847303261589 -0.0010255872676896332 0 -0.012868044368561621 -0.001326794150946735 0 -0.012758142736860453 -0.0010539580671084807 0 -0.012952847303261589 -0.0010255872676896332 0 -0.012868044368561621 -0.001326794150946735 0 -0.012952847303261589 -0.0010255872676896332 0 -0.013045916825591405 -0.0011820630654373354 0 -0.013200242298468785 -0.0012072224304285571 0 -0.013045916825591405 -0.0011820630654373354 0 -0.013138472287059713 -0.0010075140563465331 0 -0.012952847303261589 -0.0010255872676896332 0 -0.013045916825591405 -0.0011820630654373354 0 -0.013138472287059713 -0.0010075140563465331 0 -0.012952847303261589 -0.0010255872676896332 0 -0.013138472287059713 -0.0010075140563465331 0 -0.013095304303496588 -0.00079692875461264995 0 -0.013138472287059713 -0.0010075140563465331 0 -0.01327734461675241 -0.00080132247062786332 0 -0.01332223115790291 -0.0010004304574121211 0 -0.013138472287059713 -0.0010075140563465331 0 -0.013095304303496588 -0.00079692875461264995 0 -0.01327734461675241 -0.00080132247062786332 0 -0.013200242298468785 -0.0012072224304285571 0 -0.013138472287059713 -0.0010075140563465331 0 -0.01332223115790291 -0.0010004304574121211 0 -0.013359863086964944 -0.0011858070955377076 0 -0.013200242298468785 -0.0012072224304285571 0 -0.01332223115790291 -0.0010004304574121211 0 -0.013242743802185864 -0.0003336190440100409 0 -0.013218340559967923 -0.00063475148906270474 0 -0.013038190445169131 -0.00053360269989403118 0 -0.013095304303496588 -0.00079692875461264995 0 -0.01327734461675241 -0.00080132247062786332 0 -0.013218340559967923 -0.00063475148906270474 0 -0.013242743802185864 -0.0003336190440100409 0 -0.013218340559967923 -0.00063475148906270474 0 -0.01342800279140006 -0.00071104415287377091 0 -0.01327734461675241 -0.00080132247062786332 0 -0.013218340559967923 -0.00063475148906270474 0 -0.01342800279140006 -0.00071104415287377091 0 -0.01284321085689738 -0.00075404435286091263 0 -0.013095304303496588 -0.00079692875461264995 0 -0.013038190445169131 -0.00053360269989403118 0 -0.013095304303496588 -0.00079692875461264995 0 -0.013218340559967923 -0.00063475148906270474 0 -0.013038190445169131 -0.00053360269989403118 0 -0.013038190445169131 -0.00053360269989403118 0 -0.012795326500887995 -0.00044329237834127885 0 -0.012985135376827389 -0.0002882455753310028 0 -0.013242743802185864 -0.0003336190440100409 0 -0.013038190445169131 -0.00053360269989403118 0 -0.012985135376827389 -0.0002882455753310028 0 -0.012795326500887995 -0.00044329237834127885 0 -0.012826474298027335 -0.00027205363919006814 0 -0.012985135376827389 -0.0002882455753310028 0 -0.012795326500887995 -0.00044329237834127885 0 -0.012659782557284435 -0.00029006426430104788 0 -0.012826474298027335 -0.00027205363919006814 0 -0.01284321085689738 -0.00075404435286091263 0 -0.012795326500887995 -0.00044329237834127885 0 -0.012659157493654252 -0.0005996459758027035 0 -0.01284321085689738 -0.00075404435286091263 0 -0.013038190445169131 -0.00053360269989403118 0 -0.012795326500887995 -0.00044329237834127885 0 -0.012604822498928829 -0.00081791001461430676 0 -0.01284321085689738 -0.00075404435286091263 0 -0.012659157493654252 -0.0005996459758027035 0 -0.012604822498928829 -0.00081791001461430676 0 -0.012659157493654252 -0.0005996459758027035 0 -0.012521007636166231 -0.00057920270363934624 0 -0.012659157493654252 -0.0005996459758027035 0 -0.012565670498520901 -0.00039076898734506735 0 -0.012521007636166231 -0.00057920270363934624 0 -0.012795326500887995 -0.00044329237834127885 0 -0.012565670498520901 -0.00039076898734506735 0 -0.012659782557284435 -0.00029006426430104788 0 -0.012565670498520901 -0.00039076898734506735 0 -0.012659782557284435 -0.00029006426430104788 0 -0.012356891395774682 -0.00027363470468077812 0 -0.012795326500887995 -0.00044329237834127885 0 -0.012659157493654252 -0.0005996459758027035 0 -0.012565670498520901 -0.00039076898734506735 0 -0.012706085434612466 -0.00025433427822176084 0 -0.01215733098438183 -0.00029856087368815987 0 -0.012659782557284435 -0.00029006426430104788 0 -0.012861245605031414 -6.7315799870055907e-05 0 -0.012356891395774682 -0.00027363470468077812 0 -0.010799036488687375 -0.00075203460950065877 0 -0.012020023552349619 -0.00044242380699970431 0 -0.011568927441349023 -0.0003471912620278983 0 -0.012020023552349619 -0.00044242380699970431 0 -0.011568927441349023 -0.0003471912620278983 0 -0.012356891395774682 -0.00027363470468077812 0 -0.012861245605031414 -6.7315799870055907e-05 0 -0.012826474298027335 -0.00027205363919006814 0 -0.012985135376827389 -0.0002882455753310028 0 -0.012659782557284435 -0.00029006426430104788 0 -0.012861245605031414 -6.7315799870055907e-05 0 -0.012826474298027335 -0.00027205363919006814 0 -0.013242743802185864 -0.0003336190440100409 0 -0.013092056186417494 -0.00013568128910496975 0 -0.01327074376887735 0.00013758900599596504 0 -0.012861245605031414 -6.7315799870055907e-05 0 -0.013092056186417494 -0.00013568128910496975 0 -0.01327074376887735 0.00013758900599596504 0 -0.012706085434612466 -0.00025433427822176084 0 -0.0082226857904164497 0.0028572827192113355 0 -0.012861245605031414 -6.7315799870055907e-05 0 -0.013092056186417494 -0.00013568128910496975 0 -0.012985135376827389 -0.0002882455753310028 0 -0.013242743802185864 -0.0003336190440100409 0 -0.013092056186417494 -0.00013568128910496975 0 -0.012985135376827389 -0.0002882455753310028 0 -0.017554515671448275 0.00040457370691580056 0 -0.021150135874115326 0.0021077015486615394 0 -0.010012457566515739 0.012195932497065359 0 -0.0090732331563830333 0.012336139284413683 0 -0.01106667164606551 0.013123638139358712 0 -0.0093052416344255821 0.011380767108431175 0 -0.010012457566515739 0.012195932497065359 0 -0.0097059729885080118 0.01052563915296322 0 -0.0091701307361205832 0.011317528561805035 0 -0.0093052416344255821 0.011380767108431175 0 -0.0090732331563830333 0.012336139284413683 0 -0.008390074018343005 0.0087909490635008237 0 -0.017554515671448275 0.00040457370691580056 0 -0.012813053480343728 -0.00026974214505945171 0 -0.012706187191643377 -2.3119193917320695e-05 0 -0.012567301747850089 -0.00022326496773592556 0 -0.008390074018343005 0.0087909490635008237 0 -0.0085314766847727781 0.0089082603680736873 0 -0.0093052416344255821 0.011380767108431175 0 -0.010012457566515739 0.012195932497065359 0 -0.0090732331563830333 0.012336139284413683 0 -0.012813053480343728 -0.00026974214505945171 0 -0.012567301747850089 -0.00022326496773592556 0 -0.012356891395774682 -0.00027363470468077812 0 -0.017554515671448275 0.00040457370691580056 0 -0.010934683150656431 -0.00096368911785139303 0 -0.012316029712476539 -0.00075871705674944272 0 -0.011978641868084403 -0.0005954601121085474 0 -0.012420085427873651 -0.00034678768816266768 0 -0.012316029712476539 -0.00075871705674944272 0 -0.012521007636166231 -0.00057920270363934624 0 -0.012420085427873651 -0.00034678768816266768 0 -0.012316029712476539 -0.00075871705674944272 0 -0.012604822498928829 -0.00081791001461430676 0 -0.012521007636166231 -0.00057920270363934624 0 -0.012420085427873651 -0.00034678768816266768 0 -0.012567301747850089 -0.00022326496773592556 0 -0.012356891395774682 -0.00027363470468077812 0 -0.012565670498520901 -0.00039076898734506735 0 -0.012521007636166231 -0.00057920270363934624 0 -0.012420085427873651 -0.00034678768816266768 0 -0.012565670498520901 -0.00039076898734506735 0 -0.012420085427873651 -0.00034678768816266768 0 -0.012356891395774682 -0.00027363470468077812 0 -0.012706187191643377 -2.3119193917320695e-05 0 -0.012420085427873651 -0.00034678768816266768 0 -0.012567301747850089 -0.00022326496773592556 0 -0.0072810346110821159 0.0048752306272949924 0 -0.008390074018343005 0.0087909490635008237 0 -0.012020023552349619 -0.00044242380699970431 0 -0.012813053480343728 -0.00026974214505945171 0 -0.012356891395774682 -0.00027363470468077812 0 -0.0047295318487087798 0.010283194856948846 0 -0.0023102562956431446 0.011158263907287016 0 -0.0061621014564628351 0.012889159717716299 0 -0.0071263865886451857 0.0096687060128543452 0 -0.0047295318487087798 0.010283194856948846 0 -0.0061621014564628351 0.012889159717716299 0 -0.007874343601691907 0.010146201846602896 0 -0.008390074018343005 0.0087909490635008237 0 -0.0089293121013277795 0.0094239018923125573 0 -0.0091792961697018064 0.011320292766175659 0 -0.0097059729885080118 0.01052563915296322 0 -0.0091792961697018064 0.011320292766175659 0 -0.0093052416344255821 0.011380767108431175 0 -0.0097059729885080118 0.01052563915296322 0 -0.0097059729885080118 0.01052563915296322 0 -0.010147111608955164 0.010457795890719383 0 -0.01007677824525738 0.01164100649926387 0 -0.0095811116865274579 0.0098607132909021115 0 -0.0097059729885080118 0.01052563915296322 0 -0.010147111608955164 0.010457795890719383 0 -0.0089293121013277795 0.0094239018923125573 0 -0.0095811116865274579 0.0098607132909021115 0 -0.0097059729885080118 0.01052563915296322 0 -0.009731095012646027 0.011016257527825384 0 -0.010200937021734045 0.012396269913658413 0 -0.011000812599507772 0.011204392675242099 0 -0.010012457566515739 0.012195932497065359 0 -0.0097059729885080118 0.01052563915296322 0 -0.011055503600636859 0.012593556578401166 0 -0.0093502556200002005 0.011295957820783254 0 -0.015611906982825753 0.010308537382204891 0 -0.009731095012646027 0.011016257527825384 0 -0.010200937021734045 0.012396269913658413 0 -0.0094904564522951523 0.013642150808705943 0 -0.0090819018450102335 0.011091153124155283 0 -0.015611906982825753 0.010308537382204891 0 -0.010200937021734045 0.012396269913658413 0 -0.01032994705550503 0.013314811714406396 0 -0.0094904564522951523 0.013642150808705943 0 -0.01032994705550503 0.013314811714406396 0 -0.0096536739907030922 0.014252073521993492 0 -0.011180052227466646 0.013886991184855849 0 -0.01032994705550503 0.013314811714406396 0 -0.0094904564522951523 0.013642150808705943 0 -0.0096536739907030922 0.014252073521993492 0 -0.010012457566515739 0.012195932497065359 0 -0.011055503600636859 0.012593556578401166 0 -0.01106667164606551 0.013123638139358712 0 -0.011533931201933812 0.012592401492348353 0 -0.012623988058400084 0.013546964836286026 0 -0.011180052227466646 0.013886991184855849 0 -0.01032994705550503 0.013314811714406396 0 -0.011533931201933812 0.012592401492348353 0 -0.011180052227466646 0.013886991184855849 0 -0.010200937021734045 0.012396269913658413 0 -0.01032994705550503 0.013314811714406396 0 -0.011533931201933812 0.012592401492348353 0 -0.011533931201933812 0.012592401492348353 0 -0.011000812599507772 0.011204392675242099 0 -0.012289885945145127 0.011263537435978578 0 -0.010200937021734045 0.012396269913658413 0 -0.011533931201933812 0.012592401492348353 0 -0.011000812599507772 0.011204392675242099 0 -0.011729681339987188 0.010015205303712792 0 -0.010829976517673414 0.0098255928223083076 0 -0.011000812599507772 0.011204392675242099 0 -0.010829976517673414 0.0098255928223083076 0 -0.009731095012646027 0.011016257527825384 0 -0.011000812599507772 0.011204392675242099 0 -0.011729681339987188 0.010015205303712792 0 -0.011000812599507772 0.011204392675242099 0 -0.012289885945145127 0.011263537435978578 0 -0.011533931201933812 0.012592401492348353 0 -0.013675286842108178 0.011699680208046128 0 -0.012289885945145127 0.011263537435978578 0 -0.012874599640973775 0.0097687338505350781 0 -0.013675286842108178 0.011699680208046128 0 -0.012289885945145127 0.011263537435978578 0 -0.012874599640973775 0.0097687338505350781 0 -0.011729681339987188 0.010015205303712792 0 -0.012289885945145127 0.011263537435978578 0 -0.015062192300373995 0.0094722956415923699 0 -0.016055471108721221 0.012171541981113351 0 -0.013675286842108178 0.011699680208046128 0 -0.016055471108721221 0.012171541981113351 0 -0.013675286842108178 0.011699680208046128 0 -0.014401559622754878 0.014120905079876709 0 -0.016055471108721221 0.012171541981113351 0 -0.017048145246115299 0.014795681386066186 0 -0.014401559622754878 0.014120905079876709 0 -0.013675286842108178 0.011699680208046128 0 -0.012623988058400084 0.013546964836286026 0 -0.014401559622754878 0.014120905079876709 0 -0.011533931201933812 0.012592401492348353 0 -0.013675286842108178 0.011699680208046128 0 -0.012623988058400084 0.013546964836286026 0 -0.012623988058400084 0.013546964836286026 0 -0.012355279786866529 0.01541784156798601 0 -0.014401559622754878 0.014120905079876709 0 -0.012355279786866529 0.01541784156798601 0 -0.014401559622754878 0.014120905079876709 0 -0.01514986533848584 0.016590726482298462 0 -0.017048145246115299 0.014795681386066186 0 -0.014401559622754878 0.014120905079876709 0 -0.01514986533848584 0.016590726482298462 0 -0.030625602934870957 -0.0031610824200702038 0 -0.031014521911359585 -0.003561879245587539 0 -0.030189060578183984 -0.0033655444587360876 0 -0.038414587500536924 -0.0089817262359803886 0 -0.039407336160140409 -0.0099463566433110832 0 -0.039498539829657675 -0.0093430755899116345 0 -0.037125505531687669 -0.0080995933847755486 0 -0.039440453937462615 -0.0090841011080408218 0 -0.037125505531687669 -0.0080995933847755486 0 -0.025370803833335155 0.0061857299232789299 0 -0.040539336509270281 -0.0088708811335386686 0 -0.039407336160140409 -0.0099463566433110832 0 -0.039498539829657675 -0.0093430755899116345 0 -0.020261983338949911 0.0059054347723465472 0 -0.025370803833335155 0.0061857299232789299 0 -0.029880459888531198 -0.0038980870142897445 0 -0.031014521911359585 -0.003561879245587539 0 -0.030189060578183984 -0.0033655444587360876 0 -0.029880459888531198 -0.0038980870142897445 0 -0.030189060578183984 -0.0033655444587360876 0 -0.029649606316955023 -0.0032927242187625327 0 -0.029951117232812435 -0.0029736164534501851 0 -0.030189060578183984 -0.0033655444587360876 0 -0.029649606316955023 -0.0032927242187625327 0 -0.029379192351263943 -0.0028284851441102207 0 -0.029649606316955023 -0.0032927242187625327 0 -0.029133774390144942 -0.0035256769911875454 0 -0.029880459888531198 -0.0038980870142897445 0 -0.029649606316955023 -0.0032927242187625327 0 -0.029133774390144942 -0.0035256769911875454 0 -0.03026660355230856 -0.0085707615253083364 0 -0.031160730314426271 -0.0044455518806501065 0 -0.033230715054638683 -0.0049170614068741077 0 -0.031160730314426271 -0.0044455518806501065 0 -0.033230715054638683 -0.0049170614068741077 0 -0.032006418565838073 -0.00027689709650538622 0 -0.031368052585777191 -0.0071013496706226094 0 -0.021150135874115326 0.0021077015486615394 0 -0.033230715054638683 -0.0049170614068741077 0 -0.032433776172216329 -0.00010056064350307346 0 -0.032006418565838073 -0.00027689709650538622 0 -0.030140561259789353 -0.0044698399737069924 0 -0.021863793180350682 0.0028523858154465599 0 -0.019667740791697658 0.0069547057430663787 0 -0.019976063508231938 0.004756902918670711 0 -0.019076275214351752 0.0043906990863811102 0 -0.015611906982825753 0.010308537382204891 0 -0.021150135874115326 0.0021077015486615394 0 -0.015611906982825753 0.010308537382204891 0 -0.021863793180350682 0.0028523858154465599 0 -0.021150135874115326 0.0021077015486615394 0 -0.021863793180350682 0.0028523858154465599 0 -0.029880459888531198 -0.0038980870142897445 0 -0.029133774390144942 -0.0035256769911875454 0 -0.02887632499211177 -0.004202296734249337 0 -0.012623988058400084 0.013546964836286026 0 -0.012355279786866529 0.01541784156798601 0 -0.011180052227466646 0.013886991184855849 0 -0.020261983338949911 0.0059054347723465472 0 -0.021863793180350682 0.0028523858154465599 0 -0.012355279786866529 0.01541784156798601 0 -0.0096536739907030922 0.014252073521993492 0 -0.011180052227466646 0.013886991184855849 0 -0.010959682101653804 -0.0002418404613697929 0 -0.011059420504877911 -0.00010845200228146305 0 -0.010551917460630675 -0.00018189776560393456 0 -0.014772828845880956 0.0015210377854037035 0 -0.014250673131433172 0.00092421418378002985 0 -0.010959682101653804 -0.0002418404613697929 0 -0.011059420504877911 -0.00010845200228146305 0 -0.011526167208382457 1.2846737109006271e-05 0 -0.011420242924119861 -1.7525483699999734e-06 0 -0.011059420504877911 -0.00010845200228146305 0 -0.010551917460630675 -0.00018189776560393456 0 -0.011420242924119861 -1.7525483699999734e-06 0 -0.011059420504877911 -0.00010845200228146305 0 -0.011526167208382457 1.2846737109006271e-05 0 -0.014250673131433172 0.00092421418378002985 0 -0.014467941295295625 9.8047221483057363e-09 0 -0.011420242924119861 -1.7525483699999734e-06 0 -0.011526167208382457 1.2846737109006271e-05 0 -0.014465841415113246 1.7088332457758827e-06 0 -0.018319907573786889 0.0032472066998628342 0 -0.01702997772950858 0.0022128029681429537 0 -0.01890230217388144 0.0020917343889966552 0 -0.01702997772950858 0.0022128029681429537 0 -0.01890230217388144 0.0020917343889966552 0 -0.018795192500513126 0.0006156860629776055 0 -0.01890230217388144 0.0020917343889966552 0 -0.020206402235522437 0.0016997368747377873 0 -0.01979801997448289 0.0028577916124047135 0 -0.020206402235522437 0.0016997368747377873 0 -0.020537132007098863 0.0025992443708143702 0 -0.01979801997448289 0.0028577916124047135 0 -0.020537132007098863 0.0025992443708143702 0 -0.01979801997448289 0.0028577916124047135 0 -0.02085417215593326 0.0034540124039841367 0 -0.018319907573786889 0.0032472066998628342 0 -0.01890230217388144 0.0020917343889966552 0 -0.01979801997448289 0.0028577916124047135 0 -0.014139550032440079 0.0026982538329926049 0 -0.010397531095577721 0.001752224885260088 0 -0.014772828845880956 0.0015210377854037035 0 -0.014139550032440079 0.0026982538329926049 0 -0.018319907573786889 0.0032472066998628342 0 -0.01979801997448289 0.0028577916124047135 0 -0.019244775761411669 0.0041168590787475237 0 -0.010959682101653804 -0.0002418404613697929 0 -0.01147439252460802 0.00030639106946100421 0 -0.010942359796752031 0.00041458921996527341 0 -0.014139550032440079 0.0026982538329926049 0 -0.017726395916430635 0.0031009547395523607 0 -0.01979801997448289 0.0028577916124047135 0 -0.019244775761411669 0.0041168590787475237 0 -0.02085417215593326 0.0034540124039841367 0 -0.011958425774272344 0.0033453951294255034 0 -0.013234037902752436 0.0036891704880191089 0 -0.014002067104594708 0.0025141308295868804 0 -0.011958425774272344 0.0033453951294255034 0 -0.013234037902752436 0.0036891704880191089 0 -0.013128175201924865 0.0043774920217441024 0 -0.014139550032440079 0.0026982538329926049 0 -0.012400367955325165 0.0041447163482602068 0 -0.011806445773190608 0.0025874881396181141 0 -0.012126627451910857 0.0037656238736910679 0 -0.013128175201924865 0.0043774920217441024 0 -0.011806445773190608 0.0025874881396181141 0 -0.010963581355027624 0.0040764408129286894 0 -0.010323186183702326 0.002927854925045281 0 -0.010963581355027624 0.0040764408129286894 0 -0.012126627451910857 0.0037656238736910679 0 -0.012989369386817081 0.0046612722833537963 0 -0.011806445773190608 0.0025874881396181141 0 -0.010963581355027624 0.0040764408129286894 0 -0.012126627451910857 0.0037656238736910679 0 -0.010397531095577721 0.001752224885260088 0 -0.0083005218863709644 0.0011404143836880158 0 -0.0054664927995989676 0.00018228452288822909 0 -0.0064127845334633043 0.00042212267377400391 0 -0.0061455069139449486 -0.00021497078658923703 0 -0.0080873515194106495 0.0021722478101820738 0 -0.0083005218863709644 0.0011404143836880158 0 -0.010963581355027624 0.0040764408129286894 0 -0.010323186183702326 0.002927854925045281 0 -0.0088094885323560489 0.0032927035277507599 0 -0.010942359796752031 0.00041458921996527341 0 -0.010434524956922524 0.00011742497313626077 0 -0.009754767415090031 0.00078419450394166996 0 -0.010959682101653804 -0.0002418404613697929 0 -0.010942359796752031 0.00041458921996527341 0 -0.010434524956922524 0.00011742497313626077 0 -0.010959682101653804 -0.0002418404613697929 0 -0.010551917460630675 -0.00018189776560393456 0 -0.010434524956922524 0.00011742497313626077 0 -0.011420242924119861 -1.7525483699999734e-06 0 -0.010551917460630675 -0.00018189776560393456 0 -0.0083770265886234322 1.8946168539067548e-06 0 -0.010551917460630675 -0.00018189776560393456 0 -0.010434524956922524 0.00011742497313626077 0 -0.0083770265886234322 1.8946168539067548e-06 0 -0.0083005218863709644 0.0011404143836880158 0 -0.0077140305289401835 9.3200837522812643e-07 0 -0.0083699803520669424 -4.6861460577205316e-09 0 -0.0079934430351076991 5.5377659765387587e-06 0 -0.0077173978361668493 9.8221848769509543e-09 0 -0.0083732591926139206 8.4006583660798888e-07 0 -0.0083005218863709644 0.0011404143836880158 0 -0.010434524956922524 0.00011742497313626077 0 -0.0083770265886234322 1.8946168539067548e-06 0 -0.009754767415090031 0.00078419450394166996 0 -0.0064127845334633043 0.00042212267377400391 0 -0.0077086588134647645 9.4943069586287165e-07 0 -0.0061455069139449486 -0.00021497078658923703 0 -0.0061455069139449486 -0.00021497078658923703 0 -0.0059662627190452504 -0.00031397413833568873 0 -0.0049400680128766352 -9.9269775390386255e-07 0 -0.0077086588134647645 9.4943069586287165e-07 0 -0.0061455069139449486 -0.00021497078658923703 0 -0.0049400680128766352 -9.9269775390386255e-07 0 -0.0054664927995989676 0.00018228452288822909 0 -0.0061455069139449486 -0.00021497078658923703 0 -0.0059662627190452504 -0.00031397413833568873 0 -0.004225191092037746 -7.1638005386070029e-05 0 -0.0038858803006118861 -0.00036717328809864074 0 -0.0024773513589611781 0.00028062576677494975 0 -0.0024577589401636691 -0.00023723030923447408 0 -0.0023140749245183761 -5.107751758393477e-05 0 -0.0049297497067757419 1.5290903813641596e-06 0 -0.0020997320328187282 -1.1062728295419204e-06 0 -0.0024577589401636691 -0.00023723030923447408 0 -0.004225191092037746 -7.1638005386070029e-05 0 -0.0049343794077701796 -2.5850084285425365e-09 0 -0.0024773513589611781 0.00028062576677494975 0 -0.0049297497067757419 1.5290903813641596e-06 0 -0.0024577589401636691 -0.00023723030923447408 0 -0.0020997320328187282 -1.1062728295419204e-06 0 -0.0024577589401636691 -0.00023723030923447408 0 -0.001540754100116373 -0.0001996836672763312 0 -0.0024577589401636691 -0.00023723030923447408 0 -0.0021154340034670901 -0.00013414791685090158 0 -0.001540754100116373 -0.0001996836672763312 0 -0.0024577589401636691 -0.00023723030923447408 0 -0.0021154340034670901 -0.00013414791685090158 0 -0.0023140749245183761 -5.107751758393477e-05 0 -0.0021154340034670901 -0.00013414791685090158 0 -0.001540754100116373 -0.0001996836672763312 0 -0.0018729809098924845 -0.00010088092113746086 0 -0.00055715096741648456 3.8269923129704855e-05 0 -0.001540754100116373 -0.0001996836672763312 0 -0.0013619814734827521 -9.0402197025847466e-05 0 -0.001540754100116373 -0.0001996836672763312 0 -0.0018729809098924845 -0.00010088092113746086 0 -0.0013619814734827521 -9.0402197025847466e-05 0 -0.0018729809098924845 -0.00010088092113746086 0 -0.0016408082480307855 -3.3384333490106357e-05 0 -0.0013619814734827521 -9.0402197025847466e-05 0 -0.0011862724946231301 3.9599035442425285e-05 0 -0.0016408082480307855 -3.3384333490106357e-05 0 -0.0013619814734827521 -9.0402197025847466e-05 0 -0.00055715096741648456 3.8269923129704855e-05 0 -0.0011862724946231301 3.9599035442425285e-05 0 -0.0013619814734827521 -9.0402197025847466e-05 0 0.00073712423407223731 -7.1206504447399516e-07 0 -0.0020997320328187282 -1.1062728295419204e-06 0 -0.001540754100116373 -0.0001996836672763312 0 0.00073712423407223731 -7.1206504447399516e-07 0 -0.00055715096741648456 3.8269923129704855e-05 0 -0.001540754100116373 -0.0001996836672763312 0 -0.0029546213167089531 0.0012480621936745734 0 -0.0033584306053259191 0.00095902940343512029 0 -0.0032705302019380386 0.0015014227766575519 0 -0.0029546213167089531 0.0012480621936745734 0 -0.0033584306053259191 0.00095902940343512029 0 -0.0029482840816428984 0.00082562577558517559 0 -0.0037428931424541832 0.0011140123675801197 0 -0.0033584306053259191 0.00095902940343512029 0 -0.0032705302019380386 0.0015014227766575519 0 -0.0037428931424541832 0.0011140123675801197 0 -0.0033584306053259191 0.00095902940343512029 0 -0.003788012323239992 0.00064817698558475301 0 -0.0035623199197218659 0.00092940303417090935 0 -0.0020461058320222418 0.0015091549324902423 0 -0.0037428931424541832 0.0011140123675801197 0 -0.0034397919547722424 0.0013119725995005091 0 -0.0039691355622318318 0.0012458638256339295 0 -0.0029546213167089531 0.0012480621936745734 0 -0.0032758973516420157 0.0015557029563216856 0 -0.0029604114597479069 0.0017769785198353781 0 -0.0020461058320222418 0.0015091549324902423 0 0.00032507944934664744 0.0015828801804272145 0 -0.0026235021296269817 0.0016497367911653684 0 -0.0020461058320222418 0.0015091549324902423 0 -0.002846081982863285 0.0017344239961172832 0 -0.0022281595841693023 0.0013480117099966681 0 -0.0023979249106761023 0.0010758702961623948 0 0.00032507944934664744 0.0015828801804272145 0 -0.0024544792464157401 0.0018627220641681374 0 -0.0017187008712809082 0.00052004971422216011 0 -0.0016408082480307855 -3.3384333490106357e-05 0 -0.0019762134391917703 -5.9516612307634694e-05 0 -0.0029546213167089531 0.0012480621936745734 0 -0.0029604114597479069 0.0017769785198353781 0 -0.0023979249106761023 0.0010758702961623948 0 -0.0018848440689200909 0.0023677953595821924 0 -0.002846081982863285 0.0017344239961172832 0 -0.0022281595841693023 0.0013480117099966681 0 -0.0022281595841693023 0.0013480117099966681 0 -0.0023979249106761023 0.0010758702961623948 0 -0.0026119522741600348 0.0001825027507462868 0 -0.0018729809098924845 -0.00010088092113746086 0 -0.0019762134391917703 -5.9516612307634694e-05 0 -0.0026119522741600348 0.0001825027507462868 0 -0.0018729809098924845 -0.00010088092113746086 0 -0.0016408082480307855 -3.3384333490106357e-05 0 -0.0019762134391917703 -5.9516612307634694e-05 0 -0.0029546213167089531 0.0012480621936745734 0 -0.0023979249106761023 0.0010758702961623948 0 -0.0029482840816428984 0.00082562577558517559 0 -0.0023979249106761023 0.0010758702961623948 0 -0.0026119522741600348 0.0001825027507462868 0 -0.0029482840816428984 0.00082562577558517559 0 -0.0022186693879326798 0.00059749020588883007 0 -0.002494778148713087 0.00017605720890856208 0 -0.0021154340034670901 -0.00013414791685090158 0 -0.0018729809098924845 -0.00010088092113746086 0 -0.0026119522741600348 0.0001825027507462868 0 -0.0021154340034670901 -0.00013414791685090158 0 -0.0026119522741600348 0.0001825027507462868 0 -0.0023140749245183761 -5.107751758393477e-05 0 -0.0026119522741600348 0.0001825027507462868 0 -0.0032749096378359476 0.0002013228067226489 0 -0.0033350104086487752 0.00057922684999442355 0 -0.0026119522741600348 0.0001825027507462868 0 -0.0029482840816428984 0.00082562577558517559 0 -0.0033350104086487752 0.00057922684999442355 0 -0.0033584306053259191 0.00095902940343512029 0 -0.0029482840816428984 0.00082562577558517559 0 -0.0033350104086487752 0.00057922684999442355 0 -0.0033584306053259191 0.00095902940343512029 0 -0.0033350104086487752 0.00057922684999442355 0 -0.003788012323239992 0.00064817698558475301 0 -0.0032749096378359476 0.0002013228067226489 0 -0.0033350104086487752 0.00057922684999442355 0 -0.0037995989926921016 0.00021992046322486582 0 -0.0033350104086487752 0.00057922684999442355 0 -0.0037995989926921016 0.00021992046322486582 0 -0.003788012323239992 0.00064817698558475301 0 -0.0032619475136419075 -6.2520730142155278e-05 0 -0.002627639626373161 -0.00038364042184886891 0 -0.0041529245975929904 -0.00036234976891191269 0 -0.0032749096378359476 0.0002013228067226489 0 -0.0032619475136419075 -6.2520730142155278e-05 0 -0.0038510612048502932 -0.00010834017186905586 0 -0.0032749096378359476 0.0002013228067226489 0 -0.0037995989926921016 0.00021992046322486582 0 -0.0038510612048502932 -0.00010834017186905586 0 -0.0026119522741600348 0.0001825027507462868 0 -0.0032749096378359476 0.0002013228067226489 0 -0.0032619475136419075 -6.2520730142155278e-05 0 -0.0032619475136419075 -6.2520730142155278e-05 0 -0.0038510612048502932 -0.00010834017186905586 0 -0.0041529245975929904 -0.00036234976891191269 0 -0.0024773513589611781 0.00028062576677494975 0 -0.0023140749245183761 -5.107751758393477e-05 0 -0.002627639626373161 -0.00038364042184886891 0 -0.0026119522741600348 0.0001825027507462868 0 -0.0032619475136419075 -6.2520730142155278e-05 0 -0.0023140749245183761 -5.107751758393477e-05 0 -0.0032619475136419075 -6.2520730142155278e-05 0 -0.0023140749245183761 -5.107751758393477e-05 0 -0.002627639626373161 -0.00038364042184886891 0 -0.0080873515194106495 0.0021722478101820738 0 -0.0086983313730518604 0.0021997166568023981 0 -0.0054664927995989676 0.00018228452288822909 0 -0.0059662627190452504 -0.00031397413833568873 0 -0.0050325270399150983 -0.00049778169225167318 0 -0.0054664927995989676 0.00018228452288822909 0 -0.0050325270399150983 -0.00049778169225167318 0 -0.0043162280384652918 -0.00019984881798071141 0 -0.0050325270399150983 -0.00049778169225167318 0 -0.0041529245975929904 -0.00036234976891191269 0 -0.0043162280384652918 -0.00019984881798071141 0 -0.0038858803006118861 -0.00036717328809864074 0 -0.0041011472263604958 -0.00039342204928917391 0 -0.012126627451910857 0.0037656238736910679 0 -0.012989369386817081 0.0046612722833537963 0 -0.013128175201924865 0.0043774920217441024 0 -0.012989369386817081 0.0046612722833537963 0 -0.013128175201924865 0.0043774920217441024 0 -0.013551824346972496 0.0043909288622007246 0 -0.0086983313730518604 0.0021997166568023981 0 -0.0088671520899168133 0.0020170117543644702 0 -0.0041529245975929904 -0.00036234976891191269 0 -0.0043162280384652918 -0.00019984881798071141 0 -0.0044706946990883531 -0.00034486442138036784 0 -0.012989369386817081 0.0046612722833537963 0 -0.013551824346972496 0.0043909288622007246 0 -0.013610616558904257 0.0043537783232898888 0 -0.013551824346972496 0.0043909288622007246 0 -0.013681927440422188 0.004341959721472808 0 -0.013610616558904257 0.0043537783232898888 0 -0.013681927440422188 0.004341959721472808 0 -0.013500732840626622 0.0042315653516576835 0 -0.01358258816671511 0.0043939167929061386 0 -0.013681927440422188 0.004341959721472808 0 -0.013610616558904257 0.0043537783232898888 0 -0.013500732840626622 0.0042315653516576835 0 -0.0046397982654685904 8.6628101662775527e-05 0 -0.005096505677943064 0.00033337112393607121 0 -0.0053573014363998608 -7.1862779503999811e-05 0 -0.0088671520899168133 0.0020170117543644702 0 -0.01021260841936247 0.0019569883533479718 0 -0.0044706946990883531 -0.00034486442138036784 0 -0.0046397982654685904 8.6628101662775527e-05 0 -0.0053573014363998608 -7.1862779503999811e-05 0 -0.0041529245975929904 -0.00036234976891191269 0 -0.0044706946990883531 -0.00034486442138036784 0 -0.0041819485648403858 -0.00010954025603684526 0 -0.0038510612048502932 -0.00010834017186905586 0 -0.0041529245975929904 -0.00036234976891191269 0 -0.0041819485648403858 -0.00010954025603684526 0 -0.0044706946990883531 -0.00034486442138036784 0 -0.0046397982654685904 8.6628101662775527e-05 0 -0.0041819485648403858 -0.00010954025603684526 0 -0.0046397982654685904 8.6628101662775527e-05 0 -0.0041819485648403858 -0.00010954025603684526 0 -0.0042057341805352526 0.00030690905518389658 0 -0.0037995989926921016 0.00021992046322486582 0 -0.0041819485648403858 -0.00010954025603684526 0 -0.0042057341805352526 0.00030690905518389658 0 -0.0037995989926921016 0.00021992046322486582 0 -0.0038510612048502932 -0.00010834017186905586 0 -0.0041819485648403858 -0.00010954025603684526 0 -0.0037995989926921016 0.00021992046322486582 0 -0.003788012323239992 0.00064817698558475301 0 -0.0042057341805352526 0.00030690905518389658 0 -0.0037428931424541832 0.0011140123675801197 0 -0.003788012323239992 0.00064817698558475301 0 -0.0041755876682894157 0.00078048038920767863 0 -0.003788012323239992 0.00064817698558475301 0 -0.0041755876682894157 0.00078048038920767863 0 -0.0042057341805352526 0.00030690905518389658 0 -0.0041755876682894157 0.00078048038920767863 0 -0.0042057341805352526 0.00030690905518389658 0 -0.0046094538955761821 0.00042664801394152807 0 -0.0046397982654685904 8.6628101662775527e-05 0 -0.0042057341805352526 0.00030690905518389658 0 -0.0046094538955761821 0.00042664801394152807 0 -0.0046094538955761821 0.00042664801394152807 0 -0.0050971039420938582 0.0010559777363530886 0 -0.005096505677943064 0.00033337112393607121 0 -0.0046094538955761821 0.00042664801394152807 0 -0.004556308370215199 0.00087128940641797244 0 -0.0050971039420938582 0.0010559777363530886 0 -0.0046397982654685904 8.6628101662775527e-05 0 -0.0046094538955761821 0.00042664801394152807 0 -0.005096505677943064 0.00033337112393607121 0 -0.0041755876682894157 0.00078048038920767863 0 -0.0046094538955761821 0.00042664801394152807 0 -0.004556308370215199 0.00087128940641797244 0 -0.004612429232756874 0.0016212332560538584 0 -0.0043513086792856268 0.0012271543580307264 0 -0.0050971039420938582 0.0010559777363530886 0 -0.00066994595205106106 -0.0025950667958868825 0 -0.0017105691586696945 -0.0023727823049653259 0 -0.00099094717623544794 -0.001506697103509776 0 -0.004556308370215199 0.00087128940641797244 0 -0.0043513086792856268 0.0012271543580307264 0 -0.0050971039420938582 0.0010559777363530886 0 -0.0019832614159519448 -0.00017248940652170764 0 -0.002980892527688626 -0.00013936098880327444 0 -0.0019832614159519448 -0.00017248940652170764 0 -0.0044125428339485935 0.0019259468428253119 0 -0.0041374295547387816 0.0015735003464945152 0 -0.0045491187781817695 0.001586125255545202 0 -0.0043513086792856268 0.0012271543580307264 0 -0.0041374295547387816 0.0015735003464945152 0 -0.0043513086792856268 0.0012271543580307264 0 -0.0039691355622318318 0.0012458638256339295 0 -0.0041374295547387816 0.0015735003464945152 0 -0.0034397919547722424 0.0013119725995005091 0 -0.0039691355622318318 0.0012458638256339295 0 -0.0037428931424541832 0.0011140123675801197 0 -0.0041755876682894157 0.00078048038920767863 0 -0.0039691355622318318 0.0012458638256339295 0 -0.0041755876682894157 0.00078048038920767863 0 -0.0043513086792856268 0.0012271543580307264 0 -0.0039691355622318318 0.0012458638256339295 0 -0.0041755876682894157 0.00078048038920767863 0 -0.004556308370215199 0.00087128940641797244 0 -0.0043513086792856268 0.0012271543580307264 0 -0.0029336206957373909 -0.0039423556740536738 0 -0.0029302781271477361 -0.0037244233964699824 0 -0.0031213598588692906 -0.0035040673912613107 0 -0.0011487993488653858 -0.0036229760711851394 0 -0.0038179987633229287 -0.0013110912128735557 0 -0.0029302781271477361 -0.0037244233964699824 0 -0.0028327294826677898 -0.0035862207671767208 0 -0.0027902010961437852 -0.0037092437776941357 0 -0.0027489973845356997 -0.0039109764701711148 0 -0.0029302781271477361 -0.0037244233964699824 0 -0.0027902010961437852 -0.0037092437776941357 0 -0.0027489973845356997 -0.0039109764701711148 0 -0.0029440463103895774 -0.0039645836203045714 0 -0.0029302781271477361 -0.0037244233964699824 0 -0.0011487993488653858 -0.0036229760711851394 0 -0.0027133707690214998 -0.0039193806761536748 0 0.0003709061470110753 -0.0024563394803095544 0 -0.00099094717623544794 -0.001506697103509776 0 -0.00029139929841869499 -0.00064138658441989819 0 -0.0050971039420938582 0.0010559777363530886 0 -0.005096505677943064 0.00033337112393607121 0 -0.0055490211712274761 0.00051235276891581057 0 -0.002980892527688626 -0.00013936098880327444 0 -0.0038179987633229287 -0.0013110912128735557 0 -0.005096505677943064 0.00033337112393607121 0 -0.0055490211712274761 0.00051235276891581057 0 -0.0053573014363998608 -7.1862779503999811e-05 0 -0.0038179987633229287 -0.0013110912128735557 0 -0.0086098084228117891 -0.00021355933250361282 0 -0.0031213598588692906 -0.0035040673912613107 0 -0.0028327294826677898 -0.0035862207671767208 0 -0.0029972403369756561 -0.0033461888405132653 0 -0.0029302781271477361 -0.0037244233964699824 0 -0.0031213598588692906 -0.0035040673912613107 0 -0.0028327294826677898 -0.0035862207671767208 0 -0.0086098084228117891 -0.00021355933250361282 0 -0.015811064833771215 0.002552835488192266 0 -0.013180828889717704 0.001907817422600822 0 -0.013976179688832363 0.0021942434307876619 0 -0.013457177361828134 0.0031848026117605867 0 -0.0038179987633229287 -0.0013110912128735557 0 -0.01021260841936247 0.0019569883533479718 0 -0.0086098084228117891 -0.00021355933250361282 0 -0.01021260841936247 0.0019569883533479718 0 -0.0075780896826996525 -0.00073590264282444491 0 -0.0066683841322620046 0.0003805648874771095 0 -0.0081547950430493794 0.00092228102150085074 0 -0.01021260841936247 0.0019569883533479718 0 -0.015849108669950644 0.0046259545488216269 0 -0.013976179688832363 0.0021942434307876619 0 -0.013457177361828134 0.0031848026117605867 0 -0.014468989020802188 0.0035695424325752189 0 -0.016319547243528919 0.0039091199901694412 0 -0.015849108669950644 0.0046259545488216269 0 -0.019156625740634002 0.0046138490173862536 0 -0.019523565144678765 0.0041035401213877923 0 -0.019505461231244057 0.0040341719836655661 0 -0.016319547243528919 0.0039091199901694412 0 -0.015811064833771215 0.002552835488192266 0 -0.013180828889717704 0.001907817422600822 0 -0.013457177361828134 0.0031848026117605867 0 -0.012477381446558888 0.0028068314349754698 0 -0.019156625740634002 0.0046138490173862536 0 -0.019638568000645923 0.0041809735808334475 0 -0.019523565144678765 0.0041035401213877923 0 -0.019156625740634002 0.0046138490173862536 0 -0.019638568000645923 0.0041809735808334475 0 -0.018925804047155419 0.0042686675149495772 0 -0.019638568000645923 0.0041809735808334475 0 -0.018990390846834765 0.0037609978535537553 0 -0.018925804047155419 0.0042686675149495772 0 -0.019638568000645923 0.0041809735808334475 0 -0.020214705953070712 0.0035011330973983516 0 -0.018990390846834765 0.0037609978535537553 0 -0.020214705953070712 0.0035011330973983516 0 -0.018990390846834765 0.0037609978535537553 0 -0.017708427893715024 0.0020786174445484363 0 -0.018990390846834765 0.0037609978535537553 0 -0.017672901728261685 0.0034304275117757986 0 -0.017708427893715024 0.0020786174445484363 0 -0.017672901728261685 0.0034304275117757986 0 -0.018236277047849508 0.0040459711503558187 0 -0.017016950098289428 0.0040009766591400514 0 -0.018990390846834765 0.0037609978535537553 0 -0.017672901728261685 0.0034304275117757986 0 -0.018236277047849508 0.0040459711503558187 0 -0.019156625740634002 0.0046138490173862536 0 -0.018925804047155419 0.0042686675149495772 0 -0.01776313954566025 0.0047973763393095396 0 -0.018236277047849508 0.0040459711503558187 0 -0.01776313954566025 0.0047973763393095396 0 -0.017016950098289428 0.0040009766591400514 0 -0.018990390846834765 0.0037609978535537553 0 -0.018236277047849508 0.0040459711503558187 0 -0.018925804047155419 0.0042686675149495772 0 -0.018236277047849508 0.0040459711503558187 0 -0.018925804047155419 0.0042686675149495772 0 -0.01776313954566025 0.0047973763393095396 0 -0.013681927440422188 0.004341959721472808 0 -0.01358258816671511 0.0043939167929061386 0 -0.013980554107622006 0.0042363150163114618 0 -0.017651515117130045 0.005910448529346031 0 -0.017016950098289428 0.0040009766591400514 0 -0.013980554107622006 0.0042363150163114618 0 -0.015849108669950644 0.0046259545488216269 0 -0.014014510159646788 0.0044301023843914301 0 -0.015849108669950644 0.0046259545488216269 0 -0.016941699818624961 0.0045586799336151309 0 -0.017016950098289428 0.0040009766591400514 0 -0.013980554107622006 0.0042363150163114618 0 -0.015958505254533583 0.0031891934254948797 0 -0.013128175201924865 0.0043774920217441024 0 -0.013551824346972496 0.0043909288622007246 0 -0.013980554107622006 0.0042363150163114618 0 -0.013234037902752436 0.0036891704880191089 0 -0.013128175201924865 0.0043774920217441024 0 -0.013980554107622006 0.0042363150163114618 0 -0.013551824346972496 0.0043909288622007246 0 -0.013681927440422188 0.004341959721472808 0 -0.013980554107622006 0.0042363150163114618 0 -0.013234037902752436 0.0036891704880191089 0 -0.013980554107622006 0.0042363150163114618 0 -0.014002067104594708 0.0025141308295868804 0 -0.013980554107622006 0.0042363150163114618 0 -0.014002067104594708 0.0025141308295868804 0 -0.015958505254533583 0.0031891934254948797 0 -0.014002067104594708 0.0025141308295868804 0 -0.015958505254533583 0.0031891934254948797 0 -0.017708427893715024 0.0020786174445484363 0 -0.017726395916430635 0.0031009547395523607 0 -0.019663943789472723 0.0023613796691332452 0 -0.017672901728261685 0.0034304275117757986 0 -0.017016950098289428 0.0040009766591400514 0 -0.015958505254533583 0.0031891934254948797 0 -0.017672901728261685 0.0034304275117757986 0 -0.015958505254533583 0.0031891934254948797 0 -0.017708427893715024 0.0020786174445484363 0 -0.02085417215593326 0.0034540124039841367 0 -0.02128163983210048 0.0023569893333758043 0 -0.02191621086505055 0.0025503032180943263 0 -0.02128163983210048 0.0023569893333758043 0 -0.021803750078489798 0.0022394087291562606 0 -0.02191621086505055 0.0025503032180943263 0 -0.020537132007098863 0.0025992443708143702 0 -0.02085417215593326 0.0034540124039841367 0 -0.02128163983210048 0.0023569893333758043 0 -0.020206402235522437 0.0016997368747377873 0 -0.02128163983210048 0.0023569893333758043 0 -0.021708324980442402 0.0014067298471404132 0 -0.020206402235522437 0.0016997368747377873 0 -0.020537132007098863 0.0025992443708143702 0 -0.02128163983210048 0.0023569893333758043 0 -0.021803750078489798 0.0022394087291562606 0 -0.022181645964842484 0.0018479951309104468 0 -0.021708324980442402 0.0014067298471404132 0 -0.02128163983210048 0.0023569893333758043 0 -0.021803750078489798 0.0022394087291562606 0 -0.021708324980442402 0.0014067298471404132 0 -0.021803750078489798 0.0022394087291562606 0 -0.022181645964842484 0.0018479951309104468 0 -0.021722699447051311 0.0023091591359216549 0 -0.021722699447051311 0.0023091591359216549 0 -0.021841538521873642 0.00196369424447872 0 -0.02228619588519545 0.0017003145657848492 0 -0.022181645964842484 0.0018479951309104468 0 -0.021722699447051311 0.0023091591359216549 0 -0.02228619588519545 0.0017003145657848492 0 -0.02094906155935055 0.0022913728404297972 0 -0.021722699447051311 0.0023091591359216549 0 -0.021841538521873642 0.00196369424447872 0 -0.020214705953070712 0.0035011330973983516 0 -0.02094906155935055 0.0022913728404297972 0 -0.017708427893715024 0.0020786174445484363 0 -0.021803750078489798 0.0022394087291562606 0 -0.021722699447051311 0.0023091591359216549 0 -0.02191621086505055 0.0025503032180943263 0 -0.020856511485289529 0.0022682011444295539 0 -0.019663943789472723 0.0023613796691332452 0 -0.02094906155935055 0.0022913728404297972 0 -0.021722699447051311 0.0023091591359216549 0 -0.02191621086505055 0.0025503032180943263 0 -0.01861700590117708 0.0055200397780390395 0 -0.017448982833436034 0.0056981085809056607 0 -0.018717073009481229 0.0055173934194335927 0 -0.016681215092792804 0.0061629822590477373 0 -0.017807795864425637 0.0050185344709361875 0 -0.018620598013134308 0.0057704719413200246 0 -0.018717073009481229 0.0055173934194335927 0 -0.018395887247491798 0.0055410747115896873 0 -0.018717073009481229 0.0055173934194335927 0 -0.018395887247491798 0.0055410747115896873 0 -0.018160428331591989 0.0053047221296666624 0 -0.020214705953070712 0.0035011330973983516 0 -0.02094906155935055 0.0022913728404297972 0 -0.022063354412266981 0.0021902582594165131 0 -0.02094906155935055 0.0022913728404297972 0 -0.022063354412266981 0.0021902582594165131 0 -0.021841538521873642 0.00196369424447872 0 -0.018620598013134308 0.0057704719413200246 0 -0.018717073009481229 0.0055173934194335927 0 -0.019923140819408925 0.0042264005692962707 0 -0.020329071376986769 0.0038812092605500976 0 -0.020024967271027694 0.0040839221843036247 0 -0.021841538521873642 0.00196369424447872 0 -0.022813236856910186 0.0014383768849881465 0 -0.02228619588519545 0.0017003145657848492 0 -0.022063354412266981 0.0021902582594165131 0 -0.021841538521873642 0.00196369424447872 0 -0.022813236856910186 0.0014383768849881465 0 -0.018620598013134308 0.0057704719413200246 0 -0.018395887247491798 0.0055410747115896873 0 -0.018299710385702397 0.0054269585803810704 0 -0.020329071376986769 0.0038812092605500976 0 -0.020559827827945385 0.0034210396431505054 0 -0.018395887247491798 0.0055410747115896873 0 -0.018160428331591989 0.0053047221296666624 0 -0.01817034320258629 0.0053930943888152389 0 -0.016681215092792804 0.0061629822590477373 0 -0.015989289052215881 0.0056899384598291906 0 -0.01582291412879689 0.0056781809701799664 0 -0.018160428331591989 0.0053047221296666624 0 -0.017778372453148492 0.0050810049619755696 0 -0.01817034320258629 0.0053930943888152389 0 -0.017448982833436034 0.0056981085809056607 0 -0.016827126422455679 0.0053987808316161316 0 -0.016681215092792804 0.0061629822590477373 0 -0.015989289052215881 0.0056899384598291906 0 -0.016326198560439337 0.005200585153964439 0 -0.016681215092792804 0.0061629822590477373 0 -0.016326198560439337 0.005200585153964439 0 -0.017807795864425637 0.0050185344709361875 0 -0.016326198560439337 0.005200585153964439 0 -0.017393092080098531 0.0043764351806766114 0 -0.017807795864425637 0.0050185344709361875 0 -0.015989289052215881 0.0056899384598291906 0 -0.016326198560439337 0.005200585153964439 0 -0.015328042730239032 0.005277566970489333 0 -0.016326198560439337 0.005200585153964439 0 -0.015750135028013965 0.0047624315042682245 0 -0.015328042730239032 0.005277566970489333 0 -0.015750135028013965 0.0047624315042682245 0 -0.017393092080098531 0.0043764351806766114 0 -0.016189749465546292 0.0036457359994783306 0 -0.016326198560439337 0.005200585153964439 0 -0.015750135028013965 0.0047624315042682245 0 -0.017393092080098531 0.0043764351806766114 0 -0.017393092080098531 0.0043764351806766114 0 -0.018600409187795156 0.0042968748655986058 0 -0.017807795864425637 0.0050185344709361875 0 -0.017393092080098531 0.0043764351806766114 0 -0.018600409187795156 0.0042968748655986058 0 -0.01839936458664565 0.0038743955765433262 0 -0.018600409187795156 0.0042968748655986058 0 -0.019409228372756562 0.0041060055952965102 0 -0.01839936458664565 0.0038743955765433262 0 -0.018717073009481229 0.0055173934194335927 0 -0.017807795864425637 0.0050185344709361875 0 -0.019923140819408925 0.0042264005692962707 0 -0.018600409187795156 0.0042968748655986058 0 -0.017807795864425637 0.0050185344709361875 0 -0.019923140819408925 0.0042264005692962707 0 -0.020214705953070712 0.0035011330973983516 0 -0.022063354412266981 0.0021902582594165131 0 -0.019923140819408925 0.0042264005692962707 0 -0.019638568000645923 0.0041809735808334475 0 -0.020214705953070712 0.0035011330973983516 0 -0.019923140819408925 0.0042264005692962707 0 -0.019638568000645923 0.0041809735808334475 0 -0.019923140819408925 0.0042264005692962707 0 -0.019409228372756562 0.0041060055952965102 0 -0.018600409187795156 0.0042968748655986058 0 -0.019923140819408925 0.0042264005692962707 0 -0.019409228372756562 0.0041060055952965102 0 -0.019638568000645923 0.0041809735808334475 0 -0.019409228372756562 0.0041060055952965102 0 -0.019523565144678765 0.0041035401213877923 0 -0.019407054538725578 0.0038098150377316371 0 -0.019762407262280152 0.0033639253421600727 0 -0.017885939241931208 0.002495176938857369 0 -0.019409228372756562 0.0041060055952965102 0 -0.019523565144678765 0.0041035401213877923 0 -0.019407054538725578 0.0038098150377316371 0 -0.019523565144678765 0.0041035401213877923 0 -0.019407054538725578 0.0038098150377316371 0 -0.019505461231244057 0.0040341719836655661 0 -0.019409228372756562 0.0041060055952965102 0 -0.019407054538725578 0.0038098150377316371 0 -0.01839936458664565 0.0038743955765433262 0 -0.017670028882350391 0.0025329511045582647 0 -0.015811064833771215 0.002552835488192266 0 -0.019407054538725578 0.0038098150377316371 0 -0.01839936458664565 0.0038743955765433262 0 -0.017885939241931208 0.002495176938857369 0 -0.01839936458664565 0.0038743955765433262 0 -0.017885939241931208 0.002495176938857369 0 -0.017424272947157617 0.0035299970802126022 0 -0.017393092080098531 0.0043764351806766114 0 -0.01839936458664565 0.0038743955765433262 0 -0.017424272947157617 0.0035299970802126022 0 -0.012188207236495247 9.5101170487621589e-05 0 -0.012253987523266084 0.00019959789326441801 0 -0.012232886787841762 0.00016152614974024383 0 -0.015811064833771215 0.002552835488192266 0 -0.015063254536922286 0.0012484582212772535 0 -0.012253987523266084 0.00019959789326441801 0 -0.012232886787841762 0.00016152614974024383 0 -0.012206829069298228 0.00011090324566329821 0 -0.012057545838144655 0.00016626716045183083 0 -0.012181599482204252 0.00014711614024308253 0 -0.012234169637917194 0.00014785679501684443 0 -0.012057545838144655 0.00016626716045183083 0 -0.012188207236495247 9.5101170487621589e-05 0 -0.012181599482204252 0.00014711614024308253 0 -0.012188207236495247 9.5101170487621589e-05 0 -0.012232886787841762 0.00016152614974024383 0 -0.012181599482204252 0.00014711614024308253 0 -0.012232886787841762 0.00016152614974024383 0 -0.012181599482204252 0.00014711614024308253 0 -0.012234169637917194 0.00014785679501684443 0 -0.0086098084228117891 -0.00021355933250361282 0 -0.0071932125055474321 -0.0019927042109177972 0 -0.0028327294826677898 -0.0035862207671767208 0 -0.0029972403369756561 -0.0033461888405132653 0 -0.0026736269752340933 -0.0036599495054129272 0 -0.0028327294826677898 -0.0035862207671767208 0 -0.0026434233251196111 -0.0036270910548598153 0 -0.0026736269752340933 -0.0036599495054129272 0 -0.0026434233251196111 -0.0036270910548598153 0 -0.0026736269752340933 -0.0036599495054129272 0 -0.0026982270668366231 -0.0036419698533006178 0 -0.0071932125055474321 -0.0019927042109177972 0 -0.007741608252536703 -0.0019427455665962403 0 -0.012234169637917194 0.00014785679501684443 0 -0.01214405969529034 -0.00019236659214836395 0 -0.012206829069298228 0.00011090324566329821 0 -0.012232886787841762 0.00016152614974024383 0 -0.012234169637917194 0.00014785679501684443 0 -0.012206829069298228 0.00011090324566329821 0 -0.0026736269752340933 -0.0036599495054129272 0 -0.0028580873413767641 -0.0036354668623654828 0 -0.0032376666280519674 -0.0037221148871554198 0 -0.0026736269752340933 -0.0036599495054129272 0 -0.0026982270668366231 -0.0036419698533006178 0 -0.0028580873413767641 -0.0036354668623654828 0 -0.0026708659370043774 -0.0036490643717314985 0 -0.0028580873413767641 -0.0036354668623654828 0 -0.0027751191969383488 -0.003552126680868808 0 -0.0026982270668366231 -0.0036419698533006178 0 -0.0026708659370043774 -0.0036490643717314985 0 -0.0028580873413767641 -0.0036354668623654828 0 -0.0030091785881113317 -0.0034155824576195949 0 -0.0028580873413767641 -0.0036354668623654828 0 -0.0030802246770882864 -0.0035512497776832514 0 -0.0030091785881113317 -0.0034155824576195949 0 -0.0028580873413767641 -0.0036354668623654828 0 -0.0027751191969383488 -0.003552126680868808 0 -0.0026708659370043774 -0.0036490643717314985 0 -0.0027751191969383488 -0.003552126680868808 0 -0.002380928189715718 -0.0036689907128049978 0 -0.002876644960973021 -0.0033602851759469889 0 -0.0027751191969383488 -0.003552126680868808 0 -0.002380928189715718 -0.0036689907128049978 0 -0.0023990042443475424 -0.003888963226954431 0 -0.0026434233251196111 -0.0036270910548598153 0 -0.002380928189715718 -0.0036689907128049978 0 -0.0027489973845356997 -0.0039109764701711148 0 -0.0026434233251196111 -0.0036270910548598153 0 -0.0027902010961437852 -0.0037092437776941357 0 -0.0026621457093493946 -0.00397908816543136 0 -0.0025740828669876159 -0.0036097482193806416 0 -0.0028327294826677898 -0.0035862207671767208 0 -0.0026434233251196111 -0.0036270910548598153 0 -0.0027902010961437852 -0.0037092437776941357 0 -0.0026434233251196111 -0.0036270910548598153 0 -0.0026708659370043774 -0.0036490643717314985 0 -0.002380928189715718 -0.0036689907128049978 0 -0.0026434233251196111 -0.0036270910548598153 0 -0.0026982270668366231 -0.0036419698533006178 0 -0.0026708659370043774 -0.0036490643717314985 0 -0.0034418753241077958 -0.0034032367443210029 0 -0.0032376666280519674 -0.0037221148871554198 0 -0.0038345035852848353 -0.0035415859405975281 0 -0.007741608252536703 -0.0019427455665962403 0 -0.0071888707886477322 -0.0024198510002655773 0 -0.01214405969529034 -0.00019236659214836395 0 -0.011351974512138305 -0.00018096662653526658 0 -0.010782857141255835 -0.0014319627792631013 0 -0.0028580873413767641 -0.0036354668623654828 0 -0.0032376666280519674 -0.0037221148871554198 0 -0.0030802246770882864 -0.0035512497776832514 0 -0.0032180695622956532 -0.0033857927572258019 0 -0.0034418753241077958 -0.0034032367443210029 0 -0.0032376666280519674 -0.0037221148871554198 0 -0.0032180695622956532 -0.0033857927572258019 0 -0.0032376666280519674 -0.0037221148871554198 0 -0.0030802246770882864 -0.0035512497776832514 0 -0.0032180695622956532 -0.0033857927572258019 0 -0.0030091785881113317 -0.0034155824576195949 0 -0.0030802246770882864 -0.0035512497776832514 0 -0.01214405969529034 -0.00019236659214836395 0 -0.012206829069298228 0.00011090324566329821 0 -0.011841395317799016 0.00033047018897556618 0 -0.01214405969529034 -0.00019236659214836395 0 -0.011351974512138305 -0.00018096662653526658 0 -0.011841395317799016 0.00033047018897556618 0 -0.015304125850941109 0.0015614188562962331 0 -0.016189749465546292 0.0036457359994783306 0 -0.013576259381639835 0.0046800926039412879 0 -0.015063254536922286 0.0012484582212772535 0 -0.013468323449119302 0.00098663392511083386 0 -0.012253987523266084 0.00019959789326441801 0 -0.012206829069298228 0.00011090324566329821 0 -0.011841395317799016 0.00033047018897556618 0 -0.017885939241931208 0.002495176938857369 0 -0.015304125850941109 0.0015614188562962331 0 -0.016189749465546292 0.0036457359994783306 0 -0.017885939241931208 0.002495176938857369 0 -0.016189749465546292 0.0036457359994783306 0 -0.017424272947157617 0.0035299970802126022 0 -0.017393092080098531 0.0043764351806766114 0 -0.016189749465546292 0.0036457359994783306 0 -0.017424272947157617 0.0035299970802126022 0 -0.015750135028013965 0.0047624315042682245 0 -0.016189749465546292 0.0036457359994783306 0 -0.013576259381639835 0.0046800926039412879 0 -0.013576259381639835 0.0046800926039412879 0 -0.0093541181111524187 0.0052609820179714273 0 -0.0089773005234510209 0.0067996612645141461 0 -0.013576259381639835 0.0046800926039412879 0 -0.0093541181111524187 0.0052609820179714273 0 -0.0091472937573810892 0.0037605928861810557 0 -0.013671710877828381 0.0047311322532301069 0 -0.012248113277924201 0.0060295457529330595 0 -0.0086930037080438956 0.0022732574510319903 0 -0.011724444085620478 0.0026049964383268562 0 -0.010299657444140683 0.00046387171011945535 0 -0.013576259381639835 0.0046800926039412879 0 -0.0091472937573810892 0.0037605928861810557 0 -0.011724444085620478 0.0026049964383268562 0 -0.0091472937573810892 0.0037605928861810557 0 -0.0086930037080438956 0.0022732574510319903 0 -0.011724444085620478 0.0026049964383268562 0 -0.015304125850941109 0.0015614188562962331 0 -0.013576259381639835 0.0046800926039412879 0 -0.011724444085620478 0.0026049964383268562 0 -0.013468323449119302 0.00098663392511083386 0 -0.010537056564242772 0.00040509502334194633 0 -0.011351974512138305 -0.00018096662653526658 0 -0.011841395317799016 0.00033047018897556618 0 -0.010299657444140683 0.00046387171011945535 0 -0.011351974512138305 -0.00018096662653526658 0 -0.010299657444140683 0.00046387171011945535 0 -0.010782857141255835 -0.0014319627792631013 0 -0.015304125850941109 0.0015614188562962331 0 -0.011724444085620478 0.0026049964383268562 0 -0.010299657444140683 0.00046387171011945535 0 -0.010299657444140683 0.00046387171011945535 0 -0.0082177978867374619 -0.00087737277341759208 0 -0.0066657831283072682 -0.00018566451164006667 0 -0.0086930037080438956 0.0022732574510319903 0 -0.010299657444140683 0.00046387171011945535 0 -0.0066657831283072682 -0.00018566451164006667 0 -0.005048317630365882 -0.0025363316399859043 0 -0.0082177978867374619 -0.00087737277341759208 0 -0.0066657831283072682 -0.00018566451164006667 0 -0.005048317630365882 -0.0025363316399859043 0 -0.0082177978867374619 -0.00087737277341759208 0 -0.010782857141255835 -0.0014319627792631013 0 -0.010299657444140683 0.00046387171011945535 0 -0.0082177978867374619 -0.00087737277341759208 0 -0.010782857141255835 -0.0014319627792631013 0 -0.0052429445054614022 -0.0026144081479580858 0 -0.0071888707886477322 -0.0024198510002655773 0 -0.0028634125359867208 -0.00013596251497469589 0 -0.0042226442759828436 -0.00093194601762114013 0 -0.0047253812365167167 0.00091465776372314531 0 -0.0025552048458296708 -0.0016403369938275479 0 -0.0028634125359867208 -0.00013596251497469589 0 -0.0042226442759828436 -0.00093194601762114013 0 -0.0042226442759828436 -0.00093194601762114013 0 -0.0066657831283072682 -0.00018566451164006667 0 -0.0047253812365167167 0.00091465776372314531 0 -0.005048317630365882 -0.0025363316399859043 0 -0.0042226442759828436 -0.00093194601762114013 0 -0.0066657831283072682 -0.00018566451164006667 0 -0.0086930037080438956 0.0022732574510319903 0 -0.0066657831283072682 -0.00018566451164006667 0 -0.0047253812365167167 0.00091465776372314531 0 -0.0028634125359867208 -0.00013596251497469589 0 -0.0047253812365167167 0.00091465776372314531 0 -0.0029671353873737725 0.0019624384214891087 0 -0.0047253812365167167 0.00091465776372314531 0 -0.0029671353873737725 0.0019624384214891087 0 -0.0039507067002281619 0.0033600038485551795 0 -0.0014990140487500521 0.0033613656998026024 0 -0.0029671353873737725 0.0019624384214891087 0 -0.0039507067002281619 0.0033600038485551795 0 -0.0086930037080438956 0.0022732574510319903 0 -0.0047253812365167167 0.00091465776372314531 0 -0.0039507067002281619 0.0033600038485551795 0 -0.008539765491990774 0.002372510335432764 0 -0.0055167536388286836 0.00336202395586827 0 -0.0091472937573810892 0.0037605928861810557 0 -0.0086930037080438956 0.0022732574510319903 0 -0.0068373299085780059 0.0035721219960171409 0 -0.0091472937573810892 0.0037605928861810557 0 -0.0068373299085780059 0.0035721219960171409 0 -0.0079537247823168403 0.0048107367586504874 0 -0.0093541181111524187 0.0052609820179714273 0 -0.0091472937573810892 0.0037605928861810557 0 -0.0079537247823168403 0.0048107367586504874 0 -0.0079537247823168403 0.0048107367586504874 0 -0.0068691393774639965 0.0050126127236954253 0 -0.0074940074126748774 0.0057212848879333762 0 -0.0079537247823168403 0.0048107367586504874 0 -0.0074940074126748774 0.0057212848879333762 0 -0.0082935907309898416 0.005773839771808017 0 -0.0093541181111524187 0.0052609820179714273 0 -0.0079537247823168403 0.0048107367586504874 0 -0.0082935907309898416 0.005773839771808017 0 -0.0093541181111524187 0.0052609820179714273 0 -0.0082935907309898416 0.005773839771808017 0 -0.0087543745737183876 0.0060511221225477323 0 -0.0060655116568390068 0.004735158730383375 0 -0.0068373299085780059 0.0035721219960171409 0 -0.0068691393774639965 0.0050126127236954253 0 -0.0068373299085780059 0.0035721219960171409 0 -0.0079537247823168403 0.0048107367586504874 0 -0.0068691393774639965 0.0050126127236954253 0 -0.0068691393774639965 0.0050126127236954253 0 -0.0067658851307926425 0.0059717723286403547 0 -0.0074940074126748774 0.0057212848879333762 0 -0.0060655116568390068 0.004735158730383375 0 -0.0068691393774639965 0.0050126127236954253 0 -0.0062297875849772807 0.0054228941703477135 0 -0.0068691393774639965 0.0050126127236954253 0 -0.0062297875849772807 0.0054228941703477135 0 -0.0067658851307926425 0.0059717723286403547 0 -0.0060061964929374037 0.0060101442151960409 0 -0.0067658851307926425 0.0059717723286403547 0 -0.0064595965306456843 0.0065923623424372539 0 -0.0060061964929374037 0.0060101442151960409 0 -0.0062297875849772807 0.0054228941703477135 0 -0.0067658851307926425 0.0059717723286403547 0 -0.0067658851307926425 0.0059717723286403547 0 -0.0074003682171147368 0.0063802373579571435 0 -0.0074940074126748774 0.0057212848879333762 0 -0.0067658851307926425 0.0059717723286403547 0 -0.0069706454077007561 0.0066252113964586435 0 -0.0074003682171147368 0.0063802373579571435 0 -0.0069706454077007561 0.0066252113964586435 0 -0.0074640774885619413 0.0067750637282346701 0 -0.0074003682171147368 0.0063802373579571435 0 -0.0069706454077007561 0.0066252113964586435 0 -0.0067357494203675854 0.0070115630342646954 0 -0.0070463017837536302 0.0069467507068204457 0 -0.0069706454077007561 0.0066252113964586435 0 -0.0070463017837536302 0.0069467507068204457 0 -0.0074640774885619413 0.0067750637282346701 0 -0.0067658851307926425 0.0059717723286403547 0 -0.0069706454077007561 0.0066252113964586435 0 -0.0064595965306456843 0.0065923623424372539 0 -0.0069706454077007561 0.0066252113964586435 0 -0.0064595965306456843 0.0065923623424372539 0 -0.0067357494203675854 0.0070115630342646954 0 -0.0057627840153776835 0.0072417550715175982 0 -0.006307288242313692 0.0069679709080435826 0 -0.0067957331857869934 0.0073498595317251121 0 -0.006307288242313692 0.0069679709080435826 0 -0.0067357494203675854 0.0070115630342646954 0 -0.0067957331857869934 0.0073498595317251121 0 -0.013866996268310516 0.0066474031140995602 0 -0.014577204984296464 0.0060862614372021433 0 -0.014577675659515803 0.0063528363819285007 0 -0.0064595965306456843 0.0065923623424372539 0 -0.006307288242313692 0.0069679709080435826 0 -0.0067357494203675854 0.0070115630342646954 0 -0.0070463017837536302 0.0069467507068204457 0 -0.0067957331857869934 0.0073498595317251121 0 -0.0074640774885619413 0.0067750637282346701 0 -0.0067357494203675854 0.0070115630342646954 0 -0.0070463017837536302 0.0069467507068204457 0 -0.0067957331857869934 0.0073498595317251121 0 -0.016607472532407151 0.005635340457977883 0 -0.016023803141752314 0.0055570472932245625 0 -0.015483596282904277 0.0056204887636229816 0 -0.015755616469961663 0.0059135110506046799 0 -0.015485363994581334 0.0056744585936235135 0 -0.014577204984296464 0.0060862614372021433 0 -0.014577675659515803 0.0063528363819285007 0 -0.015483596282904277 0.0056204887636229816 0 -0.016023803141752314 0.0055570472932245625 0 -0.015880426984406958 0.0055145438389531303 0 -0.016165000820317466 0.005504518648524903 0 -0.016023803141752314 0.0055570472932245625 0 -0.015880426984406958 0.0055145438389531303 0 -0.01566237061839101 0.0055281845920363811 0 -0.016607472532407151 0.005635340457977883 0 -0.016023803141752314 0.0055570472932245625 0 -0.01638945951936677 0.0055165182681517566 0 -0.016023803141752314 0.0055570472932245625 0 -0.015483596282904277 0.0056204887636229816 0 -0.01566237061839101 0.0055281845920363811 0 -0.0067957331857869934 0.0073498595317251121 0 -0.0081847963841687379 0.0067630596117542073 0 -0.0089773005234510209 0.0067996612645141461 0 -0.014577204984296464 0.0060862614372021433 0 -0.015483596282904277 0.0056204887636229816 0 -0.015507413340860135 0.0054884092376653194 0 -0.010862077595765672 0.0066814657486255888 0 -0.012248113277924201 0.0060295457529330595 0 -0.0067957331857869934 0.0073498595317251121 0 -0.0081847963841687379 0.0067630596117542073 0 -0.0074640774885619413 0.0067750637282346701 0 -0.0081847963841687379 0.0067630596117542073 0 -0.0074640774885619413 0.0067750637282346701 0 -0.0078662137624368068 0.0063143675356845249 0 -0.0074640774885619413 0.0067750637282346701 0 -0.0074003682171147368 0.0063802373579571435 0 -0.0078662137624368068 0.0063143675356845249 0 -0.0078662137624368068 0.0063143675356845249 0 -0.0074940074126748774 0.0057212848879333762 0 -0.0082935907309898416 0.005773839771808017 0 -0.0074003682171147368 0.0063802373579571435 0 -0.0078662137624368068 0.0063143675356845249 0 -0.0074940074126748774 0.0057212848879333762 0 -0.0081847963841687379 0.0067630596117542073 0 -0.0084395133475466018 0.0063374261209567058 0 -0.0089773005234510209 0.0067996612645141461 0 -0.0084395133475466018 0.0063374261209567058 0 -0.0087543745737183876 0.0060511221225477323 0 -0.0089773005234510209 0.0067996612645141461 0 -0.0081847963841687379 0.0067630596117542073 0 -0.0078662137624368068 0.0063143675356845249 0 -0.0084395133475466018 0.0063374261209567058 0 -0.0084395133475466018 0.0063374261209567058 0 -0.0082935907309898416 0.005773839771808017 0 -0.0087543745737183876 0.0060511221225477323 0 -0.0078662137624368068 0.0063143675356845249 0 -0.0084395133475466018 0.0063374261209567058 0 -0.0082935907309898416 0.005773839771808017 0 -0.0093541181111524187 0.0052609820179714273 0 -0.0087543745737183876 0.0060511221225477323 0 -0.0089773005234510209 0.0067996612645141461 0 -0.013576259381639835 0.0046800926039412879 0 -0.015507413340860135 0.0054884092376653194 0 -0.015147242649700625 0.0053034839220084959 0 -0.015507413340860135 0.0054884092376653194 0 -0.015147242649700625 0.0053034839220084959 0 -0.015421624403307556 0.0054613405781154464 0 -0.015483596282904277 0.0056204887636229816 0 -0.015507413340860135 0.0054884092376653194 0 -0.015421624403307556 0.0054613405781154464 0 -0.013576259381639835 0.0046800926039412879 0 -0.015147242649700625 0.0053034839220084959 0 -0.015328042730239032 0.005277566970489333 0 -0.015750135028013965 0.0047624315042682245 0 -0.013576259381639835 0.0046800926039412879 0 -0.015328042730239032 0.005277566970489333 0 -0.015147242649700625 0.0053034839220084959 0 -0.015328042730239032 0.005277566970489333 0 -0.015619266340593643 0.005548079365543199 0 -0.015989289052215881 0.0056899384598291906 0 -0.015328042730239032 0.005277566970489333 0 -0.015619266340593643 0.005548079365543199 0 -0.015147242649700625 0.0053034839220084959 0 -0.015582351092204641 0.0054785939947366857 0 -0.015619266340593643 0.005548079365543199 0 -0.015483596282904277 0.0056204887636229816 0 -0.015421624403307556 0.0054613405781154464 0 -0.01566237061839101 0.0055281845920363811 0 -0.015421624403307556 0.0054613405781154464 0 -0.01566237061839101 0.0055281845920363811 0 -0.015582351092204641 0.0054785939947366857 0 -0.015147242649700625 0.0053034839220084959 0 -0.015421624403307556 0.0054613405781154464 0 -0.015582351092204641 0.0054785939947366857 0 -0.015880426984406958 0.0055145438389531303 0 -0.01566237061839101 0.0055281845920363811 0 -0.015582351092204641 0.0054785939947366857 0 -0.015880426984406958 0.0055145438389531303 0 -0.015582351092204641 0.0054785939947366857 0 -0.015975040145407324 0.0055223726445889632 0 -0.015582351092204641 0.0054785939947366857 0 -0.015975040145407324 0.0055223726445889632 0 -0.015619266340593643 0.005548079365543199 0 -0.015989289052215881 0.0056899384598291906 0 -0.015619266340593643 0.005548079365543199 0 -0.01582291412879689 0.0056781809701799664 0 -0.015975040145407324 0.0055223726445889632 0 -0.015619266340593643 0.005548079365543199 0 -0.01582291412879689 0.0056781809701799664 0 -0.01582291412879689 0.0056781809701799664 0 -0.016508747916116576 0.0053691357554698921 0 -0.016827973783464473 0.0051535876227442653 0 -0.015975040145407324 0.0055223726445889632 0 -0.01582291412879689 0.0056781809701799664 0 -0.016508747916116576 0.0053691357554698921 0 -0.016827126422455679 0.0053987808316161316 0 -0.016818752386315378 0.0051840527599651687 0 -0.016508747916116576 0.0053691357554698921 0 -0.016764886484049422 0.0053141388738687191 0 -0.016504867563298102 0.0054269223686924974 0 -0.016508747916116576 0.0053691357554698921 0 -0.016764886484049422 0.0053141388738687191 0 -0.016827973783464473 0.0051535876227442653 0 -0.016942242548183842 0.0053521880960091615 0 -0.016983745663328668 0.0052916845616442732 0 -0.016764886484049422 0.0053141388738687191 0 -0.016942242548183842 0.0053521880960091615 0 -0.016764886484049422 0.0053141388738687191 0 -0.016814230195486557 0.0054438795328096831 0 -0.016764886484049422 0.0053141388738687191 0 -0.016635314973713185 0.0054673805030885612 0 -0.016504867563298102 0.0054269223686924974 0 -0.016635314973713185 0.0054673805030885612 0 -0.01638945951936677 0.0055165182681517566 0 -0.016504867563298102 0.0054269223686924974 0 -0.016764886484049422 0.0053141388738687191 0 -0.016635314973713185 0.0054673805030885612 0 -0.016814230195486557 0.0054438795328096831 0 -0.016607472532407151 0.005635340457977883 0 -0.016635314973713185 0.0054673805030885612 0 -0.016814230195486557 0.0054438795328096831 0 -0.016607472532407151 0.005635340457977883 0 -0.016635314973713185 0.0054673805030885612 0 -0.01638945951936677 0.0055165182681517566 0 -0.016023803141752314 0.0055570472932245625 0 -0.01638945951936677 0.0055165182681517566 0 -0.016165000820317466 0.005504518648524903 0 -0.01638945951936677 0.0055165182681517566 0 -0.016165000820317466 0.005504518648524903 0 -0.016504867563298102 0.0054269223686924974 0 -0.016508747916116576 0.0053691357554698921 0 -0.016165000820317466 0.005504518648524903 0 -0.016504867563298102 0.0054269223686924974 0 -0.015975040145407324 0.0055223726445889632 0 -0.016508747916116576 0.0053691357554698921 0 -0.016165000820317466 0.005504518648524903 0 -0.015880426984406958 0.0055145438389531303 0 -0.015975040145407324 0.0055223726445889632 0 -0.016165000820317466 0.005504518648524903 0 -0.017022377427460517 0.0052360832849157853 0 -0.016827973783464473 0.0051535876227442653 0 -0.017375083772972023 0.005382541551762752 0 -0.017175066070457178 0.0053035313780066201 0 -0.017022377427460517 0.0052360832849157853 0 -0.017199864867104508 0.0053342981727922201 0 -0.017022377427460517 0.0052360832849157853 0 -0.017375083772972023 0.005382541551762752 0 -0.017199864867104508 0.0053342981727922201 0 -0.016983745663328668 0.0052916845616442732 0 -0.016764886484049422 0.0053141388738687191 0 -0.017022377427460517 0.0052360832849157853 0 -0.016764886484049422 0.0053141388738687191 0 -0.017022377427460517 0.0052360832849157853 0 -0.016827973783464473 0.0051535876227442653 0 -0.017778372453148492 0.0050810049619755696 0 -0.016827973783464473 0.0051535876227442653 0 -0.017506867070716758 0.0053767790554777343 0 -0.017778372453148492 0.0050810049619755696 0 -0.017506867070716758 0.0053767790554777343 0 -0.017959822845480682 0.0054572962057621724 0 -0.017506867070716758 0.0053767790554777343 0 -0.017770379892246294 0.0054863397699430093 0 -0.017959822845480682 0.0054572962057621724 0 -0.016827973783464473 0.0051535876227442653 0 -0.017506867070716758 0.0053767790554777343 0 -0.017375083772972023 0.005382541551762752 0 -0.017506867070716758 0.0053767790554777343 0 -0.017770379892246294 0.0054863397699430093 0 -0.017375083772972023 0.005382541551762752 0 -0.017770379892246294 0.0054863397699430093 0 -0.017665444077298718 0.0054854484879201647 0 -0.017375083772972023 0.005382541551762752 0 -0.017770379892246294 0.0054863397699430093 0 -0.017973992086633708 0.0055426564971534416 0 -0.018064316870499513 0.0055375704001667091 0 -0.017770379892246294 0.0054863397699430093 0 -0.017973992086633708 0.0055426564971534416 0 -0.017665444077298718 0.0054854484879201647 0 -0.017665444077298718 0.0054854484879201647 0 -0.017375083772972023 0.005382541551762752 0 -0.017294568296653608 0.0054267006616598289 0 -0.017665444077298718 0.0054854484879201647 0 -0.017294568296653608 0.0054267006616598289 0 -0.01759379870993508 0.0055620422460901002 0 -0.017175066070457178 0.0053035313780066201 0 -0.017199864867104508 0.0053342981727922201 0 -0.017294568296653608 0.0054267006616598289 0 -0.017375083772972023 0.005382541551762752 0 -0.017199864867104508 0.0053342981727922201 0 -0.017294568296653608 0.0054267006616598289 0 -0.017430876343615807 0.0056942720627709987 0 -0.017460854126049613 0.0055116682028326308 0 -0.017613359134127975 0.0057168255434284828 0 -0.017375106862292034 0.0054634179331245585 0 -0.017598324054124915 0.0056449143328173744 0 -0.017665444077298718 0.0054854484879201647 0 -0.01759379870993508 0.0055620422460901002 0 -0.018028497253136162 0.0055499620237231357 0 -0.01759379870993508 0.0055620422460901002 0 -0.01778244376366394 0.0059299607276990188 0 -0.018028497253136162 0.0055499620237231357 0 -0.017598324054124915 0.0056449143328173744 0 -0.017772893397047004 0.0059194154622337486 0 -0.017430876343615807 0.0056942720627709987 0 -0.017613359134127975 0.0057168255434284828 0 -0.01752251046381488 0.0059195879694172969 0 -0.017613359134127975 0.0057168255434284828 0 -0.01752251046381488 0.0059195879694172969 0 -0.01778244376366394 0.0059299607276990188 0 -0.02937686161416108 0.0039493561569704135 0 -0.029410371454510004 0.0040403464813120061 0 -0.029699611090945634 0.0040939678958115625 0 -0.01752251046381488 0.0059195879694172969 0 -0.01778244376366394 0.0059299607276990188 0 -0.017668046565132958 0.0063443216666615411 0 -0.022733270263501845 0.0046490194498631432 0 -0.024021402691561822 0.0053406913454412579 0 -0.01778244376366394 0.0059299607276990188 0 -0.017668046565132958 0.0063443216666615411 0 -0.018211541945753317 0.0060774405850543582 0 -0.029410371454510004 0.0040403464813120061 0 -0.029731304183660785 0.0042063495086828908 0 -0.029699611090945634 0.0040939678958115625 0 -0.035027993375669135 0.0022074414011753712 0 -0.035072479299056207 0.0024194740793482584 0 -0.040581863005706625 0.00058392491563029618 0 -0.040673085401379538 0.00064010757159968902 0 -0.040625404397855856 0.00062966361026596009 0 -0.04052770771885137 0.00062616793195690765 0 -0.040581863005706625 0.00058392491563029618 0 -0.040625404397855856 0.00062966361026596009 0 -0.019395986506855291 0.0080214303183547171 0 -0.01869459959068354 0.0054458938690320662 0 -0.021889516255126862 0.0053750635313944105 0 -0.017668046565132958 0.0063443216666615411 0 -0.019395986506855291 0.0080214303183547171 0 -0.018211541945753317 0.0060774405850543582 0 -0.035072479299056207 0.0024194740793482584 0 -0.036169838162487367 0.0025114140675369283 0 -0.029731304183660785 0.0042063495086828908 0 -0.029699611090945634 0.0040939678958115625 0 -0.030252744440776951 0.0043796789767366479 0 -0.029731304183660785 0.0042063495086828908 0 -0.030252744440776951 0.0043796789767366479 0 -0.030272785908723468 0.004464683470733876 0 -0.019395986506855291 0.0080214303183547171 0 -0.018211541945753317 0.0060774405850543582 0 -0.01869459959068354 0.0054458938690320662 0 -0.024021402691561822 0.0053406913454412579 0 -0.024048666068863592 0.0063618707865946266 0 -0.01778244376366394 0.0059299607276990188 0 -0.018211541945753317 0.0060774405850543582 0 -0.018156109114562741 0.0056862954971838211 0 -0.018211541945753317 0.0060774405850543582 0 -0.018156109114562741 0.0056862954971838211 0 -0.01869459959068354 0.0054458938690320662 0 -0.01869459959068354 0.0054458938690320662 0 -0.018272077180224892 0.0055740441380020839 0 -0.018287543621962693 0.0053719725413608416 0 -0.019115491980037699 0.0054228531207177258 0 -0.019497543461359703 0.0053758882726489413 0 -0.01869459959068354 0.0054458938690320662 0 -0.018272077180224892 0.0055740441380020839 0 -0.018028497253136162 0.0055499620237231357 0 -0.018156109114562741 0.0056862954971838211 0 -0.01869459959068354 0.0054458938690320662 0 -0.018028497253136162 0.0055499620237231357 0 -0.01778244376366394 0.0059299607276990188 0 -0.018156109114562741 0.0056862954971838211 0 -0.018028497253136162 0.0055499620237231357 0 -0.017973992086633708 0.0055426564971534416 0 -0.017665444077298718 0.0054854484879201647 0 -0.018028497253136162 0.0055499620237231357 0 -0.017973992086633708 0.0055426564971534416 0 -0.018272077180224892 0.0055740441380020839 0 -0.018028497253136162 0.0055499620237231357 0 -0.017973992086633708 0.0055426564971534416 0 -0.018272077180224892 0.0055740441380020839 0 -0.018153699259381807 0.0055761835868379413 0 -0.018153699259381807 0.0055761835868379413 0 -0.018149271314984651 0.0055302383736328059 0 -0.01817188079208322 0.0055585119238685064 0 -0.018153699259381807 0.0055761835868379413 0 -0.018149271314984651 0.0055302383736328059 0 -0.01820462371497018 0.0054951288344261958 0 -0.018272077180224892 0.0055740441380020839 0 -0.018153699259381807 0.0055761835868379413 0 -0.01820462371497018 0.0054951288344261958 0 -0.018272077180224892 0.0055740441380020839 0 -0.01820462371497018 0.0054951288344261958 0 -0.018287543621962693 0.0053719725413608416 0 -0.019497543461359703 0.0053758882726489413 0 -0.025329740175923338 0.0038064977208220351 0 -0.01820462371497018 0.0054951288344261958 0 -0.018287543621962693 0.0053719725413608416 0 -0.018196886116727512 0.0053625141816507843 0 -0.018149271314984651 0.0055302383736328059 0 -0.01820462371497018 0.0054951288344261958 0 -0.018196886116727512 0.0053625141816507843 0 -0.019972909644480331 0.0043942042704467679 0 -0.025329740175923338 0.0038064977208220351 0 -0.023015599644610401 0.0026744459283137888 0 -0.022724821105659158 0.0040321256855829811 0 -0.02358247093464064 0.0034822526003141113 0 -0.025261077462475134 0.005718497476790629 0 -0.022905539295751631 0.0079119881568783523 0 -0.024739911510641241 0.010647167081085604 0 -0.019395986506855291 0.0080214303183547171 0 -0.021889516255126862 0.0053750635313944105 0 -0.022905539295751631 0.0079119881568783523 0 -0.021889516255126862 0.0053750635313944105 0 -0.025261077462475134 0.005718497476790629 0 -0.022905539295751631 0.0079119881568783523 0 -0.03428751274309761 -0.0012323615035521483 0 -0.036117016110839194 -0.0010791651085261904 0 -0.035288829039223764 -0.00018388946570093654 0 -0.022724821105659158 0.0040321256855829811 0 -0.024405147909756453 0.0044348750021427213 0 -0.02358247093464064 0.0034822526003141113 0 -0.025329740175923338 0.0038064977208220351 0 -0.030909359705962036 0.0014404815218492977 0 -0.024405147909756453 0.0044348750021427213 0 -0.02358247093464064 0.0034822526003141113 0 -0.024171827365487775 0.0029904838313971898 0 -0.024405147909756453 0.0044348750021427213 0 -0.024171827365487775 0.0029904838313971898 0 -0.025227256556144363 0.0035154073496969649 0 -0.023015599644610401 0.0026744459283137888 0 -0.02358247093464064 0.0034822526003141113 0 -0.024171827365487775 0.0029904838313971898 0 -0.023015599644610401 0.0026744459283137888 0 -0.024171827365487775 0.0029904838313971898 0 -0.023799931408185392 0.0019848609112182178 0 -0.023015599644610401 0.0026744459283137888 0 -0.023799931408185392 0.0019848609112182178 0 -0.023102306076292094 0.0017564717501441613 0 -0.019972909644480331 0.0043942042704467679 0 -0.020715568641212531 0.0035756884940847263 0 -0.024171827365487775 0.0029904838313971898 0 -0.023799931408185392 0.0019848609112182178 0 -0.024806531070522317 0.002333961911661317 0 -0.023042526884615968 0.0012529996783554173 0 -0.023102306076292094 0.0017564717501441613 0 -0.023630473018668208 0.0013223504903828033 0 -0.023799931408185392 0.0019848609112182178 0 -0.023102306076292094 0.0017564717501441613 0 -0.023630473018668208 0.0013223504903828033 0 -0.023042526884615968 0.0012529996783554173 0 -0.022993640763689174 0.0011971971904150343 0 -0.023630473018668208 0.0013223504903828033 0 -0.020625595324918838 0.0033814070874211696 0 -0.020715568641212531 0.0035756884940847263 0 -0.018231098473993086 0.0054794137186369692 0 -0.018064316870499513 0.0055375704001667091 0 -0.017959822845480682 0.0054572962057621724 0 -0.018153699259381807 0.0055761835868379413 0 -0.01817188079208322 0.0055585119238685064 0 -0.018064316870499513 0.0055375704001667091 0 -0.018231098473993086 0.0054794137186369692 0 -0.01817188079208322 0.0055585119238685064 0 -0.018064316870499513 0.0055375704001667091 0 -0.017973992086633708 0.0055426564971534416 0 -0.018153699259381807 0.0055761835868379413 0 -0.018064316870499513 0.0055375704001667091 0 -0.017770379892246294 0.0054863397699430093 0 -0.018064316870499513 0.0055375704001667091 0 -0.017959822845480682 0.0054572962057621724 0 -0.018231098473993086 0.0054794137186369692 0 -0.017959822845480682 0.0054572962057621724 0 -0.01817034320258629 0.0053930943888152389 0 -0.017778372453148492 0.0050810049619755696 0 -0.017959822845480682 0.0054572962057621724 0 -0.01817034320258629 0.0053930943888152389 0 -0.018395887247491798 0.0055410747115896873 0 -0.01817034320258629 0.0053930943888152389 0 -0.018299710385702397 0.0054269585803810704 0 -0.022813236856910186 0.0014383768849881465 0 -0.022993640763689174 0.0011971971904150343 0 -0.02228619588519545 0.0017003145657848492 0 -0.023042526884615968 0.0012529996783554173 0 -0.022813236856910186 0.0014383768849881465 0 -0.022993640763689174 0.0011971971904150343 0 -0.020625595324918838 0.0033814070874211696 0 -0.020559827827945385 0.0034210396431505054 0 -0.018231098473993086 0.0054794137186369692 0 -0.01817034320258629 0.0053930943888152389 0 -0.018299710385702397 0.0054269585803810704 0 -0.023230820942952118 0.00063570463186853759 0 -0.022993640763689174 0.0011971971904150343 0 -0.022646186941059882 0.0014173510691358243 0 -0.022993640763689174 0.0011971971904150343 0 -0.02228619588519545 0.0017003145657848492 0 -0.022646186941059882 0.0014173510691358243 0 -0.022181645964842484 0.0018479951309104468 0 -0.02228619588519545 0.0017003145657848492 0 -0.022646186941059882 0.0014173510691358243 0 -0.022181645964842484 0.0018479951309104468 0 -0.023230820942952118 0.00063570463186853759 0 -0.022646186941059882 0.0014173510691358243 0 -0.023230820942952118 0.00063570463186853759 0 -0.021708324980442402 0.0014067298471404132 0 -0.021046941477822947 -0.00059791086985596222 0 -0.021708324980442402 0.0014067298471404132 0 -0.021046941477822947 -0.00059791086985596222 0 -0.020002375153736141 0.00012333500609375701 0 -0.022181645964842484 0.0018479951309104468 0 -0.023230820942952118 0.00063570463186853759 0 -0.021708324980442402 0.0014067298471404132 0 -0.020206402235522437 0.0016997368747377873 0 -0.021708324980442402 0.0014067298471404132 0 -0.020002375153736141 0.00012333500609375701 0 -0.023358302605229288 0.0006133709962697142 0 -0.023602203483161624 0.0003208880985175753 0 -0.023230820942952118 0.00063570463186853759 0 -0.026136765012352906 0.001068595039493279 0 -0.024661344032727687 0.0015322127373901063 0 -0.026136765012352906 0.001068595039493279 0 -0.026264750662753057 0.0023221549625789782 0 -0.027664704022247945 0.0019458949105467245 0 -0.026136765012352906 0.001068595039493279 0 -0.024661344032727687 0.0015322127373901063 0 -0.026264750662753057 0.0023221549625789782 0 -0.024661344032727687 0.0015322127373901063 0 -0.023630473018668208 0.0013223504903828033 0 -0.024806531070522317 0.002333961911661317 0 -0.023230820942952118 0.00063570463186853759 0 -0.024661344032727687 0.0015322127373901063 0 -0.023630473018668208 0.0013223504903828033 0 -0.023230820942952118 0.00063570463186853759 0 -0.022993640763689174 0.0011971971904150343 0 -0.023630473018668208 0.0013223504903828033 0 -0.024661344032727687 0.0015322127373901063 0 -0.024806531070522317 0.002333961911661317 0 -0.026264750662753057 0.0023221549625789782 0 -0.023799931408185392 0.0019848609112182178 0 -0.023630473018668208 0.0013223504903828033 0 -0.024806531070522317 0.002333961911661317 0 -0.024806531070522317 0.002333961911661317 0 -0.026268631935075171 0.0034564079448442401 0 -0.026264750662753057 0.0023221549625789782 0 -0.024806531070522317 0.002333961911661317 0 -0.025227256556144363 0.0035154073496969649 0 -0.026268631935075171 0.0034564079448442401 0 -0.024171827365487775 0.0029904838313971898 0 -0.024806531070522317 0.002333961911661317 0 -0.025227256556144363 0.0035154073496969649 0 -0.025227256556144363 0.0035154073496969649 0 -0.026268631935075171 0.0034564079448442401 0 -0.026256776447015025 0.0047114511179642167 0 -0.026268631935075171 0.0034564079448442401 0 -0.026256776447015025 0.0047114511179642167 0 -0.027565991853335026 0.0046456600542868808 0 -0.030909359705962036 0.0014404815218492977 0 -0.03194061619337648 0.0020619217758592124 0 -0.024405147909756453 0.0044348750021427213 0 -0.025227256556144363 0.0035154073496969649 0 -0.026256776447015025 0.0047114511179642167 0 -0.026268631935075171 0.0034564079448442401 0 -0.027426424166977045 0.0038427108190802247 0 -0.027565991853335026 0.0046456600542868808 0 -0.026268631935075171 0.0034564079448442401 0 -0.027426424166977045 0.0038427108190802247 0 -0.026945792269925811 0.0030552388085495442 0 -0.027426424166977045 0.0038427108190802247 0 -0.026945792269925811 0.0030552388085495442 0 -0.027832795902398975 0.0033125114443009495 0 -0.026945792269925811 0.0030552388085495442 0 -0.026264750662753057 0.0023221549625789782 0 -0.027750966800317644 0.0025185884823580836 0 -0.026268631935075171 0.0034564079448442401 0 -0.026945792269925811 0.0030552388085495442 0 -0.026264750662753057 0.0023221549625789782 0 -0.026264750662753057 0.0023221549625789782 0 -0.027664704022247945 0.0019458949105467245 0 -0.027750966800317644 0.0025185884823580836 0 -0.023787316587015141 0.00059990652725429978 0 -0.024257439121214044 0.0011068013088939973 0 -0.027664704022247945 0.0019458949105467245 0 -0.027750966800317644 0.0025185884823580836 0 -0.027843452052474203 0.0026180502101318935 0 -0.027750966800317644 0.0025185884823580836 0 -0.028228827894677233 0.0021765775731429926 0 -0.027843452052474203 0.0026180502101318935 0 -0.027750966800317644 0.0025185884823580836 0 -0.027832795902398975 0.0033125114443009495 0 -0.028228827894677233 0.0021765775731429926 0 -0.026945792269925811 0.0030552388085495442 0 -0.027750966800317644 0.0025185884823580836 0 -0.027832795902398975 0.0033125114443009495 0 -0.027832795902398975 0.0033125114443009495 0 -0.028228827894677233 0.0021765775731429926 0 -0.028809298235691679 0.0037979362594234766 0 -0.028346497543561881 0.0021840737312439542 0 -0.02790680973913906 0.0018431187709146105 0 -0.027832795902398975 0.0033125114443009495 0 -0.028809298235691679 0.0037979362594234766 0 -0.028223283493820122 0.0045601548315860113 0 -0.027426424166977045 0.0038427108190802247 0 -0.027832795902398975 0.0033125114443009495 0 -0.028223283493820122 0.0045601548315860113 0 -0.027277087145374378 -1.3062007388330245e-06 0 -0.026672055606205631 2.1735348612799911e-05 0 -0.024791405256334855 0.00017359945976772303 0 -0.027277087145374378 -1.3062007388330245e-06 0 -0.026672055606205631 2.1735348612799911e-05 0 -0.027665528217524427 -0.00028873796645350708 0 -0.027885206280830958 -0.0001903277217013767 0 -0.027325112265961179 0.00025844923213125368 0 -0.027665528217524427 -0.00028873796645350708 0 -0.026672055606205631 2.1735348612799911e-05 0 -0.027325112265961179 0.00025844923213125368 0 -0.027665528217524427 -0.00028873796645350708 0 -0.028228827894677233 0.0021765775731429926 0 -0.027325112265961179 0.00025844923213125368 0 -0.027061876929460504 0.00099233548726054008 0 -0.027061876929460504 0.00099233548726054008 0 -0.024791405256334855 0.00017359945976772303 0 -0.027843452052474203 0.0026180502101318935 0 -0.026672055606205631 2.1735348612799911e-05 0 -0.027325112265961179 0.00025844923213125368 0 -0.027061876929460504 0.00099233548726054008 0 -0.028228827894677233 0.0021765775731429926 0 -0.027885206280830958 -0.0001903277217013767 0 -0.027325112265961179 0.00025844923213125368 0 -0.026672055606205631 2.1735348612799911e-05 0 -0.027061876929460504 0.00099233548726054008 0 -0.024791405256334855 0.00017359945976772303 0 -0.027277087145374378 -1.3062007388330245e-06 0 -0.024072892299157878 2.5745269585644456e-06 0 -0.024791405256334855 0.00017359945976772303 0 -0.024072892299157878 2.5745269585644456e-06 0 -0.024791405256334855 0.00017359945976772303 0 -0.020634568213000797 -7.2354444174002421e-05 0 -0.024072892299157878 2.5745269585644456e-06 0 -0.020634568213000797 -7.2354444174002421e-05 0 -0.020871955044317891 -1.4745833329603962e-06 0 -0.024583553946983427 0.00028675866859667577 0 -0.024257439121214044 0.0011068013088939973 0 -0.028228827894677233 0.0021765775731429926 0 -0.027061876929460504 0.00099233548726054008 0 -0.027843452052474203 0.0026180502101318935 0 -0.019887117957808554 -0.00081625740358005027 0 -0.020634568213000797 -7.2354444174002421e-05 0 -0.01982630584392395 -0.00046378932692040962 0 -0.020634568213000797 -7.2354444174002421e-05 0 -0.020871955044317891 -1.4745833329603962e-06 0 -0.01982630584392395 -0.00046378932692040962 0 -0.020871955044317891 -1.4745833329603962e-06 0 -0.01766992199958688 -2.1113115814352233e-06 0 -0.01982630584392395 -0.00046378932692040962 0 -0.01766992199958688 -2.1113115814352233e-06 0 -0.018975429305114117 -0.00034704055454317083 0 -0.01982630584392395 -0.00046378932692040962 0 -0.021046941477822947 -0.00059791086985596222 0 -0.019887117957808554 -0.00081625740358005027 0 -0.020002375153736141 0.00012333500609375701 0 -0.019887117957808554 -0.00081625740358005027 0 -0.018975429305114117 -0.00034704055454317083 0 -0.01982630584392395 -0.00046378932692040962 0 -0.019887117957808554 -0.00081625740358005027 0 -0.018975429305114117 -0.00034704055454317083 0 -0.020002375153736141 0.00012333500609375701 0 -0.023602203483161624 0.0003208880985175753 0 -0.023787316587015141 0.00059990652725429978 0 -0.018975429305114117 -0.00034704055454317083 0 -0.020002375153736141 0.00012333500609375701 0 -0.018795192500513126 0.0006156860629776055 0 -0.01890230217388144 0.0020917343889966552 0 -0.020206402235522437 0.0016997368747377873 0 -0.018795192500513126 0.0006156860629776055 0 -0.020206402235522437 0.0016997368747377873 0 -0.020002375153736141 0.00012333500609375701 0 -0.018795192500513126 0.0006156860629776055 0 -0.01702997772950858 0.0022128029681429537 0 -0.018795192500513126 0.0006156860629776055 0 -0.017132920546277828 -0.00011003695525416257 0 -0.01702997772950858 0.0022128029681429537 0 -0.014474640297648191 4.7009796557414757e-06 0 -0.017132920546277828 -0.00011003695525416257 0 -0.01766992199958688 -2.1113115814352233e-06 0 -0.014474640297648191 4.7009796557414757e-06 0 -0.017132920546277828 -0.00011003695525416257 0 -0.01766992199958688 -2.1113115814352233e-06 0 -0.018975429305114117 -0.00034704055454317083 0 -0.017132920546277828 -0.00011003695525416257 0 -0.018975429305114117 -0.00034704055454317083 0 -0.018795192500513126 0.0006156860629776055 0 -0.017132920546277828 -0.00011003695525416257 0 -0.040748196998797163 1.5708104392482496e-06 0 -0.039075903617120579 -5.3661089527421019e-05 0 -0.039454280280192253 0.00011107653686006709 0 -0.040748196998797163 1.5708104392482496e-06 0 -0.039075903617120579 -5.3661089527421019e-05 0 -0.039423797193810728 -3.201634054425169e-07 0 -0.039075903617120579 -5.3661089527421019e-05 0 -0.039423797193810728 -3.201634054425169e-07 0 -0.03644212576772464 5.9662447731279505e-08 0 -0.040748196998797163 1.5708104392482496e-06 0 -0.039423797193810728 -3.201634054425169e-07 0 -0.042309538437352003 -8.0717762361673281e-05 0 -0.039423797193810728 -3.201634054425169e-07 0 -0.042309538437352003 -8.0717762361673281e-05 0 -0.042404823476051491 -2.8966402826460548e-07 0 -0.040748196998797163 1.5708104392482496e-06 0 -0.042657516974753104 0.00016176457222702467 0 -0.042309538437352003 -8.0717762361673281e-05 0 -0.040748196998797163 1.5708104392482496e-06 0 -0.041439216511845949 0.00022863523710216091 0 -0.042657516974753104 0.00016176457222702467 0 -0.04279360003757765 0.00047151537089843153 0 -0.041439216511845949 0.00022863523710216091 0 -0.042657516974753104 0.00016176457222702467 0 -0.041928617636242192 0.00047195018487050959 0 -0.041439216511845949 0.00022863523710216091 0 -0.040816796418080607 0.00038409868921493402 0 -0.04279360003757765 0.00047151537089843153 0 -0.041928617636242192 0.00047195018487050959 0 -0.041439216511845949 0.00022863523710216091 0 -0.040748196998797163 1.5708104392482496e-06 0 -0.041439216511845949 0.00022863523710216091 0 -0.039454280280192253 0.00011107653686006709 0 -0.040816796418080607 0.00038409868921493402 0 -0.039740634778111586 0.00040861374033176849 0 -0.039454280280192253 0.00011107653686006709 0 -0.041439216511845949 0.00022863523710216091 0 -0.040816796418080607 0.00038409868921493402 0 -0.039454280280192253 0.00011107653686006709 0 -0.041928617636242192 0.00047195018487050959 0 -0.040816796418080607 0.00038409868921493402 0 -0.041845972164542618 0.00061780846380400721 0 -0.040816796418080607 0.00038409868921493402 0 -0.040799803402715808 0.00066556733026691694 0 -0.041845972164542618 0.00061780846380400721 0 -0.040816796418080607 0.00038409868921493402 0 -0.040799803402715808 0.00066556733026691694 0 -0.039740634778111586 0.00040861374033176849 0 -0.040799803402715808 0.00066556733026691694 0 -0.039740634778111586 0.00040861374033176849 0 -0.039977355817487528 0.00099274834668116436 0 -0.040799803402715808 0.00066556733026691694 0 -0.039977355817487528 0.00099274834668116436 0 -0.040517457712517156 0.00090996412140123171 0 -0.039740634778111586 0.00040861374033176849 0 -0.037799933698751766 0.00036938748968757461 0 -0.039454280280192253 0.00011107653686006709 0 -0.039740634778111586 0.00040861374033176849 0 -0.037799933698751766 0.00036938748968757461 0 -0.039977355817487528 0.00099274834668116436 0 -0.037799933698751766 0.00036938748968757461 0 -0.039454280280192253 0.00011107653686006709 0 -0.03644212576772464 5.9662447731279505e-08 0 -0.039075903617120579 -5.3661089527421019e-05 0 -0.039454280280192253 0.00011107653686006709 0 -0.03644212576772464 5.9662447731279505e-08 0 -0.037799933698751766 0.00036938748968757461 0 -0.03644212576772464 5.9662447731279505e-08 0 -0.033460575742424739 -8.3300364187879984e-07 0 -0.037799933698751766 0.00036938748968757461 0 -0.033460575742424739 -8.3300364187879984e-07 0 -0.033820790901992949 0.0001958518785905026 0 -0.037799933698751766 0.00036938748968757461 0 -0.035490272816563945 0.00034329524188102142 0 -0.033820790901992949 0.0001958518785905026 0 -0.037557047195917979 0.00020237230733719167 0 -0.03766621202697034 0.00070694704335746734 0 -0.035490272816563945 0.00034329524188102142 0 -0.033820790901992949 0.0001958518785905026 0 -0.033829742772679222 0.0017159737856146644 0 -0.033460575742424739 -8.3300364187879984e-07 0 -0.033820790901992949 0.0001958518785905026 0 -0.030482601857226125 4.9050585473357236e-06 0 -0.030472705451996047 1.4413830381395995e-06 0 -0.02833923920939295 0.00029214859683929857 0 -0.027665528217524427 -0.00028873796645350708 0 -0.033820790901992949 0.0001958518785905026 0 -0.030482601857226125 4.9050585473357236e-06 0 -0.033829742772679222 0.0017159737856146644 0 -0.030477774336452643 5.9211166207721295e-07 0 -0.030901351234274923 0.00081089848724546891 0 -0.03766621202697034 0.00070694704335746734 0 -0.032657780800796316 0.0021493948503904978 0 -0.02833923920939295 0.00029214859683929857 0 -0.027665528217524427 -0.00028873796645350708 0 -0.027734560630705049 -2.8649558703058996e-05 0 -0.035490272816563945 0.00034329524188102142 0 -0.033829742772679222 0.0017159737856146644 0 -0.035329118003925672 0.0021456680173312813 0 -0.030901351234274923 0.00081089848724546891 0 -0.032657780800796316 0.0021493948503904978 0 -0.027885206280830958 -0.0001903277217013767 0 -0.027665528217524427 -0.00028873796645350708 0 -0.027734560630705049 -2.8649558703058996e-05 0 -0.027277087145374378 -1.3062007388330245e-06 0 -0.030472705451996047 1.4413830381395995e-06 0 -0.027665528217524427 -0.00028873796645350708 0 -0.02790680973913906 0.0018431187709146105 0 -0.032657780800796316 0.0021493948503904978 0 -0.028809298235691679 0.0037979362594234766 0 -0.028223283493820122 0.0045601548315860113 0 -0.028987168138097118 0.0046204789930873553 0 -0.03889126882312878 0.0013336002227560548 0 -0.039287632900599348 0.0013813347190801168 0 -0.039627850739778592 0.0012383977926070447 0 -0.034143292244595468 0.0028833776360584042 0 -0.032657780800796316 0.0021493948503904978 0 -0.039470206214823438 0.00094095824847690711 0 -0.039287632900599348 0.0013813347190801168 0 -0.039627850739778592 0.0012383977926070447 0 -0.039470206214823438 0.00094095824847690711 0 -0.039627850739778592 0.0012383977926070447 0 -0.039609941947117457 0.00089467767155569059 0 -0.039627850739778592 0.0012383977926070447 0 -0.039977355817487528 0.00099274834668116436 0 -0.040094016368610069 0.0010745709616750048 0 -0.03889126882312878 0.0013336002227560548 0 -0.039627850739778592 0.0012383977926070447 0 -0.039977355817487528 0.00099274834668116436 0 -0.037799933698751766 0.00036938748968757461 0 -0.03889126882312878 0.0013336002227560548 0 -0.039977355817487528 0.00099274834668116436 0 -0.039977355817487528 0.00099274834668116436 0 -0.040517457712517156 0.00090996412140123171 0 -0.040094016368610069 0.0010745709616750048 0 -0.040517457712517156 0.00090996412140123171 0 -0.040493978180037124 0.00095162865723686751 0 -0.041051884947901941 0.000784376148398729 0 -0.040517457712517156 0.00090996412140123171 0 -0.040493978180037124 0.00095162865723686751 0 -0.040094016368610069 0.0010745709616750048 0 -0.040811153045029205 0.00085258204073197764 0 -0.040493978180037124 0.00095162865723686751 0 -0.040370264677523943 0.00094666350261060823 0 -0.040811153045029205 0.00085258204073197764 0 -0.040493978180037124 0.00095162865723686751 0 -0.041051884947901941 0.000784376148398729 0 -0.040493978180037124 0.00095162865723686751 0 -0.040033028969551243 0.0010161712191026713 0 -0.040370264677523943 0.00094666350261060823 0 -0.040033028969551243 0.0010161712191026713 0 -0.039609941947117457 0.00089467767155569059 0 -0.039594153207508594 0.00091806625335345718 0 -0.040033028969551243 0.0010161712191026713 0 -0.039908745133250434 0.0010172927873143783 0 -0.040370264677523943 0.00094666350261060823 0 -0.040033028969551243 0.0010161712191026713 0 -0.039594153207508594 0.00091806625335345718 0 -0.039908745133250434 0.0010172927873143783 0 -0.040033028969551243 0.0010161712191026713 0 -0.040094016368610069 0.0010745709616750048 0 -0.039609941947117457 0.00089467767155569059 0 -0.040493978180037124 0.00095162865723686751 0 -0.040033028969551243 0.0010161712191026713 0 -0.040094016368610069 0.0010745709616750048 0 -0.039627850739778592 0.0012383977926070447 0 -0.040094016368610069 0.0010745709616750048 0 -0.039609941947117457 0.00089467767155569059 0 -0.039609941947117457 0.00089467767155569059 0 -0.039594153207508594 0.00091806625335345718 0 -0.039101530321155355 0.00049123609251273633 0 -0.039609941947117457 0.00089467767155569059 0 -0.039013985671128751 0.000169326832776483 0 -0.039101530321155355 0.00049123609251273633 0 -0.034143292244595468 0.0028833776360584042 0 -0.033184339855246187 0.0023766300497229833 0 -0.027426424166977045 0.0038427108190802247 0 -0.028223283493820122 0.0045601548315860113 0 -0.027565991853335026 0.0046456600542868808 0 -0.039470206214823438 0.00094095824847690711 0 -0.039609941947117457 0.00089467767155569059 0 -0.039013985671128751 0.000169326832776483 0 -0.037943363754755939 -0.0006369051064805375 0 -0.038948126201862082 0.00069110699440733114 0 -0.03798663895004209 0.00051135552239585662 0 -0.037943363754755939 -0.0006369051064805375 0 -0.03798663895004209 0.00051135552239585662 0 -0.036624217062337386 0.00011384952639673057 0 -0.03194061619337648 0.0020619217758592124 0 -0.033184339855246187 0.0023766300497229833 0 -0.037943363754755939 -0.0006369051064805375 0 -0.038948126201862082 0.00069110699440733114 0 -0.039101530321155355 0.00049123609251273633 0 -0.037943363754755939 -0.0006369051064805375 0 -0.039013985671128751 0.000169326832776483 0 -0.039101530321155355 0.00049123609251273633 0 -0.039594153207508594 0.00091806625335345718 0 -0.038948126201862082 0.00069110699440733114 0 -0.039101530321155355 0.00049123609251273633 0 -0.039594153207508594 0.00091806625335345718 0 -0.038948126201862082 0.00069110699440733114 0 -0.039543292991449742 0.001059305940847382 0 -0.038948126201862082 0.00069110699440733114 0 -0.039055385081741417 0.0010225175911760917 0 -0.039543292991449742 0.001059305940847382 0 -0.039055385081741417 0.0010225175911760917 0 -0.038140433643571281 0.0010184519174266152 0 -0.0394961232308709 0.0013219630594084825 0 -0.038948126201862082 0.00069110699440733114 0 -0.039055385081741417 0.0010225175911760917 0 -0.03798663895004209 0.00051135552239585662 0 -0.03798663895004209 0.00051135552239585662 0 -0.038140433643571281 0.0010184519174266152 0 -0.03718268615482298 0.00068439999929252777 0 -0.039055385081741417 0.0010225175911760917 0 -0.03798663895004209 0.00051135552239585662 0 -0.038140433643571281 0.0010184519174266152 0 -0.039055385081741417 0.0010225175911760917 0 -0.039602945339712321 0.0011631689958583552 0 -0.0394961232308709 0.0013219630594084825 0 -0.039602945339712321 0.0011631689958583552 0 -0.0394961232308709 0.0013219630594084825 0 -0.03991475920950633 0.0010347106637330773 0 -0.0394961232308709 0.0013219630594084825 0 -0.03991475920950633 0.0010347106637330773 0 -0.039929619317352984 0.001071116420852655 0 -0.039602945339712321 0.0011631689958583552 0 -0.03991475920950633 0.0010347106637330773 0 -0.040004903184247154 0.0010180521447585066 0 -0.03991475920950633 0.0010347106637330773 0 -0.040004903184247154 0.0010180521447585066 0 -0.040377132016481986 0.00082589867305838511 0 -0.040356460654123849 0.00087149420915115798 0 -0.039929619317352984 0.001071116420852655 0 -0.040403915945022809 0.00092707865656753397 0 -0.040229859432447682 0.00089572372674102529 0 -0.040356460654123849 0.00087149420915115798 0 -0.039929619317352984 0.001071116420852655 0 -0.03991475920950633 0.0010347106637330773 0 -0.040229859432447682 0.00089572372674102529 0 -0.039929619317352984 0.001071116420852655 0 -0.039594153207508594 0.00091806625335345718 0 -0.039543292991449742 0.001059305940847382 0 -0.039908745133250434 0.0010172927873143783 0 -0.039055385081741417 0.0010225175911760917 0 -0.039602945339712321 0.0011631689958583552 0 -0.039543292991449742 0.001059305940847382 0 -0.039602945339712321 0.0011631689958583552 0 -0.039543292991449742 0.001059305940847382 0 -0.040004903184247154 0.0010180521447585066 0 -0.039543292991449742 0.001059305940847382 0 -0.040004903184247154 0.0010180521447585066 0 -0.039908745133250434 0.0010172927873143783 0 -0.040004903184247154 0.0010180521447585066 0 -0.039908745133250434 0.0010172927873143783 0 -0.040370264677523943 0.00094666350261060823 0 -0.040004903184247154 0.0010180521447585066 0 -0.040434727423005114 0.00087004127541266934 0 -0.040377132016481986 0.00082589867305838511 0 -0.040004903184247154 0.0010180521447585066 0 -0.040370264677523943 0.00094666350261060823 0 -0.040434727423005114 0.00087004127541266934 0 -0.040434727423005114 0.00087004127541266934 0 -0.040795475826481811 0.00080812308832623977 0 -0.040727052318302571 0.00076207841757355268 0 -0.040811153045029205 0.00085258204073197764 0 -0.040370264677523943 0.00094666350261060823 0 -0.040795475826481811 0.00080812308832623977 0 -0.040370264677523943 0.00094666350261060823 0 -0.040434727423005114 0.00087004127541266934 0 -0.040795475826481811 0.00080812308832623977 0 -0.040229859432447682 0.00089572372674102529 0 -0.040377132016481986 0.00082589867305838511 0 -0.04056915014006849 0.00075804888108067195 0 -0.040377132016481986 0.00082589867305838511 0 -0.04081713816309808 0.00066648925904907053 0 -0.04056915014006849 0.00075804888108067195 0 -0.040229859432447682 0.00089572372674102529 0 -0.040356460654123849 0.00087149420915115798 0 -0.04056915014006849 0.00075804888108067195 0 -0.03991475920950633 0.0010347106637330773 0 -0.040229859432447682 0.00089572372674102529 0 -0.040377132016481986 0.00082589867305838511 0 -0.040434727423005114 0.00087004127541266934 0 -0.040377132016481986 0.00082589867305838511 0 -0.040727052318302571 0.00076207841757355268 0 -0.040377132016481986 0.00082589867305838511 0 -0.040727052318302571 0.00076207841757355268 0 -0.04081713816309808 0.00066648925904907053 0 -0.04081713816309808 0.00066648925904907053 0 -0.041065642523210759 0.00066533259268695424 0 -0.041176905207434882 0.00061944174971698184 0 -0.040727052318302571 0.00076207841757355268 0 -0.041065642523210759 0.00066533259268695424 0 -0.041080799162732086 0.00071492948616554933 0 -0.040727052318302571 0.00076207841757355268 0 -0.04081713816309808 0.00066648925904907053 0 -0.041065642523210759 0.00066533259268695424 0 -0.041065642523210759 0.00066533259268695424 0 -0.041176905207434882 0.00061944174971698184 0 -0.04149932984485654 0.00065099154183023841 0 -0.041065642523210759 0.00066533259268695424 0 -0.04149932984485654 0.00065099154183023841 0 -0.041080799162732086 0.00071492948616554933 0 -0.041176905207434882 0.00061944174971698184 0 -0.041559547186305522 0.0006447698584277834 0 -0.04149932984485654 0.00065099154183023841 0 -0.041559547186305522 0.0006447698584277834 0 -0.04149932984485654 0.00065099154183023841 0 -0.042296283921533277 0.00072864416559678669 0 -0.04149932984485654 0.00065099154183023841 0 -0.041997446520121211 0.00069410169305638087 0 -0.042296283921533277 0.00072864416559678669 0 -0.04149932984485654 0.00065099154183023841 0 -0.041997446520121211 0.00069410169305638087 0 -0.04131557783365182 0.0007312733125412952 0 -0.04149932984485654 0.00065099154183023841 0 -0.04131557783365182 0.0007312733125412952 0 -0.041080799162732086 0.00071492948616554933 0 -0.040795475826481811 0.00080812308832623977 0 -0.040727052318302571 0.00076207841757355268 0 -0.041080799162732086 0.00071492948616554933 0 -0.040811153045029205 0.00085258204073197764 0 -0.040795475826481811 0.00080812308832623977 0 -0.04131557783365182 0.0007312733125412952 0 -0.040795475826481811 0.00080812308832623977 0 -0.04131557783365182 0.0007312733125412952 0 -0.041080799162732086 0.00071492948616554933 0 -0.040811153045029205 0.00085258204073197764 0 -0.04131557783365182 0.0007312733125412952 0 -0.041051884947901941 0.000784376148398729 0 -0.04131557783365182 0.0007312733125412952 0 -0.041051884947901941 0.000784376148398729 0 -0.041751384566308405 0.00070381193614928476 0 -0.040799803402715808 0.00066556733026691694 0 -0.041051884947901941 0.000784376148398729 0 -0.041845972164542618 0.00061780846380400721 0 -0.040799803402715808 0.00066556733026691694 0 -0.040517457712517156 0.00090996412140123171 0 -0.041051884947901941 0.000784376148398729 0 -0.041051884947901941 0.000784376148398729 0 -0.041845972164542618 0.00061780846380400721 0 -0.041751384566308405 0.00070381193614928476 0 -0.041845972164542618 0.00061780846380400721 0 -0.041751384566308405 0.00070381193614928476 0 -0.042818744114047104 0.00081329553369752737 0 -0.041997446520121211 0.00069410169305638087 0 -0.041751384566308405 0.00070381193614928476 0 -0.042818744114047104 0.00081329553369752737 0 -0.041997446520121211 0.00069410169305638087 0 -0.04131557783365182 0.0007312733125412952 0 -0.041751384566308405 0.00070381193614928476 0 -0.041845972164542618 0.00061780846380400721 0 -0.042818744114047104 0.00081329553369752737 0 -0.042874170065593492 0.00070806890742125788 0 -0.04279360003757765 0.00047151537089843153 0 -0.041928617636242192 0.00047195018487050959 0 -0.042874170065593492 0.00070806890742125788 0 -0.041928617636242192 0.00047195018487050959 0 -0.041845972164542618 0.00061780846380400721 0 -0.042874170065593492 0.00070806890742125788 0 -0.04279360003757765 0.00047151537089843153 0 -0.042874170065593492 0.00070806890742125788 0 -0.04402599678081668 0.00094695213432763933 0 -0.042874170065593492 0.00070806890742125788 0 -0.043613135397199347 0.00099333465271959237 0 -0.04402599678081668 0.00094695213432763933 0 -0.042818744114047104 0.00081329553369752737 0 -0.043613135397199347 0.00099333465271959237 0 -0.043667233788942258 0.0011422109741788017 0 -0.043613135397199347 0.00099333465271959237 0 -0.044409356508493314 0.0013492541857469107 0 -0.04402599678081668 0.00094695213432763933 0 -0.042818744114047104 0.00081329553369752737 0 -0.042874170065593492 0.00070806890742125788 0 -0.043613135397199347 0.00099333465271959237 0 -0.043613135397199347 0.00099333465271959237 0 -0.043667233788942258 0.0011422109741788017 0 -0.044409356508493314 0.0013492541857469107 0 -0.043667233788942258 0.0011422109741788017 0 -0.042296283921533277 0.00072864416559678669 0 -0.042022129847579463 0.0014140665904551839 0 -0.043667233788942258 0.0011422109741788017 0 -0.042022129847579463 0.0014140665904551839 0 -0.045305873180299265 0.0018851645832857822 0 -0.042296283921533277 0.00072864416559678669 0 -0.04156412639095855 0.00082783509881267079 0 -0.042022129847579463 0.0014140665904551839 0 -0.041559547186305522 0.0006447698584277834 0 -0.042296283921533277 0.00072864416559678669 0 -0.04156412639095855 0.00082783509881267079 0 -0.042818744114047104 0.00081329553369752737 0 -0.043667233788942258 0.0011422109741788017 0 -0.042296283921533277 0.00072864416559678669 0 -0.041997446520121211 0.00069410169305638087 0 -0.042818744114047104 0.00081329553369752737 0 -0.042296283921533277 0.00072864416559678669 0 -0.041060937760818768 0.00096715083346045284 0 -0.04156412639095855 0.00082783509881267079 0 -0.041207428792526792 0.00074026941794649718 0 -0.041060937760818768 0.00096715083346045284 0 -0.04156412639095855 0.00082783509881267079 0 -0.042022129847579463 0.0014140665904551839 0 -0.043922346606405968 0.0015716111740489039 0 -0.044237642444722884 0.0017196980880497944 0 -0.046438370438873611 0.0019846439078094395 0 -0.046529105034869449 0.0021976967970636103 0 -0.046491258562188047 0.0020902069403364496 0 -0.046438370438873611 0.0019846439078094395 0 -0.046423524216140592 0.0020630872797425524 0 -0.046491258562188047 0.0020902069403364496 0 -0.046423524216140592 0.0020630872797425524 0 -0.04631190439346871 0.0020076858566682714 0 -0.046356586383771631 0.0021108651426585095 0 -0.046438370438873611 0.0019846439078094395 0 -0.046423524216140592 0.0020630872797425524 0 -0.04631190439346871 0.0020076858566682714 0 -0.044009001927839964 0.001768129169172057 0 -0.046156776792396499 0.0020397669238479237 0 -0.041868018322980288 0.0013868028567942425 0 -0.04158952297228178 0.0013987450688452616 0 -0.041905822143600086 0.0017308256043427218 0 -0.044009001927839964 0.001768129169172057 0 -0.042772682427024908 0.00095903434082522459 0 -0.041868018322980288 0.0013868028567942425 0 -0.041835390510918322 0.00099539115681795227 0 -0.041551945517734334 0.0011344392141279767 0 -0.046438370438873611 0.0019846439078094395 0 -0.04631190439346871 0.0020076858566682714 0 -0.046262992200586703 0.0018413580883314313 0 -0.043922346606405968 0.0015716111740489039 0 -0.042772682427024908 0.00095903434082522459 0 -0.041060937760818768 0.00096715083346045284 0 -0.040927119782778791 0.00072920565788618988 0 -0.040834565910907852 0.00075058456289501889 0 -0.041060937760818768 0.00096715083346045284 0 -0.040927119782778791 0.00072920565788618988 0 -0.041014558434729391 0.00068716165135193315 0 -0.040927119782778791 0.00072920565788618988 0 -0.040834565910907852 0.00075058456289501889 0 -0.040855635360395007 0.00067856897471291037 0 -0.040927119782778791 0.00072920565788618988 0 -0.040909136416904843 0.00067022857497479524 0 -0.041014558434729391 0.00068716165135193315 0 -0.042772682427024908 0.00095903434082522459 0 -0.040961766495628688 0.00062854119355852363 0 -0.040863124983720737 0.00068069479209003996 0 -0.040855635360395007 0.00067856897471291037 0 -0.040861797537490904 0.00064818640200790215 0 -0.041835390510918322 0.00099539115681795227 0 -0.041501314490180671 0.00081165478544752232 0 -0.041551945517734334 0.0011344392141279767 0 -0.042772682427024908 0.00095903434082522459 0 -0.041621061549376476 0.00069429555652823142 0 -0.040855635360395007 0.00067856897471291037 0 -0.040847382256565666 0.0006717901542533407 0 -0.040861797537490904 0.00064818640200790215 0 -0.040855635360395007 0.00067856897471291037 0 -0.040860893211549842 0.00067402203225685618 0 -0.040847382256565666 0.0006717901542533407 0 -0.040860893211549842 0.00067402203225685618 0 -0.040847382256565666 0.0006717901542533407 0 -0.040835656107881174 0.00068622197609197525 0 -0.040909136416904843 0.00067022857497479524 0 -0.040961790929765415 0.00064823245382313781 0 -0.041014558434729391 0.00068716165135193315 0 -0.040927119782778791 0.00072920565788618988 0 -0.040855635360395007 0.00067856897471291037 0 -0.040909136416904843 0.00067022857497479524 0 -0.040855635360395007 0.00067856897471291037 0 -0.040860893211549842 0.00067402203225685618 0 -0.040909136416904843 0.00067022857497479524 0 -0.040860893211549842 0.00067402203225685618 0 -0.040909136416904843 0.00067022857497479524 0 -0.040893183014091117 0.00067242835884899065 0 -0.040909136416904843 0.00067022857497479524 0 -0.040961790929765415 0.00064823245382313781 0 -0.040893183014091117 0.00067242835884899065 0 -0.040961790929765415 0.00064823245382313781 0 -0.040922304357753909 0.00066836582654119028 0 -0.040893183014091117 0.00067242835884899065 0 -0.040961790929765415 0.00064823245382313781 0 -0.040922304357753909 0.00066836582654119028 0 -0.040945771810763101 0.0006433983747562139 0 -0.041064475757378413 0.00062945413458946175 0 -0.041009595553213644 0.00061634031885262762 0 -0.040945771810763101 0.0006433983747562139 0 -0.040961790929765415 0.00064823245382313781 0 -0.041064475757378413 0.00062945413458946175 0 -0.040945771810763101 0.0006433983747562139 0 -0.040961790929765415 0.00064823245382313781 0 -0.041064475757378413 0.00062945413458946175 0 -0.041014558434729391 0.00068716165135193315 0 -0.041060937760818768 0.00096715083346045284 0 -0.041014558434729391 0.00068716165135193315 0 -0.041207428792526792 0.00074026941794649718 0 -0.041064475757378413 0.00062945413458946175 0 -0.041014558434729391 0.00068716165135193315 0 -0.041207428792526792 0.00074026941794649718 0 -0.041559547186305522 0.0006447698584277834 0 -0.04156412639095855 0.00082783509881267079 0 -0.041223417032197604 0.00062217272588212344 0 -0.04156412639095855 0.00082783509881267079 0 -0.041207428792526792 0.00074026941794649718 0 -0.041223417032197604 0.00062217272588212344 0 -0.041064475757378413 0.00062945413458946175 0 -0.041207428792526792 0.00074026941794649718 0 -0.041223417032197604 0.00062217272588212344 0 -0.041176905207434882 0.00061944174971698184 0 -0.041559547186305522 0.0006447698584277834 0 -0.041223417032197604 0.00062217272588212344 0 -0.041176905207434882 0.00061944174971698184 0 -0.041223417032197604 0.00062217272588212344 0 -0.041009595553213644 0.00061634031885262762 0 -0.041064475757378413 0.00062945413458946175 0 -0.041223417032197604 0.00062217272588212344 0 -0.041009595553213644 0.00061634031885262762 0 -0.04081713816309808 0.00066648925904907053 0 -0.041176905207434882 0.00061944174971698184 0 -0.041009595553213644 0.00061634031885262762 0 -0.04081713816309808 0.00066648925904907053 0 -0.040843198118608322 0.00066698989617526843 0 -0.04056915014006849 0.00075804888108067195 0 -0.04081713816309808 0.00066648925904907053 0 -0.041009595553213644 0.00061634031885262762 0 -0.040843198118608322 0.00066698989617526843 0 -0.041009595553213644 0.00061634031885262762 0 -0.040843198118608322 0.00066698989617526843 0 -0.040945771810763101 0.0006433983747562139 0 -0.040843198118608322 0.00066698989617526843 0 -0.040812945946376099 0.00072863051672741256 0 -0.040714667488983329 0.00074327468802714148 0 -0.040843198118608322 0.00066698989617526843 0 -0.040812945946376099 0.00072863051672741256 0 -0.040878899413494589 0.00068662814158242742 0 -0.040812945946376099 0.00072863051672741256 0 -0.040714667488983329 0.00074327468802714148 0 -0.040725349563111274 0.00079006432902674058 0 -0.040714667488983329 0.00074327468802714148 0 -0.04056915014006849 0.00075804888108067195 0 -0.040576901043282952 0.00081327634180041917 0 -0.040843198118608322 0.00066698989617526843 0 -0.040714667488983329 0.00074327468802714148 0 -0.04056915014006849 0.00075804888108067195 0 -0.040356460654123849 0.00087149420915115798 0 -0.04056915014006849 0.00075804888108067195 0 -0.040576901043282952 0.00081327634180041917 0 -0.040922304357753909 0.00066836582654119028 0 -0.040945771810763101 0.0006433983747562139 0 -0.040899409340779569 0.00069878303481956099 0 -0.040922304357753909 0.00066836582654119028 0 -0.040899409340779569 0.00069878303481956099 0 -0.040887867892297564 0.00070168790173606678 0 -0.040945771810763101 0.0006433983747562139 0 -0.040878899413494589 0.00068662814158242742 0 -0.040899409340779569 0.00069878303481956099 0 -0.040843198118608322 0.00066698989617526843 0 -0.040945771810763101 0.0006433983747562139 0 -0.040878899413494589 0.00068662814158242742 0 -0.040878899413494589 0.00068662814158242742 0 -0.040868143094464786 0.00073886178104232765 0 -0.040899409340779569 0.00069878303481956099 0 -0.040812945946376099 0.00072863051672741256 0 -0.040878899413494589 0.00068662814158242742 0 -0.040868143094464786 0.00073886178104232765 0 -0.040868143094464786 0.00073886178104232765 0 -0.040899409340779569 0.00069878303481956099 0 -0.040879575486124635 0.00074859566660069089 0 -0.040899409340779569 0.00069878303481956099 0 -0.040879575486124635 0.00074859566660069089 0 -0.040887867892297564 0.00070168790173606678 0 -0.040879575486124635 0.00074859566660069089 0 -0.040876353006290118 0.00078776152132688216 0 -0.040864614652046889 0.00078768763661353459 0 -0.040868143094464786 0.00073886178104232765 0 -0.040879575486124635 0.00074859566660069089 0 -0.040876353006290118 0.00078776152132688216 0 -0.040876353006290118 0.00078776152132688216 0 -0.04082056633108852 0.00079350203671280583 0 -0.040862190605866391 0.00082133133301821773 0 -0.040868143094464786 0.00073886178104232765 0 -0.040876353006290118 0.00078776152132688216 0 -0.04082056633108852 0.00079350203671280583 0 -0.040812945946376099 0.00072863051672741256 0 -0.040868143094464786 0.00073886178104232765 0 -0.04082056633108852 0.00079350203671280583 0 -0.04082056633108852 0.00079350203671280583 0 -0.040824472698143502 0.00084775298015459801 0 -0.040764665783197866 0.00082009715815497088 0 -0.04082056633108852 0.00079350203671280583 0 -0.040824472698143502 0.00084775298015459801 0 -0.040862190605866391 0.00082133133301821773 0 -0.040824472698143502 0.00084775298015459801 0 -0.040693640350357163 0.00085501006091539026 0 -0.040974099928313516 0.0008973949819669608 0 -0.040824472698143502 0.00084775298015459801 0 -0.040899785691497784 0.00085180803791187233 0 -0.040974099928313516 0.0008973949819669608 0 -0.040824472698143502 0.00084775298015459801 0 -0.040899785691497784 0.00085180803791187233 0 -0.040862190605866391 0.00082133133301821773 0 -0.040899785691497784 0.00085180803791187233 0 -0.040887728998990361 0.00082456077937320368 0 -0.040913513375709296 0.00085280165577547638 0 -0.040899785691497784 0.00085180803791187233 0 -0.040862190605866391 0.00082133133301821773 0 -0.040884648789635367 0.00082160176838231072 0 -0.040876353006290118 0.00078776152132688216 0 -0.040862190605866391 0.00082133133301821773 0 -0.040884648789635367 0.00082160176838231072 0 -0.040876353006290118 0.00078776152132688216 0 -0.040884648789635367 0.00082160176838231072 0 -0.040864614652046889 0.00078768763661353459 0 -0.040884648789635367 0.00082160176838231072 0 -0.040887728998990361 0.00082456077937320368 0 -0.040864614652046889 0.00078768763661353459 0 -0.040899785691497784 0.00085180803791187233 0 -0.040884648789635367 0.00082160176838231072 0 -0.040887728998990361 0.00082456077937320368 0 -0.040864614652046889 0.00078768763661353459 0 -0.040858831170698932 0.00079581298189780548 0 -0.040822639097204225 0.00076692000305199316 0 -0.040887728998990361 0.00082456077937320368 0 -0.040864614652046889 0.00078768763661353459 0 -0.040858831170698932 0.00079581298189780548 0 -0.039929619317352984 0.001071116420852655 0 -0.040403915945022809 0.00092707865656753397 0 -0.040974099928313516 0.0008973949819669608 0 -0.0394961232308709 0.0013219630594084825 0 -0.039929619317352984 0.001071116420852655 0 -0.040517803044835564 0.0016320400427119561 0 -0.039929619317352984 0.001071116420852655 0 -0.040517803044835564 0.0016320400427119561 0 -0.040507840664317431 0.0016359858583695651 0 -0.039600868042676034 0.0010357581168430245 0 -0.041589696080424329 0.001074635697232935 0 -0.040403915945022809 0.00092707865656753397 0 -0.040576901043282952 0.00081327634180041917 0 -0.040693640350357163 0.00085501006091539026 0 -0.040356460654123849 0.00087149420915115798 0 -0.040403915945022809 0.00092707865656753397 0 -0.040576901043282952 0.00081327634180041917 0 -0.040714667488983329 0.00074327468802714148 0 -0.040576901043282952 0.00081327634180041917 0 -0.040725349563111274 0.00079006432902674058 0 -0.040576901043282952 0.00081327634180041917 0 -0.040725349563111274 0.00079006432902674058 0 -0.040693640350357163 0.00085501006091539026 0 -0.040812945946376099 0.00072863051672741256 0 -0.04082056633108852 0.00079350203671280583 0 -0.040725349563111274 0.00079006432902674058 0 -0.040824472698143502 0.00084775298015459801 0 -0.040764665783197866 0.00082009715815497088 0 -0.040693640350357163 0.00085501006091539026 0 -0.040725349563111274 0.00079006432902674058 0 -0.040764665783197866 0.00082009715815497088 0 -0.040693640350357163 0.00085501006091539026 0 -0.04082056633108852 0.00079350203671280583 0 -0.040725349563111274 0.00079006432902674058 0 -0.040764665783197866 0.00082009715815497088 0 -0.040403915945022809 0.00092707865656753397 0 -0.040693640350357163 0.00085501006091539026 0 -0.040974099928313516 0.0008973949819669608 0 -0.039267004660014655 0.0014489010669694513 0 -0.038485600604180631 0.0011499968499764236 0 -0.038140433643571281 0.0010184519174266152 0 -0.0394961232308709 0.0013219630594084825 0 -0.036011816847909342 0.0013560632152837858 0 -0.038140433643571281 0.0010184519174266152 0 -0.036930815209889778 0.0009445537233184404 0 -0.036011816847909342 0.0013560632152837858 0 -0.038140433643571281 0.0010184519174266152 0 -0.03718268615482298 0.00068439999929252777 0 -0.036930815209889778 0.0009445537233184404 0 -0.03798663895004209 0.00051135552239585662 0 -0.03718268615482298 0.00068439999929252777 0 -0.036624217062337386 0.00011384952639673057 0 -0.03718268615482298 0.00068439999929252777 0 -0.036402215290177918 0.00073078237702891224 0 -0.036624217062337386 0.00011384952639673057 0 -0.036402215290177918 0.00073078237702891224 0 -0.036930815209889778 0.0009445537233184404 0 -0.036011816847909342 0.0013560632152837858 0 -0.03718268615482298 0.00068439999929252777 0 -0.036402215290177918 0.00073078237702891224 0 -0.036930815209889778 0.0009445537233184404 0 -0.038485600604180631 0.0011499968499764236 0 -0.035511631542187422 0.003221027205033714 0 -0.040517803044835564 0.0016320400427119561 0 -0.040507840664317431 0.0016359858583695651 0 -0.039672269810289408 0.0013869329640207532 0 -0.036011816847909342 0.0013560632152837858 0 -0.035605450372452913 0.00054903826939186337 0 -0.033901193165635363 0.00077458038402007765 0 -0.040974099928313516 0.0008973949819669608 0 -0.040913513375709296 0.00085280165577547638 0 -0.04089354538570146 0.00082877102396973924 0 -0.040899785691497784 0.00085180803791187233 0 -0.040974099928313516 0.0008973949819669608 0 -0.040913513375709296 0.00085280165577547638 0 -0.040974099928313516 0.0008973949819669608 0 -0.04089354538570146 0.00082877102396973924 0 -0.040835386658246271 0.00076078805277214059 0 -0.040858831170698932 0.00079581298189780548 0 -0.04089354538570146 0.00082877102396973924 0 -0.040835386658246271 0.00076078805277214059 0 -0.040858831170698932 0.00079581298189780548 0 -0.040835386658246271 0.00076078805277214059 0 -0.040822639097204225 0.00076692000305199316 0 -0.040887728998990361 0.00082456077937320368 0 -0.040858831170698932 0.00079581298189780548 0 -0.04089354538570146 0.00082877102396973924 0 -0.040887728998990361 0.00082456077937320368 0 -0.040913513375709296 0.00085280165577547638 0 -0.04089354538570146 0.00082877102396973924 0 -0.036402215290177918 0.00073078237702891224 0 -0.036011816847909342 0.0013560632152837858 0 -0.035605450372452913 0.00054903826939186337 0 -0.035605450372452913 0.00054903826939186337 0 -0.035288829039223764 -0.00018388946570093654 0 -0.033901193165635363 0.00077458038402007765 0 -0.035605450372452913 0.00054903826939186337 0 -0.035288829039223764 -0.00018388946570093654 0 -0.036624217062337386 0.00011384952639673057 0 -0.036117016110839194 -0.0010791651085261904 0 -0.035288829039223764 -0.00018388946570093654 0 -0.036624217062337386 0.00011384952639673057 0 -0.036117016110839194 -0.0010791651085261904 0 -0.037943363754755939 -0.0006369051064805375 0 -0.036624217062337386 0.00011384952639673057 0 -0.036402215290177918 0.00073078237702891224 0 -0.035605450372452913 0.00054903826939186337 0 -0.036624217062337386 0.00011384952639673057 0 -0.040464912874008753 0.00064777036620334834 0 -0.040578771062324354 0.00062161767531368863 0 -0.040683895199031615 0.00070493988490777056 0 -0.022905539295751631 0.0079119881568783523 0 -0.023438202226103044 0.010115916458148232 0 -0.024739911510641241 0.010647167081085604 0 -0.019395986506855291 0.0080214303183547171 0 -0.022905539295751631 0.0079119881568783523 0 -0.023438202226103044 0.010115916458148232 0 -0.040464912874008753 0.00064777036620334834 0 -0.040352058236179052 0.00057922739844757027 0 -0.040507699134199021 0.0006015037578841017 0 -0.031861943532607663 0.0046588050185494209 0 -0.035511631542187422 0.003221027205033714 0 -0.025329740175923338 0.0038064977208220351 0 -0.035511631542187422 0.003221027205033714 0 -0.03428751274309761 -0.0012323615035521483 0 -0.035288829039223764 -0.00018388946570093654 0 -0.033901193165635363 0.00077458038402007765 0 -0.040974099928313516 0.0008973949819669608 0 -0.040835386658246271 0.00076078805277214059 0 -0.040648845317376621 0.00049830021651132885 0 -0.035511631542187422 0.003221027205033714 0 -0.038031137590313818 0.00040110428106827586 0 -0.040352058236179052 0.00057922739844757027 0 -0.040610235829131099 0.00062383808901437913 0 -0.040507699134199021 0.0006015037578841017 0 -0.041589696080424329 0.001074635697232935 0 -0.035511631542187422 0.003221027205033714 0 -0.040648845317376621 0.00049830021651132885 0 -0.040610235829131099 0.00062383808901437913 0 -0.040734939880956215 0.00071017327705869145 0 -0.040835386658246271 0.00076078805277214059 0 -0.040648845317376621 0.00049830021651132885 0 -0.040734939880956215 0.00071017327705869145 0 -0.040835386658246271 0.00076078805277214059 0 -0.040822639097204225 0.00076692000305199316 0 -0.040734939880956215 0.00071017327705869145 0 -0.040610235829131099 0.00062383808901437913 0 -0.040734939880956215 0.00071017327705869145 0 -0.040670544028150214 0.00067106398583891079 0 -0.040734939880956215 0.00071017327705869145 0 -0.040670544028150214 0.00067106398583891079 0 -0.040754217018056663 0.00071676964909149629 0 -0.040610235829131099 0.00062383808901437913 0 -0.040670544028150214 0.00067106398583891079 0 -0.040578771062324354 0.00062161767531368863 0 -0.040610235829131099 0.00062383808901437913 0 -0.040507699134199021 0.0006015037578841017 0 -0.040578771062324354 0.00062161767531368863 0 -0.040464912874008753 0.00064777036620334834 0 -0.040507699134199021 0.0006015037578841017 0 -0.040578771062324354 0.00062161767531368863 0 -0.040670544028150214 0.00067106398583891079 0 -0.040578771062324354 0.00062161767531368863 0 -0.040696596414014838 0.00066428670773214637 0 -0.040578771062324354 0.00062161767531368863 0 -0.040696596414014838 0.00066428670773214637 0 -0.040676410518077494 0.00064442219841768546 0 -0.040696596414014838 0.00066428670773214637 0 -0.040751383028040343 0.00069612044224835539 0 -0.040780347093235345 0.00068932819280789715 0 -0.040670544028150214 0.00067106398583891079 0 -0.040751383028040343 0.00069612044224835539 0 -0.040754217018056663 0.00071676964909149629 0 -0.040670544028150214 0.00067106398583891079 0 -0.040696596414014838 0.00066428670773214637 0 -0.040751383028040343 0.00069612044224835539 0 -0.040751383028040343 0.00069612044224835539 0 -0.040805524714630684 0.00072114111828788211 0 -0.040815472358831602 0.00070398889645670879 0 -0.040751383028040343 0.00069612044224835539 0 -0.040754217018056663 0.00071676964909149629 0 -0.040805524714630684 0.00072114111828788211 0 -0.040751383028040343 0.00069612044224835539 0 -0.040810250078098659 0.00069506172267366621 0 -0.040815472358831602 0.00070398889645670879 0 -0.040751383028040343 0.00069612044224835539 0 -0.040810250078098659 0.00069506172267366621 0 -0.040780347093235345 0.00068932819280789715 0 -0.040864614652046889 0.00078768763661353459 0 -0.040822639097204225 0.00076692000305199316 0 -0.040804186795398947 0.00074856475936392944 0 -0.040864614652046889 0.00078768763661353459 0 -0.040804186795398947 0.00074856475936392944 0 -0.040850200115710715 0.00073567009683178999 0 -0.040822639097204225 0.00076692000305199316 0 -0.040734939880956215 0.00071017327705869145 0 -0.040804186795398947 0.00074856475936392944 0 -0.040804186795398947 0.00074856475936392944 0 -0.040754217018056663 0.00071676964909149629 0 -0.040805524714630684 0.00072114111828788211 0 -0.040734939880956215 0.00071017327705869145 0 -0.040804186795398947 0.00074856475936392944 0 -0.040754217018056663 0.00071676964909149629 0 -0.040805524714630684 0.00072114111828788211 0 -0.040850200115710715 0.00073567009683178999 0 -0.040858906491090662 0.00070012687862137273 0 -0.040804186795398947 0.00074856475936392944 0 -0.040805524714630684 0.00072114111828788211 0 -0.040850200115710715 0.00073567009683178999 0 -0.040879575486124635 0.00074859566660069089 0 -0.040864614652046889 0.00078768763661353459 0 -0.040850200115710715 0.00073567009683178999 0 -0.040879575486124635 0.00074859566660069089 0 -0.040850200115710715 0.00073567009683178999 0 -0.040887867892297564 0.00070168790173606678 0 -0.040850200115710715 0.00073567009683178999 0 -0.040887867892297564 0.00070168790173606678 0 -0.040858906491090662 0.00070012687862137273 0 -0.040805524714630684 0.00072114111828788211 0 -0.040858906491090662 0.00070012687862137273 0 -0.040815472358831602 0.00070398889645670879 0 -0.040858906491090662 0.00070012687862137273 0 -0.040815472358831602 0.00070398889645670879 0 -0.040843011962928638 0.00068952040490806335 0 -0.040858906491090662 0.00070012687862137273 0 -0.040893183014091117 0.00067242835884899065 0 -0.040843011962928638 0.00068952040490806335 0 -0.040860893211549842 0.00067402203225685618 0 -0.040893183014091117 0.00067242835884899065 0 -0.040843011962928638 0.00068952040490806335 0 -0.040887867892297564 0.00070168790173606678 0 -0.040858906491090662 0.00070012687862137273 0 -0.040893183014091117 0.00067242835884899065 0 -0.040922304357753909 0.00066836582654119028 0 -0.040887867892297564 0.00070168790173606678 0 -0.040893183014091117 0.00067242835884899065 0 -0.040810250078098659 0.00069506172267366621 0 -0.040849578354084273 0.00069498012647988396 0 -0.040780347093235345 0.00068932819280789715 0 -0.040810250078098659 0.00069506172267366621 0 -0.040815472358831602 0.00070398889645670879 0 -0.040843011962928638 0.00068952040490806335 0 -0.040810250078098659 0.00069506172267366621 0 -0.040843011962928638 0.00068952040490806335 0 -0.040835656107881174 0.00068622197609197525 0 -0.040860893211549842 0.00067402203225685618 0 -0.040843011962928638 0.00068952040490806335 0 -0.040835656107881174 0.00068622197609197525 0 -0.040810250078098659 0.00069506172267366621 0 -0.040835656107881174 0.00068622197609197525 0 -0.040849578354084273 0.00069498012647988396 0 -0.040847382256565666 0.0006717901542533407 0 -0.040835656107881174 0.00068622197609197525 0 -0.040849578354084273 0.00069498012647988396 0 -0.040849578354084273 0.00069498012647988396 0 -0.040852607409538555 0.00069641034432872694 0 -0.041009818499172263 0.0006977448700441894 0 -0.040849578354084273 0.00069498012647988396 0 -0.040852607409538555 0.00069641034432872694 0 -0.040780347093235345 0.00068932819280789715 0 -0.041009818499172263 0.0006977448700441894 0 -0.04087430200797787 0.00069369160276058393 0 -0.040986224154558597 0.00079921429765405074 0 -0.040852607409538555 0.00069641034432872694 0 -0.041009818499172263 0.0006977448700441894 0 -0.04087430200797787 0.00069369160276058393 0 -0.040852607409538555 0.00069641034432872694 0 -0.04087430200797787 0.00069369160276058393 0 -0.040796747801628973 0.00067844261210656663 0 -0.04087430200797787 0.00069369160276058393 0 -0.040796747801628973 0.00067844261210656663 0 -0.040756212606928945 0.00067063965065820407 0 -0.040852607409538555 0.00069641034432872694 0 -0.040780347093235345 0.00068932819280789715 0 -0.040755916533772425 0.00067171107892851582 0 -0.040852607409538555 0.00069641034432872694 0 -0.040796747801628973 0.00067844261210656663 0 -0.040755916533772425 0.00067171107892851582 0 -0.040696596414014838 0.00066428670773214637 0 -0.040780347093235345 0.00068932819280789715 0 -0.040755916533772425 0.00067171107892851582 0 -0.040696596414014838 0.00066428670773214637 0 -0.040755916533772425 0.00067171107892851582 0 -0.040676410518077494 0.00064442219841768546 0 -0.040755916533772425 0.00067171107892851582 0 -0.040676410518077494 0.00064442219841768546 0 -0.040734658259944163 0.00066419838764714579 0 -0.040796747801628973 0.00067844261210656663 0 -0.040755916533772425 0.00067171107892851582 0 -0.040734658259944163 0.00066419838764714579 0 -0.040734658259944163 0.00066419838764714579 0 -0.040711852943743909 0.00066678020876500806 0 -0.040756212606928945 0.00067063965065820407 0 -0.040796747801628973 0.00067844261210656663 0 -0.040734658259944163 0.00066419838764714579 0 -0.040756212606928945 0.00067063965065820407 0 -0.040673085401379538 0.00064010757159968902 0 -0.040683895199031615 0.00070493988490777056 0 -0.040711852943743909 0.00066678020876500806 0 -0.040734658259944163 0.00066419838764714579 0 -0.040683895199031615 0.00070493988490777056 0 -0.040711852943743909 0.00066678020876500806 0 -0.024048666068863592 0.0063618707865946266 0 -0.031861943532607663 0.0046588050185494209 0 -0.031861943532607663 0.0046588050185494209 0 -0.036169838162487367 0.0025114140675369283 0 -0.030252744440776951 0.0043796789767366479 0 -0.031020020615545429 0.0047907642460360512 0 -0.030272785908723468 0.004464683470733876 0 -0.040676410518077494 0.00064442219841768546 0 -0.040734658259944163 0.00066419838764714579 0 -0.040683895199031615 0.00070493988490777056 0 -0.040578771062324354 0.00062161767531368863 0 -0.040676410518077494 0.00064442219841768546 0 -0.040683895199031615 0.00070493988490777056 0 -0.040675376816719407 0.00065748750890179506 0 -0.040631127835448679 0.00065269411999249803 0 -0.040673746676758375 0.0006676658324456324 0 -0.040675376816719407 0.00065748750890179506 0 -0.040716502794678595 0.00066773922871053888 0 -0.040673746676758375 0.0006676658324456324 0 -0.040625404397855856 0.00062966361026596009 0 -0.040675376816719407 0.00065748750890179506 0 -0.040631127835448679 0.00065269411999249803 0 -0.040675376816719407 0.00065748750890179506 0 -0.040711852943743909 0.00066678020876500806 0 -0.040716502794678595 0.00066773922871053888 0 -0.040673085401379538 0.00064010757159968902 0 -0.040675376816719407 0.00065748750890179506 0 -0.040711852943743909 0.00066678020876500806 0 -0.040673085401379538 0.00064010757159968902 0 -0.040625404397855856 0.00062966361026596009 0 -0.040675376816719407 0.00065748750890179506 0 -0.040711852943743909 0.00066678020876500806 0 -0.040716502794678595 0.00066773922871053888 0 -0.040756212606928945 0.00067063965065820407 0 -0.040716502794678595 0.00066773922871053888 0 -0.040756212606928945 0.00067063965065820407 0 -0.040719003629269536 0.0006754212236823612 0 -0.040756212606928945 0.00067063965065820407 0 -0.040719003629269536 0.0006754212236823612 0 -0.040777459797838388 0.00068688291101644977 0 -0.040719003629269536 0.0006754212236823612 0 -0.040691106841912045 0.00067729572303756804 0 -0.040717386168485664 0.00068466699093905218 0 -0.040719003629269536 0.0006754212236823612 0 -0.040673746676758375 0.0006676658324456324 0 -0.040691106841912045 0.00067729572303756804 0 -0.040716502794678595 0.00066773922871053888 0 -0.040719003629269536 0.0006754212236823612 0 -0.040673746676758375 0.0006676658324456324 0 -0.040673746676758375 0.0006676658324456324 0 -0.040691106841912045 0.00067729572303756804 0 -0.040651757253948428 0.00067883291048114022 0 -0.040631127835448679 0.00065269411999249803 0 -0.040673746676758375 0.0006676658324456324 0 -0.040651757253948428 0.00067883291048114022 0 -0.040691106841912045 0.00067729572303756804 0 -0.040717386168485664 0.00068466699093905218 0 -0.040651757253948428 0.00067883291048114022 0 -0.040717386168485664 0.00068466699093905218 0 -0.040751231214004445 0.00070990484137652132 0 -0.040651757253948428 0.00067883291048114022 0 -0.040717386168485664 0.00068466699093905218 0 -0.040777459797838388 0.00068688291101644977 0 -0.040751231214004445 0.00070990484137652132 0 -0.040893299529804479 0.00070373881709022445 0 -0.040646115686485032 0.0008018466540091133 0 -0.040981860741692161 0.00076343452695772432 0 -0.041052285183529755 0.00063668556039416099 0 -0.040957635159648592 0.00076796477882179449 0 -0.040719003629269536 0.0006754212236823612 0 -0.040717386168485664 0.00068466699093905218 0 -0.040777459797838388 0.00068688291101644977 0 -0.040777459797838388 0.00068688291101644977 0 -0.040824120504289685 0.00070949240420669529 0 -0.040751231214004445 0.00070990484137652132 0 -0.04087430200797787 0.00069369160276058393 0 -0.040756212606928945 0.00067063965065820407 0 -0.040777459797838388 0.00068688291101644977 0 -0.04087430200797787 0.00069369160276058393 0 -0.040777459797838388 0.00068688291101644977 0 -0.040824120504289685 0.00070949240420669529 0 -0.040879924227168261 0.00075679707418384562 0 -0.040751231214004445 0.00070990484137652132 0 -0.04094015105573226 0.00088739485826317809 0 -0.04087430200797787 0.00069369160276058393 0 -0.040879924227168261 0.00075679707418384562 0 -0.040986224154558597 0.00079921429765405074 0 -0.04087430200797787 0.00069369160276058393 0 -0.040824120504289685 0.00070949240420669529 0 -0.040879924227168261 0.00075679707418384562 0 -0.040824120504289685 0.00070949240420669529 0 -0.040879924227168261 0.00075679707418384562 0 -0.040751231214004445 0.00070990484137652132 0 -0.040981860741692161 0.00076343452695772432 0 -0.040932703123231072 0.00083091748335129033 0 -0.040957635159648592 0.00076796477882179449 0 -0.040893299529804479 0.00070373881709022445 0 -0.040925116157415627 0.00088217878244536399 0 -0.040981860741692161 0.00076343452695772432 0 -0.040932703123231072 0.00083091748335129033 0 -0.04094015105573226 0.00088739485826317809 0 -0.040932703123231072 0.00083091748335129033 0 -0.040854637588137011 0.00091277916981358101 0 -0.040957635159648592 0.00076796477882179449 0 -0.040932703123231072 0.00083091748335129033 0 -0.040854637588137011 0.00091277916981358101 0 -0.04094015105573226 0.00088739485826317809 0 -0.044970931412555135 0.00080833109720811322 0 -0.044688540272531815 0.0014063825866970027 0 -0.040854637588137011 0.00091277916981358101 0 -0.041018075728850641 0.0010198694486096968 0 -0.040855229455342972 0.0012702388301972915 0 -0.040854637588137011 0.00091277916981358101 0 -0.041018075728850641 0.0010198694486096968 0 -0.04094015105573226 0.00088739485826317809 0 -0.041018075728850641 0.0010198694486096968 0 -0.04094015105573226 0.00088739485826317809 0 -0.040986224154558597 0.00079921429765405074 0 -0.040879924227168261 0.00075679707418384562 0 -0.04094015105573226 0.00088739485826317809 0 -0.040986224154558597 0.00079921429765405074 0 -0.041009818499172263 0.0006977448700441894 0 -0.040986224154558597 0.00079921429765405074 0 -0.04121587355693726 0.00094223916488127052 0 -0.040847382256565666 0.0006717901542533407 0 -0.040849578354084273 0.00069498012647988396 0 -0.040861797537490904 0.00064818640200790215 0 -0.041123549031344145 0.00074924437026606459 0 -0.040961766495628688 0.00062854119355852363 0 -0.041009818499172263 0.0006977448700441894 0 -0.041501314490180671 0.00081165478544752232 0 -0.04121587355693726 0.00094223916488127052 0 -0.040849578354084273 0.00069498012647988396 0 -0.041009818499172263 0.0006977448700441894 0 -0.040861797537490904 0.00064818640200790215 0 -0.041501314490180671 0.00081165478544752232 0 -0.04121587355693726 0.00094223916488127052 0 -0.041551945517734334 0.0011344392141279767 0 -0.041018075728850641 0.0010198694486096968 0 -0.040986224154558597 0.00079921429765405074 0 -0.04121587355693726 0.00094223916488127052 0 -0.04121587355693726 0.00094223916488127052 0 -0.041280272576210648 0.0011996401147787402 0 -0.041551945517734334 0.0011344392141279767 0 -0.041018075728850641 0.0010198694486096968 0 -0.04121587355693726 0.00094223916488127052 0 -0.041280272576210648 0.0011996401147787402 0 -0.041280272576210648 0.0011996401147787402 0 -0.041551945517734334 0.0011344392141279767 0 -0.04158952297228178 0.0013987450688452616 0 -0.041868018322980288 0.0013868028567942425 0 -0.041551945517734334 0.0011344392141279767 0 -0.04158952297228178 0.0013987450688452616 0 -0.04158952297228178 0.0013987450688452616 0 -0.041185975391841267 0.0014896167921847193 0 -0.041591767406733655 0.0016598430595740894 0 -0.041280272576210648 0.0011996401147787402 0 -0.04158952297228178 0.0013987450688452616 0 -0.041185975391841267 0.0014896167921847193 0 -0.041185975391841267 0.0014896167921847193 0 -0.040855229455342972 0.0012702388301972915 0 -0.041080755102736149 0.0012485803047151355 0 -0.041185975391841267 0.0014896167921847193 0 -0.040855229455342972 0.0012702388301972915 0 -0.040924787477166671 0.0017716584698533834 0 -0.04901978310795084 0.0011579408071531897 0 -0.049024878736993072 0.001449165842615739 0 -0.048801614653339667 0.0013346353876646933 0 -0.044688540272531815 0.0014063825866970027 0 -0.046930901562024209 0.0006001352103735748 0 -0.041018075728850641 0.0010198694486096968 0 -0.041280272576210648 0.0011996401147787402 0 -0.041080755102736149 0.0012485803047151355 0 -0.041018075728850641 0.0010198694486096968 0 -0.040855229455342972 0.0012702388301972915 0 -0.041080755102736149 0.0012485803047151355 0 -0.041280272576210648 0.0011996401147787402 0 -0.041185975391841267 0.0014896167921847193 0 -0.041080755102736149 0.0012485803047151355 0 -0.049220677021335736 -0.00012543625303786858 0 -0.049100427589876781 -0.00059982318704647399 0 -0.049582381244501442 -0.0003569727819985178 0 -0.049220677021335736 -0.00012543625303786858 0 -0.049582381244501442 -0.0003569727819985178 0 -0.049707976146657069 6.9471456161738021e-05 0 -0.047729689712748061 0.00020380410896281271 0 -0.047886054670152035 0.00093334429417917181 0 -0.048544814367536923 0.00047101789996336734 0 -0.048444267877354008 -9.5846562362308281e-05 0 -0.046930901562024209 0.0006001352103735748 0 -0.046930901562024209 0.0006001352103735748 0 -0.049397762774782791 0.0016110951361032765 0 -0.041185975391841267 0.0014896167921847193 0 -0.040924787477166671 0.0017716584698533834 0 -0.041255692729341528 0.0020240917585136399 0 -0.046930901562024209 0.0006001352103735748 0 -0.045153552777889412 0.00077132378737163575 0 -0.041185975391841267 0.0014896167921847193 0 -0.041591767406733655 0.0016598430595740894 0 -0.041255692729341528 0.0020240917585136399 0 -0.041591767406733655 0.0016598430595740894 0 -0.042073383437209219 0.0020224754041001259 0 -0.042591086700012902 0.0017544021814259031 0 -0.040017341471050377 0.0014417407905633701 0 -0.046156776792396499 0.0020397669238479237 0 -0.04158952297228178 0.0013987450688452616 0 -0.041591767406733655 0.0016598430595740894 0 -0.041905822143600086 0.0017308256043427218 0 -0.041591767406733655 0.0016598430595740894 0 -0.042073383437209219 0.0020224754041001259 0 -0.041820468439664617 0.0024320616529519713 0 -0.042073383437209219 0.0020224754041001259 0 -0.041820468439664617 0.0024320616529519713 0 -0.042253158064316045 0.0025242706377023908 0 -0.045153552777889412 0.00077132378737163575 0 -0.045627191266173955 0.0010578067833911422 0 -0.041591767406733655 0.0016598430595740894 0 -0.041255692729341528 0.0020240917585136399 0 -0.041820468439664617 0.0024320616529519713 0 -0.049582381244501442 -0.0003569727819985178 0 -0.049707976146657069 6.9471456161738021e-05 0 -0.050035500489280529 -9.4524959944137246e-05 0 -0.049707976146657069 6.9471456161738021e-05 0 -0.050035500489280529 -9.4524959944137246e-05 0 -0.050050364835455517 0.00020510484965755799 0 -0.045627191266173955 0.0010578067833911422 0 -0.048474051171305751 0.0017880623523059659 0 -0.050035500489280529 -9.4524959944137246e-05 0 -0.050050364835455517 0.00020510484965755799 0 -0.050306049894816282 0.00011626859776376536 0 -0.050050364835455517 0.00020510484965755799 0 -0.050134911023824509 0.00044490658054651262 0 -0.049950882395944057 0.00042544550873095536 0 -0.050050364835455517 0.00020510484965755799 0 -0.050134911023824509 0.00044490658054651262 0 -0.050306049894816282 0.00011626859776376536 0 -0.049950882395944057 0.00042544550873095536 0 -0.049940351457630164 0.00043981660969550881 0 -0.049951055272600145 0.00045560385120151358 0 -0.049707976146657069 6.9471456161738021e-05 0 -0.049950882395944057 0.00042544550873095536 0 -0.049338875860863302 0.00034573736934404616 0 -0.049666323154949822 0.00045306286456300821 0 -0.050317363252012789 0.00013932293091032579 0 -0.049707976146657069 6.9471456161738021e-05 0 -0.050050364835455517 0.00020510484965755799 0 -0.049950882395944057 0.00042544550873095536 0 -0.048444267877354008 -9.5846562362308281e-05 0 -0.050317363252012789 0.00013932293091032579 0 -0.049220677021335736 -0.00012543625303786858 0 -0.049707976146657069 6.9471456161738021e-05 0 -0.049338875860863302 0.00034573736934404616 0 -0.047729689712748061 0.00020380410896281271 0 -0.047623278054328561 -0.00053642607044513096 0 -0.048495549212508052 -0.00037412411490950773 0 -0.047729689712748061 0.00020380410896281271 0 -0.048544814367536923 0.00047101789996336734 0 -0.048495549212508052 -0.00037412411490950773 0 -0.05437487025585612 -0.00086297278266796271 0 -0.05419302791468391 -0.00061628187136064324 0 -0.053866778879454839 -0.0010171675504440194 0 -0.050317363252012789 0.00013932293091032579 0 -0.051304706938365606 -0.00078740839967149758 0 -0.05419302791468391 -0.00061628187136064324 0 -0.05425942570900337 -0.00044038314250814502 0 -0.054184740274189791 -0.00037264140499510066 0 -0.05419302791468391 -0.00061628187136064324 0 -0.05425942570900337 -0.00044038314250814502 0 -0.054423114418068373 -0.0004807447772686357 0 -0.05437487025585612 -0.00086297278266796271 0 -0.05419302791468391 -0.00061628187136064324 0 -0.054423114418068373 -0.0004807447772686357 0 -0.049940351457630164 0.00043981660969550881 0 -0.049948349622211931 0.00049040108764353621 0 -0.049951055272600145 0.00045560385120151358 0 -0.050317363252012789 0.00013932293091032579 0 -0.052220510300217259 2.2709441816354532e-06 0 -0.054423114418068373 -0.0004807447772686357 0 -0.05429344625059393 -0.00032196989387623341 0 -0.054447935808671716 -0.0002366044108963713 0 -0.052220510300217259 2.2709441816354532e-06 0 -0.053680633637828691 -0.00015090968969304309 0 -0.049948349622211931 0.00049040108764353621 0 -0.049991312471581534 0.00057709947902054889 0 -0.050006374937947976 0.00054462915788932057 0 -0.05425942570900337 -0.00044038314250814502 0 -0.054423114418068373 -0.0004807447772686357 0 -0.05429344625059393 -0.00032196989387623341 0 -0.054478315046694689 -0.00022792498338430244 0 -0.053680633637828691 -0.00015090968969304309 0 -0.054478315046694689 -0.00022792498338430244 0 -0.054178363021301822 -0.0003813706353715057 0 -0.05425942570900337 -0.00044038314250814502 0 -0.05429344625059393 -0.00032196989387623341 0 -0.054184740274189791 -0.00037264140499510066 0 -0.054472618882884558 -0.00024835704199359235 0 -0.054379296855600681 -0.00021387425348935556 0 -0.054439345231835877 -0.00019069319592727898 0 -0.054472618882884558 -0.00024835704199359235 0 -0.054379296855600681 -0.00021387425348935556 0 -0.054184740274189791 -0.00037264140499510066 0 -0.054918212549024591 -0.00016028788574450924 0 -0.05487738905565176 9.7739695441491866e-06 0 -0.054421293700287511 -0.00014847751070039083 0 -0.054379296855600681 -0.00021387425348935556 0 -0.054439345231835877 -0.00019069319592727898 0 -0.054421293700287511 -0.00014847751070039083 0 -0.054786966586091244 -0.00015862415266023876 0 -0.054415101019780553 -0.00016118251993473765 0 -0.054918212549024591 -0.00016028788574450924 0 -0.054965624958511615 -6.9673826212121283e-05 0 -0.05487738905565176 9.7739695441491866e-06 0 -0.054918212549024591 -0.00016028788574450924 0 -0.055025703121157094 -8.8208798644326771e-05 0 -0.054965624958511615 -6.9673826212121283e-05 0 -0.054439345231835877 -0.00019069319592727898 0 -0.054547991751130204 -0.00019653724262341495 0 -0.054549528395413584 -0.00018709549477544964 0 -0.054472618882884558 -0.00024835704199359235 0 -0.054439345231835877 -0.00019069319592727898 0 -0.054547991751130204 -0.00019653724262341495 0 -0.054963513748678181 -3.2275133415395571e-05 0 -0.054968250853243646 -3.2002469553436419e-05 0 -0.05499999322617341 2.755404646929932e-08 0 -0.054786966586091244 -0.00015862415266023876 0 -0.05404600077728159 -8.8915967021710454e-05 0 -0.053680633637828691 -0.00015090968969304309 0 -0.05404600077728159 -8.8915967021710454e-05 0 -0.05404600077728159 -8.8915967021710454e-05 0 -0.053120069524056748 -8.3811483596324689e-05 0 -0.053643357043166244 0.00013928021658415313 0 -0.053638728409749814 0.00011529198714942162 0 -0.053592153304187505 0.0001140018074228598 0 -0.053680633637828691 -0.00015090968969304309 0 -0.053120069524056748 -8.3811483596324689e-05 0 -0.055025703121157094 -8.8208798644326771e-05 0 -0.054965624958511615 -6.9673826212121283e-05 0 -0.054977310897365329 -1.2682052279519953e-05 0 -0.05404600077728159 -8.8915967021710454e-05 0 -0.055000507695299766 1.923903470218551e-07 0 -0.055025703121157094 -8.8208798644326771e-05 0 -0.054977310897365329 -1.2682052279519953e-05 0 -0.055000229050739494 -5.0284898762044411e-08 0 -0.054977310897365329 -1.2682052279519953e-05 0 -0.05499952863851193 1.5760095524487098e-07 0 -0.055000229050739494 -5.0284898762044411e-08 0 -0.05499952863851193 1.5760095524487098e-07 0 -0.05487738905565176 9.7739695441491866e-06 0 -0.054784161338131389 7.1070823019708438e-05 0 -0.054977310897365329 -1.2682052279519953e-05 0 -0.05499952863851193 1.5760095524487098e-07 0 -0.05487738905565176 9.7739695441491866e-06 0 -0.054965624958511615 -6.9673826212121283e-05 0 -0.054977310897365329 -1.2682052279519953e-05 0 -0.05487738905565176 9.7739695441491866e-06 0 -0.054304809253196119 6.7079164330115595e-05 0 -0.055172452845320172 5.2964319762684731e-05 0 -0.054905744420858535 2.8036988660001164e-05 0 -0.054955345472737081 -4.9827100280425906e-06 0 -0.054942484719618254 1.0912152982665564e-05 0 -0.054992616660265344 -1.0292383837717286e-06 0 -0.055006636071714951 2.1884111482597567e-05 0 -0.054955345472737081 -4.9827100280425906e-06 0 -0.054992616660265344 -1.0292383837717286e-06 0 -0.054999900476575908 -1.5375271790292168e-06 0 -0.054999928052841145 -6.8454639843806692e-08 0 -0.054992616660265344 -1.0292383837717286e-06 0 -0.054999900476575908 -1.5375271790292168e-06 0 -0.055006636071714951 2.1884111482597567e-05 0 -0.054992616660265344 -1.0292383837717286e-06 0 -0.054955345472737081 -4.9827100280425906e-06 0 -0.054999928052841145 -6.8454639843806692e-08 0 -0.054999900476575908 -1.5375271790292168e-06 0 -0.05499999322617341 2.755404646929932e-08 0 -0.054999928052841145 -6.8454639843806692e-08 0 -0.054968250853243646 -3.2002469553436419e-05 0 -0.054999900476575908 -1.5375271790292168e-06 0 -0.05499999322617341 2.755404646929932e-08 0 -0.054968250853243646 -3.2002469553436419e-05 0 -0.054999900476575908 -1.5375271790292168e-06 0 -0.054994592203071936 -2.1043281365501761e-05 0 -0.054967489750923068 -8.6268053556679214e-05 0 -0.054304809253196119 6.7079164330115595e-05 0 -0.053120069524056748 -8.3811483596324689e-05 0 -0.051975193414895586 0.00025337215984616259 0 -0.050000518968262672 0.00058147840071855932 0 -0.05005549435678916 0.00058551506279554166 0 -0.050006374937947976 0.00054462915788932057 0 -0.053153865209080109 -5.5335317794240106e-05 0 -0.053214314352366544 -2.1814053355990143e-05 0 -0.053219605171431345 -4.9824142316262097e-05 0 -0.053120069524056748 -8.3811483596324689e-05 0 -0.054304809253196119 6.7079164330115595e-05 0 -0.049991312471581534 0.00057709947902054889 0 -0.050000518968262672 0.00058147840071855932 0 -0.050006374937947976 0.00054462915788932057 0 -0.054905744420858535 2.8036988660001164e-05 0 -0.054920262190766275 1.9410144166966321e-05 0 -0.054942484719618254 1.0912152982665564e-05 0 -0.054905983037762979 1.2424810750192039e-05 0 -0.054924733821002228 2.0368919230299899e-05 0 -0.054934857362695821 2.4102339714277631e-05 0 -0.050435582093458754 0.00041899876872918801 0 -0.050460102441815223 0.00039701892039670694 0 -0.050506736390756923 0.00042279937347879841 0 -0.051975193414895586 0.00025337215984616259 0 -0.053276584371430832 0.00036500101283522908 0 -0.054905983037762979 1.2424810750192039e-05 0 -0.054920262190766275 1.9410144166966321e-05 0 -0.054924733821002228 2.0368919230299899e-05 0 -0.054905744420858535 2.8036988660001164e-05 0 -0.054905983037762979 1.2424810750192039e-05 0 -0.054920262190766275 1.9410144166966321e-05 0 -0.054304809253196119 6.7079164330115595e-05 0 -0.051975193414895586 0.00025337215984616259 0 -0.054920262190766275 1.9410144166966321e-05 0 -0.054924733821002228 2.0368919230299899e-05 0 -0.054942484719618254 1.0912152982665564e-05 0 -0.050435582093458754 0.00041899876872918801 0 -0.050460102441815223 0.00039701892039670694 0 -0.050425053889863319 0.00036448313071722153 0 -0.051975193414895586 0.00025337215984616259 0 -0.050128420752066485 0.00055872163008188899 0 -0.050460102441815223 0.00039701892039670694 0 -0.050425053889863319 0.00036448313071722153 0 -0.050465303769117897 0.00037988123627489547 0 -0.05005549435678916 0.00058551506279554166 0 -0.050064085245578129 0.00053310038565942009 0 -0.050006374937947976 0.00054462915788932057 0 -0.050064085245578129 0.00053310038565942009 0 -0.050006374937947976 0.00054462915788932057 0 -0.049988133328066543 0.00049339835267758693 0 -0.049948349622211931 0.00049040108764353621 0 -0.050006374937947976 0.00054462915788932057 0 -0.049988133328066543 0.00049339835267758693 0 -0.049948349622211931 0.00049040108764353621 0 -0.049988133328066543 0.00049339835267758693 0 -0.049951055272600145 0.00045560385120151358 0 -0.049950882395944057 0.00042544550873095536 0 -0.049988133328066543 0.00049339835267758693 0 -0.049951055272600145 0.00045560385120151358 0 -0.050134911023824509 0.00044490658054651262 0 -0.050064085245578129 0.00053310038565942009 0 -0.049988133328066543 0.00049339835267758693 0 -0.050134911023824509 0.00044490658054651262 0 -0.049950882395944057 0.00042544550873095536 0 -0.049988133328066543 0.00049339835267758693 0 -0.050391510963133219 0.00028107386317506811 0 -0.050425053889863319 0.00036448313071722153 0 -0.050469611642006522 0.00033529492100780944 0 -0.050277853226945189 0.00031581879583874461 0 -0.050128420752066485 0.00055872163008188899 0 -0.053293684883130396 0.00023198957077274251 0 -0.052690697821424416 0.00040300954857502223 0 -0.053062915376864021 0.0007380317395319938 0 -0.053293684883130396 0.00023198957077274251 0 -0.053062915376864021 0.0007380317395319938 0 -0.053380360150486084 0.00049365673845436502 0 -0.053677174470202475 0.00011756196082314744 0 -0.053293684883130396 0.00023198957077274251 0 -0.053380360150486084 0.00049365673845436502 0 -0.053677174470202475 0.00011756196082314744 0 -0.053293684883130396 0.00023198957077274251 0 -0.053560466913260156 -5.0124212616323165e-05 0 -0.053293684883130396 0.00023198957077274251 0 -0.05320867604249227 1.4173099334504928e-05 0 -0.052690697821424416 0.00040300954857502223 0 -0.053293684883130396 0.00023198957077274251 0 -0.053560466913260156 -5.0124212616323165e-05 0 -0.05320867604249227 1.4173099334504928e-05 0 -0.053560466913260156 -5.0124212616323165e-05 0 -0.054025614987596074 -5.8514590112822556e-05 0 -0.05320867604249227 1.4173099334504928e-05 0 -0.050425053889863319 0.00036448313071722153 0 -0.050469611642006522 0.00033529492100780944 0 -0.050465303769117897 0.00037988123627489547 0 -0.052401750412419845 4.3148810442130239e-06 0 -0.053276584371430832 0.00036500101283522908 0 -0.053677174470202475 0.00011756196082314744 0 -0.053560466913260156 -5.0124212616323165e-05 0 -0.053631538361788578 -7.4093953026025972e-05 0 -0.050469611642006522 0.00033529492100780944 0 -0.050465303769117897 0.00037988123627489547 0 -0.050506736390756923 0.00042279937347879841 0 -0.050460102441815223 0.00039701892039670694 0 -0.050465303769117897 0.00037988123627489547 0 -0.050506736390756923 0.00042279937347879841 0 -0.054924733821002228 2.0368919230299899e-05 0 -0.0549328297006468 2.7310760846692664e-05 0 -0.054934857362695821 2.4102339714277631e-05 0 -0.0549328297006468 2.7310760846692664e-05 0 -0.054934711074990192 4.1504327121933011e-05 0 -0.054934857362695821 2.4102339714277631e-05 0 -0.0549328297006468 2.7310760846692664e-05 0 -0.054934711074990192 4.1504327121933011e-05 0 -0.054942484719618254 1.0912152982665564e-05 0 -0.054924733821002228 2.0368919230299899e-05 0 -0.0549328297006468 2.7310760846692664e-05 0 -0.054942484719618254 1.0912152982665564e-05 0 -0.054934711074990192 4.1504327121933011e-05 0 -0.054681089312286275 -1.1623297289083129e-05 0 -0.054895905513175226 -2.2874992836039851e-05 0 -0.054934711074990192 4.1504327121933011e-05 0 -0.054977799318074977 0.00028778485997852705 0 -0.054681089312286275 -1.1623297289083129e-05 0 -0.053801197404773841 0.00013340963200933291 0 -0.053276584371430832 0.00036500101283522908 0 -0.053276584371430832 0.00036500101283522908 0 -0.054465019883367279 -4.1865295221908416e-05 0 -0.054977799318074977 0.00028778485997852705 0 -0.054025614987596074 -5.8514590112822556e-05 0 -0.054681089312286275 -1.1623297289083129e-05 0 -0.053560466913260156 -5.0124212616323165e-05 0 -0.053631538361788578 -7.4093953026025972e-05 0 -0.054025614987596074 -5.8514590112822556e-05 0 -0.054025614987596074 -5.8514590112822556e-05 0 -0.054681089312286275 -1.1623297289083129e-05 0 -0.05485925308554282 -6.1613567271423541e-05 0 -0.054025614987596074 -5.8514590112822556e-05 0 -0.054999223634350121 -8.0692267126921688e-08 0 -0.05485925308554282 -6.1613567271423541e-05 0 -0.054999223634350121 -8.0692267126921688e-08 0 -0.05485925308554282 -6.1613567271423541e-05 0 -0.054999928052841145 -6.8454639843806692e-08 0 -0.05485925308554282 -6.1613567271423541e-05 0 -0.054955345472737081 -4.9827100280425906e-06 0 -0.054999928052841145 -6.8454639843806692e-08 0 -0.054934711074990192 4.1504327121933011e-05 0 -0.054942484719618254 1.0912152982665564e-05 0 -0.054895905513175226 -2.2874992836039851e-05 0 -0.054955345472737081 -4.9827100280425906e-06 0 -0.054942484719618254 1.0912152982665564e-05 0 -0.054895905513175226 -2.2874992836039851e-05 0 -0.054681089312286275 -1.1623297289083129e-05 0 -0.05485925308554282 -6.1613567271423541e-05 0 -0.054895905513175226 -2.2874992836039851e-05 0 -0.05485925308554282 -6.1613567271423541e-05 0 -0.054955345472737081 -4.9827100280425906e-06 0 -0.054895905513175226 -2.2874992836039851e-05 0 -0.054996324808363813 -1.2297339152642681e-06 0 -0.054377555830176727 -0.00014946557627475507 0 -0.053647788670516151 -0.0003065014435382705 0 -0.054025614987596074 -5.8514590112822556e-05 0 -0.054999223634350121 -8.0692267126921688e-08 0 -0.054377555830176727 -0.00014946557627475507 0 -0.054999223634350121 -8.0692267126921688e-08 0 -0.054996324808363813 -1.2297339152642681e-06 0 -0.054377555830176727 -0.00014946557627475507 0 -0.054025614987596074 -5.8514590112822556e-05 0 -0.053288877603627806 -0.00019652875856816267 0 -0.05307302867031511 -8.2318835730091651e-05 0 -0.054025614987596074 -5.8514590112822556e-05 0 -0.054377555830176727 -0.00014946557627475507 0 -0.053288877603627806 -0.00019652875856816267 0 -0.054377555830176727 -0.00014946557627475507 0 -0.053288877603627806 -0.00019652875856816267 0 -0.053647788670516151 -0.0003065014435382705 0 -0.053288877603627806 -0.00019652875856816267 0 -0.052059342173060442 8.1154823730943294e-05 0 -0.052337643028636777 -0.00013900546197912343 0 -0.053288877603627806 -0.00019652875856816267 0 -0.05307302867031511 -8.2318835730091651e-05 0 -0.052059342173060442 8.1154823730943294e-05 0 -0.054025614987596074 -5.8514590112822556e-05 0 -0.05307302867031511 -8.2318835730091651e-05 0 -0.05320867604249227 1.4173099334504928e-05 0 -0.05307302867031511 -8.2318835730091651e-05 0 -0.05320867604249227 1.4173099334504928e-05 0 -0.052059342173060442 8.1154823730943294e-05 0 -0.052690697821424416 0.00040300954857502223 0 -0.052059342173060442 8.1154823730943294e-05 0 -0.051794021389207398 0.00062629414699037593 0 -0.05320867604249227 1.4173099334504928e-05 0 -0.052690697821424416 0.00040300954857502223 0 -0.052059342173060442 8.1154823730943294e-05 0 -0.052059342173060442 8.1154823730943294e-05 0 -0.050906079626389364 0.00052205064687065213 0 -0.051794021389207398 0.00062629414699037593 0 -0.050906079626389364 0.00052205064687065213 0 -0.051088413047034154 0.0013597120522306722 0 -0.049434674975715957 0.00090040052292709657 0 -0.050906079626389364 0.00052205064687065213 0 -0.051088413047034154 0.0013597120522306722 0 -0.051794021389207398 0.00062629414699037593 0 -0.051088413047034154 0.0013597120522306722 0 -0.04932116315340699 0.0017458705081666169 0 -0.049434674975715957 0.00090040052292709657 0 -0.051088413047034154 0.0013597120522306722 0 -0.052406678734161646 0.0010315611535900184 0 -0.052542447749957838 0.0020210534305917902 0 -0.051088413047034154 0.0013597120522306722 0 -0.052542447749957838 0.0020210534305917902 0 -0.051649888799693545 0.0024768971383114652 0 -0.051088413047034154 0.0013597120522306722 0 -0.052406678734161646 0.0010315611535900184 0 -0.051794021389207398 0.00062629414699037593 0 -0.052690697821424416 0.00040300954857502223 0 -0.052406678734161646 0.0010315611535900184 0 -0.051794021389207398 0.00062629414699037593 0 -0.052690697821424416 0.00040300954857502223 0 -0.052406678734161646 0.0010315611535900184 0 -0.053062915376864021 0.0007380317395319938 0 -0.053062915376864021 0.0007380317395319938 0 -0.053380360150486084 0.00049365673845436502 0 -0.053470281530346241 0.00094259444633158936 0 -0.053062915376864021 0.0007380317395319938 0 -0.053470281530346241 0.00094259444633158936 0 -0.053076476492586379 0.0013450562346808833 0 -0.053470281530346241 0.00094259444633158936 0 -0.053427056435417793 0.0014418526170332741 0 -0.053076476492586379 0.0013450562346808833 0 -0.052406678734161646 0.0010315611535900184 0 -0.053062915376864021 0.0007380317395319938 0 -0.053076476492586379 0.0013450562346808833 0 -0.052401750412419845 4.3148810442130239e-06 0 -0.048474051171305751 0.0017880623523059659 0 -0.050391510963133219 0.00028107386317506811 0 -0.050404724548814409 0.00020973873219108768 0 -0.050306049894816282 0.00011626859776376536 0 -0.050469611642006522 0.00033529492100780944 0 -0.050404724548814409 0.00020973873219108768 0 -0.05041881087501128 0.00014672057059278039 0 -0.053677174470202475 0.00011756196082314744 0 -0.053470281530346241 0.00094259444633158936 0 -0.05382954040827425 0.0014837273198549169 0 -0.053677174470202475 0.00011756196082314744 0 -0.053380360150486084 0.00049365673845436502 0 -0.053470281530346241 0.00094259444633158936 0 -0.050277853226945189 0.00031581879583874461 0 -0.050306676973752518 0.00013949087894252386 0 -0.050391510963133219 0.00028107386317506811 0 -0.050469611642006522 0.00033529492100780944 0 -0.050404724548814409 0.00020973873219108768 0 -0.041820468439664617 0.0024320616529519713 0 -0.042571115668489007 0.0028465276439539429 0 -0.042253158064316045 0.0025242706377023908 0 -0.050035500489280529 -9.4524959944137246e-05 0 -0.050306049894816282 0.00011626859776376536 0 -0.05041881087501128 0.00014672057059278039 0 -0.050404724548814409 0.00020973873219108768 0 -0.050306049894816282 0.00011626859776376536 0 -0.05041881087501128 0.00014672057059278039 0 -0.05382954040827425 0.0014837273198549169 0 -0.053427056435417793 0.0014418526170332741 0 -0.053271859452830889 0.0018404265021465009 0 -0.053470281530346241 0.00094259444633158936 0 -0.05382954040827425 0.0014837273198549169 0 -0.053427056435417793 0.0014418526170332741 0 -0.052406678734161646 0.0010315611535900184 0 -0.053076476492586379 0.0013450562346808833 0 -0.052542447749957838 0.0020210534305917902 0 -0.053427056435417793 0.0014418526170332741 0 -0.053076476492586379 0.0013450562346808833 0 -0.053271859452830889 0.0018404265021465009 0 -0.05382954040827425 0.0014837273198549169 0 -0.053271859452830889 0.0018404265021465009 0 -0.053292746611177721 0.0025065648938644015 0 -0.053271859452830889 0.0018404265021465009 0 -0.052542447749957838 0.0020210534305917902 0 -0.053292746611177721 0.0025065648938644015 0 -0.053076476492586379 0.0013450562346808833 0 -0.053271859452830889 0.0018404265021465009 0 -0.052542447749957838 0.0020210534305917902 0 -0.053292746611177721 0.0025065648938644015 0 -0.05373689088245253 0.0035165596753417472 0 -0.052354238704774812 0.0033254741375497933 0 -0.052542447749957838 0.0020210534305917902 0 -0.053292746611177721 0.0025065648938644015 0 -0.052354238704774812 0.0033254741375497933 0 -0.05382954040827425 0.0014837273198549169 0 -0.053292746611177721 0.0025065648938644015 0 -0.05373689088245253 0.0035165596753417472 0 -0.042571115668489007 0.0028465276439539429 0 -0.042253158064316045 0.0025242706377023908 0 -0.042591086700012902 0.0017544021814259031 0 -0.042073383437209219 0.0020224754041001259 0 -0.042253158064316045 0.0025242706377023908 0 -0.042591086700012902 0.0017544021814259031 0 -0.048474051171305751 0.0017880623523059659 0 -0.046156776792396499 0.0020397669238479237 0 -0.046156776792396499 0.0020397669238479237 0 -0.050192892204693931 0.0028766745072267745 0 -0.046423524216140592 0.0020630872797425524 0 -0.046356586383771631 0.0021108651426585095 0 -0.04648340369256649 0.0020993817486483816 0 -0.046423524216140592 0.0020630872797425524 0 -0.046491258562188047 0.0020902069403364496 0 -0.04648340369256649 0.0020993817486483816 0 -0.046491258562188047 0.0020902069403364496 0 -0.046389291140992481 0.0019905939390693285 0 -0.04648340369256649 0.0020993817486483816 0 -0.046529105034869449 0.0021976967970636103 0 -0.046491258562188047 0.0020902069403364496 0 -0.046415482590600701 0.0018649288692284389 0 -0.046491258562188047 0.0020902069403364496 0 -0.046389291140992481 0.0019905939390693285 0 -0.046415482590600701 0.0018649288692284389 0 -0.051088413047034154 0.0013597120522306722 0 -0.050516330251091097 0.0031810332956826275 0 -0.04932116315340699 0.0017458705081666169 0 -0.051088413047034154 0.0013597120522306722 0 -0.050516330251091097 0.0031810332956826275 0 -0.051649888799693545 0.0024768971383114652 0 -0.050516330251091097 0.0031810332956826275 0 -0.051649888799693545 0.0024768971383114652 0 -0.052354238704774812 0.0033254741375497933 0 -0.052542447749957838 0.0020210534305917902 0 -0.051649888799693545 0.0024768971383114652 0 -0.052354238704774812 0.0033254741375497933 0 -0.048249717892491495 0.0024916659764708223 0 -0.050192892204693931 0.0028766745072267745 0 -0.04700869440827115 0.0019698581771774933 0 -0.045217899635190011 0.0014558644020295441 0 -0.045937707085760726 0.001114753140331051 0 -0.04700869440827115 0.0019698581771774933 0 -0.045937707085760726 0.001114753140331051 0 -0.047403976964313033 0.0011711438634173957 0 -0.04700869440827115 0.0019698581771774933 0 -0.045305873180299265 0.0018851645832857822 0 -0.045217899635190011 0.0014558644020295441 0 -0.050516330251091097 0.0031810332956826275 0 -0.04700869440827115 0.0019698581771774933 0 -0.04932116315340699 0.0017458705081666169 0 -0.048249717892491495 0.0024916659764708223 0 -0.047211557235764104 0.0020953006087791669 0 -0.046389291140992481 0.0019905939390693285 0 -0.04700869440827115 0.0019698581771774933 0 -0.046415482590600701 0.0018649288692284389 0 -0.04700869440827115 0.0019698581771774933 0 -0.047403976964313033 0.0011711438634173957 0 -0.04932116315340699 0.0017458705081666169 0 -0.044237642444722884 0.0017196980880497944 0 -0.045147073880168136 0.0018888317790877018 0 -0.04700869440827115 0.0019698581771774933 0 -0.046415482590600701 0.0018649288692284389 0 -0.045305873180299265 0.0018851645832857822 0 -0.046529105034869449 0.0021976967970636103 0 -0.046415482590600701 0.0018649288692284389 0 -0.045305873180299265 0.0018851645832857822 0 -0.043667233788942258 0.0011422109741788017 0 -0.045305873180299265 0.0018851645832857822 0 -0.044409356508493314 0.0013492541857469107 0 -0.045305873180299265 0.0018851645832857822 0 -0.044409356508493314 0.0013492541857469107 0 -0.045217899635190011 0.0014558644020295441 0 -0.044409356508493314 0.0013492541857469107 0 -0.045217899635190011 0.0014558644020295441 0 -0.04402599678081668 0.00094695213432763933 0 -0.045217899635190011 0.0014558644020295441 0 -0.04402599678081668 0.00094695213432763933 0 -0.044874228389154489 0.0008360576386384148 0 -0.04279360003757765 0.00047151537089843153 0 -0.04402599678081668 0.00094695213432763933 0 -0.043928423119030807 0.00046305999578131281 0 -0.04402599678081668 0.00094695213432763933 0 -0.044874228389154489 0.0008360576386384148 0 -0.043928423119030807 0.00046305999578131281 0 -0.044874228389154489 0.0008360576386384148 0 -0.045937707085760726 0.001114753140331051 0 -0.045707460279244355 0.00037975800990418457 0 -0.045217899635190011 0.0014558644020295441 0 -0.044874228389154489 0.0008360576386384148 0 -0.045937707085760726 0.001114753140331051 0 -0.045937707085760726 0.001114753140331051 0 -0.047045777298597886 0.00072993257984608399 0 -0.045707460279244355 0.00037975800990418457 0 -0.045937707085760726 0.001114753140331051 0 -0.047045777298597886 0.00072993257984608399 0 -0.047403976964313033 0.0011711438634173957 0 -0.044874228389154489 0.0008360576386384148 0 -0.045707460279244355 0.00037975800990418457 0 -0.044744966178994483 0.00026789889114946534 0 -0.045908885676590142 0.00047919865145178224 0 -0.046639956779054456 0.0001998142224469159 0 -0.045707460279244355 0.00037975800990418457 0 -0.047876134794207686 0.00043159332082081352 0 -0.04772728723866123 0.00039542829640764276 0 -0.047045777298597886 0.00072993257984608399 0 -0.045707460279244355 0.00037975800990418457 0 -0.047876134794207686 0.00043159332082081352 0 -0.047045777298597886 0.00072993257984608399 0 -0.047876134794207686 0.00043159332082081352 0 -0.048404340069773871 0.00063415683590877078 0 -0.047876134794207686 0.00043159332082081352 0 -0.048404340069773871 0.00063415683590877078 0 -0.049281724043564332 0.00034999339661295097 0 -0.048404340069773871 0.00063415683590877078 0 -0.050176966592850127 0.00037656387997105794 0 -0.049281724043564332 0.00034999339661295097 0 -0.047045777298597886 0.00072993257984608399 0 -0.048404340069773871 0.00063415683590877078 0 -0.047403976964313033 0.0011711438634173957 0 -0.048404340069773871 0.00063415683590877078 0 -0.047403976964313033 0.0011711438634173957 0 -0.049434674975715957 0.00090040052292709657 0 -0.047403976964313033 0.0011711438634173957 0 -0.04932116315340699 0.0017458705081666169 0 -0.049434674975715957 0.00090040052292709657 0 -0.050906079626389364 0.00052205064687065213 0 -0.049434674975715957 0.00090040052292709657 0 -0.050176966592850127 0.00037656387997105794 0 -0.048404340069773871 0.00063415683590877078 0 -0.049434674975715957 0.00090040052292709657 0 -0.050176966592850127 0.00037656387997105794 0 -0.052059342173060442 8.1154823730943294e-05 0 -0.050906079626389364 0.00052205064687065213 0 -0.050176966592850127 0.00037656387997105794 0 -0.052059342173060442 8.1154823730943294e-05 0 -0.050176966592850127 0.00037656387997105794 0 -0.050901357606160789 9.6876595858550962e-05 0 -0.050176966592850127 0.00037656387997105794 0 -0.049281724043564332 0.00034999339661295097 0 -0.050901357606160789 9.6876595858550962e-05 0 -0.049281724043564332 0.00034999339661295097 0 -0.050901357606160789 9.6876595858550962e-05 0 -0.04917502796329537 0.00020170538253374553 0 -0.050901357606160789 9.6876595858550962e-05 0 -0.051922394194485591 -0.00021723004733444252 0 -0.050545519103744677 -9.6655438993802073e-05 0 -0.050901357606160789 9.6876595858550962e-05 0 -0.050545519103744677 -9.6655438993802073e-05 0 -0.04917502796329537 0.00020170538253374553 0 -0.052059342173060442 8.1154823730943294e-05 0 -0.050901357606160789 9.6876595858550962e-05 0 -0.052337643028636777 -0.00013900546197912343 0 -0.050901357606160789 9.6876595858550962e-05 0 -0.052337643028636777 -0.00013900546197912343 0 -0.051922394194485591 -0.00021723004733444252 0 -0.053288877603627806 -0.00019652875856816267 0 -0.052337643028636777 -0.00013900546197912343 0 -0.053647788670516151 -0.0003065014435382705 0 -0.051922394194485591 -0.00021723004733444252 0 -0.052702822892186064 -0.00042059554479611936 0 -0.053647788670516151 -0.0003065014435382705 0 -0.052337643028636777 -0.00013900546197912343 0 -0.051922394194485591 -0.00021723004733444252 0 -0.053647788670516151 -0.0003065014435382705 0 -0.051922394194485591 -0.00021723004733444252 0 -0.050545519103744677 -9.6655438993802073e-05 0 -0.051121572698741131 -0.00046285910226044651 0 -0.051922394194485591 -0.00021723004733444252 0 -0.051121572698741131 -0.00046285910226044651 0 -0.052702822892186064 -0.00042059554479611936 0 -0.052702822892186064 -0.00042059554479611936 0 -0.054837702994960907 -0.00017864235481698733 0 -0.050669800514323675 -0.001642926780110385 0 -0.054999549297631754 -5.3512314253625662e-07 0 -0.054837702994960907 -0.00017864235481698733 0 -0.055017478701292803 1.2413396123271097e-06 0 -0.054413149108481496 -0.00033185188257722634 0 -0.053072924578525908 -0.00078782267117854328 0 -0.051121572698741131 -0.00046285910226044651 0 -0.052702822892186064 -0.00042059554479611936 0 -0.050669800514323675 -0.001642926780110385 0 -0.054996324808363813 -1.2297339152642681e-06 0 -0.054999549297631754 -5.3512314253625662e-07 0 -0.054837702994960907 -0.00017864235481698733 0 -0.054996324808363813 -1.2297339152642681e-06 0 -0.054837702994960907 -0.00017864235481698733 0 -0.053647788670516151 -0.0003065014435382705 0 -0.052702822892186064 -0.00042059554479611936 0 -0.054837702994960907 -0.00017864235481698733 0 -0.053647788670516151 -0.0003065014435382705 0 -0.054985165943546001 1.0198498216451867e-05 0 -0.055000199789659698 2.6580841937510807e-07 0 -0.055017478701292803 1.2413396123271097e-06 0 -0.050979257965190573 0.00010917867866311548 0 -0.05499726112095487 7.3698490135646364e-08 0 -0.054999549297631754 -5.3512314253625662e-07 0 -0.055000199789659698 2.6580841937510807e-07 0 -0.055017478701292803 1.2413396123271097e-06 0 -0.048760296912906759 -0.0013191300789117228 0 -0.050669800514323675 -0.001642926780110385 0 -0.049728662944985069 -0.00046262687474540317 0 -0.051121572698741131 -0.00046285910226044651 0 -0.050669800514323675 -0.001642926780110385 0 -0.049728662944985069 -0.00046262687474540317 0 -0.050979257965190573 0.00010917867866311548 0 -0.053072924578525908 -0.00078782267117854328 0 -0.050545519103744677 -9.6655438993802073e-05 0 -0.051121572698741131 -0.00046285910226044651 0 -0.049728662944985069 -0.00046262687474540317 0 -0.048760296912906759 -0.0013191300789117228 0 -0.049728662944985069 -0.00046262687474540317 0 -0.0486630607319452 -1.5832494137903074e-05 0 -0.045123092356014957 0.0024002524772366337 0 -0.045470729595526276 0.00056641675419660646 0 -0.046231243186195453 0.0011311815104961555 0 -0.050979257965190573 0.00010917867866311548 0 -0.046614455529495717 0.00040058148712997368 0 -0.046614455529495717 0.00040058148712997368 0 -0.046639956779054456 0.0001998142224469159 0 -0.0486630607319452 -1.5832494137903074e-05 0 -0.04917502796329537 0.00020170538253374553 0 -0.04772728723866123 0.00039542829640764276 0 -0.045470729595526276 0.00056641675419660646 0 -0.045612799631007873 -0.00016096549481697966 0 -0.0461889031469759 0.0003886907856850124 0 -0.049728662944985069 -0.00046262687474540317 0 -0.0486630607319452 -1.5832494137903074e-05 0 -0.04917502796329537 0.00020170538253374553 0 -0.050545519103744677 -9.6655438993802073e-05 0 -0.049728662944985069 -0.00046262687474540317 0 -0.04917502796329537 0.00020170538253374553 0 -0.047876134794207686 0.00043159332082081352 0 -0.04917502796329537 0.00020170538253374553 0 -0.04772728723866123 0.00039542829640764276 0 -0.047876134794207686 0.00043159332082081352 0 -0.049281724043564332 0.00034999339661295097 0 -0.04917502796329537 0.00020170538253374553 0 -0.055001403782602362 3.6870277793892387e-07 0 -0.054698211738404334 3.6658309079076752e-05 0 -0.054994600804259858 -6.5819686320412844e-07 0 -0.045612799631007873 -0.00016096549481697966 0 -0.046101401848780109 -6.0301066611084498e-05 0 -0.0461889031469759 0.0003886907856850124 0 -0.046101401848780109 -6.0301066611084498e-05 0 -0.046894470256584248 0.000581967748217239 0 -0.047622113046105412 -1.4255081436799141e-05 0 -0.046101401848780109 -6.0301066611084498e-05 0 -0.046894470256584248 0.000581967748217239 0 -0.0461889031469759 0.0003886907856850124 0 -0.046894470256584248 0.000581967748217239 0 -0.0461889031469759 0.0003886907856850124 0 -0.047102580814555151 0.0009655931360647215 0 -0.045470729595526276 0.00056641675419660646 0 -0.0461889031469759 0.0003886907856850124 0 -0.046231243186195453 0.0011311815104961555 0 -0.045123092356014957 0.0024002524772366337 0 -0.046231243186195453 0.0011311815104961555 0 -0.04784432678210164 0.0024469158169983093 0 -0.0461889031469759 0.0003886907856850124 0 -0.046231243186195453 0.0011311815104961555 0 -0.047102580814555151 0.0009655931360647215 0 -0.047415096971870116 0.0008964764522531259 0 -0.04992123802784483 0.00037116404142779614 0 -0.047102580814555151 0.0009655931360647215 0 -0.04784432678210164 0.0024469158169983093 0 -0.052385439011018428 -0.00052029590449939947 0 -0.046894470256584248 0.000581967748217239 0 -0.047102580814555151 0.0009655931360647215 0 -0.047695449198639002 0.0012273161003263605 0 -0.046231243186195453 0.0011311815104961555 0 -0.047102580814555151 0.0009655931360647215 0 -0.04784432678210164 0.0024469158169983093 0 -0.050979257965190573 0.00010917867866311548 0 -0.051079531593478257 0.0013196257628791065 0 -0.054978445201528288 7.3554528889197568e-05 0 -0.055001403782602362 3.6870277793892387e-07 0 -0.054698211738404334 3.6658309079076752e-05 0 -0.054698211738404334 3.6658309079076752e-05 0 -0.054994600804259858 -6.5819686320412844e-07 0 -0.053591513788099308 0.00024534624059453921 0 -0.054994600804259858 -6.5819686320412844e-07 0 -0.053591513788099308 0.00024534624059453921 0 -0.051358312784242806 1.4357625350852344e-06 0 -0.04784432678210164 0.0024469158169983093 0 -0.052385439011018428 -0.00052029590449939947 0 -0.053591513788099308 0.00024534624059453921 0 -0.051079531593478257 0.0013196257628791065 0 -0.053505384691130115 0.00034486323656912751 0 -0.04992123802784483 0.00037116404142779614 0 -0.051349831878316328 1.1495837277750309e-07 0 -0.052385439011018428 -0.00052029590449939947 0 -0.053591513788099308 0.00024534624059453921 0 -0.051358312784242806 1.4357625350852344e-06 0 -0.047695449198639002 0.0012273161003263605 0 -0.051344299130314061 3.8663843062563803e-06 0 -0.047622113046105412 -1.4255081436799141e-05 0 -0.046894470256584248 0.000581967748217239 0 -0.047695449198639002 0.0012273161003263605 0 -0.047622113046105412 -1.4255081436799141e-05 0 -0.046101401848780109 -6.0301066611084498e-05 0 -0.047622113046105412 -1.4255081436799141e-05 0 -0.04569362191868593 -0.00024740417769392273 0 -0.051344299130314061 3.8663843062563803e-06 0 -0.047622113046105412 -1.4255081436799141e-05 0 -0.048368314686618168 -1.6203494321932242e-06 0 -0.047622113046105412 -1.4255081436799141e-05 0 -0.048368314686618168 -1.6203494321932242e-06 0 -0.04569362191868593 -0.00024740417769392273 0 -0.048368314686618168 -1.6203494321932242e-06 0 -0.045386126159035228 -1.5562127940423088e-07 0 -0.04569362191868593 -0.00024740417769392273 0 -0.045386126159035228 -1.5562127940423088e-07 0 -0.04569362191868593 -0.00024740417769392273 0 -0.043968293789760922 -0.00011838612635372249 0 -0.04569362191868593 -0.00024740417769392273 0 -0.044068817912434444 -9.1425430479507285e-06 0 -0.043968293789760922 -0.00011838612635372249 0 -0.046101401848780109 -6.0301066611084498e-05 0 -0.04569362191868593 -0.00024740417769392273 0 -0.04520889951394827 -9.4729395841183244e-05 0 -0.045612799631007873 -0.00016096549481697966 0 -0.046101401848780109 -6.0301066611084498e-05 0 -0.04520889951394827 -9.4729395841183244e-05 0 -0.045707460279244355 0.00037975800990418457 0 -0.045612799631007873 -0.00016096549481697966 0 -0.04520889951394827 -9.4729395841183244e-05 0 -0.045707460279244355 0.00037975800990418457 0 -0.04520889951394827 -9.4729395841183244e-05 0 -0.044744966178994483 0.00026789889114946534 0 -0.04569362191868593 -0.00024740417769392273 0 -0.04520889951394827 -9.4729395841183244e-05 0 -0.044068817912434444 -9.1425430479507285e-06 0 -0.04520889951394827 -9.4729395841183244e-05 0 -0.044744966178994483 0.00026789889114946534 0 -0.044068817912434444 -9.1425430479507285e-06 0 -0.044744966178994483 0.00026789889114946534 0 -0.044068817912434444 -9.1425430479507285e-06 0 -0.043928423119030807 0.00046305999578131281 0 -0.044874228389154489 0.0008360576386384148 0 -0.044744966178994483 0.00026789889114946534 0 -0.043928423119030807 0.00046305999578131281 0 -0.04279360003757765 0.00047151537089843153 0 -0.043928423119030807 0.00046305999578131281 0 -0.042657516974753104 0.00016176457222702467 0 -0.044068817912434444 -9.1425430479507285e-06 0 -0.042657516974753104 0.00016176457222702467 0 -0.042309538437352003 -8.0717762361673281e-05 0 -0.044068817912434444 -9.1425430479507285e-06 0 -0.043928423119030807 0.00046305999578131281 0 -0.042657516974753104 0.00016176457222702467 0 -0.042309538437352003 -8.0717762361673281e-05 0 -0.042404823476051491 -2.8966402826460548e-07 0 -0.043968293789760922 -0.00011838612635372249 0 -0.045386126159035228 -1.5562127940423088e-07 0 -0.042404823476051491 -2.8966402826460548e-07 0 -0.043968293789760922 -0.00011838612635372249 0 -0.044068817912434444 -9.1425430479507285e-06 0 -0.042309538437352003 -8.0717762361673281e-05 0 -0.043968293789760922 -0.00011838612635372249 0 -0.047935298146387667 0.0024699827861060929 0 -0.049302471851835929 0.0033622753792429947 0 -0.051701281703594525 0.0030611243560834337 0 -0.051653778881430114 0.0035234018443953867 0 -0.051813138407914738 0.0032974600169404338 0 -0.044330288912590436 0.0019891767353319048 0 -0.046450096114384144 0.00090883178269812921 0 -0.047037430111389937 0.0033521311749398659 0 -0.044330288912590436 0.0019891767353319048 0 -0.046450096114384144 0.00090883178269812921 0 -0.043477726184294421 -0.00056638987213276687 0 -0.046450096114384144 0.00090883178269812921 0 -0.048830523116122002 0.0012919348355758375 0 -0.048507155126515877 0.0026563168187252006 0 -0.046450096114384144 0.00090883178269812921 0 -0.048830523116122002 0.0012919348355758375 0 -0.047705880344046908 -0.00096829534205728851 0 -0.045283625856631364 0.0018573846721172498 0 -0.046266715921312838 0.00235694830207098 0 -0.046368766250318327 0.0017542605189342897 0 -0.045283625856631364 0.0018573846721172498 0 -0.046168189766173789 0.0011271526548204437 0 -0.046368766250318327 0.0017542605189342897 0 -0.046266715921312838 0.00235694830207098 0 -0.04575016231392922 0.0035154624795042662 0 -0.046552877185811491 0.0033930473983218813 0 -0.048830523116122002 0.0012919348355758375 0 -0.048507155126515877 0.0026563168187252006 0 -0.049957158795524093 0.003334903106438962 0 -0.047076386547161016 0.0015712550006402844 0 -0.047791224088119477 0.0036456127266239024 0 -0.045283625856631364 0.0018573846721172498 0 -0.046266715921312838 0.00235694830207098 0 -0.04575016231392922 0.0035154624795042662 0 -0.046450096114384144 0.00090883178269812921 0 -0.048507155126515877 0.0026563168187252006 0 -0.047037430111389937 0.0033521311749398659 0 -0.050228319411068811 0.0036549940544220835 0 -0.051364791178263737 0.0032919253084679793 0 -0.051653778881430114 0.0035234018443953867 0 -0.048507155126515877 0.0026563168187252006 0 -0.050228319411068811 0.0036549940544220835 0 -0.047037430111389937 0.0033521311749398659 0 -0.050034577312048939 0.0036018854405888896 0 -0.049302471851835929 0.0033622753792429947 0 -0.049957158795524093 0.003334903106438962 0 -0.050228319411068811 0.0036549940544220835 0 -0.050252127050519374 0.003352562407043905 0 -0.047791224088119477 0.0036456127266239024 0 -0.048873749636935006 0.0029400001372734681 0 -0.048507155126515877 0.0026563168187252006 0 -0.049957158795524093 0.003334903106438962 0 -0.050228319411068811 0.0036549940544220835 0 -0.04575016231392922 0.0035154624795042662 0 -0.046155716440483989 0.004922892619120915 0 -0.046552877185811491 0.0033930473983218813 0 -0.050228319411068811 0.0036549940544220835 0 -0.050646658800295168 0.0032233105165954605 0 -0.050252127050519374 0.003352562407043905 0 -0.050646658800295168 0.0032233105165954605 0 -0.050252127050519374 0.003352562407043905 0 -0.050847970735465778 0.0028284813873037211 0 -0.048873749636935006 0.0029400001372734681 0 -0.04903981571392807 0.0020994398510227582 0 -0.05016112207490931 0.0015213103293802422 0 -0.049816876732611273 0.0014133238064100138 0 -0.05028763877089925 0.0011980976802191119 0 -0.051364791178263737 0.0032919253084679793 0 -0.051247006763193922 0.0029344455302478599 0 -0.051982650595991657 0.0030341847410695669 0 -0.050228319411068811 0.0036549940544220835 0 -0.050646658800295168 0.0032233105165954605 0 -0.051364791178263737 0.0032919253084679793 0 -0.050646658800295168 0.0032233105165954605 0 -0.051364791178263737 0.0032919253084679793 0 -0.051247006763193922 0.0029344455302478599 0 -0.050646658800295168 0.0032233105165954605 0 -0.051247006763193922 0.0029344455302478599 0 -0.050847970735465778 0.0028284813873037211 0 -0.051364791178263737 0.0032919253084679793 0 -0.051982650595991657 0.0030341847410695669 0 -0.051813138407914738 0.0032974600169404338 0 -0.051364791178263737 0.0032919253084679793 0 -0.051653778881430114 0.0035234018443953867 0 -0.051813138407914738 0.0032974600169404338 0 -0.051701281703594525 0.0030611243560834337 0 -0.051813138407914738 0.0032974600169404338 0 -0.051582878081397159 0.0032566078114796299 0 -0.051982650595991657 0.0030341847410695669 0 -0.051813138407914738 0.0032974600169404338 0 -0.051719217468855008 0.0033253908321647483 0 -0.051813138407914738 0.0032974600169404338 0 -0.051582878081397159 0.0032566078114796299 0 -0.051719217468855008 0.0033253908321647483 0 -0.051553015008063571 0.0033079807056430829 0 -0.051582878081397159 0.0032566078114796299 0 -0.051719217468855008 0.0033253908321647483 0 -0.051553015008063571 0.0033079807056430829 0 -0.051401716038721908 0.0032771907857394368 0 -0.051582878081397159 0.0032566078114796299 0 -0.051553015008063571 0.0033079807056430829 0 -0.051401716038721908 0.0032771907857394368 0 -0.051499751332364598 0.0034134157940200931 0 -0.051401716038721908 0.0032771907857394368 0 -0.051582878081397159 0.0032566078114796299 0 -0.051262164076904183 0.0030398961720070066 0 -0.050780956232776141 0.00373783039816408 0 -0.050618095772285349 0.0032438261740529873 0 -0.051262164076904183 0.0030398961720070066 0 -0.050775709468633329 0.0037965875968185361 0 -0.051381460022525284 0.0029006132060916015 0 -0.050336058634700323 0.0038943357447316185 0 -0.05026182195894794 0.0041344447785316403 0 -0.049877335441769352 0.0038691864236724536 0 -0.050336058634700323 0.0038943357447316185 0 -0.050286186612140647 0.0035005941871750711 0 -0.049877335441769352 0.0038691864236724536 0 -0.050775709468633329 0.0037965875968185361 0 -0.052655006262367049 0.0027794895847187738 0 -0.050780956232776141 0.00373783039816408 0 -0.050336058634700323 0.0038943357447316185 0 -0.050286186612140647 0.0035005941871750711 0 -0.050780956232776141 0.00373783039816408 0 -0.050336058634700323 0.0038943357447316185 0 -0.050481788556036404 0.0042877341302227021 0 -0.050780956232776141 0.00373783039816408 0 -0.050286186612140647 0.0035005941871750711 0 -0.050618095772285349 0.0032438261740529873 0 -0.050286186612140647 0.0035005941871750711 0 -0.049877335441769352 0.0038691864236724536 0 -0.049902763463067427 0.0032257012802275366 0 -0.050233028493552899 0.0029217831373251073 0 -0.049920525151100646 0.0024534427661895603 0 -0.049902763463067427 0.0032257012802275366 0 -0.050286186612140647 0.0035005941871750711 0 -0.050233028493552899 0.0029217831373251073 0 -0.049902763463067427 0.0032257012802275366 0 -0.050233028493552899 0.0029217831373251073 0 -0.050618095772285349 0.0032438261740529873 0 -0.050720201281111654 0.0026679515816235475 0 -0.050286186612140647 0.0035005941871750711 0 -0.050233028493552899 0.0029217831373251073 0 -0.050618095772285349 0.0032438261740529873 0 -0.050233028493552899 0.0029217831373251073 0 -0.050720201281111654 0.0026679515816235475 0 -0.050270766585770475 0.0024551631515741207 0 -0.050233028493552899 0.0029217831373251073 0 -0.050270766585770475 0.0024551631515741207 0 -0.049920525151100646 0.0024534427661895603 0 -0.043219730479861294 0.00051242849574600923 0 -0.041690721852653628 1.7736360701660425e-05 0 -0.043219730479861294 0.00051242849574600923 0 -0.048093240669030098 0.0024460122620272038 0 -0.038652845868322211 -0.0014974445775177894 0 -0.038685744376127547 -0.0016113207358758473 0 -0.038422885857229382 -0.0013552601419781372 0 -0.051701281703594525 0.0030611243560834337 0 -0.051582878081397159 0.0032566078114796299 0 -0.051262164076904183 0.0030398961720070066 0 -0.050618095772285349 0.0032438261740529873 0 -0.050720201281111654 0.0026679515816235475 0 -0.051262164076904183 0.0030398961720070066 0 -0.050720201281111654 0.0026679515816235475 0 -0.051262164076904183 0.0030398961720070066 0 -0.051284687618973882 0.0024986284570343675 0 -0.047935298146387667 0.0024699827861060929 0 -0.046978468564528114 0.0016404808118883937 0 -0.051701281703594525 0.0030611243560834337 0 -0.051262164076904183 0.0030398961720070066 0 -0.051284687618973882 0.0024986284570343675 0 -0.044330288912590436 0.0019891767353319048 0 -0.042060506195177302 0.00048674125579278599 0 -0.043477726184294421 -0.00056638987213276687 0 -0.042060506195177302 0.00048674125579278599 0 -0.041419268894902037 -0.0015159765213606207 0 -0.043477726184294421 -0.00056638987213276687 0 -0.046978468564528114 0.0016404808118883937 0 -0.043793823378044112 6.325446467759927e-05 0 -0.042060506195177302 0.00048674125579278599 0 -0.041419268894902037 -0.0015159765213606207 0 -0.040133699936694578 -0.00092833875261560104 0 -0.050720201281111654 0.0026679515816235475 0 -0.051284687618973882 0.0024986284570343675 0 -0.050596871840938543 0.0019692909637946984 0 -0.040971261144847691 -0.0013234286562469875 0 -0.039406581455415653 -0.00063164326419772553 0 -0.039503018764939384 -0.0024260379292350945 0 -0.040971261144847691 -0.0013234286562469875 0 -0.042613367293398978 -0.00207856363422708 0 -0.04079172567754244 -0.0037255015596908631 0 -0.040767603699635106 -0.0011524155810579684 0 -0.043793823378044112 6.325446467759927e-05 0 -0.040767603699635106 -0.0011524155810579684 0 -0.042571567489583496 -0.0020392088788405982 0 -0.041419268894902037 -0.0015159765213606207 0 -0.042613367293398978 -0.00207856363422708 0 -0.043477726184294421 -0.00056638987213276687 0 -0.033997367054705942 -0.0014411796686483753 0 -0.038169343771855734 4.1500268417348324e-05 0 -0.032155271902252626 -0.00094097447725498458 0 -0.0319095334916603 -1.2562050729231613e-05 0 -0.031125415746761347 -0.0013811011774722012 0 -0.043219730479861294 0.00051242849574600923 0 -0.038169343771855734 4.1500268417348324e-05 0 -0.050270766585770475 0.0024551631515741207 0 -0.049948872843939326 0.0022624315369637765 0 -0.050194082519807927 0.0021505711429935367 0 -0.038169343771855734 4.1500268417348324e-05 0 -0.042211487053960599 9.8701214621779254e-05 0 -0.050270766585770475 0.0024551631515741207 0 -0.049920525151100646 0.0024534427661895603 0 -0.049948872843939326 0.0022624315369637765 0 -0.03773774896267329 -0.0012247285056013297 0 -0.03758211439948278 0.00017899091748849869 0 -0.038765337001506736 -0.00033151059148675094 0 -0.033997367054705942 -0.0014411796686483753 0 -0.042211487053960599 9.8701214621779254e-05 0 -0.050270766585770475 0.0024551631515741207 0 -0.050194082519807927 0.0021505711429935367 0 -0.050596871840938543 0.0019692909637946984 0 -0.050720201281111654 0.0026679515816235475 0 -0.050270766585770475 0.0024551631515741207 0 -0.050596871840938543 0.0019692909637946984 0 -0.042211487053960599 9.8701214621779254e-05 0 -0.043793823378044112 6.325446467759927e-05 0 -0.03809095889275245 0.00099266625666532106 0 -0.041719579130419855 -0.00057742847307084416 0 -0.037466025184948994 -0.0036442374332923268 0 -0.039406581455415653 -0.00063164326419772553 0 -0.039503018764939384 -0.0024260379292350945 0 -0.037700545652534723 -0.0018525538884746921 0 -0.043793823378044112 6.325446467759927e-05 0 -0.032607640863174879 -0.0032462798865389034 0 -0.031335065151922907 -0.0028062887298252255 0 -0.029988558236592151 -0.0028016530380579555 0 -0.028694655802797245 -0.004643792451023929 0 -0.03617956566438895 -0.00068086270536340404 0 -0.03809095889275245 0.00099266625666532106 0 -0.037466025184948994 -0.0036442374332923268 0 -0.030714366701126251 -0.0013457199976076 0 -0.031335065151922907 -0.0028062887298252255 0 -0.030807500256813274 -0.0018883983078284454 0 -0.033997367054705942 -0.0014411796686483753 0 -0.032607640863174879 -0.0032462798865389034 0 -0.030710892176164246 -0.0013467369096245715 0 -0.029988558236592151 -0.0028016530380579555 0 -0.030807500256813274 -0.0018883983078284454 0 -0.031335065151922907 -0.0028062887298252255 0 -0.029988558236592151 -0.0028016530380579555 0 -0.030807500256813274 -0.0018883983078284454 0 -0.033997367054705942 -0.0014411796686483753 0 -0.033484776548302952 -0.0013816947791596918 0 -0.025993468060274773 -0.005888445259187837 0 -0.025615136725565368 -0.0066570275489233827 0 -0.025119573197321533 -0.0065303413193111455 0 -0.032607640863174879 -0.0032462798865389034 0 -0.032206571118435209 -0.0055811538923969247 0 -0.025993468060274773 -0.005888445259187837 0 -0.025615136725565368 -0.0066570275489233827 0 -0.026184793731324114 -0.006860776806402305 0 -0.032607640863174879 -0.0032462798865389034 0 -0.026173338444805221 -0.0059524511067794239 0 -0.039503018764939384 -0.0024260379292350945 0 -0.038390683331765318 -0.0042339978578357813 0 -0.04079172567754244 -0.0037255015596908631 0 -0.039503018764939384 -0.0024260379292350945 0 -0.037700545652534723 -0.0018525538884746921 0 -0.038390683331765318 -0.0042339978578357813 0 -0.032830971570450777 -0.0074165143002195661 0 -0.032206571118435209 -0.0055811538923969247 0 -0.025802800305775607 -0.0074733299607438412 0 -0.026346248627174804 -0.0077106889239946181 0 -0.026184793731324114 -0.006860776806402305 0 -0.0390324809636272 -0.0065783941911936325 0 -0.038390683331765318 -0.0042339978578357813 0 -0.040429269550581001 -0.0054147116560707455 0 -0.025802800305775607 -0.0074733299607438412 0 -0.026184793731324114 -0.006860776806402305 0 -0.025564107047081872 -0.0070842256497609902 0 -0.025615136725565368 -0.0066570275489233827 0 -0.026184793731324114 -0.006860776806402305 0 -0.025564107047081872 -0.0070842256497609902 0 -0.025802800305775607 -0.0074733299607438412 0 -0.025564107047081872 -0.0070842256497609902 0 -0.025310054659325992 -0.0075104638464247014 0 -0.025615136725565368 -0.0066570275489233827 0 -0.025564107047081872 -0.0070842256497609902 0 -0.025278444304075932 -0.0069248651244510221 0 -0.042613367293398978 -0.00207856363422708 0 -0.042438756779179014 -0.0035919215335920044 0 -0.04079172567754244 -0.0037255015596908631 0 -0.042613367293398978 -0.00207856363422708 0 -0.042438756779179014 -0.0035919215335920044 0 -0.043724012909807229 -0.0034067399532504853 0 -0.040971261144847691 -0.0013234286562469875 0 -0.039503018764939384 -0.0024260379292350945 0 -0.04079172567754244 -0.0037255015596908631 0 -0.04079172567754244 -0.0037255015596908631 0 -0.040429269550581001 -0.0054147116560707455 0 -0.04256931145711642 -0.0052272908350668619 0 -0.038390683331765318 -0.0042339978578357813 0 -0.04079172567754244 -0.0037255015596908631 0 -0.040429269550581001 -0.0054147116560707455 0 -0.042438756779179014 -0.0035919215335920044 0 -0.04079172567754244 -0.0037255015596908631 0 -0.04256931145711642 -0.0052272908350668619 0 -0.042438756779179014 -0.0035919215335920044 0 -0.04256931145711642 -0.0052272908350668619 0 -0.043724012909807229 -0.0034067399532504853 0 -0.041931686015679238 -0.0053003662153591688 0 -0.043554146928221703 -0.0035193602689547968 0 -0.04339641475949866 -0.0053206355543093456 0 -0.044999230697280013 -0.0039614200277520249 0 -0.043724012909807229 -0.0034067399532504853 0 -0.041479844450009948 -0.0051358914728105859 0 -0.04339641475949866 -0.0053206355543093456 0 -0.043724012909807229 -0.0034067399532504853 0 -0.045850739426134615 -0.0056098940388010646 0 -0.044999230697280013 -0.0039614200277520249 0 -0.046705895150082589 -0.0031390284949073563 0 -0.04339641475949866 -0.0053206355543093456 0 -0.045850739426134615 -0.0056098940388010646 0 -0.044999230697280013 -0.0039614200277520249 0 -0.044999230697280013 -0.0039614200277520249 0 -0.045371602169929338 -0.0024863664971424429 0 -0.046705895150082589 -0.0031390284949073563 0 -0.044999230697280013 -0.0039614200277520249 0 -0.043724012909807229 -0.0034067399532504853 0 -0.045371602169929338 -0.0024863664971424429 0 -0.043724012909807229 -0.0034067399532504853 0 -0.044037524061912067 -0.0019936192265992301 0 -0.045371602169929338 -0.0024863664971424429 0 -0.044037524061912067 -0.0019936192265992301 0 -0.045337566613473233 -0.0011202153983435775 0 -0.043477726184294421 -0.00056638987213276687 0 -0.042613367293398978 -0.00207856363422708 0 -0.044037524061912067 -0.0019936192265992301 0 -0.043477726184294421 -0.00056638987213276687 0 -0.042613367293398978 -0.00207856363422708 0 -0.043724012909807229 -0.0034067399532504853 0 -0.044037524061912067 -0.0019936192265992301 0 -0.044037524061912067 -0.0019936192265992301 0 -0.045371602169929338 -0.0024863664971424429 0 -0.045337566613473233 -0.0011202153983435775 0 -0.045371602169929338 -0.0024863664971424429 0 -0.045337566613473233 -0.0011202153983435775 0 -0.047705880344046908 -0.00096829534205728851 0 -0.046450096114384144 0.00090883178269812921 0 -0.045337566613473233 -0.0011202153983435775 0 -0.043477726184294421 -0.00056638987213276687 0 -0.046450096114384144 0.00090883178269812921 0 -0.045337566613473233 -0.0011202153983435775 0 -0.047705880344046908 -0.00096829534205728851 0 -0.045853488286105179 0.00041084050812740006 0 -0.044941547025123069 0.00037962714087544651 0 -0.046168189766173789 0.0011271526548204437 0 -0.045283625856631364 0.0018573846721172498 0 -0.044941547025123069 0.00037962714087544651 0 -0.046168189766173789 0.0011271526548204437 0 -0.047076386547161016 0.0015712550006402844 0 -0.046305310243587819 -0.00029980527859313965 0 -0.046305310243587819 -0.00029980527859313965 0 -0.045972828419613969 -0.0016295950363326532 0 -0.044941547025123069 0.00037962714087544651 0 -0.045311532938195898 -0.00043603425320076392 0 -0.044730312998754074 -0.00056533147930219664 0 -0.045371602169929338 -0.0024863664971424429 0 -0.047705880344046908 -0.00096829534205728851 0 -0.046705895150082589 -0.0031390284949073563 0 -0.045853488286105179 0.00041084050812740006 0 -0.044941547025123069 0.00037962714087544651 0 -0.045670189108925514 -0.0001369607988712943 0 -0.044941547025123069 0.00037962714087544651 0 -0.045670189108925514 -0.0001369607988712943 0 -0.045311532938195898 -0.00043603425320076392 0 -0.045853488286105179 0.00041084050812740006 0 -0.045670189108925514 -0.0001369607988712943 0 -0.046045626141527643 0.00026487894859528123 0 -0.042258650969816916 -0.0017003113290361021 0 -0.043896441891731391 -0.00085730292559157355 0 -0.045670189108925514 -0.0001369607988712943 0 -0.045311532938195898 -0.00043603425320076392 0 -0.045913791907481648 -0.00034836151453712671 0 -0.045311532938195898 -0.00043603425320076392 0 -0.045256021025950534 -0.0010633641784720108 0 -0.045913791907481648 -0.00034836151453712671 0 -0.039683269943866631 -0.0024928459597185842 0 -0.04123699631081916 -0.0028292094047470259 0 -0.041865451353912196 -0.0012337998179745705 0 -0.045311532938195898 -0.00043603425320076392 0 -0.044730312998754074 -0.00056533147930219664 0 -0.045256021025950534 -0.0010633641784720108 0 -0.043055284480627384 -0.0044072068003382266 0 -0.042258650969816916 -0.0017003113290361021 0 -0.040133740253568043 -0.0038378229204274476 0 -0.03785492633454926 -0.0037347728061732457 0 -0.039683269943866631 -0.0024928459597185842 0 -0.044424487709636015 -0.0016600638692033749 0 -0.044730312998754074 -0.00056533147930219664 0 -0.045256021025950534 -0.0010633641784720108 0 -0.043055284480627384 -0.0044072068003382266 0 -0.045972828419613969 -0.0016295950363326532 0 -0.041902391371519167 -0.0040829953597536391 0 -0.040133740253568043 -0.0038378229204274476 0 -0.04123699631081916 -0.0028292094047470259 0 -0.040133740253568043 -0.0038378229204274476 0 -0.039683269943866631 -0.0024928459597185842 0 -0.04123699631081916 -0.0028292094047470259 0 -0.041902391371519167 -0.0040829953597536391 0 -0.042812178839868639 -0.0026678037962422655 0 -0.043604587796024663 -0.0035390634158915094 0 -0.041902391371519167 -0.0040829953597536391 0 -0.042812178839868639 -0.0026678037962422655 0 -0.04123699631081916 -0.0028292094047470259 0 -0.043896441891731391 -0.00085730292559157355 0 -0.044843974476383525 -0.00042267153322203668 0 -0.041865451353912196 -0.0012337998179745705 0 -0.043918096348746737 -0.0015181262438638465 0 -0.045050313758744576 -0.00038214428861711475 0 -0.042812178839868639 -0.0026678037962422655 0 -0.04123699631081916 -0.0028292094047470259 0 -0.041865451353912196 -0.0012337998179745705 0 -0.042812178839868639 -0.0026678037962422655 0 -0.041865451353912196 -0.0012337998179745705 0 -0.043918096348746737 -0.0015181262438638465 0 -0.043918096348746737 -0.0015181262438638465 0 -0.04528501407472095 -0.0012961785560184798 0 -0.045050313758744576 -0.00038214428861711475 0 -0.042812178839868639 -0.0026678037962422655 0 -0.043918096348746737 -0.0015181262438638465 0 -0.044048581503223945 -0.0023662784341308757 0 -0.043918096348746737 -0.0015181262438638465 0 -0.044048581503223945 -0.0023662784341308757 0 -0.04528501407472095 -0.0012961785560184798 0 -0.044048581503223945 -0.0023662784341308757 0 -0.043604587796024663 -0.0035390634158915094 0 -0.044831317898677406 -0.0029821756159385928 0 -0.042812178839868639 -0.0026678037962422655 0 -0.044048581503223945 -0.0023662784341308757 0 -0.043604587796024663 -0.0035390634158915094 0 -0.044705937011381619 -0.0042633245768312717 0 -0.043604587796024663 -0.0035390634158915094 0 -0.044831317898677406 -0.0029821756159385928 0 -0.044705937011381619 -0.0042633245768312717 0 -0.044831317898677406 -0.0029821756159385928 0 -0.045861357452841173 -0.0032612572857578202 0 -0.044831317898677406 -0.0029821756159385928 0 -0.045861357452841173 -0.0032612572857578202 0 -0.045774398104540273 -0.0021170019645230876 0 -0.045861357452841173 -0.0032612572857578202 0 -0.046745425469386259 -0.0022330930522723945 0 -0.047003501374723693 -0.0034915628051455207 0 -0.045861357452841173 -0.0032612572857578202 0 -0.046745425469386259 -0.0022330930522723945 0 -0.045774398104540273 -0.0021170019645230876 0 -0.046745425469386259 -0.0022330930522723945 0 -0.046266018605528682 -0.0013416258237400878 0 -0.045774398104540273 -0.0021170019645230876 0 -0.046745425469386259 -0.0022330930522723945 0 -0.046266018605528682 -0.0013416258237400878 0 -0.046994434456314106 -0.0012275499368282526 0 -0.044831317898677406 -0.0029821756159385928 0 -0.045774398104540273 -0.0021170019645230876 0 -0.04528501407472095 -0.0012961785560184798 0 -0.044048581503223945 -0.0023662784341308757 0 -0.044831317898677406 -0.0029821756159385928 0 -0.04528501407472095 -0.0012961785560184798 0 -0.046266018605528682 -0.0013416258237400878 0 -0.045774398104540273 -0.0021170019645230876 0 -0.04528501407472095 -0.0012961785560184798 0 -0.04528501407472095 -0.0012961785560184798 0 -0.046102070165598662 -0.0007559607152442001 0 -0.045861681611489361 -0.00028726472662447106 0 -0.046266018605528682 -0.0013416258237400878 0 -0.04528501407472095 -0.0012961785560184798 0 -0.046102070165598662 -0.0007559607152442001 0 -0.046102070165598662 -0.0007559607152442001 0 -0.045861681611489361 -0.00028726472662447106 0 -0.046458711536480062 -0.0002693615475885204 0 -0.046994434456314106 -0.0012275499368282526 0 -0.046726537618145492 -0.00069894244110252552 0 -0.047386525785452382 -0.00053284029950961939 0 -0.046266018605528682 -0.0013416258237400878 0 -0.046994434456314106 -0.0012275499368282526 0 -0.046726537618145492 -0.00069894244110252552 0 -0.046266018605528682 -0.0013416258237400878 0 -0.046102070165598662 -0.0007559607152442001 0 -0.046726537618145492 -0.00069894244110252552 0 -0.046102070165598662 -0.0007559607152442001 0 -0.046726537618145492 -0.00069894244110252552 0 -0.046458711536480062 -0.0002693615475885204 0 -0.046726537618145492 -0.00069894244110252552 0 -0.04699556113929803 -0.00023103076826368107 0 -0.046458711536480062 -0.0002693615475885204 0 -0.046726537618145492 -0.00069894244110252552 0 -0.04699556113929803 -0.00023103076826368107 0 -0.047386525785452382 -0.00053284029950961939 0 -0.04699556113929803 -0.00023103076826368107 0 -0.047386525785452382 -0.00053284029950961939 0 -0.047487404704196365 4.8476280879241261e-05 0 -0.04699556113929803 -0.00023103076826368107 0 -0.046936964209806156 0.00013365948844241621 0 -0.046458711536480062 -0.0002693615475885204 0 -0.04699556113929803 -0.00023103076826368107 0 -0.046936964209806156 0.00013365948844241621 0 -0.047487404704196365 4.8476280879241261e-05 0 -0.045861681611489361 -0.00028726472662447106 0 -0.046359551698756093 1.6289319066468598e-05 0 -0.045745865771334548 -0.00019809137895921916 0 -0.045861681611489361 -0.00028726472662447106 0 -0.046458711536480062 -0.0002693615475885204 0 -0.046359551698756093 1.6289319066468598e-05 0 -0.046936964209806156 0.00013365948844241621 0 -0.046458711536480062 -0.0002693615475885204 0 -0.046359551698756093 1.6289319066468598e-05 0 -0.046359551698756093 1.6289319066468598e-05 0 -0.045745865771334548 -0.00019809137895921916 0 -0.046094656287638897 0.00011217478983848922 0 -0.045745865771334548 -0.00019809137895921916 0 -0.045608001118493217 -0.00026918668932790469 0 -0.045774719198344839 -9.1216851726794835e-05 0 -0.045745865771334548 -0.00019809137895921916 0 -0.045774719198344839 -9.1216851726794835e-05 0 -0.046094656287638897 0.00011217478983848922 0 -0.045608001118493217 -0.00026918668932790469 0 -0.045774719198344839 -9.1216851726794835e-05 0 -0.045636426292812809 -5.9780630197688435e-06 0 -0.045774719198344839 -9.1216851726794835e-05 0 -0.045636426292812809 -5.9780630197688435e-06 0 -0.046094656287638897 0.00011217478983848922 0 -0.046419793658090805 0.00066403303723262266 0 -0.045852950131639383 -0.00027952745458907684 0 -0.047120745949855908 0.0012395288720873656 0 -0.046045626141527643 0.00026487894859528123 0 -0.045769477079692492 -0.00038203187010027581 0 -0.045608001118493217 -0.00026918668932790469 0 -0.045636426292812809 -5.9780630197688435e-06 0 -0.045769477079692492 -0.00038203187010027581 0 -0.045853488286105179 0.00041084050812740006 0 -0.046168189766173789 0.0011271526548204437 0 -0.04627478619638796 0.0007130259132526283 0 -0.047120745949855908 0.0012395288720873656 0 -0.046168189766173789 0.0011271526548204437 0 -0.04627478619638796 0.0007130259132526283 0 -0.047120745949855908 0.0012395288720873656 0 -0.04627478619638796 0.0007130259132526283 0 -0.046045626141527643 0.00026487894859528123 0 -0.045853488286105179 0.00041084050812740006 0 -0.04627478619638796 0.0007130259132526283 0 -0.046045626141527643 0.00026487894859528123 0 -0.045913791907481648 -0.00034836151453712671 0 -0.045769477079692492 -0.00038203187010027581 0 -0.045050313758744576 -0.00038214428861711475 0 -0.045670189108925514 -0.0001369607988712943 0 -0.046045626141527643 0.00026487894859528123 0 -0.045769477079692492 -0.00038203187010027581 0 -0.045670189108925514 -0.0001369607988712943 0 -0.045913791907481648 -0.00034836151453712671 0 -0.045769477079692492 -0.00038203187010027581 0 -0.04528501407472095 -0.0012961785560184798 0 -0.045861681611489361 -0.00028726472662447106 0 -0.045050313758744576 -0.00038214428861711475 0 -0.045861681611489361 -0.00028726472662447106 0 -0.045745865771334548 -0.00019809137895921916 0 -0.045050313758744576 -0.00038214428861711475 0 -0.045745865771334548 -0.00019809137895921916 0 -0.045608001118493217 -0.00026918668932790469 0 -0.045050313758744576 -0.00038214428861711475 0 -0.045608001118493217 -0.00026918668932790469 0 -0.045769477079692492 -0.00038203187010027581 0 -0.045050313758744576 -0.00038214428861711475 0 -0.042339042575058265 -0.00040213699083741091 0 -0.045030180703960671 -7.3068179283188243e-05 0 -0.041086633176042199 0.00043395341745222383 0 -0.041031213446158565 0.00063984026390424159 0 -0.041052285183529755 0.00063668556039416099 0 -0.042339042575058265 -0.00040213699083741091 0 -0.040646115686485032 0.0008018466540091133 0 -0.04052770771885137 0.00062616793195690765 0 -0.040631127835448679 0.00065269411999249803 0 -0.040651757253948428 0.00067883291048114022 0 -0.04052770771885137 0.00062616793195690765 0 -0.040625404397855856 0.00062966361026596009 0 -0.040631127835448679 0.00065269411999249803 0 -0.046801296999216299 -0.002220586708150256 0 -0.047966263025613576 -0.0020598485086669258 0 -0.047456182490756664 -0.00088872257312537018 0 -0.047966263025613576 -0.0020598485086669258 0 -0.048440644499674862 -0.00069376296090239889 0 -0.047456182490756664 -0.00088872257312537018 0 -0.048942358472137924 -0.0052118785372793717 0 -0.048222349420937428 -0.0010739424600269868 0 -0.048440644499674862 -0.00069376296090239889 0 -0.047456182490756664 -0.00088872257312537018 0 -0.048105328823269816 9.7428352555286617e-05 0 -0.049189712033415295 -0.0020296436688034118 0 -0.048073529265775003 -0.0024642633263287149 0 -0.048077347781672067 -0.0011879571622171335 0 -0.047895778358849006 -0.0037262435007866667 0 -0.049061326167528681 -0.0041082218711391344 0 -0.048073529265775003 -0.0024642633263287149 0 -0.049061326167528681 -0.0041082218711391344 0 -0.049189712033415295 -0.0020296436688034118 0 -0.048073529265775003 -0.0024642633263287149 0 -0.046745425469386259 -0.0022330930522723945 0 -0.048073529265775003 -0.0024642633263287149 0 -0.047003501374723693 -0.0034915628051455207 0 -0.047895778358849006 -0.0037262435007866667 0 -0.048073529265775003 -0.0024642633263287149 0 -0.047003501374723693 -0.0034915628051455207 0 -0.046745425469386259 -0.0022330930522723945 0 -0.048073529265775003 -0.0024642633263287149 0 -0.047520214497942345 -0.0017642859931729831 0 -0.048073529265775003 -0.0024642633263287149 0 -0.047520214497942345 -0.0017642859931729831 0 -0.048077347781672067 -0.0011879571622171335 0 -0.046994434456314106 -0.0012275499368282526 0 -0.047520214497942345 -0.0017642859931729831 0 -0.048077347781672067 -0.0011879571622171335 0 -0.046745425469386259 -0.0022330930522723945 0 -0.046994434456314106 -0.0012275499368282526 0 -0.047520214497942345 -0.0017642859931729831 0 -0.046994434456314106 -0.0012275499368282526 0 -0.047386525785452382 -0.00053284029950961939 0 -0.048077347781672067 -0.0011879571622171335 0 -0.047386525785452382 -0.00053284029950961939 0 -0.048035674831401351 -0.000194998845598664 0 -0.048077347781672067 -0.0011879571622171335 0 -0.047386525785452382 -0.00053284029950961939 0 -0.047487404704196365 4.8476280879241261e-05 0 -0.048035674831401351 -0.000194998845598664 0 -0.047487404704196365 4.8476280879241261e-05 0 -0.048035674831401351 -0.000194998845598664 0 -0.047991179843998449 0.00036048634304639671 0 -0.048035674831401351 -0.000194998845598664 0 -0.049110281724025477 -0.00042475988575452488 0 -0.048498824603619296 0.00031569365549795602 0 -0.048035674831401351 -0.000194998845598664 0 -0.048498824603619296 0.00031569365549795602 0 -0.047991179843998449 0.00036048634304639671 0 -0.048035674831401351 -0.000194998845598664 0 -0.048077347781672067 -0.0011879571622171335 0 -0.049110281724025477 -0.00042475988575452488 0 -0.049189712033415295 -0.0020296436688034118 0 -0.048077347781672067 -0.0011879571622171335 0 -0.049110281724025477 -0.00042475988575452488 0 -0.048222349420937428 -0.0010739424600269868 0 -0.04859870348188338 -0.00030722386738814207 0 -0.049110281724025477 -0.00042475988575452488 0 -0.048748109393514281 0.00062068466931719697 0 -0.048498824603619296 0.00031569365549795602 0 -0.04859870348188338 -0.00030722386738814207 0 -0.048734552819920715 0.00057025861642561783 0 -0.048105328823269816 9.7428352555286617e-05 0 -0.048809850875141975 0.00026893973510388217 0 -0.048748109393514281 0.00062068466931719697 0 -0.048440644499674862 -0.00069376296090239889 0 -0.048105328823269816 9.7428352555286617e-05 0 -0.048809850875141975 0.00026893973510388217 0 -0.045030180703960671 -7.3068179283188243e-05 0 -0.044839032972728093 0.00054252157072007322 0 -0.041031213446158565 0.00063984026390424159 0 -0.041052285183529755 0.00063668556039416099 0 -0.040957635159648592 0.00076796477882179449 0 -0.049021621168738608 0.00076920134795203834 0 -0.048748109393514281 0.00062068466931719697 0 -0.048882010136543981 0.0010291837369049697 0 -0.049021621168738608 0.00076920134795203834 0 -0.048809850875141975 0.00026893973510388217 0 -0.048748109393514281 0.00062068466931719697 0 -0.044970931412555135 0.00080833109720811322 0 -0.044839032972728093 0.00054252157072007322 0 -0.048748109393514281 0.00062068466931719697 0 -0.048655781243237696 0.00083851932795981103 0 -0.048498824603619296 0.00031569365549795602 0 -0.048748109393514281 0.00062068466931719697 0 -0.048655781243237696 0.00083851932795981103 0 -0.048882010136543981 0.0010291837369049697 0 -0.048655781243237696 0.00083851932795981103 0 -0.048350389289048577 0.00067351747501606587 0 -0.048464116272376172 0.001001725897464837 0 -0.048655781243237696 0.00083851932795981103 0 -0.048498824603619296 0.00031569365549795602 0 -0.048350389289048577 0.00067351747501606587 0 -0.048498824603619296 0.00031569365549795602 0 -0.048350389289048577 0.00067351747501606587 0 -0.047991179843998449 0.00036048634304639671 0 -0.048350389289048577 0.00067351747501606587 0 -0.047991179843998449 0.00036048634304639671 0 -0.047988285200694217 0.00068693085882662232 0 -0.047487404704196365 4.8476280879241261e-05 0 -0.047991179843998449 0.00036048634304639671 0 -0.047497581249396854 0.00048492376763019471 0 -0.047991179843998449 0.00036048634304639671 0 -0.047988285200694217 0.00068693085882662232 0 -0.047497581249396854 0.00048492376763019471 0 -0.047988285200694217 0.00068693085882662232 0 -0.048464116272376172 0.001001725897464837 0 -0.047857976756848872 0.00093379888464964413 0 -0.047988285200694217 0.00068693085882662232 0 -0.047497581249396854 0.00048492376763019471 0 -0.047857976756848872 0.00093379888464964413 0 -0.048350389289048577 0.00067351747501606587 0 -0.047988285200694217 0.00068693085882662232 0 -0.048464116272376172 0.001001725897464837 0 -0.048266654551169283 0.0011151076861940518 0 -0.048464116272376172 0.001001725897464837 0 -0.047857976756848872 0.00093379888464964413 0 -0.048266654551169283 0.0011151076861940518 0 -0.048880383769859141 0.0012569795317562372 0 -0.048464116272376172 0.001001725897464837 0 -0.048880383769859141 0.0012569795317562372 0 -0.048142686093749387 0.001307970704333397 0 -0.048026855076464044 0.0016415073017046478 0 -0.048266654551169283 0.0011151076861940518 0 -0.048880383769859141 0.0012569795317562372 0 -0.048142686093749387 0.001307970704333397 0 -0.048880383769859141 0.0012569795317562372 0 -0.048836125856207308 0.0011732418958006652 0 -0.049085920105388543 0.0013444221359893522 0 -0.048880383769859141 0.0012569795317562372 0 -0.049085920105388543 0.0013444221359893522 0 -0.04960429254928457 0.0015022566121400648 0 -0.048880383769859141 0.0012569795317562372 0 -0.048464116272376172 0.001001725897464837 0 -0.048836125856207308 0.0011732418958006652 0 -0.048655781243237696 0.00083851932795981103 0 -0.048464116272376172 0.001001725897464837 0 -0.048836125856207308 0.0011732418958006652 0 -0.048836125856207308 0.0011732418958006652 0 -0.048801614653339667 0.0013346353876646933 0 -0.048882010136543981 0.0010291837369049697 0 -0.048655781243237696 0.00083851932795981103 0 -0.048836125856207308 0.0011732418958006652 0 -0.048882010136543981 0.0010291837369049697 0 -0.048836125856207308 0.0011732418958006652 0 -0.049085920105388543 0.0013444221359893522 0 -0.048801614653339667 0.0013346353876646933 0 -0.049021621168738608 0.00076920134795203834 0 -0.04901978310795084 0.0011579408071531897 0 -0.048882010136543981 0.0010291837369049697 0 -0.04901978310795084 0.0011579408071531897 0 -0.048801614653339667 0.0013346353876646933 0 -0.048882010136543981 0.0010291837369049697 0 -0.047015628408497288 0.00099361236296628013 0 -0.046603343318115498 0.0011067526092792728 0 -0.046489097628762049 0.00054315234911971489 0 -0.047015628408497288 0.00099361236296628013 0 -0.046489097628762049 0.00054315234911971489 0 -0.046982914039539671 0.00071362090737837154 0 -0.047015628408497288 0.00099361236296628013 0 -0.046603343318115498 0.0011067526092792728 0 -0.047415427122180186 0.0013658078762038969 0 -0.047386726944907698 0.0015863266472776519 0 -0.047532962915459616 0.0029625406552469553 0 -0.046266715921312838 0.00235694830207098 0 -0.047218080882321906 0.0015986228626930117 0 -0.046552877185811491 0.0033930473983218813 0 -0.048466133532151234 0.0026148040080700321 0 -0.047218080882321906 0.0015986228626930117 0 -0.048719871229438612 0.0026267487643307809 0 -0.046419793658090805 0.00066403303723262266 0 -0.047516286867039445 0.0017893709719689049 0 -0.047120745949855908 0.0012395288720873656 0 -0.048466133532151234 0.0026148040080700321 0 -0.047218080882321906 0.0015986228626930117 0 -0.046266715921312838 0.00235694830207098 0 -0.046368766250318327 0.0017542605189342897 0 -0.047218080882321906 0.0015986228626930117 0 -0.046168189766173789 0.0011271526548204437 0 -0.046368766250318327 0.0017542605189342897 0 -0.047218080882321906 0.0015986228626930117 0 -0.047120745949855908 0.0012395288720873656 0 -0.046168189766173789 0.0011271526548204437 0 -0.047218080882321906 0.0015986228626930117 0 -0.045636426292812809 -5.9780630197688435e-06 0 -0.046603343318115498 0.0011067526092792728 0 -0.046489097628762049 0.00054315234911971489 0 -0.045636426292812809 -5.9780630197688435e-06 0 -0.046489097628762049 0.00054315234911971489 0 -0.046094656287638897 0.00011217478983848922 0 -0.046489097628762049 0.00054315234911971489 0 -0.046094656287638897 0.00011217478983848922 0 -0.046533186186614818 0.00032207747027106996 0 -0.046359551698756093 1.6289319066468598e-05 0 -0.046094656287638897 0.00011217478983848922 0 -0.046533186186614818 0.00032207747027106996 0 -0.046359551698756093 1.6289319066468598e-05 0 -0.046533186186614818 0.00032207747027106996 0 -0.046963327689294967 0.0004542675589310488 0 -0.046936964209806156 0.00013365948844241621 0 -0.046359551698756093 1.6289319066468598e-05 0 -0.046963327689294967 0.0004542675589310488 0 -0.046963327689294967 0.0004542675589310488 0 -0.047366833248266467 0.00075985664223618301 0 -0.046982914039539671 0.00071362090737837154 0 -0.046489097628762049 0.00054315234911971489 0 -0.046533186186614818 0.00032207747027106996 0 -0.046982914039539671 0.00071362090737837154 0 -0.046533186186614818 0.00032207747027106996 0 -0.046963327689294967 0.0004542675589310488 0 -0.046982914039539671 0.00071362090737837154 0 -0.046936964209806156 0.00013365948844241621 0 -0.047487404704196365 4.8476280879241261e-05 0 -0.047497581249396854 0.00048492376763019471 0 -0.046936964209806156 0.00013365948844241621 0 -0.046963327689294967 0.0004542675589310488 0 -0.047497581249396854 0.00048492376763019471 0 -0.046963327689294967 0.0004542675589310488 0 -0.047497581249396854 0.00048492376763019471 0 -0.047366833248266467 0.00075985664223618301 0 -0.047366833248266467 0.00075985664223618301 0 -0.047857976756848872 0.00093379888464964413 0 -0.047441929428489064 0.0010865627332829429 0 -0.047497581249396854 0.00048492376763019471 0 -0.047366833248266467 0.00075985664223618301 0 -0.047857976756848872 0.00093379888464964413 0 -0.047366833248266467 0.00075985664223618301 0 -0.046982914039539671 0.00071362090737837154 0 -0.047441929428489064 0.0010865627332829429 0 -0.047015628408497288 0.00099361236296628013 0 -0.046982914039539671 0.00071362090737837154 0 -0.047441929428489064 0.0010865627332829429 0 -0.047441929428489064 0.0010865627332829429 0 -0.047602882265333692 0.0013396999849938274 0 -0.047415427122180186 0.0013658078762038969 0 -0.047015628408497288 0.00099361236296628013 0 -0.047441929428489064 0.0010865627332829429 0 -0.047415427122180186 0.0013658078762038969 0 -0.047441929428489064 0.0010865627332829429 0 -0.047602882265333692 0.0013396999849938274 0 -0.047821163245775483 0.0012114807100338813 0 -0.047602882265333692 0.0013396999849938274 0 -0.047821163245775483 0.0012114807100338813 0 -0.047718705179733874 0.0013918694924237814 0 -0.047602882265333692 0.0013396999849938274 0 -0.047745230192804813 0.0014945756934320422 0 -0.047415427122180186 0.0013658078762038969 0 -0.047857976756848872 0.00093379888464964413 0 -0.047441929428489064 0.0010865627332829429 0 -0.047821163245775483 0.0012114807100338813 0 -0.048266654551169283 0.0011151076861940518 0 -0.047857976756848872 0.00093379888464964413 0 -0.047821163245775483 0.0012114807100338813 0 -0.048266654551169283 0.0011151076861940518 0 -0.047821163245775483 0.0012114807100338813 0 -0.048142686093749387 0.001307970704333397 0 -0.047841304768010087 0.0013939671106990904 0 -0.048142686093749387 0.001307970704333397 0 -0.047718705179733874 0.0013918694924237814 0 -0.047821163245775483 0.0012114807100338813 0 -0.048142686093749387 0.001307970704333397 0 -0.047718705179733874 0.0013918694924237814 0 -0.047745230192804813 0.0014945756934320422 0 -0.047718705179733874 0.0013918694924237814 0 -0.047757741187787743 0.0010141509506835678 0 -0.047841304768010087 0.0013939671106990904 0 -0.047718705179733874 0.0013918694924237814 0 -0.047757741187787743 0.0010141509506835678 0 -0.047602882265333692 0.0013396999849938274 0 -0.047745230192804813 0.0014945756934320422 0 -0.047718705179733874 0.0013918694924237814 0 -0.047745230192804813 0.0014945756934320422 0 -0.048258288242466287 0.0016706334526259163 0 -0.047757741187787743 0.0010141509506835678 0 -0.047745230192804813 0.0014945756934320422 0 -0.048258288242466287 0.0016706334526259163 0 -0.047415427122180186 0.0013658078762038969 0 -0.047516286867039445 0.0017893709719689049 0 -0.048129303233194323 0.0016164284451285653 0 -0.046603343318115498 0.0011067526092792728 0 -0.048258288242466287 0.0016706334526259163 0 -0.047415427122180186 0.0013658078762038969 0 -0.048873749636935006 0.0029400001372734681 0 -0.047532962915459616 0.0029625406552469553 0 -0.048466133532151234 0.0026148040080700321 0 -0.048719871229438612 0.0026267487643307809 0 -0.049078073282687616 0.0020155445572010381 0 -0.05016112207490931 0.0015213103293802422 0 -0.048719871229438612 0.0026267487643307809 0 -0.049078073282687616 0.0020155445572010381 0 -0.048466133532151234 0.0026148040080700321 0 -0.048258288242466287 0.0016706334526259163 0 -0.049078073282687616 0.0020155445572010381 0 -0.048258288242466287 0.0016706334526259163 0 -0.049395200891866296 0.0014871664218049372 0 -0.050273600284361689 0.00082083835003543787 0 -0.048258288242466287 0.0016706334526259163 0 -0.049078073282687616 0.0020155445572010381 0 -0.049395200891866296 0.0014871664218049372 0 -0.049078073282687616 0.0020155445572010381 0 -0.049395200891866296 0.0014871664218049372 0 -0.049816876732611273 0.0014133238064100138 0 -0.049395200891866296 0.0014871664218049372 0 -0.049816876732611273 0.0014133238064100138 0 -0.050273600284361689 0.00082083835003543787 0 -0.05016112207490931 0.0015213103293802422 0 -0.049078073282687616 0.0020155445572010381 0 -0.049816876732611273 0.0014133238064100138 0 -0.049816876732611273 0.0014133238064100138 0 -0.050273600284361689 0.00082083835003543787 0 -0.05028763877089925 0.0011980976802191119 0 -0.050273600284361689 0.00082083835003543787 0 -0.051041836805151022 0.0011183948528042118 0 -0.05116812862327285 0.0011039446460561209 0 -0.051041836805151022 0.0011183948528042118 0 -0.05116812862327285 0.0011039446460561209 0 -0.051395868574116703 0.0011884826560487015 0 -0.051399813783154689 0.0011579049213735211 0 -0.05116812862327285 0.0011039446460561209 0 -0.051589037088591215 0.0010772928023432421 0 -0.05116812862327285 0.0011039446460561209 0 -0.051594066208828802 0.00078221677147596793 0 -0.051589037088591215 0.0010772928023432421 0 -0.051399813783154689 0.0011579049213735211 0 -0.051589037088591215 0.0010772928023432421 0 -0.051501783284496463 0.0011649876750433165 0 -0.051399813783154689 0.0011579049213735211 0 -0.05116812862327285 0.0011039446460561209 0 -0.051395868574116703 0.0011884826560487015 0 -0.050273600284361689 0.00082083835003543787 0 -0.05116812862327285 0.0011039446460561209 0 -0.051594066208828802 0.00078221677147596793 0 -0.048258288242466287 0.0016706334526259163 0 -0.050273600284361689 0.00082083835003543787 0 -0.047757741187787743 0.0010141509506835678 0 -0.050237481238422033 0.00082589666169120748 0 -0.049733273091362058 0.0009434421800226016 0 -0.049733273091362058 0.0009434421800226016 0 -0.049969934728074379 0.001382913366490364 0 -0.047841304768010087 0.0013939671106990904 0 -0.047757741187787743 0.0010141509506835678 0 -0.048026855076464044 0.0016415073017046478 0 -0.051594066208828802 0.00078221677147596793 0 -0.051998151017949905 0.0012157361515011246 0 -0.051819343078032432 0.0010393024629252053 0 -0.047841304768010087 0.0013939671106990904 0 -0.048142686093749387 0.001307970704333397 0 -0.048026855076464044 0.0016415073017046478 0 -0.051998151017949905 0.0012157361515011246 0 -0.051819343078032432 0.0010393024629252053 0 -0.051726867562566996 0.00082710437796550487 0 -0.05349585627532525 -0.00021869019843319857 0 -0.051726867562566996 0.00082710437796550487 0 -0.05196006374536969 -0.0003684759065391525 0 -0.052566512513300793 0.00044117756641291576 0 -0.051838039637908284 0.00083299535680588053 0 -0.051819343078032432 0.0010393024629252053 0 -0.051715174825222275 0.0011612265055572044 0 -0.051726867562566996 0.00082710437796550487 0 -0.051594066208828802 0.00078221677147596793 0 -0.051819343078032432 0.0010393024629252053 0 -0.051589037088591215 0.0010772928023432421 0 -0.051819343078032432 0.0010393024629252053 0 -0.051589037088591215 0.0010772928023432421 0 -0.051715174825222275 0.0011612265055572044 0 -0.051589037088591215 0.0010772928023432421 0 -0.051715174825222275 0.0011612265055572044 0 -0.051501783284496463 0.0011649876750433165 0 -0.052566512513300793 0.00044117756641291576 0 -0.052859821129608783 0.00018203672022803574 0 -0.051715174825222275 0.0011612265055572044 0 -0.051444661678941378 0.0010275477959172973 0 -0.051501783284496463 0.0011649876750433165 0 -0.05349585627532525 -0.00021869019843319857 0 -0.052791252022406775 -0.00064730401364958333 0 -0.05196006374536969 -0.0003684759065391525 0 -0.052791252022406775 -0.00064730401364958333 0 -0.053865749869102246 -0.00070331359161101387 0 -0.052741716298392825 -0.00081719028710233862 0 -0.05349585627532525 -0.00021869019843319857 0 -0.052791252022406775 -0.00064730401364958333 0 -0.053865749869102246 -0.00070331359161101387 0 -0.053881475194052647 -0.00065190228538583865 0 -0.053754887307560076 -0.00062006484726103675 0 -0.05349585627532525 -0.00021869019843319857 0 -0.053865749869102246 -0.00070331359161101387 0 -0.054227370047738144 -0.00063571324134447673 0 -0.053865749869102246 -0.00070331359161101387 0 -0.054227370047738144 -0.00063571324134447673 0 -0.054245369544081996 -0.00057291805697208477 0 -0.051444661678941378 0.0010275477959172973 0 -0.051635882962716956 0.0011086058589336826 0 -0.052019270210450337 0.0004261554150857029 0 -0.051444661678941378 0.0010275477959172973 0 -0.051635882962716956 0.0011086058589336826 0 -0.051501783284496463 0.0011649876750433165 0 -0.052085278367585093 0.0009367336782796766 0 -0.051635882962716956 0.0011086058589336826 0 -0.051595748462895524 0.0011930661745979401 0 -0.052085278367585093 0.0009367336782796766 0 -0.051635882962716956 0.0011086058589336826 0 -0.052019270210450337 0.0004261554150857029 0 -0.051041836805151022 0.0011183948528042118 0 -0.051595748462895524 0.0011930661745979401 0 -0.051395868574116703 0.0011884826560487015 0 -0.051635882962716956 0.0011086058589336826 0 -0.051595748462895524 0.0011930661745979401 0 -0.051395868574116703 0.0011884826560487015 0 -0.051399813783154689 0.0011579049213735211 0 -0.051395868574116703 0.0011884826560487015 0 -0.051501783284496463 0.0011649876750433165 0 -0.051635882962716956 0.0011086058589336826 0 -0.051395868574116703 0.0011884826560487015 0 -0.051501783284496463 0.0011649876750433165 0 -0.047886054670152035 0.00093334429417917181 0 -0.048801614653339667 0.0013346353876646933 0 -0.048544814367536923 0.00047101789996336734 0 -0.048801614653339667 0.0013346353876646933 0 -0.048544814367536923 0.00047101789996336734 0 -0.04917182473370748 0.00096696233979856757 0 -0.049085920105388543 0.0013444221359893522 0 -0.048801614653339667 0.0013346353876646933 0 -0.04917182473370748 0.00096696233979856757 0 -0.048544814367536923 0.00047101789996336734 0 -0.04917182473370748 0.00096696233979856757 0 -0.04939511289451444 -0.00040270214892428361 0 -0.04917182473370748 0.00096696233979856757 0 -0.050271616812521604 0.0005002099227238428 0 -0.04960429254928457 0.0015022566121400648 0 -0.04917182473370748 0.00096696233979856757 0 -0.050271616812521604 0.0005002099227238428 0 -0.04939511289451444 -0.00040270214892428361 0 -0.049085920105388543 0.0013444221359893522 0 -0.04917182473370748 0.00096696233979856757 0 -0.04960429254928457 0.0015022566121400648 0 -0.048880383769859141 0.0012569795317562372 0 -0.048026855076464044 0.0016415073017046478 0 -0.04960429254928457 0.0015022566121400648 0 -0.049969934728074379 0.001382913366490364 0 -0.049610809447381832 0.0014980983828236738 0 -0.051998151017949905 0.0012157361515011246 0 -0.04960429254928457 0.0015022566121400648 0 -0.051726867562566996 0.00082710437796550487 0 -0.050271616812521604 0.0005002099227238428 0 -0.04960429254928457 0.0015022566121400648 0 -0.051726867562566996 0.00082710437796550487 0 -0.050271616812521604 0.0005002099227238428 0 -0.051726867562566996 0.00082710437796550487 0 -0.05196006374536969 -0.0003684759065391525 0 -0.052791252022406775 -0.00064730401364958333 0 -0.05196006374536969 -0.0003684759065391525 0 -0.052713343531961762 -0.00071737040971768973 0 -0.052791252022406775 -0.00064730401364958333 0 -0.052713343531961762 -0.00071737040971768973 0 -0.052741716298392825 -0.00081719028710233862 0 -0.052713343531961762 -0.00071737040971768973 0 -0.053055146579645052 -0.0010231129845612182 0 -0.05339973872967442 -0.00065650460475487088 0 -0.0520010047765012 -0.00039879367503135914 0 -0.051268460038794421 -0.00066624716984241728 0 -0.05196006374536969 -0.0003684759065391525 0 -0.052713343531961762 -0.00071737040971768973 0 -0.053055146579645052 -0.0010231129845612182 0 -0.050271616812521604 0.0005002099227238428 0 -0.05196006374536969 -0.0003684759065391525 0 -0.04939511289451444 -0.00040270214892428361 0 -0.051268460038794421 -0.00066624716984241728 0 -0.051304706938365606 -0.00078740839967149758 0 -0.053055146579645052 -0.0010231129845612182 0 -0.053866778879454839 -0.0010171675504440194 0 -0.05339973872967442 -0.00065650460475487088 0 -0.053866778879454839 -0.0010171675504440194 0 -0.05389835234090537 -0.00059484209845248352 0 -0.05339973872967442 -0.00065650460475487088 0 -0.05419302791468391 -0.00061628187136064324 0 -0.053866778879454839 -0.0010171675504440194 0 -0.05389835234090537 -0.00059484209845248352 0 -0.048544814367536923 0.00047101789996336734 0 -0.04939511289451444 -0.00040270214892428361 0 -0.048495549212508052 -0.00037412411490950773 0 -0.054379296855600681 -0.00021387425348935556 0 -0.054184740274189791 -0.00037264140499510066 0 -0.054421293700287511 -0.00014847751070039083 0 -0.054184740274189791 -0.00037264140499510066 0 -0.053783004701328657 -0.00037547762889209848 0 -0.054421293700287511 -0.00014847751070039083 0 -0.054184740274189791 -0.00037264140499510066 0 -0.05389835234090537 -0.00059484209845248352 0 -0.053783004701328657 -0.00037547762889209848 0 -0.05419302791468391 -0.00061628187136064324 0 -0.054184740274189791 -0.00037264140499510066 0 -0.05389835234090537 -0.00059484209845248352 0 -0.05339973872967442 -0.00065650460475487088 0 -0.053783004701328657 -0.00037547762889209848 0 -0.053001537646971915 -0.00036792698619240831 0 -0.05389835234090537 -0.00059484209845248352 0 -0.05339973872967442 -0.00065650460475487088 0 -0.053783004701328657 -0.00037547762889209848 0 -0.053783004701328657 -0.00037547762889209848 0 -0.053704996887772617 -6.6134719248346778e-06 0 -0.054421293700287511 -0.00014847751070039083 0 -0.053783004701328657 -0.00037547762889209848 0 -0.053001537646971915 -0.00036792698619240831 0 -0.053704996887772617 -6.6134719248346778e-06 0 -0.053985093479829487 -0.00030543643330962513 0 -0.05434644862863227 -4.3699422379662092e-05 0 -0.052713343531961762 -0.00071737040971768973 0 -0.05339973872967442 -0.00065650460475487088 0 -0.053001537646971915 -0.00036792698619240831 0 -0.052713343531961762 -0.00071737040971768973 0 -0.053001537646971915 -0.00036792698619240831 0 -0.052741716298392825 -0.00081719028710233862 0 -0.053985093479829487 -0.00030543643330962513 0 -0.053754887307560076 -0.00062006484726103675 0 -0.054971970606437548 -0.0002186249929132282 0 -0.054683132279576066 -0.00047618350500362554 0 -0.054850875184743436 -9.1307698564328289e-05 0 -0.054971970606437548 -0.0002186249929132282 0 -0.054971941593111591 -5.3353097745618032e-05 0 -0.054850875184743436 -9.1307698564328289e-05 0 -0.055000042056880576 4.7098798524434585e-08 0 -0.054971941593111591 -5.3353097745618032e-05 0 -0.054850875184743436 -9.1307698564328289e-05 0 -0.055000042056880576 4.7098798524434585e-08 0 -0.055010092843381521 -7.119614254207511e-06 0 -0.054971941593111591 -5.3353097745618032e-05 0 -0.055000042056880576 4.7098798524434585e-08 0 -0.055010092843381521 -7.119614254207511e-06 0 -0.054999826804844193 -8.9301204602713095e-08 0 -0.054971970606437548 -0.0002186249929132282 0 -0.054971941593111591 -5.3353097745618032e-05 0 -0.054998643176437392 -8.3182741091419911e-06 0 -0.055010092843381521 -7.119614254207511e-06 0 -0.054971941593111591 -5.3353097745618032e-05 0 -0.054998643176437392 -8.3182741091419911e-06 0 -0.055010092843381521 -7.119614254207511e-06 0 -0.054998643176437392 -8.3182741091419911e-06 0 -0.054784161338131389 7.1070823019708438e-05 0 -0.05434644862863227 -4.3699422379662092e-05 0 -0.054697574076725645 6.3203405449605975e-05 0 -0.055010092843381521 -7.119614254207511e-06 0 -0.054999826804844193 -8.9301204602713095e-08 0 -0.054784161338131389 7.1070823019708438e-05 0 -0.05499952863851193 1.5760095524487098e-07 0 -0.054999826804844193 -8.9301204602713095e-08 0 -0.054784161338131389 7.1070823019708438e-05 0 -0.05487738905565176 9.7739695441491866e-06 0 -0.054784161338131389 7.1070823019708438e-05 0 -0.054421293700287511 -0.00014847751070039083 0 -0.053704996887772617 -6.6134719248346778e-06 0 -0.054784161338131389 7.1070823019708438e-05 0 -0.054421293700287511 -0.00014847751070039083 0 -0.054256154510136961 -0.00052168779695106065 0 -0.054522760963539502 -0.00029180059997044728 0 -0.054585780201289034 -0.00012113192323484218 0 -0.054256154510136961 -0.00052168779695106065 0 -0.054585780201289034 -0.00012113192323484218 0 -0.05381437376128681 -0.00013034114870753358 0 -0.05316212374451626 -7.4654965825318287e-06 0 -0.053684774458908173 -0.00012889122783328415 0 -0.052085278367585093 0.0009367336782796766 0 -0.052019270210450337 0.0004261554150857029 0 -0.053011403791398994 0.00049370933258928863 0 -0.054227370047738144 -0.00063571324134447673 0 -0.054256154510136961 -0.00052168779695106065 0 -0.054245369544081996 -0.00057291805697208477 0 -0.052859821129608783 0.00018203672022803574 0 -0.05316212374451626 -7.4654965825318287e-06 0 -0.054256154510136961 -0.00052168779695106065 0 -0.054245369544081996 -0.00057291805697208477 0 -0.054522760963539502 -0.00029180059997044728 0 -0.054245369544081996 -0.00057291805697208477 0 -0.054683132279576066 -0.00047618350500362554 0 -0.054522760963539502 -0.00029180059997044728 0 -0.053865749869102246 -0.00070331359161101387 0 -0.054245369544081996 -0.00057291805697208477 0 -0.054683132279576066 -0.00047618350500362554 0 -0.054683132279576066 -0.00047618350500362554 0 -0.054522760963539502 -0.00029180059997044728 0 -0.054850875184743436 -9.1307698564328289e-05 0 -0.054522760963539502 -0.00029180059997044728 0 -0.054782769208577567 -6.9622166918873653e-05 0 -0.054585780201289034 -0.00012113192323484218 0 -0.054522760963539502 -0.00029180059997044728 0 -0.054782769208577567 -6.9622166918873653e-05 0 -0.054850875184743436 -9.1307698564328289e-05 0 -0.055000042056880576 4.7098798524434585e-08 0 -0.054850875184743436 -9.1307698564328289e-05 0 -0.054999727109866031 -6.278507869287092e-08 0 -0.054782769208577567 -6.9622166918873653e-05 0 -0.054850875184743436 -9.1307698564328289e-05 0 -0.054999727109866031 -6.278507869287092e-08 0 -0.054782769208577567 -6.9622166918873653e-05 0 -0.054999727109866031 -6.278507869287092e-08 0 -0.054999502232205615 8.6282011451288134e-08 0 -0.054782769208577567 -6.9622166918873653e-05 0 -0.054999502232205615 8.6282011451288134e-08 0 -0.054585780201289034 -0.00012113192323484218 0 -0.054585780201289034 -0.00012113192323484218 0 -0.054523397398361657 -1.5926620804003686e-05 0 -0.05381437376128681 -0.00013034114870753358 0 -0.054999502232205615 8.6282011451288134e-08 0 -0.054523397398361657 -1.5926620804003686e-05 0 -0.054999092575067646 -2.4096912234187801e-08 0 -0.054999502232205615 8.6282011451288134e-08 0 -0.054585780201289034 -0.00012113192323484218 0 -0.054523397398361657 -1.5926620804003686e-05 0 -0.054523397398361657 -1.5926620804003686e-05 0 -0.054999092575067646 -2.4096912234187801e-08 0 -0.054385164318773042 -5.2162851309704466e-05 0 -0.054999092575067646 -2.4096912234187801e-08 0 -0.054385164318773042 -5.2162851309704466e-05 0 -0.054999301223356334 -1.0328059783153393e-07 0 -0.054523397398361657 -1.5926620804003686e-05 0 -0.054385164318773042 -5.2162851309704466e-05 0 -0.05381437376128681 -0.00013034114870753358 0 -0.054767043935026911 -1.3324922580378553e-05 0 -0.054999301223356334 -1.0328059783153393e-07 0 -0.054999699218505442 -1.376366300293914e-08 0 -0.054385164318773042 -5.2162851309704466e-05 0 -0.054767043935026911 -1.3324922580378553e-05 0 -0.054999301223356334 -1.0328059783153393e-07 0 -0.054385164318773042 -5.2162851309704466e-05 0 -0.054767043935026911 -1.3324922580378553e-05 0 -0.054504857718928469 0.00011453620153721547 0 -0.054767043935026911 -1.3324922580378553e-05 0 -0.054504857718928469 0.00011453620153721547 0 -0.054842422001178469 4.9667583448538476e-05 0 -0.054385164318773042 -5.2162851309704466e-05 0 -0.054504857718928469 0.00011453620153721547 0 -0.053829030304983365 0.00017470841911767257 0 -0.054504857718928469 0.00011453620153721547 0 -0.054282333181624856 0.00048783672656020226 0 -0.053829030304983365 0.00017470841911767257 0 -0.054282333181624856 0.00048783672656020226 0 -0.053829030304983365 0.00017470841911767257 0 -0.053210384635193238 0.00072136003062888841 0 -0.05381437376128681 -0.00013034114870753358 0 -0.053829030304983365 0.00017470841911767257 0 -0.053011403791398994 0.00049370933258928863 0 -0.054385164318773042 -5.2162851309704466e-05 0 -0.05381437376128681 -0.00013034114870753358 0 -0.053829030304983365 0.00017470841911767257 0 -0.053829030304983365 0.00017470841911767257 0 -0.053011403791398994 0.00049370933258928863 0 -0.053210384635193238 0.00072136003062888841 0 -0.052019270210450337 0.0004261554150857029 0 -0.05381437376128681 -0.00013034114870753358 0 -0.053011403791398994 0.00049370933258928863 0 -0.052085278367585093 0.0009367336782796766 0 -0.053011403791398994 0.00049370933258928863 0 -0.052334292491655117 0.00099467229934193909 0 -0.052085278367585093 0.0009367336782796766 0 -0.051595748462895524 0.0011930661745979401 0 -0.052334292491655117 0.00099467229934193909 0 -0.051595748462895524 0.0011930661745979401 0 -0.052334292491655117 0.00099467229934193909 0 -0.051590805886182999 0.0013063606372058305 0 -0.051041836805151022 0.0011183948528042118 0 -0.051595748462895524 0.0011930661745979401 0 -0.051590805886182999 0.0013063606372058305 0 -0.051590805886182999 0.0013063606372058305 0 -0.052536389100222819 0.001141705383691105 0 -0.052098817516567524 0.0018622664512989732 0 -0.052334292491655117 0.00099467229934193909 0 -0.051590805886182999 0.0013063606372058305 0 -0.052536389100222819 0.001141705383691105 0 -0.052334292491655117 0.00099467229934193909 0 -0.053210384635193238 0.00072136003062888841 0 -0.052536389100222819 0.001141705383691105 0 -0.053011403791398994 0.00049370933258928863 0 -0.052334292491655117 0.00099467229934193909 0 -0.053210384635193238 0.00072136003062888841 0 -0.053210384635193238 0.00072136003062888841 0 -0.052934266548564757 0.0010544342452126869 0 -0.052536389100222819 0.001141705383691105 0 -0.053186590068945536 0.00073077286560509376 0 -0.053513313303224043 0.0010479273918519603 0 -0.054282333181624856 0.00048783672656020226 0 -0.053210384635193238 0.00072136003062888841 0 -0.054100335050037342 0.0010898664369780897 0 -0.054282333181624856 0.00048783672656020226 0 -0.054100335050037342 0.0010898664369780897 0 -0.054541080595967108 0.00083408503434350962 0 -0.052934266548564757 0.0010544342452126869 0 -0.052913418224149404 0.0017416862887296917 0 -0.053750376137281251 0.0015140391481745798 0 -0.053513313303224043 0.0010479273918519603 0 -0.054103988756100722 0.0014472469487047301 0 -0.052934266548564757 0.0010544342452126869 0 -0.052536389100222819 0.001141705383691105 0 -0.052913418224149404 0.0017416862887296917 0 -0.052536389100222819 0.001141705383691105 0 -0.052098817516567524 0.0018622664512989732 0 -0.052913418224149404 0.0017416862887296917 0 -0.052023950248112301 0.0030487196950709432 0 -0.052443513237908392 0.0029916690036352004 0 -0.052913418224149404 0.0017416862887296917 0 -0.053285001897759393 0.0026764126319194529 0 -0.053552317679993869 0.0020386270212571739 0 -0.051982650595991657 0.0030341847410695669 0 -0.052913418224149404 0.0017416862887296917 0 -0.053285001897759393 0.0026764126319194529 0 -0.051982650595991657 0.0030341847410695669 0 -0.052098817516567524 0.0018622664512989732 0 -0.051429520854077967 0.0022858080192063352 0 -0.051982650595991657 0.0030341847410695669 0 -0.052098817516567524 0.0018622664512989732 0 -0.052913418224149404 0.0017416862887296917 0 -0.051247006763193922 0.0029344455302478599 0 -0.051982650595991657 0.0030341847410695669 0 -0.051429520854077967 0.0022858080192063352 0 -0.051247006763193922 0.0029344455302478599 0 -0.051429520854077967 0.0022858080192063352 0 -0.050847970735465778 0.0028284813873037211 0 -0.048873749636935006 0.0029400001372734681 0 -0.050913935640127785 0.0014480577649056581 0 -0.050225871504131506 0.0012944216863555111 0 -0.05028763877089925 0.0011980976802191119 0 -0.050819940116803151 0.00096954564671792329 0 -0.050252127050519374 0.003352562407043905 0 -0.050847970735465778 0.0028284813873037211 0 -0.050712519747688881 0.002259246564092536 0 -0.050273600284361689 0.00082083835003543787 0 -0.05028763877089925 0.0011980976802191119 0 -0.050819940116803151 0.00096954564671792329 0 -0.050273600284361689 0.00082083835003543787 0 -0.051041836805151022 0.0011183948528042118 0 -0.050819940116803151 0.00096954564671792329 0 -0.051429520854077967 0.0022858080192063352 0 -0.050847970735465778 0.0028284813873037211 0 -0.050712519747688881 0.002259246564092536 0 -0.05135702909739584 0.0013458626097484056 0 -0.050913935640127785 0.0014480577649056581 0 -0.051041836805151022 0.0011183948528042118 0 -0.051590805886182999 0.0013063606372058305 0 -0.050819940116803151 0.00096954564671792329 0 -0.051590805886182999 0.0013063606372058305 0 -0.051429520854077967 0.0022858080192063352 0 -0.050712519747688881 0.002259246564092536 0 -0.051590805886182999 0.0013063606372058305 0 -0.052098817516567524 0.0018622664512989732 0 -0.051429520854077967 0.0022858080192063352 0 -0.054886629393322117 0.001514732536577404 0 -0.055134010280564381 0.0018542031268089739 0 -0.055241431959528867 0.0010816403305607641 0 -0.054886629393322117 0.001514732536577404 0 -0.055134010280564381 0.0018542031268089739 0 -0.054761290820721176 0.0019655324303132836 0 -0.054318053074052242 0.0014025701831624228 0 -0.054232752986823 0.00097641956725476938 0 -0.054509195299528058 0.0011111321128756582 0 -0.052655006262367049 0.0027794895847187738 0 -0.055022769487392605 0.00074794447537841985 0 -0.054318053074052242 0.0014025701831624228 0 -0.053967378830088883 0.0014934893346834849 0 -0.054232752986823 0.00097641956725476938 0 -0.050144910165986226 0.0043480568296794912 0 -0.05026182195894794 0.0041344447785316403 0 -0.049877335441769352 0.0038691864236724536 0 -0.050336058634700323 0.0038943357447316185 0 -0.05026182195894794 0.0041344447785316403 0 -0.050481788556036404 0.0042877341302227021 0 -0.050144910165986226 0.0043480568296794912 0 -0.05026182195894794 0.0041344447785316403 0 -0.050481788556036404 0.0042877341302227021 0 -0.05230365547013275 0.0028382961707658521 0 -0.052655006262367049 0.0027794895847187738 0 -0.055134010280564381 0.0018542031268089739 0 -0.054761290820721176 0.0019655324303132836 0 -0.054234144068418713 0.0022476451911942344 0 -0.052655006262367049 0.0027794895847187738 0 -0.052979060770389837 0.00280526412714629 0 -0.051401716038721908 0.0032771907857394368 0 -0.051382261984632083 0.0034336635181267503 0 -0.051499751332364598 0.0034134157940200931 0 -0.053285001897759393 0.0026764126319194529 0 -0.054234144068418713 0.0022476451911942344 0 -0.053552317679993869 0.0020386270212571739 0 -0.052443513237908392 0.0029916690036352004 0 -0.052979060770389837 0.00280526412714629 0 -0.051553015008063571 0.0033079807056430829 0 -0.051719217468855008 0.0033253908321647483 0 -0.051499751332364598 0.0034134157940200931 0 -0.054234144068418713 0.0022476451911942344 0 -0.053750376137281251 0.0015140391481745798 0 -0.053552317679993869 0.0020386270212571739 0 -0.052913418224149404 0.0017416862887296917 0 -0.053750376137281251 0.0015140391481745798 0 -0.053552317679993869 0.0020386270212571739 0 -0.054750469989106772 0.0019449180219644881 0 -0.054103988756100722 0.0014472469487047301 0 -0.054886629393322117 0.001514732536577404 0 -0.054415010984904096 0.0013208072773754449 0 -0.054860410978444317 0.001227801895337371 0 -0.054886629393322117 0.001514732536577404 0 -0.054761290820721176 0.0019655324303132836 0 -0.054415010984904096 0.0013208072773754449 0 -0.054761290820721176 0.0019655324303132836 0 -0.054234144068418713 0.0022476451911942344 0 -0.053750376137281251 0.0015140391481745798 0 -0.054415010984904096 0.0013208072773754449 0 -0.054677359562078608 0.0010259690051270618 0 -0.054860410978444317 0.001227801895337371 0 -0.054677359562078608 0.0010259690051270618 0 -0.054903724230278415 0.00073458997576203195 0 -0.054860410978444317 0.001227801895337371 0 -0.054415010984904096 0.0013208072773754449 0 -0.054677359562078608 0.0010259690051270618 0 -0.054541080595967108 0.00083408503434350962 0 -0.054100335050037342 0.0010898664369780897 0 -0.054415010984904096 0.0013208072773754449 0 -0.054541080595967108 0.00083408503434350962 0 -0.054677359562078608 0.0010259690051270618 0 -0.054541080595967108 0.00083408503434350962 0 -0.054903724230278415 0.00073458997576203195 0 -0.054541080595967108 0.00083408503434350962 0 -0.054903724230278415 0.00073458997576203195 0 -0.054767223935023673 0.00031708096027081769 0 -0.054903724230278415 0.00073458997576203195 0 -0.054860410978444317 0.001227801895337371 0 -0.055241431959528867 0.0010816403305607641 0 -0.054886629393322117 0.001514732536577404 0 -0.054860410978444317 0.001227801895337371 0 -0.055241431959528867 0.0010816403305607641 0 -0.054232752986823 0.00097641956725476938 0 -0.054683592162460624 0.00067672984342618419 0 -0.054558092016837041 0.00050636526718354704 0 -0.054903724230278415 0.00073458997576203195 0 -0.055241431959528867 0.0010816403305607641 0 -0.05521073248295346 0.00054141453428904773 0 -0.055022769487392605 0.00074794447537841985 0 -0.054826385165048029 0.00062286028340128175 0 -0.055006968779563223 0.00035459290225674754 0 -0.054995505960884816 0.00021079339984781531 0 -0.05521073248295346 0.00054141453428904773 0 -0.054903724230278415 0.00073458997576203195 0 -0.055006968779563223 0.00035459290225674754 0 -0.05521073248295346 0.00054141453428904773 0 -0.054903724230278415 0.00073458997576203195 0 -0.055006968779563223 0.00035459290225674754 0 -0.054767223935023673 0.00031708096027081769 0 -0.055006968779563223 0.00035459290225674754 0 -0.054767223935023673 0.00031708096027081769 0 -0.054983623727329428 0.00013548367519760081 0 -0.055006968779563223 0.00035459290225674754 0 -0.054983623727329428 0.00013548367519760081 0 -0.054995505960884816 0.00021079339984781531 0 -0.054767223935023673 0.00031708096027081769 0 -0.054842422001178469 4.9667583448538476e-05 0 -0.054983623727329428 0.00013548367519760081 0 -0.054282333181624856 0.00048783672656020226 0 -0.054541080595967108 0.00083408503434350962 0 -0.054767223935023673 0.00031708096027081769 0 -0.054504857718928469 0.00011453620153721547 0 -0.054282333181624856 0.00048783672656020226 0 -0.054767223935023673 0.00031708096027081769 0 -0.054504857718928469 0.00011453620153721547 0 -0.054767223935023673 0.00031708096027081769 0 -0.054842422001178469 4.9667583448538476e-05 0 -0.054842422001178469 4.9667583448538476e-05 0 -0.054999881540104642 -9.7022997907455027e-09 0 -0.054983623727329428 0.00013548367519760081 0 -0.054767043935026911 -1.3324922580378553e-05 0 -0.054842422001178469 4.9667583448538476e-05 0 -0.054999699218505442 -1.376366300293914e-08 0 -0.054842422001178469 4.9667583448538476e-05 0 -0.054999881540104642 -9.7022997907455027e-09 0 -0.054999699218505442 -1.376366300293914e-08 0 -0.054999881540104642 -9.7022997907455027e-09 0 -0.054983623727329428 0.00013548367519760081 0 -0.055000012389970356 8.6490640037040983e-08 0 -0.054983623727329428 0.00013548367519760081 0 -0.055000012389970356 8.6490640037040983e-08 0 -0.054999821627230022 8.1731733648861084e-05 0 -0.055000012389970356 8.6490640037040983e-08 0 -0.054999821627230022 8.1731733648861084e-05 0 -0.055000023626641803 4.2280113201876504e-08 0 -0.054983623727329428 0.00013548367519760081 0 -0.054999821627230022 8.1731733648861084e-05 0 -0.054995505960884816 0.00021079339984781531 0 -0.054999821627230022 8.1731733648861084e-05 0 -0.055032290990143479 6.622777661230581e-05 0 -0.054995505960884816 0.00021079339984781531 0 -0.055032290990143479 6.622777661230581e-05 0 -0.05508991364306607 0.00015389969455719646 0 -0.054995505960884816 0.00021079339984781531 0 -0.054999821627230022 8.1731733648861084e-05 0 -0.055032290990143479 6.622777661230581e-05 0 -0.055000023626641803 4.2280113201876504e-08 0 -0.055032290990143479 6.622777661230581e-05 0 -0.055015738295285291 1.2447170589734941e-05 0 -0.055021212187825755 1.3113075975124537e-05 0 -0.055000023626641803 4.2280113201876504e-08 0 -0.055015738295285291 1.2447170589734941e-05 0 -0.055000118228933123 3.2325028983447718e-08 0 -0.055032290990143479 6.622777661230581e-05 0 -0.055000023626641803 4.2280113201876504e-08 0 -0.055015738295285291 1.2447170589734941e-05 0 -0.048699999553673448 -0.0017355937559135062 0 -0.049073462814123801 -0.0010728731263587531 0 -0.050185663220203028 -0.0018988610273223876 0 -0.055000004582093198 4.6315213738017699e-09 0 -0.054994892044396039 -1.1137558176306719e-06 0 -0.054994457146112702 -7.3126840622486256e-06 0 -0.05499660924808672 -7.1638017996180848e-07 0 -0.052896469664796449 -0.00015932535769223898 0 -0.055015738295285291 1.2447170589734941e-05 0 -0.055000118228933123 3.2325028983447718e-08 0 -0.055010941390765219 9.730856045327086e-06 0 -0.053281190004666509 -0.00010669218634898121 0 -0.052896469664796449 -0.00015932535769223898 0 -0.048699999553673448 -0.0017355937559135062 0 -0.049073462814123801 -0.0010728731263587531 0 -0.048837788835791825 -0.0010832463411028861 0 -0.052896469664796449 -0.00015932535769223898 0 -0.05174294265937289 -0.0005468939550089195 0 -0.055032290990143479 6.622777661230581e-05 0 -0.055021212187825755 1.3113075975124537e-05 0 -0.05508991364306607 0.00015389969455719646 0 -0.05174294265937289 -0.0005468939550089195 0 -0.052581446672044715 -0.00079076021443004756 0 -0.049073462814123801 -0.0010728731263587531 0 -0.048837788835791825 -0.0010832463411028861 0 -0.048613428216277142 -0.0013498869183110414 0 -0.048837788835791825 -0.0010832463411028861 0 -0.048613428216277142 -0.0013498869183110414 0 -0.048946236773491594 -0.0015325947592617491 0 -0.048613428216277142 -0.0013498869183110414 0 -0.048946236773491594 -0.0015325947592617491 0 -0.048643022341414835 -0.0017968658580828345 0 -0.055077123267815553 0.00039883499945179952 0 -0.054857533416729748 0.00046602339407589174 0 -0.054995505960884816 0.00021079339984781531 0 -0.054997553534227375 0.00022432823659703587 0 -0.054826385165048029 0.00062286028340128175 0 -0.054857533416729748 0.00046602339407589174 0 -0.054995505960884816 0.00021079339984781531 0 -0.054558092016837041 0.00050636526718354704 0 -0.05508991364306607 0.00015389969455719646 0 -0.055077123267815553 0.00039883499945179952 0 -0.054995505960884816 0.00021079339984781531 0 -0.053498460911276996 -0.00043722413353740151 0 -0.052621447912610822 -0.0015160880587114269 0 -0.054324732377212658 -4.0942139399932104e-05 0 -0.052943815690487117 -0.0006187165495864529 0 -0.051925765225280557 -0.00081535887501885335 0 -0.053681887151071896 0.00015007356942803264 0 -0.053852478393806046 -0.00069946084324069163 0 -0.054243008881183739 -0.00017110850852132829 0 -0.053498460911276996 -0.00043722413353740151 0 -0.053681887151071896 0.00015007356942803264 0 -0.053892480188163831 -0.00016072013525672289 0 -0.053498460911276996 -0.00043722413353740151 0 -0.052943815690487117 -0.0006187165495864529 0 -0.053681887151071896 0.00015007356942803264 0 -0.053498460911276996 -0.00043722413353740151 0 -0.052943815690487117 -0.0006187165495864529 0 -0.052621447912610822 -0.0015160880587114269 0 -0.054766573933795373 6.1721912119630951e-05 0 -0.054915748212639233 4.5844481593754815e-05 0 -0.055054059637215505 -4.0646117014830175e-05 0 -0.054766573933795373 6.1721912119630951e-05 0 -0.055054059637215505 -4.0646117014830175e-05 0 -0.054324732377212658 -4.0942139399932104e-05 0 -0.054915748212639233 4.5844481593754815e-05 0 -0.055000246097848406 2.8587745572218285e-08 0 -0.054998741931016885 1.409593891803637e-07 0 -0.054766573933795373 6.1721912119630951e-05 0 -0.054915748212639233 4.5844481593754815e-05 0 -0.054998741931016885 1.409593891803637e-07 0 -0.054915748212639233 4.5844481593754815e-05 0 -0.055054059637215505 -4.0646117014830175e-05 0 -0.055000246097848406 2.8587745572218285e-08 0 -0.055054059637215505 -4.0646117014830175e-05 0 -0.055000246097848406 2.8587745572218285e-08 0 -0.054994457146112702 -7.3126840622486256e-06 0 -0.052621447912610822 -0.0015160880587114269 0 -0.051925765225280557 -0.00081535887501885335 0 -0.051192502185610639 -0.0010770331457331788 0 -0.052943815690487117 -0.0006187165495864529 0 -0.052621447912610822 -0.0015160880587114269 0 -0.051925765225280557 -0.00081535887501885335 0 -0.050414219886345507 -0.00090493673838278152 0 -0.051192502185610639 -0.0010770331457331788 0 -0.050945167025468939 -0.00034359814198456568 0 -0.051925765225280557 -0.00081535887501885335 0 -0.051192502185610639 -0.0010770331457331788 0 -0.050945167025468939 -0.00034359814198456568 0 -0.050414219886345507 -0.00090493673838278152 0 -0.051192502185610639 -0.0010770331457331788 0 -0.050185663220203028 -0.0018988610273223876 0 -0.053852478393806046 -0.00069946084324069163 0 -0.052368221804593842 -0.0010628564232049416 0 -0.055000246097848406 2.8587745572218285e-08 0 -0.054994457146112702 -7.3126840622486256e-06 0 -0.054999914229876129 -2.3836553520095653e-08 0 -0.052621447912610822 -0.0015160880587114269 0 -0.051192502185610639 -0.0010770331457331788 0 -0.050185663220203028 -0.0018988610273223876 0 -0.055000004582093198 4.6315213738017699e-09 0 -0.054994457146112702 -7.3126840622486256e-06 0 -0.054999914229876129 -2.3836553520095653e-08 0 -0.052896469664796449 -0.00015932535769223898 0 -0.052368221804593842 -0.0010628564232049416 0 -0.049073462814123801 -0.0010728731263587531 0 -0.050414219886345507 -0.00090493673838278152 0 -0.050185663220203028 -0.0018988610273223876 0 -0.049073462814123801 -0.0010728731263587531 0 -0.050414219886345507 -0.00090493673838278152 0 -0.050749788177506472 -0.00034899691542712816 0 -0.049073462814123801 -0.0010728731263587531 0 -0.048613428216277142 -0.0013498869183110414 0 -0.04823934985031509 -0.0011799919934802556 0 -0.049072108910990293 -0.0010876471122614488 0 -0.04943771806056986 -0.00084655376977430224 0 -0.048613428216277142 -0.0013498869183110414 0 -0.048070285005371735 -0.0015382141891810898 0 -0.048232027368141778 -0.0018392888554844614 0 -0.048613428216277142 -0.0013498869183110414 0 -0.048070285005371735 -0.0015382141891810898 0 -0.04823934985031509 -0.0011799919934802556 0 -0.04943771806056986 -0.00084655376977430224 0 -0.049077977069145767 -0.00148707172127672 0 -0.048070285005371735 -0.0015382141891810898 0 -0.04823934985031509 -0.0011799919934802556 0 -0.047607123463225827 -0.0014919111291597357 0 -0.050414219886345507 -0.00090493673838278152 0 -0.050749788177506472 -0.00034899691542712816 0 -0.050945167025468939 -0.00034359814198456568 0 -0.050749788177506472 -0.00034899691542712816 0 -0.050945167025468939 -0.00034359814198456568 0 -0.050657600725101677 -0.0014419468020719366 0 -0.050994795161818818 -0.00032906879042229051 0 -0.051604033236688399 -0.00034702551685852109 0 -0.050945167025468939 -0.00034359814198456568 0 -0.050657600725101677 -0.0014419468020719366 0 -0.049622142968070306 -0.00070229387853987355 0 -0.051925765225280557 -0.00081535887501885335 0 -0.050945167025468939 -0.00034359814198456568 0 -0.053681887151071896 0.00015007356942803264 0 -0.049691039502894101 -0.0016728238078494765 0 -0.049622142968070306 -0.00070229387853987355 0 -0.048906643296185305 -0.0015723601515620729 0 -0.050657600725101677 -0.0014419468020719366 0 -0.049691039502894101 -0.0016728238078494765 0 -0.049622142968070306 -0.00070229387853987355 0 -0.048547360924215736 -0.0022394250988319177 0 -0.046999749176068167 -0.0028504175595521139 0 -0.046988985380848156 -0.002333851172392455 0 -0.047086163253244627 -0.0018981187551309082 0 -0.046627412374814194 -0.0023181765141237144 0 -0.046988985380848156 -0.002333851172392455 0 -0.047086163253244627 -0.0018981187551309082 0 -0.047222199628658562 -0.0021536419774791419 0 -0.046988985380848156 -0.002333851172392455 0 -0.047222199628658562 -0.0021536419774791419 0 -0.047186675504584753 -0.0023377139248699262 0 -0.049691039502894101 -0.0016728238078494765 0 -0.049799448040605231 -0.0026312627856593033 0 -0.048852486007223722 -0.0023892973056438695 0 -0.049077977069145767 -0.00148707172127672 0 -0.048547360924215736 -0.0022394250988319177 0 -0.050657600725101677 -0.0014419468020719366 0 -0.049691039502894101 -0.0016728238078494765 0 -0.049799448040605231 -0.0026312627856593033 0 -0.047607123463225827 -0.0014919111291597357 0 -0.047086163253244627 -0.0018981187551309082 0 -0.047635604701209408 -0.0019458765959057842 0 -0.047086163253244627 -0.0018981187551309082 0 -0.047222199628658562 -0.0021536419774791419 0 -0.047635604701209408 -0.0019458765959057842 0 -0.047222199628658562 -0.0021536419774791419 0 -0.04741943031357574 -0.002285084245857473 0 -0.047635604701209408 -0.0019458765959057842 0 -0.047222199628658562 -0.0021536419774791419 0 -0.047186675504584753 -0.0023377139248699262 0 -0.04741943031357574 -0.002285084245857473 0 -0.04741943031357574 -0.002285084245857473 0 -0.047635604701209408 -0.0019458765959057842 0 -0.04778985546754054 -0.0024258035342596684 0 -0.047635604701209408 -0.0019458765959057842 0 -0.048232027368141778 -0.0018392888554844614 0 -0.04778985546754054 -0.0024258035342596684 0 -0.048070285005371735 -0.0015382141891810898 0 -0.047635604701209408 -0.0019458765959057842 0 -0.048232027368141778 -0.0018392888554844614 0 -0.048070285005371735 -0.0015382141891810898 0 -0.047607123463225827 -0.0014919111291597357 0 -0.047635604701209408 -0.0019458765959057842 0 -0.048232027368141778 -0.0018392888554844614 0 -0.04778985546754054 -0.0024258035342596684 0 -0.048416232325618015 -0.0022406058335457703 0 -0.042934224837019766 -0.0010337312958559062 0 -0.041972217254095473 -0.0011306858275719567 0 -0.037294841881282015 -9.1730639943660771e-05 0 -0.037102937240774278 0.00025621974985200874 0 -0.037698217899090648 0.00041242080220232376 0 -0.037294841881282015 -9.1730639943660771e-05 0 -0.03697319712550786 -0.00015077809400932876 0 -0.037102937240774278 0.00025621974985200874 0 -0.03697319712550786 -0.00015077809400932876 0 -0.037102937240774278 0.00025621974985200874 0 -0.036707114975140565 1.306882185154757e-05 0 -0.037102937240774278 0.00025621974985200874 0 -0.036707114975140565 1.306882185154757e-05 0 -0.036526524919532941 0.00010932250974603075 0 -0.04741943031357574 -0.002285084245857473 0 -0.04778985546754054 -0.0024258035342596684 0 -0.047115738568286561 -0.0025770130562440645 0 -0.042934224837019766 -0.0010337312958559062 0 -0.040649231716454931 -0.0011280053696051324 0 -0.047186675504584753 -0.0023377139248699262 0 -0.04741943031357574 -0.002285084245857473 0 -0.047115738568286561 -0.0025770130562440645 0 -0.036128786176174578 0.00061616447228994738 0 -0.040649231716454931 -0.0011280053696051324 0 -0.036707114975140565 1.306882185154757e-05 0 -0.036411789937433096 -0.00021273597980499864 0 -0.036506448489527311 0.00011787788353480284 0 -0.03697319712550786 -0.00015077809400932876 0 -0.036707114975140565 1.306882185154757e-05 0 -0.036657480724570861 -0.00026269617918350238 0 -0.036707114975140565 1.306882185154757e-05 0 -0.036657480724570861 -0.00026269617918350238 0 -0.036411789937433096 -0.00021273597980499864 0 -0.036411789937433096 -0.00021273597980499864 0 -0.036506448489527311 0.00011787788353480284 0 -0.036159573699309118 4.1293852205933967e-05 0 -0.036411789937433096 -0.00021273597980499864 0 -0.036141624277743471 -0.00039345793622722291 0 -0.036159573699309118 4.1293852205933967e-05 0 -0.045346420172917623 -0.0025845757052084654 0 -0.042228910407790629 -0.0023446891639626872 0 -0.040649231716454931 -0.0011280053696051324 0 -0.042228910407790629 -0.0023446891639626872 0 -0.042136628763299551 -0.0018585543543046834 0 -0.042712686659311681 -0.0021755295065599995 0 -0.043125874556593224 -0.001679297212259152 0 -0.046988985380848156 -0.002333851172392455 0 -0.047115738568286561 -0.0025770130562440645 0 -0.046878062418678083 -0.0024522036227586745 0 -0.040649231716454931 -0.0011280053696051324 0 -0.045346420172917623 -0.0025845757052084654 0 -0.046988985380848156 -0.002333851172392455 0 -0.047186675504584753 -0.0023377139248699262 0 -0.047115738568286561 -0.0025770130562440645 0 -0.046229179816556228 -0.0020910084683758035 0 -0.045346420172917623 -0.0025845757052084654 0 -0.046988985380848156 -0.002333851172392455 0 -0.046884221663284743 -0.0024587300350750402 0 -0.046627412374814194 -0.0023181765141237144 0 -0.054799299324045266 0.00078459129415220364 0 -0.05495752716364715 0.0009349663619166508 0 -0.054899351275907893 0.0006230531981256971 0 -0.048131983730875412 0.00017904675087271273 0 -0.056455930614760369 0.0013327904154133657 0 -0.054799299324045266 0.00078459129415220364 0 -0.05495752716364715 0.0009349663619166508 0 -0.054662515443871913 0.000913606103556112 0 -0.038331874744097369 0.00054271570087310677 0 -0.037995809398471768 0.00030613395022634384 0 -0.038194444112782736 0.00032570423112804163 0 -0.054629811989434361 0.00098927295857663064 0 -0.054655360110885863 0.00098401547349720084 0 -0.054601233259150547 0.0010014851325816096 0 -0.054629811989434361 0.00098927295857663064 0 -0.054655360110885863 0.00098401547349720084 0 -0.054662515443871913 0.000913606103556112 0 -0.054655360110885863 0.00098401547349720084 0 -0.054662515443871913 0.000913606103556112 0 -0.054509195299528058 0.0011111321128756582 0 -0.054232752986823 0.00097641956725476938 0 -0.054662515443871913 0.000913606103556112 0 -0.054509195299528058 0.0011111321128756582 0 -0.054232752986823 0.00097641956725476938 0 -0.054662515443871913 0.000913606103556112 0 -0.054683592162460624 0.00067672984342618419 0 -0.054799299324045266 0.00078459129415220364 0 -0.054662515443871913 0.000913606103556112 0 -0.054683592162460624 0.00067672984342618419 0 -0.054799299324045266 0.00078459129415220364 0 -0.054683592162460624 0.00067672984342618419 0 -0.054899351275907893 0.0006230531981256971 0 -0.054857533416729748 0.00046602339407589174 0 -0.054683592162460624 0.00067672984342618419 0 -0.054558092016837041 0.00050636526718354704 0 -0.054857533416729748 0.00046602339407589174 0 -0.054683592162460624 0.00067672984342618419 0 -0.054899351275907893 0.0006230531981256971 0 -0.055077123267815553 0.00039883499945179952 0 -0.054857533416729748 0.00046602339407589174 0 -0.054899351275907893 0.0006230531981256971 0 -0.055077123267815553 0.00039883499945179952 0 -0.05495752716364715 0.0009349663619166508 0 -0.054899351275907893 0.0006230531981256971 0 -0.052581446672044715 -0.00079076021443004756 0 -0.048131983730875412 0.00017904675087271273 0 -0.048946236773491594 -0.0015325947592617491 0 -0.049005567516103639 -0.0020710364474392836 0 -0.048643022341414835 -0.0017968658580828345 0 -0.048613428216277142 -0.0013498869183110414 0 -0.048232027368141778 -0.0018392888554844614 0 -0.048643022341414835 -0.0017968658580828345 0 -0.048232027368141778 -0.0018392888554844614 0 -0.048643022341414835 -0.0017968658580828345 0 -0.048416232325618015 -0.0022406058335457703 0 -0.049005567516103639 -0.0020710364474392836 0 -0.048643022341414835 -0.0017968658580828345 0 -0.048416232325618015 -0.0022406058335457703 0 -0.038331874744097369 0.00054271570087310677 0 -0.037698217899090648 0.00041242080220232376 0 -0.037995809398471768 0.00030613395022634384 0 -0.048131983730875412 0.00017904675087271273 0 -0.041972217254095473 -0.0011306858275719567 0 -0.037995809398471768 0.00030613395022634384 0 -0.038146327299177385 0.0002251080637384735 0 -0.038194444112782736 0.00032570423112804163 0 -0.037995809398471768 0.00030613395022634384 0 -0.037709404594788699 -7.825864778134756e-06 0 -0.038089072437810484 4.802920615618221e-05 0 -0.037698217899090648 0.00041242080220232376 0 -0.037995809398471768 0.00030613395022634384 0 -0.037709404594788699 -7.825864778134756e-06 0 -0.037995809398471768 0.00030613395022634384 0 -0.038089072437810484 4.802920615618221e-05 0 -0.038146327299177385 0.0002251080637384735 0 -0.037294841881282015 -9.1730639943660771e-05 0 -0.037698217899090648 0.00041242080220232376 0 -0.037709404594788699 -7.825864778134756e-06 0 -0.037294841881282015 -9.1730639943660771e-05 0 -0.037709404594788699 -7.825864778134756e-06 0 -0.037446284413103978 -0.00036773276915270573 0 -0.037709404594788699 -7.825864778134756e-06 0 -0.037831115929693702 -0.00033349015373267029 0 -0.037446284413103978 -0.00036773276915270573 0 -0.037709404594788699 -7.825864778134756e-06 0 -0.038089072437810484 4.802920615618221e-05 0 -0.037831115929693702 -0.00033349015373267029 0 -0.038089072437810484 4.802920615618221e-05 0 -0.038351072253046396 -0.00032839759962141515 0 -0.037831115929693702 -0.00033349015373267029 0 -0.038089072437810484 4.802920615618221e-05 0 -0.038320216171555434 0.00021687670764927893 0 -0.038351072253046396 -0.00032839759962141515 0 -0.045731616240926455 0.00064780070117571441 0 -0.041221938707633271 0.00063576247936445297 0 -0.038089072437810484 4.802920615618221e-05 0 -0.038146327299177385 0.0002251080637384735 0 -0.038320216171555434 0.00021687670764927893 0 -0.048131983730875412 0.00017904675087271273 0 -0.045731616240926455 0.00064780070117571441 0 -0.038331874744097369 0.00054271570087310677 0 -0.038320216171555434 0.00021687670764927893 0 -0.038194444112782736 0.00032570423112804163 0 -0.038146327299177385 0.0002251080637384735 0 -0.038320216171555434 0.00021687670764927893 0 -0.038194444112782736 0.00032570423112804163 0 -0.05230365547013275 0.0028382961707658521 0 -0.051113445913101511 0.0022482259430838072 0 -0.054318053074052242 0.0014025701831624228 0 -0.054509195299528058 0.0011111321128756582 0 -0.054629352780910197 0.0013054108009505235 0 -0.054655360110885863 0.00098401547349720084 0 -0.054601233259150547 0.0010014851325816096 0 -0.054582864707590877 0.001013101546187001 0 -0.054457552027491495 0.00047594898231645769 0 -0.051113445913101511 0.0022482259430838072 0 -0.054655360110885863 0.00098401547349720084 0 -0.054509195299528058 0.0011111321128756582 0 -0.054629352780910197 0.0013054108009505235 0 -0.045731616240926455 0.00064780070117571441 0 -0.051113445913101511 0.0022482259430838072 0 -0.045251514311175911 0.0012134031680307179 0 -0.0451906016411662 0.0013490208418277855 0 -0.04517141463409368 0.0013534983327700382 0 -0.051113445913101511 0.0022482259430838072 0 -0.046968876763205193 0.0027572504211820759 0 -0.050144910165986226 0.0043480568296794912 0 -0.04982595121668925 0.0044037525023447347 0 -0.049877335441769352 0.0038691864236724536 0 -0.045302528814157042 0.0011986715342468619 0 -0.045251514311175911 0.0012134031680307179 0 -0.0451906016411662 0.0013490208418277855 0 -0.0451906016411662 0.0013490208418277855 0 -0.04517141463409368 0.0013534983327700382 0 -0.045074291160864963 0.0013385088642642552 0 -0.038351072253046396 -0.00032839759962141515 0 -0.03804255156948546 -0.00072228353875172769 0 -0.037831115929693702 -0.00033349015373267029 0 -0.038351072253046396 -0.00032839759962141515 0 -0.03804255156948546 -0.00072228353875172769 0 -0.038522455571639892 -0.00097828301063811077 0 -0.041221938707633271 0.00063576247936445297 0 -0.041690721852653628 1.7736360701660425e-05 0 -0.046968876763205193 0.0027572504211820759 0 -0.048093240669030098 0.0024460122620272038 0 -0.04517141463409368 0.0013534983327700382 0 -0.045074291160864963 0.0013385088642642552 0 -0.045079235598751703 0.0013358389537641284 0 -0.03804255156948546 -0.00072228353875172769 0 -0.038522455571639892 -0.00097828301063811077 0 -0.038180077630015886 -0.0010195949081994286 0 -0.044946254386647212 0.0011467215823481047 0 -0.045074291160864963 0.0013385088642642552 0 -0.045079235598751703 0.0013358389537641284 0 -0.038522455571639892 -0.00097828301063811077 0 -0.038355066585870318 -0.0011130287080413175 0 -0.038422885857229382 -0.0013552601419781372 0 -0.038522455571639892 -0.00097828301063811077 0 -0.038355066585870318 -0.0011130287080413175 0 -0.038180077630015886 -0.0010195949081994286 0 -0.03804255156948546 -0.00072228353875172769 0 -0.038180077630015886 -0.0010195949081994286 0 -0.037758792425580862 -0.0010310732702161834 0 -0.038355066585870318 -0.0011130287080413175 0 -0.038104311771840108 -0.0013527495193485966 0 -0.038115453988271188 -0.0018030267409634012 0 -0.038180077630015886 -0.0010195949081994286 0 -0.037758792425580862 -0.0010310732702161834 0 -0.038104311771840108 -0.0013527495193485966 0 -0.037758792425580862 -0.0010310732702161834 0 -0.037753052732149052 -0.0014000035745237521 0 -0.038104311771840108 -0.0013527495193485966 0 -0.038355066585870318 -0.0011130287080413175 0 -0.038180077630015886 -0.0010195949081994286 0 -0.038104311771840108 -0.0013527495193485966 0 -0.038104311771840108 -0.0013527495193485966 0 -0.038007387429695443 -0.0015730273017394642 0 -0.038115453988271188 -0.0018030267409634012 0 -0.0388039837917835 -0.00083260651157246002 0 -0.034542736515469623 -0.0011133735538375871 0 -0.037753052732149052 -0.0014000035745237521 0 -0.038104311771840108 -0.0013527495193485966 0 -0.038007387429695443 -0.0015730273017394642 0 -0.037753052732149052 -0.0014000035745237521 0 -0.038033729909617682 -0.0017776755649633982 0 -0.037480374827659847 -0.0016846911584177616 0 -0.037753052732149052 -0.0014000035745237521 0 -0.038007387429695443 -0.0015730273017394642 0 -0.038033729909617682 -0.0017776755649633982 0 -0.038007387429695443 -0.0015730273017394642 0 -0.038033729909617682 -0.0017776755649633982 0 -0.038115453988271188 -0.0018030267409634012 0 -0.038033729909617682 -0.0017776755649633982 0 -0.038305287832756434 -0.0018810932448627166 0 -0.037198237671642202 -0.0021717146523954631 0 -0.035692875012625455 -0.0015241105726960615 0 -0.034542736515469623 -0.0011133735538375871 0 -0.038355066585870318 -0.0011130287080413175 0 -0.038141418375358942 -0.0013999247252207698 0 -0.038422885857229382 -0.0013552601419781372 0 -0.038685744376127547 -0.0016113207358758473 0 -0.038141418375358942 -0.0013999247252207698 0 -0.038422885857229382 -0.0013552601419781372 0 -0.038652845868322211 -0.0014974445775177894 0 -0.038522455571639892 -0.00097828301063811077 0 -0.038422885857229382 -0.0013552601419781372 0 -0.038169343771855734 4.1500268417348324e-05 0 -0.034542736515469623 -0.0011133735538375871 0 -0.037094397970027559 -0.001434738238980209 0 -0.037107476187741406 -0.0010534961054489464 0 -0.036854023712067176 -0.0011811392923171086 0 -0.036555625224547396 -0.0018054466787878263 0 -0.036840708156107987 -0.001409002975578963 0 -0.037094397970027559 -0.001434738238980209 0 -0.03709277455682828 -0.001238673459199012 0 -0.037107476187741406 -0.0010534961054489464 0 -0.035304114926259858 -0.0024492877911602819 0 -0.037198237671642202 -0.0021717146523954631 0 -0.03709277455682828 -0.001238673459199012 0 -0.038033729909617682 -0.0017776755649633982 0 -0.037198237671642202 -0.0021717146523954631 0 -0.037480374827659847 -0.0016846911584177616 0 -0.037753052732149052 -0.0014000035745237521 0 -0.037480374827659847 -0.0016846911584177616 0 -0.03709277455682828 -0.001238673459199012 0 -0.037198237671642202 -0.0021717146523954631 0 -0.037480374827659847 -0.0016846911584177616 0 -0.03709277455682828 -0.001238673459199012 0 -0.037758792425580862 -0.0010310732702161834 0 -0.03709277455682828 -0.001238673459199012 0 -0.037435303550931408 -0.00076714515218743334 0 -0.037758792425580862 -0.0010310732702161834 0 -0.037753052732149052 -0.0014000035745237521 0 -0.03709277455682828 -0.001238673459199012 0 -0.03709277455682828 -0.001238673459199012 0 -0.037107476187741406 -0.0010534961054489464 0 -0.037435303550931408 -0.00076714515218743334 0 -0.037107476187741406 -0.0010534961054489464 0 -0.037435303550931408 -0.00076714515218743334 0 -0.036982153325164191 -0.00066077025408612018 0 -0.03804255156948546 -0.00072228353875172769 0 -0.037435303550931408 -0.00076714515218743334 0 -0.037831115929693702 -0.00033349015373267029 0 -0.03804255156948546 -0.00072228353875172769 0 -0.037758792425580862 -0.0010310732702161834 0 -0.037435303550931408 -0.00076714515218743334 0 -0.037435303550931408 -0.00076714515218743334 0 -0.037831115929693702 -0.00033349015373267029 0 -0.037446284413103978 -0.00036773276915270573 0 -0.037435303550931408 -0.00076714515218743334 0 -0.037446284413103978 -0.00036773276915270573 0 -0.036982153325164191 -0.00066077025408612018 0 -0.037294841881282015 -9.1730639943660771e-05 0 -0.03697319712550786 -0.00015077809400932876 0 -0.037196120943519088 -0.00062882628488252813 0 -0.037294841881282015 -9.1730639943660771e-05 0 -0.037446284413103978 -0.00036773276915270573 0 -0.036982153325164191 -0.00066077025408612018 0 -0.0372642380097091 -0.00013283928396543888 0 -0.037097860611786354 -0.00064193998784982961 0 -0.03697319712550786 -0.00015077809400932876 0 -0.036782903764032572 -0.00048212862904753397 0 -0.037196120943519088 -0.00062882628488252813 0 -0.03697319712550786 -0.00015077809400932876 0 -0.036657480724570861 -0.00026269617918350238 0 -0.036782903764032572 -0.00048212862904753397 0 -0.037196120943519088 -0.00062882628488252813 0 -0.036687897059661509 -0.00089755434545933969 0 -0.037042352363291044 -0.0011504406490867997 0 -0.036782903764032572 -0.00048212862904753397 0 -0.037196120943519088 -0.00062882628488252813 0 -0.036687897059661509 -0.00089755434545933969 0 -0.037097860611786354 -0.00064193998784982961 0 -0.036947924951722735 -0.0011638515985970554 0 -0.036411789937433096 -0.00021273597980499864 0 -0.036411705248724467 -0.00056829431061783159 0 -0.036141624277743471 -0.00039345793622722291 0 -0.036411705248724467 -0.00056829431061783159 0 -0.036065475582232318 -0.00070005842453438165 0 -0.036141624277743471 -0.00039345793622722291 0 -0.036657480724570861 -0.00026269617918350238 0 -0.036411789937433096 -0.00021273597980499864 0 -0.036411705248724467 -0.00056829431061783159 0 -0.036657480724570861 -0.00026269617918350238 0 -0.036782903764032572 -0.00048212862904753397 0 -0.036411705248724467 -0.00056829431061783159 0 -0.036411705248724467 -0.00056829431061783159 0 -0.036687897059661509 -0.00089755434545933969 0 -0.036210731989465443 -0.00099768380755020495 0 -0.036782903764032572 -0.00048212862904753397 0 -0.036411705248724467 -0.00056829431061783159 0 -0.036687897059661509 -0.00089755434545933969 0 -0.036411705248724467 -0.00056829431061783159 0 -0.036210731989465443 -0.00099768380755020495 0 -0.036065475582232318 -0.00070005842453438165 0 -0.036210731989465443 -0.00099768380755020495 0 -0.03620685195508741 -0.0012836311243969961 0 -0.035925549658734367 -0.0013278909611618814 0 -0.036210731989465443 -0.00099768380755020495 0 -0.036448284107582087 -0.0012034671873394781 0 -0.03620685195508741 -0.0012836311243969961 0 -0.036687897059661509 -0.00089755434545933969 0 -0.036210731989465443 -0.00099768380755020495 0 -0.036448284107582087 -0.0012034671873394781 0 -0.036687897059661509 -0.00089755434545933969 0 -0.036448284107582087 -0.0012034671873394781 0 -0.036743432800012868 -0.0012420494947940868 0 -0.036448284107582087 -0.0012034671873394781 0 -0.036535778162745898 -0.0014067683328086666 0 -0.036743432800012868 -0.0012420494947940868 0 -0.036535778162745898 -0.0014067683328086666 0 -0.036306085597578246 -0.0014378286690111251 0 -0.036373235221071325 -0.0015654100553060975 0 -0.036448284107582087 -0.0012034671873394781 0 -0.036535778162745898 -0.0014067683328086666 0 -0.036306085597578246 -0.0014378286690111251 0 -0.036448284107582087 -0.0012034671873394781 0 -0.036306085597578246 -0.0014378286690111251 0 -0.03620685195508741 -0.0012836311243969961 0 -0.036306085597578246 -0.0014378286690111251 0 -0.036102430752922271 -0.0015003357451857664 0 -0.036178284904418573 -0.0015909095005703852 0 -0.036306085597578246 -0.0014378286690111251 0 -0.036102430752922271 -0.0015003357451857664 0 -0.03620685195508741 -0.0012836311243969961 0 -0.037107476187741406 -0.0010534961054489464 0 -0.036982153325164191 -0.00066077025408612018 0 -0.036854023712067176 -0.0011811392923171086 0 -0.036687897059661509 -0.00089755434545933969 0 -0.037042352363291044 -0.0011504406490867997 0 -0.036743432800012868 -0.0012420494947940868 0 -0.036743432800012868 -0.0012420494947940868 0 -0.036839353904818919 -0.0015810970643282034 0 -0.036684259368514938 -0.0014870091207722026 0 -0.037042352363291044 -0.0011504406490867997 0 -0.036743432800012868 -0.0012420494947940868 0 -0.036839353904818919 -0.0015810970643282034 0 -0.036535778162745898 -0.0014067683328086666 0 -0.036743432800012868 -0.0012420494947940868 0 -0.036684259368514938 -0.0014870091207722026 0 -0.037094397970027559 -0.001434738238980209 0 -0.036854023712067176 -0.0011811392923171086 0 -0.036839353904818919 -0.0015810970643282034 0 -0.036947924951722735 -0.0011638515985970554 0 -0.036853036993415161 -0.0015495817277852127 0 -0.037094397970027559 -0.001434738238980209 0 -0.036839353904818919 -0.0015810970643282034 0 -0.036955987956472383 -0.001678789746404945 0 -0.036839353904818919 -0.0015810970643282034 0 -0.036648634325814389 -0.0017350132961998037 0 -0.036955987956472383 -0.001678789746404945 0 -0.035575446697328837 -0.0018042104610310379 0 -0.031316483997200772 -0.0021613308912777681 0 -0.036684259368514938 -0.0014870091207722026 0 -0.036687424967595625 -0.0016015739134347896 0 -0.036550356470439631 -0.0016001656695279899 0 -0.036839353904818919 -0.0015810970643282034 0 -0.036684259368514938 -0.0014870091207722026 0 -0.036687424967595625 -0.0016015739134347896 0 -0.036687424967595625 -0.0016015739134347896 0 -0.036648634325814389 -0.0017350132961998037 0 -0.036550356470439631 -0.0016001656695279899 0 -0.036839353904818919 -0.0015810970643282034 0 -0.036687424967595625 -0.0016015739134347896 0 -0.036648634325814389 -0.0017350132961998037 0 -0.026515840299542914 -0.0042064940130021036 0 -0.026932575953105393 -0.0037700130292234557 0 -0.025908864728747122 -0.0035603682380132072 0 -0.033483733074602527 -0.0019735542723068014 0 -0.033534492864088661 -0.0016258202594655287 0 -0.030418596378238381 -0.0015091091699817758 0 -0.026515840299542914 -0.0042064940130021036 0 -0.025504683416560037 -0.0041487206549335846 0 -0.025908864728747122 -0.0035603682380132072 0 -0.030239444681931894 -0.002952422043483823 0 -0.027108628490779801 -0.0024452960201579591 0 -0.033483733074602527 -0.0019735542723068014 0 -0.030160756677637447 -0.0018761535800449814 0 -0.030418596378238381 -0.0015091091699817758 0 -0.023360012176283983 -0.0022428863589014181 0 -0.022501059897683685 -0.00091699599089869544 0 -0.020945443348641506 -0.0032694826705437618 0 -0.027108628490779801 -0.0024452960201579591 0 -0.021863831507273633 -0.0041336747923817136 0 -0.0232014454318939 -0.00045175930371599635 0 -0.022894861659525544 -0.00089541320493636753 0 -0.025015372994307429 -0.00096221458355416265 0 -0.031316483997200772 -0.0021613308912777681 0 -0.027108628490779801 -0.0024452960201579591 0 -0.033483733074602527 -0.0019735542723068014 0 -0.036078765908856218 -0.0018039436766961953 0 -0.036014626068438048 -0.0016237011861017826 0 -0.036078765908856218 -0.0018039436766961953 0 -0.036014626068438048 -0.0016237011861017826 0 -0.035971007693771921 -0.0017353551951993736 0 -0.036078765908856218 -0.0018039436766961953 0 -0.036043755492261402 -0.0016557180307314476 0 -0.036178284904418573 -0.0015909095005703852 0 -0.036078765908856218 -0.0018039436766961953 0 -0.036043755492261402 -0.0016557180307314476 0 -0.035971007693771921 -0.0017353551951993736 0 -0.036102430752922271 -0.0015003357451857664 0 -0.036043755492261402 -0.0016557180307314476 0 -0.036178284904418573 -0.0015909095005703852 0 -0.036078765908856218 -0.0018039436766961953 0 -0.036178284904418573 -0.0015909095005703852 0 -0.036373235221071325 -0.0015654100553060975 0 -0.036306085597578246 -0.0014378286690111251 0 -0.036178284904418573 -0.0015909095005703852 0 -0.036373235221071325 -0.0015654100553060975 0 -0.036078765908856218 -0.0018039436766961953 0 -0.036373235221071325 -0.0015654100553060975 0 -0.036550356470439631 -0.0016001656695279899 0 -0.036648634325814389 -0.0017350132961998037 0 -0.036078765908856218 -0.0018039436766961953 0 -0.036550356470439631 -0.0016001656695279899 0 -0.035575446697328837 -0.0018042104610310379 0 -0.035787930388853945 -0.0018249395511692832 0 -0.036535778162745898 -0.0014067683328086666 0 -0.036373235221071325 -0.0015654100553060975 0 -0.036550356470439631 -0.0016001656695279899 0 -0.036535778162745898 -0.0014067683328086666 0 -0.036684259368514938 -0.0014870091207722026 0 -0.036550356470439631 -0.0016001656695279899 0 -0.030239444681931894 -0.002952422043483823 0 -0.031598905569935991 -0.0029862774389607361 0 -0.026515840299542914 -0.0042064940130021036 0 -0.026932575953105393 -0.0037700130292234557 0 -0.027563367015033771 -0.0042784140357392617 0 -0.033483733074602527 -0.0019735542723068014 0 -0.033534492864088661 -0.0016258202594655287 0 -0.036014626068438048 -0.0016237011861017826 0 -0.026932575953105393 -0.0037700130292234557 0 -0.027563367015033771 -0.0042784140357392617 0 -0.027987228515840172 -0.0040081184573671231 0 -0.023136032247463776 -0.0054370488217178967 0 -0.024183915646725198 -0.0060010399382049578 0 -0.019130239925314773 -0.0063463052347188789 0 -0.020307259515586804 -0.0059344678838811641 0 -0.020184219608755893 -0.0079696738764044178 0 -0.01908836339697801 -0.0068613588535714025 0 -0.019130239925314773 -0.0063463052347188789 0 -0.020184219608755893 -0.0079696738764044178 0 -0.01908836339697801 -0.0068613588535714025 0 -0.019130239925314773 -0.0063463052347188789 0 -0.018967182401618848 -0.0057399125219505407 0 -0.019130239925314773 -0.0063463052347188789 0 -0.018386193589364629 -0.0059830407164816598 0 -0.019095184159804674 -0.0055798868432619039 0 -0.019130239925314773 -0.0063463052347188789 0 -0.018386193589364629 -0.0059830407164816598 0 -0.018967182401618848 -0.0057399125219505407 0 -0.019130239925314773 -0.0063463052347188789 0 -0.020307259515586804 -0.0059344678838811641 0 -0.019095184159804674 -0.0055798868432619039 0 -0.020945443348641506 -0.0032694826705437618 0 -0.024073873536518825 -0.0039399303360863761 0 -0.023440387440761871 -0.0030363581225429431 0 -0.021863831507273633 -0.0041336747923817136 0 -0.023315731220405766 -0.0037133965260773239 0 -0.021513476978181432 -0.0052048721959545973 0 -0.020234053349888058 -0.0033438684994785937 0 -0.024073873536518825 -0.0039399303360863761 0 -0.023360012176283983 -0.0022428863589014181 0 -0.020945443348641506 -0.0032694826705437618 0 -0.023440387440761871 -0.0030363581225429431 0 -0.021513476978181432 -0.0052048721959545973 0 -0.020234053349888058 -0.0033438684994785937 0 -0.018967182401618848 -0.0057399125219505407 0 -0.01908836339697801 -0.0068613588535714025 0 -0.018596020369056596 -0.0062638182530447952 0 -0.018967182401618848 -0.0057399125219505407 0 -0.023136032247463776 -0.0054370488217178967 0 -0.021863831507273633 -0.0041336747923817136 0 -0.021863831507273633 -0.0041336747923817136 0 -0.018761589504408076 -0.0061077991812230597 0 -0.018386193589364629 -0.0059830407164816598 0 -0.0202844622759254 -0.0064417473231465896 0 -0.020770206054765084 -0.0078115335857002512 0 -0.018386193589364629 -0.0059830407164816598 0 -0.018967182401618848 -0.0057399125219505407 0 -0.0202844622759254 -0.0064417473231465896 0 -0.021513476978181432 -0.0052048721959545973 0 -0.018967182401618848 -0.0057399125219505407 0 -0.0202844622759254 -0.0064417473231465896 0 -0.0202844622759254 -0.0064417473231465896 0 -0.022119043922165512 -0.0069804942078949359 0 -0.020770206054765084 -0.0078115335857002512 0 -0.021513476978181432 -0.0052048721959545973 0 -0.022119043922165512 -0.0069804942078949359 0 -0.024073873536518825 -0.0039399303360863761 0 -0.021513476978181432 -0.0052048721959545973 0 -0.0202844622759254 -0.0064417473231465896 0 -0.022119043922165512 -0.0069804942078949359 0 -0.022119043922165512 -0.0069804942078949359 0 -0.023281205506229453 -0.0070056507398763707 0 -0.022743789542452854 -0.0075121133801822953 0 -0.022119043922165512 -0.0069804942078949359 0 -0.023564825467411076 -0.0058747268735219469 0 -0.023496617031501906 -0.0042477206475944988 0 -0.022119043922165512 -0.0069804942078949359 0 -0.023281205506229453 -0.0070056507398763707 0 -0.023564825467411076 -0.0058747268735219469 0 -0.022431722026796132 -0.0067362268779268732 0 -0.023928737483626464 -0.0041271472854580602 0 -0.023281205506229453 -0.0070056507398763707 0 -0.023564825467411076 -0.0058747268735219469 0 -0.024213904975157224 -0.0067889594516735447 0 -0.023564825467411076 -0.0058747268735219469 0 -0.024244829329160777 -0.005754258171883961 0 -0.024213904975157224 -0.0067889594516735447 0 -0.023564825467411076 -0.0058747268735219469 0 -0.024197390235457895 -0.0050960089952290953 0 -0.024244829329160777 -0.005754258171883961 0 -0.022119043922165512 -0.0069804942078949359 0 -0.025142331651418139 -0.0040045507010215533 0 -0.024073873536518825 -0.0039399303360863761 0 -0.023564825467411076 -0.0058747268735219469 0 -0.023496617031501906 -0.0042477206475944988 0 -0.024197390235457895 -0.0050960089952290953 0 -0.025142331651418139 -0.0040045507010215533 0 -0.024073873536518825 -0.0039399303360863761 0 -0.024890203334542373 -0.002474405052104721 0 -0.024073873536518825 -0.0039399303360863761 0 -0.023440387440761871 -0.0030363581225429431 0 -0.024890203334542373 -0.002474405052104721 0 -0.025420632295516356 -0.0031704824487005108 0 -0.025842681523488089 -0.0042379130807270928 0 -0.024776273450764556 -0.0044126447361879069 0 -0.025420632295516356 -0.0031704824487005108 0 -0.025842681523488089 -0.0042379130807270928 0 -0.027001679737641567 -0.0028978585002106968 0 -0.023496617031501906 -0.0042477206475944988 0 -0.025420632295516356 -0.0031704824487005108 0 -0.024776273450764556 -0.0044126447361879069 0 -0.023496617031501906 -0.0042477206475944988 0 -0.024776273450764556 -0.0044126447361879069 0 -0.024197390235457895 -0.0050960089952290953 0 -0.025842681523488089 -0.0042379130807270928 0 -0.024776273450764556 -0.0044126447361879069 0 -0.025032487248537346 -0.0052332065119425862 0 -0.024776273450764556 -0.0044126447361879069 0 -0.024197390235457895 -0.0050960089952290953 0 -0.025032487248537346 -0.0052332065119425862 0 -0.025842681523488089 -0.0042379130807270928 0 -0.025032487248537346 -0.0052332065119425862 0 -0.026982338068027266 -0.005022702178650305 0 -0.024213904975157224 -0.0067889594516735447 0 -0.026229412229535023 -0.0063292903083013146 0 -0.02623226220006699 -0.0051250552043012286 0 -0.024213904975157224 -0.0067889594516735447 0 -0.026229412229535023 -0.0063292903083013146 0 -0.023823959016623087 -0.0077893256403243852 0 -0.025462487179259561 -0.0066580582460420206 0 -0.023879369952865163 -0.0077572713892234049 0 -0.025032487248537346 -0.0052332065119425862 0 -0.024213904975157224 -0.0067889594516735447 0 -0.026982338068027266 -0.005022702178650305 0 -0.024409027715215567 -0.0066976768107889157 0 -0.026645748872584717 -0.0050244275606978507 0 -0.025032487248537346 -0.0052332065119425862 0 -0.024244829329160777 -0.005754258171883961 0 -0.024213904975157224 -0.0067889594516735447 0 -0.024197390235457895 -0.0050960089952290953 0 -0.025032487248537346 -0.0052332065119425862 0 -0.024244829329160777 -0.005754258171883961 0 -0.024493078813666459 -0.0074929963921715245 0 -0.024398069252088567 -0.0071844714378907753 0 -0.024247000617161153 -0.007702357591714365 0 -0.025462487179259561 -0.0066580582460420206 0 -0.026173338444805221 -0.0059524511067794239 0 -0.024398069252088567 -0.0071844714378907753 0 -0.024917215446349082 -0.0071191433894610872 0 -0.025119573197321533 -0.0065303413193111455 0 -0.024493078813666459 -0.0074929963921715245 0 -0.024668473368793388 -0.0073883225985206828 0 -0.024398069252088567 -0.0071844714378907753 0 -0.024668473368793388 -0.0073883225985206828 0 -0.024398069252088567 -0.0071844714378907753 0 -0.024917215446349082 -0.0071191433894610872 0 -0.025189207126886819 -0.007214209083923181 0 -0.02494480204341816 -0.0074539357006876677 0 -0.025310054659325992 -0.0075104638464247014 0 -0.025564107047081872 -0.0070842256497609902 0 -0.025189207126886819 -0.007214209083923181 0 -0.025310054659325992 -0.0075104638464247014 0 -0.025189207126886819 -0.007214209083923181 0 -0.02494480204341816 -0.0074539357006876677 0 -0.024917215446349082 -0.0071191433894610872 0 -0.024668473368793388 -0.0073883225985206828 0 -0.02494480204341816 -0.0074539357006876677 0 -0.024917215446349082 -0.0071191433894610872 0 -0.024917215446349082 -0.0071191433894610872 0 -0.025278444304075932 -0.0069248651244510221 0 -0.025119573197321533 -0.0065303413193111455 0 -0.025189207126886819 -0.007214209083923181 0 -0.024917215446349082 -0.0071191433894610872 0 -0.025278444304075932 -0.0069248651244510221 0 -0.025564107047081872 -0.0070842256497609902 0 -0.025189207126886819 -0.007214209083923181 0 -0.025278444304075932 -0.0069248651244510221 0 -0.028694655802797245 -0.004643792451023929 0 -0.02623226220006699 -0.0051250552043012286 0 -0.02839665740006914 -0.0032895650686118548 0 -0.025615136725565368 -0.0066570275489233827 0 -0.025278444304075932 -0.0069248651244510221 0 -0.025119573197321533 -0.0065303413193111455 0 -0.029988558236592151 -0.0028016530380579555 0 -0.028694655802797245 -0.004643792451023929 0 -0.02839665740006914 -0.0032895650686118548 0 -0.026645748872584717 -0.0050244275606978507 0 -0.028738216260721247 -0.003152065060497256 0 -0.026229412229535023 -0.0063292903083013146 0 -0.028694655802797245 -0.004643792451023929 0 -0.02623226220006699 -0.0051250552043012286 0 -0.026982338068027266 -0.005022702178650305 0 -0.027001679737641567 -0.0028978585002106968 0 -0.029825400617410083 -0.0027735355833029035 0 -0.025842681523488089 -0.0042379130807270928 0 -0.026982338068027266 -0.005022702178650305 0 -0.027001679737641567 -0.0028978585002106968 0 -0.028414745075239594 -0.001040943556666995 0 -0.027001679737641567 -0.0028978585002106968 0 -0.025534405747769533 -0.00092123501800647073 0 -0.028414745075239594 -0.001040943556666995 0 -0.027001679737641567 -0.0028978585002106968 0 -0.029825400617410083 -0.0027735355833029035 0 -0.028454223227122627 -0.0011703219957799498 0 -0.029442732658233856 -0.0014024448470950413 0 -0.032155271902252626 -0.00094097447725498458 0 -0.029825400617410083 -0.0027735355833029035 0 -0.031125415746761347 -0.0013811011774722012 0 -0.030710892176164246 -0.0013467369096245715 0 -0.029988558236592151 -0.0028016530380579555 0 -0.02839665740006914 -0.0032895650686118548 0 -0.028414745075239594 -0.001040943556666995 0 -0.029825400617410083 -0.0027735355833029035 0 -0.031125415746761347 -0.0013811011774722012 0 -0.033997367054705942 -0.0014411796686483753 0 -0.028738216260721247 -0.003152065060497256 0 -0.028454223227122627 -0.0011703219957799498 0 -0.031051205922555721 -0.0013384979383161198 0 -0.0319095334916603 -1.2562050729231613e-05 0 -0.029465006046147157 -0.0013046373686200182 0 -0.031125415746761347 -0.0013811011774722012 0 -0.0319095334916603 -1.2562050729231613e-05 0 -0.029266975532623446 0.0010535124535876773 0 -0.029465006046147157 -0.0013046373686200182 0 -0.029266975532623446 0.0010535124535876773 0 -0.029465006046147157 -0.0013046373686200182 0 -0.027798831306888989 -0.0012399851987317263 0 -0.034542736515469623 -0.0011133735538375871 0 -0.029442732658233856 -0.0014024448470950413 0 -0.038305287832756434 -0.0018810932448627166 0 -0.037198237671642202 -0.0021717146523954631 0 -0.036872036966326495 -0.0041613234978372356 0 -0.035304114926259858 -0.0024492877911602819 0 -0.037198237671642202 -0.0021717146523954631 0 -0.036872036966326495 -0.0041613234978372356 0 -0.036555625224547396 -0.0018054466787878263 0 -0.031316483997200772 -0.0021613308912777681 0 -0.035304114926259858 -0.0024492877911602819 0 -0.033753452922368324 -0.0041302872213553514 0 -0.036872036966326495 -0.0041613234978372356 0 -0.0232014454318939 -0.00045175930371599635 0 -0.025015372994307429 -0.00096221458355416265 0 -0.027683453364497054 -0.00058748744815842273 0 -0.025142331651418139 -0.0040045507010215533 0 -0.024890203334542373 -0.002474405052104721 0 -0.027683453364497054 -0.00058748744815842273 0 -0.025015372994307429 -0.00096221458355416265 0 -0.024890203334542373 -0.002474405052104721 0 -0.027683453364497054 -0.00058748744815842273 0 -0.031316483997200772 -0.0021613308912777681 0 -0.029442732658233856 -0.0014024448470950413 0 -0.027108628490779801 -0.0024452960201579591 0 -0.023467621033595999 -0.0011134433184374246 0 -0.023360012176283983 -0.0022428863589014181 0 -0.022501059897683685 -0.00091699599089869544 0 -0.025015372994307429 -0.00096221458355416265 0 -0.023360012176283983 -0.0022428863589014181 0 -0.025015372994307429 -0.00096221458355416265 0 -0.024890203334542373 -0.002474405052104721 0 -0.023360012176283983 -0.0022428863589014181 0 -0.023440387440761871 -0.0030363581225429431 0 -0.024890203334542373 -0.002474405052104721 0 -0.023928737483626464 -0.0041271472854580602 0 -0.029442732658233856 -0.0014024448470950413 0 -0.023496617031501906 -0.0042477206475944988 0 -0.025420632295516356 -0.0031704824487005108 0 -0.025534405747769533 -0.00092123501800647073 0 -0.025420632295516356 -0.0031704824487005108 0 -0.027001679737641567 -0.0028978585002106968 0 -0.025534405747769533 -0.00092123501800647073 0 -0.03441934456668614 -0.0062524172127875191 0 -0.029073689870145383 -0.010280695181056336 0 -0.028317360763711 -0.01099205400472218 0 -0.030895189609523855 -0.0083389523715899951 0 -0.027988855323639063 -0.0077855605679597682 0 -0.026441448140648728 -0.0087980341300998213 0 -0.028317360763711 -0.01099205400472218 0 -0.025136036522323352 -0.010116610272035385 0 -0.026441448140648728 -0.0087980341300998213 0 -0.028317360763711 -0.01099205400472218 0 -0.027988855323639063 -0.0077855605679597682 0 -0.034449746827731949 -0.001869794866154929 0 -0.035001882517820486 -0.0019342983379020842 0 -0.034915776358420476 -0.0013141066535592382 0 -0.03441934456668614 -0.0062524172127875191 0 -0.029287031056762589 -0.0058295234844269149 0 -0.031241372604877124 -0.009800485050692585 0 -0.0319381134391757 -0.010088282473104036 0 -0.030895189609523855 -0.0083389523715899951 0 -0.03441934456668614 -0.0062524172127875191 0 -0.037855082612096587 -0.0074956126169278521 0 -0.042971792204470394 -0.0047582032386384475 0 -0.042649297648785799 -0.0046074417505994067 0 -0.043149617100176577 -0.0044098771260410357 0 -0.033487932241753234 -0.010576741727907733 0 -0.032746013142928916 -0.0090725931387528654 0 -0.034198643549512832 -0.0094255338708000326 0 -0.0319381134391757 -0.010088282473104036 0 -0.033487932241753234 -0.010576741727907733 0 -0.032746013142928916 -0.0090725931387528654 0 -0.037855082612096587 -0.0074956126169278521 0 -0.038080459873484782 -0.007683637209617511 0 -0.032746013142928916 -0.0090725931387528654 0 -0.032890976922719209 -0.0072732885284935399 0 -0.034200844289146257 -0.0078686721994238613 0 -0.032746013142928916 -0.0090725931387528654 0 -0.030895189609523855 -0.0083389523715899951 0 -0.032890976922719209 -0.0072732885284935399 0 -0.0319381134391757 -0.010088282473104036 0 -0.032746013142928916 -0.0090725931387528654 0 -0.030895189609523855 -0.0083389523715899951 0 -0.030895189609523855 -0.0083389523715899951 0 -0.031541876934944972 -0.0065276421501689321 0 -0.032890976922719209 -0.0072732885284935399 0 -0.030895189609523855 -0.0083389523715899951 0 -0.031541876934944972 -0.0065276421501689321 0 -0.029490343331523304 -0.0061660614479258791 0 -0.031541876934944972 -0.0065276421501689321 0 -0.032890976922719209 -0.0072732885284935399 0 -0.032755567331151342 -0.0057923210668316084 0 -0.032890976922719209 -0.0072732885284935399 0 -0.032755567331151342 -0.0057923210668316084 0 -0.034137571526603738 -0.0062763482407541616 0 -0.032755567331151342 -0.0057923210668316084 0 -0.034137571526603738 -0.0062763482407541616 0 -0.033856381206688789 -0.0051319814618587395 0 -0.032755567331151342 -0.0057923210668316084 0 -0.031179834512552292 -0.0048806022598881582 0 -0.032888936225103478 -0.0045974975842193733 0 -0.033856381206688789 -0.0051319814618587395 0 -0.03379409225674871 -0.0040997256261326928 0 -0.032888936225103478 -0.0045974975842193733 0 -0.032755567331151342 -0.0057923210668316084 0 -0.033856381206688789 -0.0051319814618587395 0 -0.032888936225103478 -0.0045974975842193733 0 -0.031541876934944972 -0.0065276421501689321 0 -0.031179834512552292 -0.0048806022598881582 0 -0.029490343331523304 -0.0061660614479258791 0 -0.031541876934944972 -0.0065276421501689321 0 -0.032755567331151342 -0.0057923210668316084 0 -0.031179834512552292 -0.0048806022598881582 0 -0.031179834512552292 -0.0048806022598881582 0 -0.029490343331523304 -0.0061660614479258791 0 -0.028039104571144259 -0.0041126782955566588 0 -0.029490343331523304 -0.0061660614479258791 0 -0.027365899298589225 -0.0057641723668153911 0 -0.028039104571144259 -0.0041126782955566588 0 -0.029490343331523304 -0.0061660614479258791 0 -0.027988855323639063 -0.0077855605679597682 0 -0.027365899298589225 -0.0057641723668153911 0 -0.030895189609523855 -0.0083389523715899951 0 -0.029490343331523304 -0.0061660614479258791 0 -0.027988855323639063 -0.0077855605679597682 0 -0.027988855323639063 -0.0077855605679597682 0 -0.027365899298589225 -0.0057641723668153911 0 -0.02594088245835658 -0.0068143946667142616 0 -0.026441448140648728 -0.0087980341300998213 0 -0.027988855323639063 -0.0077855605679597682 0 -0.02594088245835658 -0.0068143946667142616 0 -0.027365899298589225 -0.0057641723668153911 0 -0.02594088245835658 -0.0068143946667142616 0 -0.025446373232723096 -0.0041449576568795303 0 -0.023798038630035243 -0.0059235356176485943 0 -0.02594088245835658 -0.0068143946667142616 0 -0.025446373232723096 -0.0041449576568795303 0 -0.023477317615040228 -0.0059610461622056554 0 -0.024854147876365439 -0.0083540802933066531 0 -0.023298425558546301 -0.0060697535739599141 0 -0.023003251199274637 -0.0076362731770541628 0 -0.02490668071781316 -0.0084249261574075134 0 -0.023298425558546301 -0.0060697535739599141 0 -0.023003251199274637 -0.0076362731770541628 0 -0.021641477395703448 -0.0070475242188183136 0 -0.023798038630035243 -0.0059235356176485943 0 -0.02594088245835658 -0.0068143946667142616 0 -0.02490668071781316 -0.0084249261574075134 0 -0.026441448140648728 -0.0087980341300998213 0 -0.02594088245835658 -0.0068143946667142616 0 -0.02490668071781316 -0.0084249261574075134 0 -0.023298425558546301 -0.0060697535739599141 0 -0.021704443964699033 -0.0056756199112708476 0 -0.021641477395703448 -0.0070475242188183136 0 -0.023298425558546301 -0.0060697535739599141 0 -0.021704443964699033 -0.0056756199112708476 0 -0.02209899358084871 -0.0044740198846675485 0 -0.020307259515586804 -0.0059344678838811641 0 -0.021704443964699033 -0.0056756199112708476 0 -0.021641477395703448 -0.0070475242188183136 0 -0.023003251199274637 -0.0076362731770541628 0 -0.021641477395703448 -0.0070475242188183136 0 -0.022261104763966665 -0.0090778272101369149 0 -0.020307259515586804 -0.0059344678838811641 0 -0.021641477395703448 -0.0070475242188183136 0 -0.020184219608755893 -0.0079696738764044178 0 -0.031598905569935991 -0.0029862774389607361 0 -0.032700539484950879 -0.0028809997678193536 0 -0.027563367015033771 -0.0042784140357392617 0 -0.027987228515840172 -0.0040081184573671231 0 -0.028618837824977747 -0.0043646588161021923 0 -0.028618837824977747 -0.0043646588161021923 0 -0.029042296167845455 -0.0042729658889285888 0 -0.029675531467956484 -0.0044397702178764634 0 -0.027987228515840172 -0.0040081184573671231 0 -0.028618837824977747 -0.0043646588161021923 0 -0.029042296167845455 -0.0042729658889285888 0 -0.024183915646725198 -0.0060010399382049578 0 -0.025367715607721348 -0.0065165607942005831 0 -0.021641477395703448 -0.0070475242188183136 0 -0.020184219608755893 -0.0079696738764044178 0 -0.022261104763966665 -0.0090778272101369149 0 -0.032700539484950879 -0.0028809997678193536 0 -0.030097429781608835 -0.0052107336709277113 0 -0.035775127614377601 -0.0018785932802524189 0 -0.035925256914714723 -0.0016304644044436985 0 -0.035715830094849625 -0.0015413415054529095 0 -0.035775127614377601 -0.0018785932802524189 0 -0.035494135041318577 -0.0017062836843953794 0 -0.035715830094849625 -0.0015413415054529095 0 -0.035494135041318577 -0.0017062836843953794 0 -0.035483947434541571 -0.001486873726878611 0 -0.035715830094849625 -0.0015413415054529095 0 -0.036014626068438048 -0.0016237011861017826 0 -0.035775127614377601 -0.0018785932802524189 0 -0.035971007693771921 -0.0017353551951993736 0 -0.035775127614377601 -0.0018785932802524189 0 -0.035925256914714723 -0.0016304644044436985 0 -0.035971007693771921 -0.0017353551951993736 0 -0.036102430752922271 -0.0015003357451857664 0 -0.036043755492261402 -0.0016557180307314476 0 -0.035925256914714723 -0.0016304644044436985 0 -0.036043755492261402 -0.0016557180307314476 0 -0.035925256914714723 -0.0016304644044436985 0 -0.035971007693771921 -0.0017353551951993736 0 -0.02490668071781316 -0.0084249261574075134 0 -0.023978909062286627 -0.0097063186319295298 0 -0.025136036522323352 -0.010116610272035385 0 -0.026441448140648728 -0.0087980341300998213 0 -0.02490668071781316 -0.0084249261574075134 0 -0.025136036522323352 -0.010116610272035385 0 -0.023003251199274637 -0.0076362731770541628 0 -0.022261104763966665 -0.0090778272101369149 0 -0.02490668071781316 -0.0084249261574075134 0 -0.022261104763966665 -0.0090778272101369149 0 -0.02490668071781316 -0.0084249261574075134 0 -0.023978909062286627 -0.0097063186319295298 0 -0.025367715607721348 -0.0065165607942005831 0 -0.030097429781608835 -0.0052107336709277113 0 -0.035210989366025888 -0.0019545236678747253 0 -0.035494135041318577 -0.0017062836843953794 0 -0.035244395736234335 -0.0016114821107082193 0 -0.035775127614377601 -0.0018785932802524189 0 -0.035210989366025888 -0.0019545236678747253 0 -0.035494135041318577 -0.0017062836843953794 0 -0.035494135041318577 -0.0017062836843953794 0 -0.035244395736234335 -0.0016114821107082193 0 -0.035483947434541571 -0.001486873726878611 0 -0.035244395736234335 -0.0016114821107082193 0 -0.035001882517820486 -0.0019342983379020842 0 -0.034915776358420476 -0.0013141066535592382 0 -0.035210989366025888 -0.0019545236678747253 0 -0.035244395736234335 -0.0016114821107082193 0 -0.035001882517820486 -0.0019342983379020842 0 -0.030097429781608835 -0.0052107336709277113 0 -0.029287031056762589 -0.0058295234844269149 0 -0.035244395736234335 -0.0016114821107082193 0 -0.034915776358420476 -0.0013141066535592382 0 -0.035332565777095759 -0.0012695716284477827 0 -0.035244395736234335 -0.0016114821107082193 0 -0.035332565777095759 -0.0012695716284477827 0 -0.035483947434541571 -0.001486873726878611 0 -0.035332565777095759 -0.0012695716284477827 0 -0.035483947434541571 -0.001486873726878611 0 -0.035648563708510217 -0.0012168403230488926 0 -0.035332565777095759 -0.0012695716284477827 0 -0.035648563708510217 -0.0012168403230488926 0 -0.035353202737615844 -0.00084703481194633957 0 -0.034915776358420476 -0.0013141066535592382 0 -0.035332565777095759 -0.0012695716284477827 0 -0.035353202737615844 -0.00084703481194633957 0 -0.040361212966707423 -0.0020592123142733135 0 -0.039882955853226411 -0.0025265627066256135 0 -0.044027885881332877 -0.0043637034896850104 0 -0.044730141727004596 -0.0038292044067676193 0 -0.043894433647296123 -0.0039004353244961316 0 -0.035925256914714723 -0.0016304644044436985 0 -0.035925549658734367 -0.0013278909611618814 0 -0.035715830094849625 -0.0015413415054529095 0 -0.036102430752922271 -0.0015003357451857664 0 -0.03620685195508741 -0.0012836311243969961 0 -0.035925549658734367 -0.0013278909611618814 0 -0.036102430752922271 -0.0015003357451857664 0 -0.035925256914714723 -0.0016304644044436985 0 -0.035925549658734367 -0.0013278909611618814 0 -0.035925549658734367 -0.0013278909611618814 0 -0.035715830094849625 -0.0015413415054529095 0 -0.035648563708510217 -0.0012168403230488926 0 -0.035483947434541571 -0.001486873726878611 0 -0.035715830094849625 -0.0015413415054529095 0 -0.035648563708510217 -0.0012168403230488926 0 -0.035925549658734367 -0.0013278909611618814 0 -0.035648563708510217 -0.0012168403230488926 0 -0.035790121770309047 -0.00091238626736570277 0 -0.035648563708510217 -0.0012168403230488926 0 -0.035790121770309047 -0.00091238626736570277 0 -0.035353202737615844 -0.00084703481194633957 0 -0.036210731989465443 -0.00099768380755020495 0 -0.035925549658734367 -0.0013278909611618814 0 -0.035790121770309047 -0.00091238626736570277 0 -0.036210731989465443 -0.00099768380755020495 0 -0.036065475582232318 -0.00070005842453438165 0 -0.035790121770309047 -0.00091238626736570277 0 -0.036065475582232318 -0.00070005842453438165 0 -0.035790121770309047 -0.00091238626736570277 0 -0.035753825747760239 -0.00040535541426111747 0 -0.035790121770309047 -0.00091238626736570277 0 -0.035753825747760239 -0.00040535541426111747 0 -0.035353202737615844 -0.00084703481194633957 0 -0.036065475582232318 -0.00070005842453438165 0 -0.035753825747760239 -0.00040535541426111747 0 -0.036141624277743471 -0.00039345793622722291 0 -0.044730141727004596 -0.0038292044067676193 0 -0.044537570606406979 -0.0034611850340573987 0 -0.043894433647296123 -0.0039004353244961316 0 -0.044730141727004596 -0.0038292044067676193 0 -0.044872841268221476 -0.0033991045076951581 0 -0.044537570606406979 -0.0034611850340573987 0 -0.045053136474263809 -0.0033856109341939538 0 -0.044730141727004596 -0.0038292044067676193 0 -0.044872841268221476 -0.0033991045076951581 0 -0.040190687651935481 -0.0017769720459418525 0 -0.039882955853226411 -0.0025265627066256135 0 -0.044872841268221476 -0.0033991045076951581 0 -0.044537570606406979 -0.0034611850340573987 0 -0.044939706301818746 -0.0032130439636496783 0 -0.044537570606406979 -0.0034611850340573987 0 -0.044102852048398727 -0.0034529879309974248 0 -0.043894433647296123 -0.0039004353244961316 0 -0.044537570606406979 -0.0034611850340573987 0 -0.044102852048398727 -0.0034529879309974248 0 -0.044534616064006043 -0.0031970118059688971 0 -0.044102852048398727 -0.0034529879309974248 0 -0.04357986829754841 -0.0036254645552299082 0 -0.043866721450444707 -0.0033193716326701365 0 -0.04357986829754841 -0.0036254645552299082 0 -0.043894433647296123 -0.0039004353244961316 0 -0.043276517804483536 -0.004070060858629404 0 -0.044102852048398727 -0.0034529879309974248 0 -0.04357986829754841 -0.0036254645552299082 0 -0.043894433647296123 -0.0039004353244961316 0 -0.044027885881332877 -0.0043637034896850104 0 -0.043894433647296123 -0.0039004353244961316 0 -0.043149617100176577 -0.0044098771260410357 0 -0.043894433647296123 -0.0039004353244961316 0 -0.043276517804483536 -0.004070060858629404 0 -0.043149617100176577 -0.0044098771260410357 0 -0.042971792204470394 -0.0047582032386384475 0 -0.044027885881332877 -0.0043637034896850104 0 -0.043149617100176577 -0.0044098771260410357 0 -0.03441934456668614 -0.0062524172127875191 0 -0.040361212966707423 -0.0020592123142733135 0 -0.042562355139974958 -0.0045928917357727266 0 -0.042834748921305371 -0.004316756836673155 0 -0.042484701802521917 -0.0042922548839348868 0 -0.042649297648785799 -0.0046074417505994067 0 -0.042562355139974958 -0.0045928917357727266 0 -0.042834748921305371 -0.004316756836673155 0 -0.042649297648785799 -0.0046074417505994067 0 -0.043149617100176577 -0.0044098771260410357 0 -0.042834748921305371 -0.004316756836673155 0 -0.043276517804483536 -0.004070060858629404 0 -0.042834748921305371 -0.004316756836673155 0 -0.043109944257415704 -0.0038937934905261835 0 -0.043276517804483536 -0.004070060858629404 0 -0.043149617100176577 -0.0044098771260410357 0 -0.042834748921305371 -0.004316756836673155 0 -0.042834748921305371 -0.004316756836673155 0 -0.042651316323562866 -0.0039565987836064605 0 -0.042484701802521917 -0.0042922548839348868 0 -0.042834748921305371 -0.004316756836673155 0 -0.042651316323562866 -0.0039565987836064605 0 -0.043109944257415704 -0.0038937934905261835 0 -0.042651316323562866 -0.0039565987836064605 0 -0.043249577310326567 -0.0034554579398074284 0 -0.042260147556700454 -0.0033352496071708693 0 -0.042651316323562866 -0.0039565987836064605 0 -0.043109944257415704 -0.0038937934905261835 0 -0.043249577310326567 -0.0034554579398074284 0 -0.04357986829754841 -0.0036254645552299082 0 -0.043276517804483536 -0.004070060858629404 0 -0.043109944257415704 -0.0038937934905261835 0 -0.04357986829754841 -0.0036254645552299082 0 -0.043109944257415704 -0.0038937934905261835 0 -0.043249577310326567 -0.0034554579398074284 0 -0.04357986829754841 -0.0036254645552299082 0 -0.043548703704725578 -0.0033626278912938052 0 -0.043249577310326567 -0.0034554579398074284 0 -0.04357986829754841 -0.0036254645552299082 0 -0.043548703704725578 -0.0033626278912938052 0 -0.043866721450444707 -0.0033193716326701365 0 -0.043548703704725578 -0.0033626278912938052 0 -0.043249577310326567 -0.0034554579398074284 0 -0.043426385712237767 -0.003255680807201376 0 -0.043249577310326567 -0.0034554579398074284 0 -0.04321930968888079 -0.0033715164298529538 0 -0.043126473615070486 -0.0034033692426246316 0 -0.043201882930010295 -0.0034339358390072612 0 -0.042707915693099216 -0.0033768059080924889 0 -0.043249577310326567 -0.0034554579398074284 0 -0.04321930968888079 -0.0033715164298529538 0 -0.043426385712237767 -0.003255680807201376 0 -0.043426385712237767 -0.003255680807201376 0 -0.043548928669654104 -0.0030920957498027325 0 -0.0434215533334621 -0.0031313208320888843 0 -0.043548928669654104 -0.0030920957498027325 0 -0.0434215533334621 -0.0031313208320888843 0 -0.043444179414142373 -0.0030024187967826067 0 -0.043548928669654104 -0.0030920957498027325 0 -0.043698018122454808 -0.0028668722888802907 0 -0.043444179414142373 -0.0030024187967826067 0 -0.0438478072205188 -0.0030007008734794041 0 -0.044078140638426938 -0.0028014758207900079 0 -0.043698018122454808 -0.0028668722888802907 0 -0.043548928669654104 -0.0030920957498027325 0 -0.0438478072205188 -0.0030007008734794041 0 -0.043698018122454808 -0.0028668722888802907 0 -0.043548928669654104 -0.0030920957498027325 0 -0.0438478072205188 -0.0030007008734794041 0 -0.043702837345479244 -0.0031869337933073004 0 -0.0438478072205188 -0.0030007008734794041 0 -0.043702837345479244 -0.0031869337933073004 0 -0.04406285768941668 -0.0030871763537678324 0 -0.043426385712237767 -0.003255680807201376 0 -0.043548928669654104 -0.0030920957498027325 0 -0.043702837345479244 -0.0031869337933073004 0 -0.043548703704725578 -0.0033626278912938052 0 -0.043426385712237767 -0.003255680807201376 0 -0.043702837345479244 -0.0031869337933073004 0 -0.043548703704725578 -0.0033626278912938052 0 -0.043702837345479244 -0.0031869337933073004 0 -0.043866721450444707 -0.0033193716326701365 0 -0.043702837345479244 -0.0031869337933073004 0 -0.043866721450444707 -0.0033193716326701365 0 -0.04406285768941668 -0.0030871763537678324 0 -0.044102852048398727 -0.0034529879309974248 0 -0.043866721450444707 -0.0033193716326701365 0 -0.044207487461869789 -0.003197898265308528 0 -0.043866721450444707 -0.0033193716326701365 0 -0.044207487461869789 -0.003197898265308528 0 -0.04406285768941668 -0.0030871763537678324 0 -0.044102852048398727 -0.0034529879309974248 0 -0.044207487461869789 -0.003197898265308528 0 -0.044534616064006043 -0.0031970118059688971 0 -0.044207487461869789 -0.003197898265308528 0 -0.044534616064006043 -0.0031970118059688971 0 -0.044481034100920774 -0.0029350671850723129 0 -0.044534616064006043 -0.0031970118059688971 0 -0.044481034100920774 -0.0029350671850723129 0 -0.044766627955189729 -0.0029710503380114515 0 -0.044481034100920774 -0.0029350671850723129 0 -0.04486826159057352 -0.0027940535720001 0 -0.044766627955189729 -0.0029710503380114515 0 -0.044481034100920774 -0.0029350671850723129 0 -0.04406285768941668 -0.0030871763537678324 0 -0.044078140638426938 -0.0028014758207900079 0 -0.044207487461869789 -0.003197898265308528 0 -0.044481034100920774 -0.0029350671850723129 0 -0.04406285768941668 -0.0030871763537678324 0 -0.0438478072205188 -0.0030007008734794041 0 -0.04406285768941668 -0.0030871763537678324 0 -0.044078140638426938 -0.0028014758207900079 0 -0.044481034100920774 -0.0029350671850723129 0 -0.044078140638426938 -0.0028014758207900079 0 -0.044633346229706751 -0.0025984239649247207 0 -0.044078140638426938 -0.0028014758207900079 0 -0.044633346229706751 -0.0025984239649247207 0 -0.044093490892987287 -0.0024018003797563344 0 -0.044481034100920774 -0.0029350671850723129 0 -0.04486826159057352 -0.0027940535720001 0 -0.044633346229706751 -0.0025984239649247207 0 -0.04486826159057352 -0.0027940535720001 0 -0.044633346229706751 -0.0025984239649247207 0 -0.045318301363235954 -0.0026466691294272761 0 -0.044633346229706751 -0.0025984239649247207 0 -0.045129847282714936 -0.0023840118266327077 0 -0.045318301363235954 -0.0026466691294272761 0 -0.044633346229706751 -0.0025984239649247207 0 -0.045129847282714936 -0.0023840118266327077 0 -0.044626151712244662 -0.0021726098982962866 0 -0.044626151712244662 -0.0021726098982962866 0 -0.044093490892987287 -0.0024018003797563344 0 -0.044114707353665648 -0.0020070252654408611 0 -0.044633346229706751 -0.0025984239649247207 0 -0.044626151712244662 -0.0021726098982962866 0 -0.044093490892987287 -0.0024018003797563344 0 -0.048057876545068282 -0.0012972417133382101 0 -0.048494157115140719 -0.0011271271820161894 0 -0.044093490892987287 -0.0024018003797563344 0 -0.043537188700704652 -0.0023198944879655641 0 -0.044114707353665648 -0.0020070252654408611 0 -0.044093490892987287 -0.0024018003797563344 0 -0.043537188700704652 -0.0023198944879655641 0 -0.043788192808193467 -0.0025720103094349299 0 -0.05454287390791266 0.00037458551383822748 0 -0.054576319881697581 -0.00025547953628049562 0 -0.054710535185039703 0.00018064405536688229 0 -0.04843218559208004 -0.00093332338040964867 0 -0.048628657055246376 -0.00083896055139660343 0 -0.04862612787254747 -0.0010801775121990138 0 -0.048057876545068282 -0.0012972417133382101 0 -0.05036302246581837 -0.00074742915232240738 0 -0.043542241158871578 -0.002384607275278821 0 -0.043580422414459946 -0.0026413438438275014 0 -0.043449734096352617 -0.0024288509119555985 0 -0.048057876545068282 -0.0012972417133382101 0 -0.046386590405813666 -0.0021962064408804585 0 -0.048057876545068282 -0.0012972417133382101 0 -0.043202340435071297 -0.0018125283980613327 0 -0.043542241158871578 -0.002384607275278821 0 -0.043580422414459946 -0.0026413438438275014 0 -0.043788192808193467 -0.0025720103094349299 0 -0.043580422414459946 -0.0026413438438275014 0 -0.043698018122454808 -0.0028668722888802907 0 -0.043788192808193467 -0.0025720103094349299 0 -0.043580422414459946 -0.0026413438438275014 0 -0.043698018122454808 -0.0028668722888802907 0 -0.043444179414142373 -0.0030024187967826067 0 -0.043580422414459946 -0.0026413438438275014 0 -0.043444179414142373 -0.0030024187967826067 0 -0.043449734096352617 -0.0024288509119555985 0 -0.044078140638426938 -0.0028014758207900079 0 -0.043698018122454808 -0.0028668722888802907 0 -0.043788192808193467 -0.0025720103094349299 0 -0.044078140638426938 -0.0028014758207900079 0 -0.044093490892987287 -0.0024018003797563344 0 -0.043788192808193467 -0.0025720103094349299 0 -0.042228910407790629 -0.0023446891639626872 0 -0.045810711547896087 -0.0031157015565103133 0 -0.045536489683517582 -0.0029546466290687515 0 -0.045668665351762748 -0.0030449783773004607 0 -0.045421485467891175 -0.0031289156867247243 0 -0.045346420172917623 -0.0025845757052084654 0 -0.046999749176068167 -0.0028504175595521139 0 -0.045756207734177455 -0.002931619148873155 0 -0.045649978046929628 -0.0029486019196074114 0 -0.045668665351762748 -0.0030449783773004607 0 -0.045756207734177455 -0.002931619148873155 0 -0.045649978046929628 -0.0029486019196074114 0 -0.045636230522065474 -0.0028646952613714848 0 -0.045649978046929628 -0.0029486019196074114 0 -0.045536489683517582 -0.0029546466290687515 0 -0.045636230522065474 -0.0028646952613714848 0 -0.045663830558668191 -0.0032542619971013139 0 -0.046999749176068167 -0.0028504175595521139 0 -0.045649978046929628 -0.0029486019196074114 0 -0.045536489683517582 -0.0029546466290687515 0 -0.045668665351762748 -0.0030449783773004607 0 -0.035753825747760239 -0.00040535541426111747 0 -0.036141624277743471 -0.00039345793622722291 0 -0.036159573699309118 4.1293852205933967e-05 0 -0.040190687651935481 -0.0017769720459418525 0 -0.042228910407790629 -0.0023446891639626872 0 -0.045053136474263809 -0.0033856109341939538 0 -0.044872841268221476 -0.0033991045076951581 0 -0.045036948998158216 -0.0032127498113482225 0 -0.045053136474263809 -0.0033856109341939538 0 -0.04513231695538427 -0.0031744673086116044 0 -0.045036948998158216 -0.0032127498113482225 0 -0.045536489683517582 -0.0029546466290687515 0 -0.045421485467891175 -0.0031289156867247243 0 -0.045277501547909514 -0.0029268381731924857 0 -0.045421485467891175 -0.0031289156867247243 0 -0.045277501547909514 -0.0029268381731924857 0 -0.044939706301818746 -0.0032130439636496783 0 -0.045277501547909514 -0.0029268381731924857 0 -0.044939706301818746 -0.0032130439636496783 0 -0.045128945992256121 -0.0028135511475652843 0 -0.044872841268221476 -0.0033991045076951581 0 -0.045036948998158216 -0.0032127498113482225 0 -0.044939706301818746 -0.0032130439636496783 0 -0.045810711547896087 -0.0031157015565103133 0 -0.044751069512096224 -0.0032480916732523755 0 -0.044534616064006043 -0.0031970118059688971 0 -0.044939706301818746 -0.0032130439636496783 0 -0.044766627955189729 -0.0029710503380114515 0 -0.044537570606406979 -0.0034611850340573987 0 -0.044534616064006043 -0.0031970118059688971 0 -0.044939706301818746 -0.0032130439636496783 0 -0.044939706301818746 -0.0032130439636496783 0 -0.044766627955189729 -0.0029710503380114515 0 -0.045128945992256121 -0.0028135511475652843 0 -0.04486826159057352 -0.0027940535720001 0 -0.045128945992256121 -0.0028135511475652843 0 -0.045318301363235954 -0.0026466691294272761 0 -0.04486826159057352 -0.0027940535720001 0 -0.044766627955189729 -0.0029710503380114515 0 -0.045128945992256121 -0.0028135511475652843 0 -0.045318301363235954 -0.0026466691294272761 0 -0.045771252217524178 -0.0024491557807323526 0 -0.045344210698622926 -0.0026785820857476357 0 -0.045129847282714936 -0.0023840118266327077 0 -0.045318301363235954 -0.0026466691294272761 0 -0.045771252217524178 -0.0024491557807323526 0 -0.045734351373067215 -0.0024261649564425781 0 -0.046507265731473055 -0.0029059195035636394 0 -0.045771252217524178 -0.0024491557807323526 0 -0.047569703477429608 -0.0030247747528919797 0 -0.047468772071964122 -0.0020225654817039142 0 -0.045128945992256121 -0.0028135511475652843 0 -0.045318301363235954 -0.0026466691294272761 0 -0.045344210698622926 -0.0026785820857476357 0 -0.045277501547909514 -0.0029268381731924857 0 -0.045128945992256121 -0.0028135511475652843 0 -0.045344210698622926 -0.0026785820857476357 0 -0.045536489683517582 -0.0029546466290687515 0 -0.045277501547909514 -0.0029268381731924857 0 -0.045344210698622926 -0.0026785820857476357 0 -0.046507265731473055 -0.0029059195035636394 0 -0.046999749176068167 -0.0028504175595521139 0 -0.045536489683517582 -0.0029546466290687515 0 -0.045344210698622926 -0.0026785820857476357 0 -0.045645090302829809 -0.0028578096801288168 0 -0.047569703477429608 -0.0030247747528919797 0 -0.048852486007223722 -0.0023892973056438695 0 -0.048169444454566709 -0.0019362066176991011 0 -0.047569703477429608 -0.0030247747528919797 0 -0.048169444454566709 -0.0019362066176991011 0 -0.047468772071964122 -0.0020225654817039142 0 -0.049799448040605231 -0.0026312627856593033 0 -0.048852486007223722 -0.0023892973056438695 0 -0.048849555199316642 -0.0036040409583849007 0 -0.047569703477429608 -0.0030247747528919797 0 -0.048852486007223722 -0.0023892973056438695 0 -0.048849555199316642 -0.0036040409583849007 0 -0.053681887151071896 0.00015007356942803264 0 -0.053729954783162136 -0.00030914252423948195 0 -0.053892480188163831 -0.00016072013525672289 0 -0.051604033236688399 -0.00034702551685852109 0 -0.050593428350447715 -0.0011746213763371577 0 -0.053681887151071896 0.00015007356942803264 0 -0.053729954783162136 -0.00030914252423948195 0 -0.053371865364653451 -0.0012484566527332676 0 -0.049622142968070306 -0.00070229387853987355 0 -0.048906643296185305 -0.0015723601515620729 0 -0.04805633369974726 -0.0012200609437979203 0 -0.049691039502894101 -0.0016728238078494765 0 -0.048852486007223722 -0.0023892973056438695 0 -0.048906643296185305 -0.0015723601515620729 0 -0.048852486007223722 -0.0023892973056438695 0 -0.048906643296185305 -0.0015723601515620729 0 -0.048169444454566709 -0.0019362066176991011 0 -0.048906643296185305 -0.0015723601515620729 0 -0.048169444454566709 -0.0019362066176991011 0 -0.04805633369974726 -0.0012200609437979203 0 -0.048169444454566709 -0.0019362066176991011 0 -0.04805633369974726 -0.0012200609437979203 0 -0.047468772071964122 -0.0020225654817039142 0 -0.053729954783162136 -0.00030914252423948195 0 -0.053371865364653451 -0.0012484566527332676 0 -0.052796336389683549 -2.6803908908153814e-06 0 -0.053371865364653451 -0.0012484566527332676 0 -0.052796336389683549 -2.6803908908153814e-06 0 -0.051297763387015166 -2.7647389775774605e-05 0 -0.051297763387015166 -2.7647389775774605e-05 0 -0.046773464724040488 -0.0019081243087306881 0 -0.046913115472981166 -8.1244703955614053e-05 0 -0.052796336389683549 -2.6803908908153814e-06 0 -0.050238347085517568 0.00055479723809877561 0 -0.051297763387015166 -2.7647389775774605e-05 0 -0.050238347085517568 0.00055479723809877561 0 -0.051297763387015166 -2.7647389775774605e-05 0 -0.04955204899453354 -0.00029158368739732313 0 -0.053371865364653451 -0.0012484566527332676 0 -0.051297763387015166 -2.7647389775774605e-05 0 -0.046773464724040488 -0.0019081243087306881 0 -0.050992079126055218 5.1454575907871243e-05 0 -0.04798987598002067 -0.0003220287926314013 0 -0.04805633369974726 -0.0012200609437979203 0 -0.047468772071964122 -0.0020225654817039142 0 -0.046773464724040488 -0.0019081243087306881 0 -0.050593428350447715 -0.0011746213763371577 0 -0.047061142596961272 -0.0019000977795446217 0 -0.046773464724040488 -0.0019081243087306881 0 -0.045855998311387119 -0.0012542837444611378 0 -0.046913115472981166 -8.1244703955614053e-05 0 -0.045771252217524178 -0.0024491557807323526 0 -0.047468772071964122 -0.0020225654817039142 0 -0.046773464724040488 -0.0019081243087306881 0 -0.045129847282714936 -0.0023840118266327077 0 -0.045771252217524178 -0.0024491557807323526 0 -0.045793013539168592 -0.0019879558682095642 0 -0.045771252217524178 -0.0024491557807323526 0 -0.046773464724040488 -0.0019081243087306881 0 -0.045793013539168592 -0.0019879558682095642 0 -0.045793013539168592 -0.0019879558682095642 0 -0.045855998311387119 -0.0012542837444611378 0 -0.045198810443780511 -0.0013669331083236967 0 -0.046773464724040488 -0.0019081243087306881 0 -0.045793013539168592 -0.0019879558682095642 0 -0.045855998311387119 -0.0012542837444611378 0 -0.050238347085517568 0.00055479723809877561 0 -0.04955204899453354 -0.00029158368739732313 0 -0.047808371341787191 -0.00063601343983582764 0 -0.04798987598002067 -0.0003220287926314013 0 -0.048289488978351419 -0.00061884178420349627 0 -0.051336749528805174 0.00019223066220593724 0 -0.048289488978351419 -0.00061884178420349627 0 -0.05195751441428368 -1.5708581322341826e-05 0 -0.051325248875122249 4.0033435405341204e-05 0 -0.050441038970656972 -0.00070811568143892053 0 -0.045855998311387119 -0.0012542837444611378 0 -0.046913115472981166 -8.1244703955614053e-05 0 -0.04474302986815043 -0.00079132891753695678 0 -0.054979646701279972 9.2435034993600511e-05 0 -0.054990152024335069 6.3564957940018951e-05 0 -0.054992282469750159 5.5357091364354232e-05 0 -0.054979646701279972 9.2435034993600511e-05 0 -0.054990152024335069 6.3564957940018951e-05 0 -0.054997994518273856 6.3944098235619153e-05 0 -0.054992282469750159 5.5357091364354232e-05 0 -0.054999961867244783 -3.0275942000213731e-08 0 -0.054999998297544511 7.1819483022231565e-08 0 -0.054990152024335069 6.3564957940018951e-05 0 -0.054992282469750159 5.5357091364354232e-05 0 -0.054999998297544511 7.1819483022231565e-08 0 -0.054992282469750159 5.5357091364354232e-05 0 -0.054999961867244783 -3.0275942000213731e-08 0 -0.05495268112438307 6.8186787244251383e-05 0 -0.054999961867244783 -3.0275942000213731e-08 0 -0.05495268112438307 6.8186787244251383e-05 0 -0.054805603825709683 4.8247759284152805e-05 0 -0.051336749528805174 0.00019223066220593724 0 -0.053421552865170828 0.00039221486197910842 0 -0.054979646701279972 9.2435034993600511e-05 0 -0.054992282469750159 5.5357091364354232e-05 0 -0.054943843461658766 0.00018956507291190545 0 -0.05195751441428368 -1.5708581322341826e-05 0 -0.051325248875122249 4.0033435405341204e-05 0 -0.052641073166184729 0.00039070195685857466 0 -0.054992282469750159 5.5357091364354232e-05 0 -0.05495268112438307 6.8186787244251383e-05 0 -0.054943843461658766 0.00018956507291190545 0 -0.053023442892997888 6.7853907005952768e-05 0 -0.053791749922695725 0.00025132519626150417 0 -0.05495268112438307 6.8186787244251383e-05 0 -0.054943843461658766 0.00018956507291190545 0 -0.054805603825709683 4.8247759284152805e-05 0 -0.05195751441428368 -1.5708581322341826e-05 0 -0.052641073166184729 0.00039070195685857466 0 -0.053768982269699221 0.00030347207657506177 0 -0.053791749922695725 0.00025132519626150417 0 -0.05420375016675201 0.00024970394856481138 0 -0.054943843461658766 0.00018956507291190545 0 -0.054805603825709683 4.8247759284152805e-05 0 -0.05433551714477132 0.00022921329876073612 0 -0.052796336389683549 -2.6803908908153814e-06 0 -0.050238347085517568 0.00055479723809877561 0 -0.053768982269699221 0.00030347207657506177 0 -0.052641073166184729 0.00039070195685857466 0 -0.053768982269699221 0.00030347207657506177 0 -0.05433551714477132 0.00022921329876073612 0 -0.053729954783162136 -0.00030914252423948195 0 -0.052796336389683549 -2.6803908908153814e-06 0 -0.053872140673862534 6.3438946765902762e-06 0 -0.052796336389683549 -2.6803908908153814e-06 0 -0.053768982269699221 0.00030347207657506177 0 -0.053872140673862534 6.3438946765902762e-06 0 -0.053768982269699221 0.00030347207657506177 0 -0.054073050229367411 0.0001346688452438472 0 -0.053872140673862534 6.3438946765902762e-06 0 -0.053768982269699221 0.00030347207657506177 0 -0.05433551714477132 0.00022921329876073612 0 -0.054073050229367411 0.0001346688452438472 0 -0.054999961867244783 -3.0275942000213731e-08 0 -0.054805603825709683 4.8247759284152805e-05 0 -0.054998741931016885 1.409593891803637e-07 0 -0.054805603825709683 4.8247759284152805e-05 0 -0.054998741931016885 1.409593891803637e-07 0 -0.05433551714477132 0.00022921329876073612 0 -0.054632451728422592 9.2878609339348619e-05 0 -0.054324732377212658 -4.0942139399932104e-05 0 -0.05433551714477132 0.00022921329876073612 0 -0.054998741931016885 1.409593891803637e-07 0 -0.054632451728422592 9.2878609339348619e-05 0 -0.05433551714477132 0.00022921329876073612 0 -0.054766573933795373 6.1721912119630951e-05 0 -0.054998741931016885 1.409593891803637e-07 0 -0.054632451728422592 9.2878609339348619e-05 0 -0.054766573933795373 6.1721912119630951e-05 0 -0.054632451728422592 9.2878609339348619e-05 0 -0.054324732377212658 -4.0942139399932104e-05 0 -0.053498460911276996 -0.00043722413353740151 0 -0.054324732377212658 -4.0942139399932104e-05 0 -0.053892480188163831 -0.00016072013525672289 0 -0.054324732377212658 -4.0942139399932104e-05 0 -0.05433551714477132 0.00022921329876073612 0 -0.054073050229367411 0.0001346688452438472 0 -0.054324732377212658 -4.0942139399932104e-05 0 -0.054073050229367411 0.0001346688452438472 0 -0.053872140673862534 6.3438946765902762e-06 0 -0.054324732377212658 -4.0942139399932104e-05 0 -0.053872140673862534 6.3438946765902762e-06 0 -0.053892480188163831 -0.00016072013525672289 0 -0.053729954783162136 -0.00030914252423948195 0 -0.053872140673862534 6.3438946765902762e-06 0 -0.053892480188163831 -0.00016072013525672289 0 -0.054860424713998192 -0.00029365079092030962 0 -0.054760904057938008 -0.00029878816419628707 0 -0.054912127274489346 -0.0003545840434019839 0 -0.054910970571319585 -0.00028433037325971937 0 -0.054860424713998192 -0.00029365079092030962 0 -0.054912127274489346 -0.0003545840434019839 0 -0.054910970571319585 -0.00028433037325971937 0 -0.054860424713998192 -0.00029365079092030962 0 -0.054900593152598695 -0.00019457137491584139 0 -0.054910970571319585 -0.00028433037325971937 0 -0.054966622940231684 -0.0002309865341142415 0 -0.054900593152598695 -0.00019457137491584139 0 -0.054860424713998192 -0.00029365079092030962 0 -0.054760904057938008 -0.00029878816419628707 0 -0.054900593152598695 -0.00019457137491584139 0 -0.054784372713943527 -0.0002447461184357605 0 -0.054760904057938008 -0.00029878816419628707 0 -0.054900593152598695 -0.00019457137491584139 0 -0.054784372713943527 -0.0002447461184357605 0 -0.054680689275422502 -0.00040776406071826784 0 -0.05477930853399382 -0.00012657049911389212 0 -0.05511683569843108 3.0867151572906557e-05 0 -0.05483777317031556 -0.00011036445537455705 0 -0.054784372713943527 -0.0002447461184357605 0 -0.054693166507848626 -0.00033211351335897895 0 -0.054680689275422502 -0.00040776406071826784 0 -0.054784372713943527 -0.0002447461184357605 0 -0.054693166507848626 -0.00033211351335897895 0 -0.054760904057938008 -0.00029878816419628707 0 -0.05511683569843108 3.0867151572906557e-05 0 -0.05036302246581837 -0.00074742915232240738 0 -0.05454287390791266 0.00037458551383822748 0 -0.054576319881697581 -0.00025547953628049562 0 -0.053111073534097109 -0.00010574404222382273 0 -0.054680689275422502 -0.00040776406071826784 0 -0.054576319881697581 -0.00025547953628049562 0 -0.054710535185039703 0.00018064405536688229 0 -0.054693166507848626 -0.00033211351335897895 0 -0.054760904057938008 -0.00029878816419628707 0 -0.054576319881697581 -0.00025547953628049562 0 -0.054693166507848626 -0.00033211351335897895 0 -0.054680689275422502 -0.00040776406071826784 0 -0.054576319881697581 -0.00025547953628049562 0 -0.054576319881697581 -0.00025547953628049562 0 -0.053111073534097109 -0.00010574404222382273 0 -0.05308415496739681 -0.00065960116407795337 0 -0.054244201133191679 -0.00033881269430467963 0 -0.054745436936520869 -0.00041030080566345679 0 -0.054760904057938008 -0.00029878816419628707 0 -0.054576319881697581 -0.00025547953628049562 0 -0.054912127274489346 -0.0003545840434019839 0 -0.044626151712244662 -0.0021726098982962866 0 -0.044114707353665648 -0.0020070252654408611 0 -0.044906913240872731 -0.0015535539842301805 0 -0.054745436936520869 -0.00041030080566345679 0 -0.049661335844088959 -0.00060886218022801421 0 -0.053111073534097109 -0.00010574404222382273 0 -0.05308415496739681 -0.00065960116407795337 0 -0.051259889535024639 -0.00096911296537695107 0 -0.048494157115140719 -0.0011271271820161894 0 -0.049661335844088959 -0.00060886218022801421 0 -0.044626151712244662 -0.0021726098982962866 0 -0.045062012928325984 -0.0019329735923113301 0 -0.044906913240872731 -0.0015535539842301805 0 -0.045129847282714936 -0.0023840118266327077 0 -0.045793013539168592 -0.0019879558682095642 0 -0.045062012928325984 -0.0019329735923113301 0 -0.045129847282714936 -0.0023840118266327077 0 -0.044626151712244662 -0.0021726098982962866 0 -0.045062012928325984 -0.0019329735923113301 0 -0.046047800395307932 -0.001036539154045275 0 -0.049661335844088959 -0.00060886218022801421 0 -0.045855998311387119 -0.0012542837444611378 0 -0.045198810443780511 -0.0013669331083236967 0 -0.04474302986815043 -0.00079132891753695678 0 -0.045062012928325984 -0.0019329735923113301 0 -0.045198810443780511 -0.0013669331083236967 0 -0.044420594249915658 -0.00086972560907698092 0 -0.045793013539168592 -0.0019879558682095642 0 -0.045062012928325984 -0.0019329735923113301 0 -0.045198810443780511 -0.0013669331083236967 0 -0.054979646701279972 9.2435034993600511e-05 0 -0.054995407676506569 7.6579353236986007e-05 0 -0.054997994518273856 6.3944098235619153e-05 0 -0.053023442892997888 6.7853907005952768e-05 0 -0.053385557683835766 -0.0006943493797579223 0 -0.051325248875122249 4.0033435405341204e-05 0 -0.050441038970656972 -0.00070811568143892053 0 -0.050123007807549795 -0.0004389915590249978 0 -0.045198810443780511 -0.0013669331083236967 0 -0.04474302986815043 -0.00079132891753695678 0 -0.044420594249915658 -0.00086972560907698092 0 -0.049661335844088959 -0.00060886218022801421 0 -0.053385557683835766 -0.0006943493797579223 0 -0.048289488978351419 -0.00061884178420349627 0 -0.049661335844088959 -0.00060886218022801421 0 -0.050441038970656972 -0.00070811568143892053 0 -0.050245924891286216 -0.00074625797444436912 0 -0.050123007807549795 -0.0004389915590249978 0 -0.055061307433255519 -0.0002813392047807874 0 -0.054966622940231684 -0.0002309865341142415 0 -0.055022392037727491 -0.0001158422764379294 0 -0.054912127274489346 -0.0003545840434019839 0 -0.054923899821539168 -0.00031302720982204235 0 -0.054927538476626576 -0.0003295047285865548 0 -0.054910970571319585 -0.00028433037325971937 0 -0.054912127274489346 -0.0003545840434019839 0 -0.054927538476626576 -0.0003295047285865548 0 -0.054910970571319585 -0.00028433037325971937 0 -0.054927538476626576 -0.0003295047285865548 0 -0.054966622940231684 -0.0002309865341142415 0 -0.053385557683835766 -0.0006943493797579223 0 -0.055328300276234137 -0.00013047257150534475 0 -0.054923899821539168 -0.00031302720982204235 0 -0.054921818862737337 -0.00031551406943807674 0 -0.054927538476626576 -0.0003295047285865548 0 -0.055061307433255519 -0.0002813392047807874 0 -0.054927538476626576 -0.0003295047285865548 0 -0.054966622940231684 -0.0002309865341142415 0 -0.053385557683835766 -0.0006943493797579223 0 -0.055129618622456814 -5.477839116329375e-06 0 -0.054966622940231684 -0.0002309865341142415 0 -0.055022392037727491 -0.0001158422764379294 0 -0.054900593152598695 -0.00019457137491584139 0 -0.054995407676506569 7.6579353236986007e-05 0 -0.055013074487936409 4.2433201948197624e-05 0 -0.054997994518273856 6.3944098235619153e-05 0 -0.054990152024335069 6.3564957940018951e-05 0 -0.054997994518273856 6.3944098235619153e-05 0 -0.054999998297544511 7.1819483022231565e-08 0 -0.055013074487936409 4.2433201948197624e-05 0 -0.054997994518273856 6.3944098235619153e-05 0 -0.054999998297544511 7.1819483022231565e-08 0 -0.055013074487936409 4.2433201948197624e-05 0 -0.054999998297544511 7.1819483022231565e-08 0 -0.055000052190980767 -4.9453199188077992e-09 0 -0.055129618622456814 -5.477839116329375e-06 0 -0.054999965950566707 8.0216742746536932e-09 0 -0.055022392037727491 -0.0001158422764379294 0 -0.055000049977840651 -2.5345238909582045e-08 0 -0.054960128184853144 -7.0612934481378232e-05 0 -0.055000049977840651 -2.5345238909582045e-08 0 -0.054999923183354282 -3.2792110799319286e-08 0 -0.054960128184853144 -7.0612934481378232e-05 0 -0.054999923183354282 -3.2792110799319286e-08 0 -0.054960128184853144 -7.0612934481378232e-05 0 -0.054915364641293159 -5.8555361235515958e-05 0 -0.054960128184853144 -7.0612934481378232e-05 0 -0.054900593152598695 -0.00019457137491584139 0 -0.054915364641293159 -5.8555361235515958e-05 0 -0.055022392037727491 -0.0001158422764379294 0 -0.054960128184853144 -7.0612934481378232e-05 0 -0.054900593152598695 -0.00019457137491584139 0 -0.054784372713943527 -0.0002447461184357605 0 -0.054900593152598695 -0.00019457137491584139 0 -0.054915364641293159 -5.8555361235515958e-05 0 -0.054784372713943527 -0.0002447461184357605 0 -0.05477930853399382 -0.00012657049911389212 0 -0.054915364641293159 -5.8555361235515958e-05 0 -0.05477930853399382 -0.00012657049911389212 0 -0.054999769099804523 2.7777060252425809e-09 0 -0.054915364641293159 -5.8555361235515958e-05 0 -0.054999923183354282 -3.2792110799319286e-08 0 -0.054999769099804523 2.7777060252425809e-09 0 -0.054915364641293159 -5.8555361235515958e-05 0 -0.05483777317031556 -0.00011036445537455705 0 -0.054999941387741148 1.8087173920349013e-08 0 -0.054999916860925688 5.1340605580123213e-09 0 -0.054964161041167053 6.4289555500653661e-06 0 -0.054999983080700372 -4.5975226554206652e-09 0 -0.054933759118999434 1.2917083446420043e-05 0 -0.054999916860925688 5.1340605580123213e-09 0 -0.054964161041167053 6.4289555500653661e-06 0 -0.054999983080700372 -4.5975226554206652e-09 0 -0.054957010327037821 8.8483720608847129e-06 0 -0.054999839968634147 3.6756482005034846e-08 0 -0.054964161041167053 6.4289555500653661e-06 0 -0.054999983080700372 -4.5975226554206652e-09 0 -0.054957010327037821 8.8483720608847129e-06 0 -0.055997654033580931 0.00033868936564014477 0 -0.04992559942412212 0.00026070876311481067 0 -0.054957010327037821 8.8483720608847129e-06 0 -0.054918703735883888 2.4537605591483382e-05 0 -0.054900627153859502 3.5135454311217621e-05 0 -0.054964161041167053 6.4289555500653661e-06 0 -0.054957010327037821 8.8483720608847129e-06 0 -0.054918703735883888 2.4537605591483382e-05 0 -0.054933759118999434 1.2917083446420043e-05 0 -0.054964161041167053 6.4289555500653661e-06 0 -0.054918703735883888 2.4537605591483382e-05 0 -0.054873076840501342 3.701842047808924e-05 0 -0.054933759118999434 1.2917083446420043e-05 0 -0.054918703735883888 2.4537605591483382e-05 0 -0.054873076840501342 3.701842047808924e-05 0 -0.054918703735883888 2.4537605591483382e-05 0 -0.054879989556821503 5.1282185116874664e-05 0 -0.054918703735883888 2.4537605591483382e-05 0 -0.054879989556821503 5.1282185116874664e-05 0 -0.054900627153859502 3.5135454311217621e-05 0 -0.050510145391574501 -0.00015250240082412026 0 -0.04992559942412212 0.00026070876311481067 0 -0.054873076840501342 3.701842047808924e-05 0 -0.054879989556821503 5.1282185116874664e-05 0 -0.054819918445282369 7.2973511136147453e-05 0 -0.050510145391574501 -0.00015250240082412026 0 -0.05036302246581837 -0.00074742915232240738 0 -0.045910815049224528 -0.0006353997233270979 0 -0.045068786449885587 -0.00026044309636958431 0 -0.044822615797969645 -0.00099400288424387139 0 -0.045910815049224528 -0.0006353997233270979 0 -0.045643907822761912 0.00040733524326389225 0 -0.045068786449885587 -0.00026044309636958431 0 -0.045910815049224528 -0.0006353997233270979 0 -0.046480933252061915 0.00047201972709614269 0 -0.045643907822761912 0.00040733524326389225 0 -0.044551449115582682 -0.00091169925403776161 0 -0.04992559942412212 0.00026070876311481067 0 -0.045988955247633183 -0.00033555335639636082 0 -0.044208683321197331 -0.00090951003922504843 0 -0.044898565265144054 0.00051778427872619965 0 -0.04992559942412212 0.00026070876311481067 0 -0.052134662690591804 0.00018870731640796302 0 -0.046480933252061915 0.00047201972709614269 0 -0.045643907822761912 0.00040733524326389225 0 -0.045485863960493117 0.0012595069871593188 0 -0.045643907822761912 0.00040733524326389225 0 -0.044842302206291297 0.00045569503472342888 0 -0.045068786449885587 -0.00026044309636958431 0 -0.052134662690591804 0.00018870731640796302 0 -0.048665396165531227 -5.3836583562558683e-07 0 -0.045643907822761912 0.00040733524326389225 0 -0.045485863960493117 0.0012595069871593188 0 -0.044842302206291297 0.00045569503472342888 0 -0.052134662690591804 0.00018870731640796302 0 -0.055267546766202977 -0.00082454007840387835 0 -0.054957010327037821 8.8483720608847129e-06 0 -0.054902763078475837 -7.8374616119251858e-06 0 -0.054903812497462123 5.1736118439321578e-06 0 -0.054957010327037821 8.8483720608847129e-06 0 -0.054903812497462123 5.1736118439321578e-06 0 -0.054999839968634147 3.6756482005034846e-08 0 -0.055000547113102781 -2.8524987037490377e-07 0 -0.054999293327645631 3.8915203974623904e-07 0 -0.054960270691095853 -0.000224718799746234 0 -0.052134662690591804 0.00018870731640796302 0 -0.05500266242359305 1.0435315030943344e-06 0 -0.054982338664796918 -0.00023347071175052763 0 -0.055000547113102781 -2.8524987037490377e-07 0 -0.054960270691095853 -0.000224718799746234 0 -0.054999293327645631 3.8915203974623904e-07 0 -0.054960270691095853 -0.000224718799746234 0 -0.054800581256471914 -0.00041389930794349304 0 -0.054999293327645631 3.8915203974623904e-07 0 -0.054800581256471914 -0.00041389930794349304 0 -0.055001853516411084 -2.2512623103048389e-06 0 -0.054800581256471914 -0.00041389930794349304 0 -0.054477621327398439 -0.00074617264635211357 0 -0.054798866942527648 -0.00060773006154728572 0 -0.055072381989051802 -0.00039104669212744047 0 -0.054896600924840402 -0.0004154151746265839 0 -0.054798866942527648 -0.00060773006154728572 0 -0.054960270691095853 -0.000224718799746234 0 -0.054800581256471914 -0.00041389930794349304 0 -0.054896600924840402 -0.0004154151746265839 0 -0.054800581256471914 -0.00041389930794349304 0 -0.054896600924840402 -0.0004154151746265839 0 -0.054798866942527648 -0.00060773006154728572 0 -0.055072381989051802 -0.00039104669212744047 0 -0.054960270691095853 -0.000224718799746234 0 -0.054896600924840402 -0.0004154151746265839 0 -0.0549912525895472 5.6279165258823174e-06 0 -0.054712472679774769 -0.00062953493405407048 0 -0.053641120567570998 -0.0021182567432527677 0 -0.054800581256471914 -0.00041389930794349304 0 -0.054712472679774769 -0.00062953493405407048 0 -0.055001853516411084 -2.2512623103048389e-06 0 -0.0549912525895472 5.6279165258823174e-06 0 -0.054712472679774769 -0.00062953493405407048 0 -0.055001853516411084 -2.2512623103048389e-06 0 -0.054800581256471914 -0.00041389930794349304 0 -0.054712472679774769 -0.00062953493405407048 0 -0.054477621327398439 -0.00074617264635211357 0 -0.054712472679774769 -0.00062953493405407048 0 -0.053641120567570998 -0.0021182567432527677 0 -0.054477621327398439 -0.00074617264635211357 0 -0.048482884679373402 -0.0012055986073045322 0 -0.049463472187656135 -0.00067394497890830023 0 -0.043712718744589485 -0.00058976451380394926 0 -0.043179527292911163 -0.00032573368303454871 0 -0.044051813301491514 -0.00028409538124336326 0 -0.043179527292911163 -0.00032573368303454871 0 -0.044051813301491514 -0.00028409538124336326 0 -0.043472360934198123 -0.00036237342819307261 0 -0.043179527292911163 -0.00032573368303454871 0 -0.043472360934198123 -0.00036237342819307261 0 -0.04202792513766912 -0.00065322439741914956 0 -0.043179527292911163 -0.00032573368303454871 0 -0.04202792513766912 -0.00065322439741914956 0 -0.042244355991402402 -0.00036227844518667377 0 -0.049463472187656135 -0.00067394497890830023 0 -0.048665396165531227 -5.3836583562558683e-07 0 -0.044051813301491514 -0.00028409538124336326 0 -0.044492795283649571 -0.00026661464445618496 0 -0.04405064659718011 -0.00032925323070225493 0 -0.044051813301491514 -0.00028409538124336326 0 -0.043472360934198123 -0.00036237342819307261 0 -0.04405064659718011 -0.00032925323070225493 0 -0.043472360934198123 -0.00036237342819307261 0 -0.044105714137238773 -0.00051242849674029917 0 -0.043408490902412264 -0.00093913566774908933 0 -0.043472360934198123 -0.00036237342819307261 0 -0.04405064659718011 -0.00032925323070225493 0 -0.044105714137238773 -0.00051242849674029917 0 -0.044492795283649571 -0.00026661464445618496 0 -0.04405064659718011 -0.00032925323070225493 0 -0.044105714137238773 -0.00051242849674029917 0 -0.044105714137238773 -0.00051242849674029917 0 -0.045068786449885587 -0.00026044309636958431 0 -0.044822615797969645 -0.00099400288424387139 0 -0.048665396165531227 -5.3836583562558683e-07 0 -0.043141133650186111 -0.00087242486392274813 0 -0.044842302206291297 0.00045569503472342888 0 -0.044105714137238773 -0.00051242849674029917 0 -0.045068786449885587 -0.00026044309636958431 0 -0.044105714137238773 -0.00051242849674029917 0 -0.044822615797969645 -0.00099400288424387139 0 -0.044204146963424673 -0.0015665840801180417 0 -0.044105714137238773 -0.00051242849674029917 0 -0.044204146963424673 -0.0015665840801180417 0 -0.043408490902412264 -0.00093913566774908933 0 -0.044204146963424673 -0.0015665840801180417 0 -0.043408490902412264 -0.00093913566774908933 0 -0.043031027445037728 -0.0019998515328465316 0 -0.044204146963424673 -0.0015665840801180417 0 -0.044844748237781666 -0.002728327797198964 0 -0.045354795173301182 -0.0016775140476150252 0 -0.044822615797969645 -0.00099400288424387139 0 -0.044204146963424673 -0.0015665840801180417 0 -0.045354795173301182 -0.0016775140476150252 0 -0.043472360934198123 -0.00036237342819307261 0 -0.04202792513766912 -0.00065322439741914956 0 -0.043408490902412264 -0.00093913566774908933 0 -0.041839492464951715 -0.0006492072451084837 0 -0.041517517325307812 -0.00090882177855653432 0 -0.04202792513766912 -0.00065322439741914956 0 -0.043408490902412264 -0.00093913566774908933 0 -0.043031027445037728 -0.0019998515328465316 0 -0.04202792513766912 -0.00065322439741914956 0 -0.040966377194535504 3.6544274821562379e-05 0 -0.04134600142045964 2.1536547706225949e-05 0 -0.04202792513766912 -0.00065322439741914956 0 -0.039870028320725177 0.00010009736116661144 0 -0.040966377194535504 3.6544274821562379e-05 0 -0.039723622446295327 0.00075626349465371747 0 -0.039692568365515171 0.0010035824300619832 0 -0.040454992378952975 0.00055039198951560044 0 -0.040966377194535504 3.6544274821562379e-05 0 -0.039723622446295327 0.00075626349465371747 0 -0.040454992378952975 0.00055039198951560044 0 -0.039870028320725177 0.00010009736116661144 0 -0.039723622446295327 0.00075626349465371747 0 -0.039117508201389865 0.00086990576353349243 0 -0.041517517325307812 -0.00090882177855653432 0 -0.041277990278111049 -0.00087188379070972128 0 -0.039870028320725177 0.00010009736116661144 0 -0.040966377194535504 3.6544274821562379e-05 0 -0.039723622446295327 0.00075626349465371747 0 -0.039723622446295327 0.00075626349465371747 0 -0.039295436130180363 0.001129401518951644 0 -0.039692568365515171 0.0010035824300619832 0 -0.039723622446295327 0.00075626349465371747 0 -0.039295436130180363 0.001129401518951644 0 -0.039117508201389865 0.00086990576353349243 0 -0.039295436130180363 0.001129401518951644 0 -0.039692568365515171 0.0010035824300619832 0 -0.039315624867269194 0.0012104560736989592 0 -0.044204146963424673 -0.0015665840801180417 0 -0.043031027445037728 -0.0019998515328465316 0 -0.043710072957182572 -0.002891149177795507 0 -0.044204146963424673 -0.0015665840801180417 0 -0.044844748237781666 -0.002728327797198964 0 -0.043710072957182572 -0.002891149177795507 0 -0.039295436130180363 0.001129401518951644 0 -0.039117508201389865 0.00086990576353349243 0 -0.039121806683243471 0.0011854943991341513 0 -0.041277990278111049 -0.00087188379070972128 0 -0.042524744640172543 -0.0018486079960582404 0 -0.039117508201389865 0.00086990576353349243 0 -0.038959428378785944 0.0011937183080008389 0 -0.039121806683243471 0.0011854943991341513 0 -0.043138184425847909 -0.0031415852324992348 0 -0.043171480101489905 -0.0031782977479202748 0 -0.043080599947334888 -0.003221882118032115 0 -0.044062542799514465 -0.0032129763542612724 0 -0.042524744640172543 -0.0018486079960582404 0 -0.044844748237781666 -0.002728327797198964 0 -0.043710072957182572 -0.002891149177795507 0 -0.04433563501224521 -0.0037667148661317002 0 -0.043171480101489905 -0.0031782977479202748 0 -0.043234323432362241 -0.0031779450513085756 0 -0.043292695775572786 -0.0031049537533050764 0 -0.043171480101489905 -0.0031782977479202748 0 -0.043234323432362241 -0.0031779450513085756 0 -0.043177192818180943 -0.0032095525027763089 0 -0.043234323432362241 -0.0031779450513085756 0 -0.043315740578623738 -0.003146751459249759 0 -0.043320769467090375 -0.0032263826910100806 0 -0.043234323432362241 -0.0031779450513085756 0 -0.043292695775572786 -0.0031049537533050764 0 -0.043315740578623738 -0.003146751459249759 0 -0.043292695775572786 -0.0031049537533050764 0 -0.043348177688774053 -0.0030917653305177289 0 -0.043315740578623738 -0.003146751459249759 0 -0.043138184425847909 -0.0031415852324992348 0 -0.043171480101489905 -0.0031782977479202748 0 -0.043292695775572786 -0.0031049537533050764 0 -0.043138184425847909 -0.0031415852324992348 0 -0.043355240750996872 -0.0029358028226575197 0 -0.043557551127388586 -0.0023254022192176938 0 -0.043355240750996872 -0.0029358028226575197 0 -0.043350547072078825 -0.0030218003763843003 0 -0.043356035363333233 -0.003013570238783487 0 -0.043405584649026656 -0.002957896298656506 0 -0.043962794143598667 -0.002806331788604515 0 -0.044062542799514465 -0.0032129763542612724 0 -0.044529879940791883 -0.0018954007546051024 0 -0.043138184425847909 -0.0031415852324992348 0 -0.043292695775572786 -0.0031049537533050764 0 -0.043355240750996872 -0.0029358028226575197 0 -0.043292695775572786 -0.0031049537533050764 0 -0.043350547072078825 -0.0030218003763843003 0 -0.043348177688774053 -0.0030917653305177289 0 -0.043292695775572786 -0.0031049537533050764 0 -0.043355240750996872 -0.0029358028226575197 0 -0.043350547072078825 -0.0030218003763843003 0 -0.043368640469007728 -0.0030419494130093693 0 -0.043350547072078825 -0.0030218003763843003 0 -0.043356035363333233 -0.003013570238783487 0 -0.043368640469007728 -0.0030419494130093693 0 -0.043350547072078825 -0.0030218003763843003 0 -0.043348177688774053 -0.0030917653305177289 0 -0.043368640469007728 -0.0030419494130093693 0 -0.043348177688774053 -0.0030917653305177289 0 -0.043373999904468462 -0.0030934153816670894 0 -0.043348177688774053 -0.0030917653305177289 0 -0.043363074516963709 -0.0031432980259688834 0 -0.043373999904468462 -0.0030934153816670894 0 -0.043315740578623738 -0.003146751459249759 0 -0.043363074516963709 -0.0031432980259688834 0 -0.043320769467090375 -0.0032263826910100806 0 -0.043348177688774053 -0.0030917653305177289 0 -0.043315740578623738 -0.003146751459249759 0 -0.043363074516963709 -0.0031432980259688834 0 -0.043363074516963709 -0.0031432980259688834 0 -0.04339706346308541 -0.0031208086131129212 0 -0.04341253070076951 -0.0031510138929112062 0 -0.043363074516963709 -0.0031432980259688834 0 -0.04339706346308541 -0.0031208086131129212 0 -0.043373999904468462 -0.0030934153816670894 0 -0.04339706346308541 -0.0031208086131129212 0 -0.043373999904468462 -0.0030934153816670894 0 -0.043397034553327052 -0.0030609390145284808 0 -0.043421129226505893 -0.0032467964233022901 0 -0.043234409104701582 -0.003244100857637051 0 -0.043426385712237767 -0.003255680807201376 0 -0.0434215533334621 -0.0031313208320888843 0 -0.04341253070076951 -0.0031510138929112062 0 -0.04339706346308541 -0.0031208086131129212 0 -0.0434215533334621 -0.0031313208320888843 0 -0.043397034553327052 -0.0030609390145284808 0 -0.04339706346308541 -0.0031208086131129212 0 -0.0434215533334621 -0.0031313208320888843 0 -0.04341253070076951 -0.0031510138929112062 0 -0.0434215533334621 -0.0031313208320888843 0 -0.043444179414142373 -0.0030024187967826067 0 -0.043397034553327052 -0.0030609390145284808 0 -0.043444179414142373 -0.0030024187967826067 0 -0.043397034553327052 -0.0030609390145284808 0 -0.043410642956292385 -0.0029672742095423134 0 -0.043368640469007728 -0.0030419494130093693 0 -0.043397034553327052 -0.0030609390145284808 0 -0.043410642956292385 -0.0029672742095423134 0 -0.043368640469007728 -0.0030419494130093693 0 -0.043373999904468462 -0.0030934153816670894 0 -0.043397034553327052 -0.0030609390145284808 0 -0.044414705083376672 -0.002605844930377106 0 -0.043962794143598667 -0.002806331788604515 0 -0.0458069020477311 -0.0021302416327811926 0 -0.045031144468867829 -0.0016223347728415057 0 -0.044492551242385867 -0.0026726913459062338 0 -0.043368640469007728 -0.0030419494130093693 0 -0.043410642956292385 -0.0029672742095423134 0 -0.043356035363333233 -0.003013570238783487 0 -0.043444179414142373 -0.0030024187967826067 0 -0.043410642956292385 -0.0029672742095423134 0 -0.043483582771165145 -0.0029263791924544953 0 -0.042759438419873355 -0.0032034812821174169 0 -0.046386590405813666 -0.0021962064408804585 0 -0.045988955247633183 -0.00033555335639636082 0 -0.046216996845567251 -0.0013325082451925293 0 -0.047111690366564075 -0.001198508093915632 0 -0.044414705083376672 -0.002605844930377106 0 -0.046386590405813666 -0.0021962064408804585 0 -0.0458069020477311 -0.0021302416327811926 0 -0.047097697343253794 -0.0015306066081621707 0 -0.046216996845567251 -0.0013325082451925293 0 -0.047097697343253794 -0.0015306066081621707 0 -0.046216996845567251 -0.0013325082451925293 0 -0.047111690366564075 -0.001198508093915632 0 -0.046386590405813666 -0.0021962064408804585 0 -0.05036302246581837 -0.00074742915232240738 0 -0.0458069020477311 -0.0021302416327811926 0 -0.046216996845567251 -0.0013325082451925293 0 -0.045031144468867829 -0.0016223347728415057 0 -0.045988955247633183 -0.00033555335639636082 0 -0.046216996845567251 -0.0013325082451925293 0 -0.045031144468867829 -0.0016223347728415057 0 -0.044208683321197331 -0.00090951003922504843 0 -0.045031144468867829 -0.0016223347728415057 0 -0.043557551127388586 -0.0023254022192176938 0 -0.045988955247633183 -0.00033555335639636082 0 -0.044208683321197331 -0.00090951003922504843 0 -0.045031144468867829 -0.0016223347728415057 0 -0.045910815049224528 -0.0006353997233270979 0 -0.044822615797969645 -0.00099400288424387139 0 -0.045354795173301182 -0.0016775140476150252 0 -0.044551449115582682 -0.00091169925403776161 0 -0.044529879940791883 -0.0018954007546051024 0 -0.043355240750996872 -0.0029358028226575197 0 -0.043557551127388586 -0.0023254022192176938 0 -0.044492551242385867 -0.0026726913459062338 0 -0.045031144468867829 -0.0016223347728415057 0 -0.043557551127388586 -0.0023254022192176938 0 -0.044492551242385867 -0.0026726913459062338 0 -0.048158600566614931 -2.5830588042944383e-06 0 -0.052026128836941937 -6.915499039762882e-07 0 -0.053374330954223878 0.00016907770062327262 0 -0.048151522661938076 -5.8168870860788917e-07 0 -0.048285572858298022 -0.0010775180976709293 0 -0.048158600566614931 -2.5830588042944383e-06 0 -0.05121402115091702 -0.00063196757268730588 0 -0.052026128836941937 -6.915499039762882e-07 0 -0.043852838091721795 -0.001453914390579705 0 -0.04514536045716934 -0.0019316708931329059 0 -0.043527971821142486 -0.0026723028868334405 0 -0.043852838091721795 -0.001453914390579705 0 -0.04514536045716934 -0.0019316708931329059 0 -0.044087250674305807 -0.00056385362002492974 0 -0.05121402115091702 -0.00063196757268730588 0 -0.052259924666153354 -0.00018216858757031106 0 -0.053013084711553589 -0.00048150040386446107 0 -0.048285572858298022 -0.0010775180976709293 0 -0.047536966802203005 -0.00081180103284439486 0 -0.052259924666153354 -0.00018216858757031106 0 -0.052026128836941937 -6.915499039762882e-07 0 -0.052891398719034241 2.8372616511740282e-05 0 -0.05121402115091702 -0.00063196757268730588 0 -0.052259924666153354 -0.00018216858757031106 0 -0.052026128836941937 -6.915499039762882e-07 0 -0.052026128836941937 -6.915499039762882e-07 0 -0.052891398719034241 2.8372616511740282e-05 0 -0.053346061252637793 0.00019759334678270363 0 -0.050543400238060129 -0.00095169955688309126 0 -0.047536966802203005 -0.00081180103284439486 0 -0.052259924666153354 -0.00018216858757031106 0 -0.052891398719034241 2.8372616511740282e-05 0 -0.053013084711553589 -0.00048150040386446107 0 -0.048158600566614931 -2.5830588042944383e-06 0 -0.053374330954223878 0.00016907770062327262 0 -0.054997633603045243 1.4404116379250885e-06 0 -0.053374330954223878 0.00016907770062327262 0 -0.054997633603045243 1.4404116379250885e-06 0 -0.054997017651478394 -3.9969700069054693e-07 0 -0.054997017651478394 -3.9969700069054693e-07 0 -0.053346061252637793 0.00019759334678270363 0 -0.053444628903940292 0.00021118526381495425 0 -0.053374330954223878 0.00016907770062327262 0 -0.054997017651478394 -3.9969700069054693e-07 0 -0.053346061252637793 0.00019759334678270363 0 -0.052891398719034241 2.8372616511740282e-05 0 -0.053346061252637793 0.00019759334678270363 0 -0.053444628903940292 0.00021118526381495425 0 -0.052026128836941937 -6.915499039762882e-07 0 -0.053374330954223878 0.00016907770062327262 0 -0.053346061252637793 0.00019759334678270363 0 -0.054582299591369919 -0.00021317144695664645 0 -0.04825545456865768 -0.00025691880110398721 0 -0.054694080514940548 -0.00021457804881270715 0 -0.054685235198367779 -0.0002502763347583582 0 -0.054453206301079055 -0.00040488015417492758 0 -0.054999731394679285 -1.191245659585576e-08 0 -0.054694080514940548 -0.00021457804881270715 0 -0.054999361847206871 -2.7164853335672496e-07 0 -0.054664753130074781 0.00014773878253240074 0 -0.054582299591369919 -0.00021317144695664645 0 -0.054999361847206871 -2.7164853335672496e-07 0 -0.054685235198367779 -0.0002502763347583582 0 -0.054799090833476734 -0.00017266697278902731 0 -0.054694080514940548 -0.00021457804881270715 0 -0.054999361847206871 -2.7164853335672496e-07 0 -0.054685235198367779 -0.0002502763347583582 0 -0.054685235198367779 -0.0002502763347583582 0 -0.054453206301079055 -0.00040488015417492758 0 -0.054523466007105559 -0.0003985857669585581 0 -0.04825545456865768 -0.00025691880110398721 0 -0.049053117558798175 -0.0002924780532904287 0 -0.043230980425489854 -0.00026970535150997479 0 -0.042985574345972992 -0.00036575852496556824 0 -0.043377537093712872 -0.00021937063290914212 0 -0.052891398719034241 2.8372616511740282e-05 0 -0.053444628903940292 0.00021118526381495425 0 -0.053163164831155338 -5.9120972954204416e-05 0 -0.052891398719034241 2.8372616511740282e-05 0 -0.053163164831155338 -5.9120972954204416e-05 0 -0.052886814384614303 -0.00018370109071267506 0 -0.04825545456865768 -0.00025691880110398721 0 -0.047536966802203005 -0.00081180103284439486 0 -0.041876653005633709 -0.00021958609237612478 0 -0.042230902077527922 -0.00038080708752806042 0 -0.041802464414606839 0.00013508905327219362 0 -0.043852838091721795 -0.001453914390579705 0 -0.043527971821142486 -0.0026723028868334405 0 -0.042765899289112945 -0.00074080770126312093 0 -0.041876653005633709 -0.00021958609237612478 0 -0.041560262169428618 -4.3130743324875782e-05 0 -0.041802464414606839 0.00013508905327219362 0 -0.041925488354957977 -0.00052891207407026563 0 -0.041876653005633709 -0.00021958609237612478 0 -0.042230902077527922 -0.00038080708752806042 0 -0.047536966802203005 -0.00081180103284439486 0 -0.041766753903280454 -0.00030670838403530458 0 -0.041925488354957977 -0.00052891207407026563 0 -0.041876653005633709 -0.00021958609237612478 0 -0.041560262169428618 -4.3130743324875782e-05 0 -0.043230980425489854 -0.00026970535150997479 0 -0.042952201166624605 -0.00029411561114369821 0 -0.042985574345972992 -0.00036575852496556824 0 -0.042952201166624605 -0.00029411561114369821 0 -0.042985574345972992 -0.00036575852496556824 0 -0.042587705295864184 -0.00022461343656808054 0 -0.04825545456865768 -0.00025691880110398721 0 -0.041718070049851397 2.6816554963843704e-05 0 -0.042985574345972992 -0.00036575852496556824 0 -0.0425408121909489 -0.00028281459200466918 0 -0.042587705295864184 -0.00022461343656808054 0 -0.042985574345972992 -0.00036575852496556824 0 -0.043172422607240114 -0.00045106312679391399 0 -0.0425408121909489 -0.00028281459200466918 0 -0.043172422607240114 -0.00045106312679391399 0 -0.042436328735946521 -0.00031982970069395863 0 -0.0425408121909489 -0.00028281459200466918 0 -0.043172422607240114 -0.00045106312679391399 0 -0.043575589524550422 -0.00043716800153018466 0 -0.043377537093712872 -0.00021937063290914212 0 -0.043172422607240114 -0.00045106312679391399 0 -0.043575589524550422 -0.00043716800153018466 0 -0.044036570972078241 -0.00049698962551308803 0 -0.042985574345972992 -0.00036575852496556824 0 -0.043172422607240114 -0.00045106312679391399 0 -0.043377537093712872 -0.00021937063290914212 0 -0.054999361847206871 -2.7164853335672496e-07 0 -0.054799090833476734 -0.00017266697278902731 0 -0.054999823774779674 -8.8606539771559376e-08 0 -0.054523466007105559 -0.0003985857669585581 0 -0.054799090833476734 -0.00017266697278902731 0 -0.054766878502751255 -0.00026475157665617797 0 -0.054685235198367779 -0.0002502763347583582 0 -0.054523466007105559 -0.0003985857669585581 0 -0.054799090833476734 -0.00017266697278902731 0 -0.049053117558798175 -0.0002924780532904287 0 -0.049200042444573849 -0.00030096055952197998 0 -0.054799090833476734 -0.00017266697278902731 0 -0.054766878502751255 -0.00026475157665617797 0 -0.054999823774779674 -8.8606539771559376e-08 0 -0.043575589524550422 -0.00043716800153018466 0 -0.043377537093712872 -0.00021937063290914212 0 -0.043606254901444597 -0.0002569727768999928 0 -0.043575589524550422 -0.00043716800153018466 0 -0.043606254901444597 -0.0002569727768999928 0 -0.044396285251120923 -0.00054673499408427312 0 -0.043606254901444597 -0.0002569727768999928 0 -0.044396285251120923 -0.00054673499408427312 0 -0.045909195630242469 -0.00060626765666652494 0 -0.043575589524550422 -0.00043716800153018466 0 -0.044396285251120923 -0.00054673499408427312 0 -0.044036570972078241 -0.00049698962551308803 0 -0.044396285251120923 -0.00054673499408427312 0 -0.044788999708116624 -0.00053234807665852857 0 -0.044036570972078241 -0.00049698962551308803 0 -0.044788999708116624 -0.00053234807665852857 0 -0.044396646719124806 -0.00042637422404250881 0 -0.044036570972078241 -0.00049698962551308803 0 -0.044788999708116624 -0.00053234807665852857 0 -0.045909195630242469 -0.00060626765666652494 0 -0.044396646719124806 -0.00042637422404250881 0 -0.044396285251120923 -0.00054673499408427312 0 -0.044788999708116624 -0.00053234807665852857 0 -0.045909195630242469 -0.00060626765666652494 0 -0.049200042444573849 -0.00030096055952197998 0 -0.05088768220403872 -0.00020991941843498261 0 -0.054766878502751255 -0.00026475157665617797 0 -0.054999823774779674 -8.8606539771559376e-08 0 -0.055010878219814242 -6.1579254285160055e-05 0 -0.043606254901444597 -0.0002569727768999928 0 -0.046873094358674483 -4.6171912258390359e-05 0 -0.045909195630242469 -0.00060626765666652494 0 -0.055000129414197539 1.8802205789115896e-09 0 -0.054999823774779674 -8.8606539771559376e-08 0 -0.055010878219814242 -6.1579254285160055e-05 0 -0.0549912525895472 5.6279165258823174e-06 0 -0.053641120567570998 -0.0021182567432527677 0 -0.046873094358674483 -4.6171912258390359e-05 0 -0.054998296018627539 3.9268117323865442e-08 0 -0.05088768220403872 -0.00020991941843498261 0 -0.043712718744589485 -0.00058976451380394926 0 -0.045909195630242469 -0.00060626765666652494 0 -0.044396646719124806 -0.00042637422404250881 0 -0.053641120567570998 -0.0021182567432527677 0 -0.046873094358674483 -4.6171912258390359e-05 0 -0.045909195630242469 -0.00060626765666652494 0 -0.048482884679373402 -0.0012055986073045322 0 -0.046037269537921241 -0.00064629964238392321 0 -0.043179527292911163 -0.00032573368303454871 0 -0.044396646719124806 -0.00042637422404250881 0 -0.043230338504843528 -0.00041298975510473406 0 -0.043712718744589485 -0.00058976451380394926 0 -0.043179527292911163 -0.00032573368303454871 0 -0.044396646719124806 -0.00042637422404250881 0 -0.043172422607240114 -0.00045106312679391399 0 -0.044036570972078241 -0.00049698962551308803 0 -0.043230338504843528 -0.00041298975510473406 0 -0.044396646719124806 -0.00042637422404250881 0 -0.044036570972078241 -0.00049698962551308803 0 -0.043230338504843528 -0.00041298975510473406 0 -0.043172422607240114 -0.00045106312679391399 0 -0.043230338504843528 -0.00041298975510473406 0 -0.042436328735946521 -0.00031982970069395863 0 -0.043230338504843528 -0.00041298975510473406 0 -0.042244355991402402 -0.00036227844518667377 0 -0.042436328735946521 -0.00031982970069395863 0 -0.043179527292911163 -0.00032573368303454871 0 -0.043230338504843528 -0.00041298975510473406 0 -0.042244355991402402 -0.00036227844518667377 0 -0.04202792513766912 -0.00065322439741914956 0 -0.042244355991402402 -0.00036227844518667377 0 -0.04134600142045964 2.1536547706225949e-05 0 -0.042244355991402402 -0.00036227844518667377 0 -0.042436328735946521 -0.00031982970069395863 0 -0.041698922641960234 1.3466851453113504e-07 0 -0.042244355991402402 -0.00036227844518667377 0 -0.041698922641960234 1.3466851453113504e-07 0 -0.04134600142045964 2.1536547706225949e-05 0 -0.041698922641960234 1.3466851453113504e-07 0 -0.04134600142045964 2.1536547706225949e-05 0 -0.041071099324126017 0.00033957934626298368 0 -0.040966377194535504 3.6544274821562379e-05 0 -0.04134600142045964 2.1536547706225949e-05 0 -0.040454992378952975 0.00055039198951560044 0 -0.04134600142045964 2.1536547706225949e-05 0 -0.040454992378952975 0.00055039198951560044 0 -0.040517127449289446 0.00059973462443885434 0 -0.039692568365515171 0.0010035824300619832 0 -0.040454992378952975 0.00055039198951560044 0 -0.039810763229913393 0.00098982708100619067 0 -0.040454992378952975 0.00055039198951560044 0 -0.039810763229913393 0.00098982708100619067 0 -0.040517127449289446 0.00059973462443885434 0 -0.039692568365515171 0.0010035824300619832 0 -0.039810763229913393 0.00098982708100619067 0 -0.039195685017579619 0.0012570929773805472 0 -0.039810763229913393 0.00098982708100619067 0 -0.040517127449289446 0.00059973462443885434 0 -0.039968999644833039 0.00096673699235455253 0 -0.039810763229913393 0.00098982708100619067 0 -0.039968999644833039 0.00096673699235455253 0 -0.039387877640089122 0.0012346786530291231 0 -0.040517127449289446 0.00059973462443885434 0 -0.040667542065914906 0.00062615070353620684 0 -0.039968999644833039 0.00096673699235455253 0 -0.04134600142045964 2.1536547706225949e-05 0 -0.040517127449289446 0.00059973462443885434 0 -0.041071099324126017 0.00033957934626298368 0 -0.040517127449289446 0.00059973462443885434 0 -0.041071099324126017 0.00033957934626298368 0 -0.040667542065914906 0.00062615070353620684 0 -0.041071099324126017 0.00033957934626298368 0 -0.040667542065914906 0.00062615070353620684 0 -0.041572141515883107 0.00021486783252361999 0 -0.040667542065914906 0.00062615070353620684 0 -0.039968999644833039 0.00096673699235455253 0 -0.040012284947616182 0.0010096792636294935 0 -0.040667542065914906 0.00062615070353620684 0 -0.040508611519849476 0.00079630965139539924 0 -0.0410487410270177 0.00059255681131385003 0 -0.040667542065914906 0.00062615070353620684 0 -0.040012284947616182 0.0010096792636294935 0 -0.040508611519849476 0.00079630965139539924 0 -0.040508611519849476 0.00079630965139539924 0 -0.0410487410270177 0.00059255681131385003 0 -0.040832837260876276 0.00069049043069434671 0 -0.041197342858886203 0.00056799306493343713 0 -0.041820333416438066 0.00012925403362667602 0 -0.040667542065914906 0.00062615070353620684 0 -0.0410487410270177 0.00059255681131385003 0 -0.041572141515883107 0.00021486783252361999 0 -0.041572141515883107 0.00021486783252361999 0 -0.042174104683010069 -8.5580375593116142e-05 0 -0.042352974105263723 7.1537577626074687e-05 0 -0.0410487410270177 0.00059255681131385003 0 -0.041572141515883107 0.00021486783252361999 0 -0.042352974105263723 7.1537577626074687e-05 0 -0.041698922641960234 1.3466851453113504e-07 0 -0.041071099324126017 0.00033957934626298368 0 -0.041572141515883107 0.00021486783252361999 0 -0.041698922641960234 1.3466851453113504e-07 0 -0.041572141515883107 0.00021486783252361999 0 -0.042089628819270059 -0.00012422255387399127 0 -0.041572141515883107 0.00021486783252361999 0 -0.042089628819270059 -0.00012422255387399127 0 -0.042174104683010069 -8.5580375593116142e-05 0 -0.042436328735946521 -0.00031982970069395863 0 -0.041698922641960234 1.3466851453113504e-07 0 -0.042089628819270059 -0.00012422255387399127 0 -0.042436328735946521 -0.00031982970069395863 0 -0.042089628819270059 -0.00012422255387399127 0 -0.0425408121909489 -0.00028281459200466918 0 -0.042587705295864184 -0.00022461343656808054 0 -0.042174104683010069 -8.5580375593116142e-05 0 -0.042352974105263723 7.1537577626074687e-05 0 -0.0425408121909489 -0.00028281459200466918 0 -0.042587705295864184 -0.00022461343656808054 0 -0.042174104683010069 -8.5580375593116142e-05 0 -0.042089628819270059 -0.00012422255387399127 0 -0.0425408121909489 -0.00028281459200466918 0 -0.042174104683010069 -8.5580375593116142e-05 0 -0.041718070049851397 2.6816554963843704e-05 0 -0.041820333416438066 0.00012925403362667602 0 -0.041560262169428618 -4.3130743324875782e-05 0 -0.041802464414606839 0.00013508905327219362 0 -0.041230064629479299 0.00038550976478637157 0 -0.042952201166624605 -0.00029411561114369821 0 -0.042587705295864184 -0.00022461343656808054 0 -0.042352974105263723 7.1537577626074687e-05 0 -0.042765899289112945 -0.00074080770126312093 0 -0.042927224698900597 -0.00011953047713099213 0 -0.044087250674305807 -0.00056385362002492974 0 -0.041766753903280454 -0.00030670838403530458 0 -0.041656926455853949 0.00029803331121308548 0 -0.042765899289112945 -0.00074080770126312093 0 -0.042927224698900597 -0.00011953047713099213 0 -0.041924378958985396 8.7602714104326499e-05 0 -0.042927224698900597 -0.00011953047713099213 0 -0.041924378958985396 8.7602714104326499e-05 0 -0.042562436633815308 0.00026243348507863016 0 -0.041802464414606839 0.00013508905327219362 0 -0.0413523012867624 0.00053058863114366567 0 -0.041230064629479299 0.00038550976478637157 0 -0.041924378958985396 8.7602714104326499e-05 0 -0.040832837260876276 0.00069049043069434671 0 -0.041696660628808543 0.00046963536931175992 0 -0.0410487410270177 0.00059255681131385003 0 -0.0413523012867624 0.00053058863114366567 0 -0.041230064629479299 0.00038550976478637157 0 -0.0410487410270177 0.00059255681131385003 0 -0.0413523012867624 0.00053058863114366567 0 -0.040832837260876276 0.00069049043069434671 0 -0.041656926455853949 0.00029803331121308548 0 -0.040950524160747265 0.00072992426197123991 0 -0.040832837260876276 0.00069049043069434671 0 -0.04096207524059662 0.00088489125135134941 0 -0.041696660628808543 0.00046963536931175992 0 -0.040508611519849476 0.00079630965139539924 0 -0.040832837260876276 0.00069049043069434671 0 -0.039882009798614303 0.0012342847770417244 0 -0.04096207524059662 0.00088489125135134941 0 -0.042048089145778553 0.00055810314481540967 0 -0.041696660628808543 0.00046963536931175992 0 -0.04096207524059662 0.00088489125135134941 0 -0.042048089145778553 0.00055810314481540967 0 -0.041501931858610078 0.00086136355370299922 0 -0.042048089145778553 0.00055810314481540967 0 -0.041696660628808543 0.00046963536931175992 0 -0.042562436633815308 0.00026243348507863016 0 -0.041924378958985396 8.7602714104326499e-05 0 -0.041696660628808543 0.00046963536931175992 0 -0.042562436633815308 0.00026243348507863016 0 -0.043076676058833072 0.00032267339304526332 0 -0.044105754487907399 0.00020391194428318786 0 -0.043519179929493695 0.00013185595988418007 0 -0.042048089145778553 0.00055810314481540967 0 -0.042562436633815308 0.00026243348507863016 0 -0.043076676058833072 0.00032267339304526332 0 -0.042562436633815308 0.00026243348507863016 0 -0.043076676058833072 0.00032267339304526332 0 -0.043519179929493695 0.00013185595988418007 0 -0.042048089145778553 0.00055810314481540967 0 -0.043076676058833072 0.00032267339304526332 0 -0.042319177994962411 0.00048480683706817335 0 -0.042048089145778553 0.00055810314481540967 0 -0.042319177994962411 0.00048480683706817335 0 -0.041501931858610078 0.00086136355370299922 0 -0.043076676058833072 0.00032267339304526332 0 -0.042319177994962411 0.00048480683706817335 0 -0.04321673753346339 9.9510512702693446e-07 0 -0.042319177994962411 0.00048480683706817335 0 -0.04321673753346339 9.9510512702693446e-07 0 -0.040755366108345369 -4.5629058256953766e-07 0 -0.043076676058833072 0.00032267339304526332 0 -0.04321673753346339 9.9510512702693446e-07 0 -0.044105754487907399 0.00020391194428318786 0 -0.04321673753346339 9.9510512702693446e-07 0 -0.044105754487907399 0.00020391194428318786 0 -0.045684780801529067 1.5688273537436826e-06 0 -0.044105754487907399 0.00020391194428318786 0 -0.043519179929493695 0.00013185595988418007 0 -0.045561773668802354 6.7132569675796806e-06 0 -0.044105754487907399 0.00020391194428318786 0 -0.045684780801529067 1.5688273537436826e-06 0 -0.045561773668802354 6.7132569675796806e-06 0 -0.042927224698900597 -0.00011953047713099213 0 -0.043519179929493695 0.00013185595988418007 0 -0.044087250674305807 -0.00056385362002492974 0 -0.043519179929493695 0.00013185595988418007 0 -0.044087250674305807 -0.00056385362002492974 0 -0.045561773668802354 6.7132569675796806e-06 0 -0.042927224698900597 -0.00011953047713099213 0 -0.042562436633815308 0.00026243348507863016 0 -0.043519179929493695 0.00013185595988418007 0 -0.04514536045716934 -0.0019316708931329059 0 -0.044087250674305807 -0.00056385362002492974 0 -0.045561773668802354 6.7132569675796806e-06 0 -0.043852838091721795 -0.001453914390579705 0 -0.042765899289112945 -0.00074080770126312093 0 -0.044087250674305807 -0.00056385362002492974 0 -0.04814618698183596 -4.8544723727606195e-06 0 -0.04514536045716934 -0.0019316708931329059 0 -0.045561773668802354 6.7132569675796806e-06 0 -0.04814618698183596 -4.8544723727606195e-06 0 -0.045684780801529067 1.5688273537436826e-06 0 -0.045561773668802354 6.7132569675796806e-06 0 -0.0357640837029813 0.00010654348958580365 0 -0.034440985488384902 2.2450024967590212e-07 0 -0.037596252175816185 5.0039699668931553e-07 0 -0.032113343769098607 0.0051458155234426787 0 -0.03382420973995702 0.0058997349269818309 0 -0.033356238282482374 0.0034884750171393264 0 -0.038418127543412076 0.0018857015116485356 0 -0.036618831162000806 0.0047817299125812729 0 -0.032113343769098607 0.0051458155234426787 0 -0.032307749603887097 0.0075167017194858873 0 -0.03382420973995702 0.0058997349269818309 0 -0.033494466320618449 0.0031538593167934645 0 -0.038418127543412076 0.0018857015116485356 0 -0.0357640837029813 0.00010654348958580365 0 -0.037596252175816185 5.0039699668931553e-07 0 -0.0379219877060867 -9.5431108474594516e-05 0 -0.037596252175816185 5.0039699668931553e-07 0 -0.0379219877060867 -9.5431108474594516e-05 0 -0.040748270930384911 -1.0568635142363309e-06 0 -0.038418127543412076 0.0018857015116485356 0 -0.040753194976918997 -3.12229379349551e-06 0 -0.042847175557293997 -0.0002730045270845831 0 -0.038418127543412076 0.0018857015116485356 0 -0.042319177994962411 0.00048480683706817335 0 -0.042200421618455955 -0.0016174416374129604 0 -0.040755366108345369 -4.5629058256953766e-07 0 -0.042319177994962411 0.00048480683706817335 0 -0.042019512431858301 0.0017175823965179383 0 -0.041434197156221243 0.0012491433297879017 0 -0.042319177994962411 0.00048480683706817335 0 -0.041434197156221243 0.0012491433297879017 0 -0.041501931858610078 0.00086136355370299922 0 -0.042019512431858301 0.0017175823965179383 0 -0.040675012419788471 0.0017718867131764106 0 -0.040159651769456448 0.0027518160023695714 0 -0.042019512431858301 0.0017175823965179383 0 -0.041434197156221243 0.0012491433297879017 0 -0.040675012419788471 0.0017718867131764106 0 -0.040675012419788471 0.0017718867131764106 0 -0.0393910958500098 0.0018354822066785849 0 -0.040159651769456448 0.0027518160023695714 0 -0.040675012419788471 0.0017718867131764106 0 -0.040469113839205907 0.0013564820584438904 0 -0.0393910958500098 0.0018354822066785849 0 -0.041434197156221243 0.0012491433297879017 0 -0.040675012419788471 0.0017718867131764106 0 -0.040469113839205907 0.0013564820584438904 0 -0.041434197156221243 0.0012491433297879017 0 -0.040469113839205907 0.0013564820584438904 0 -0.041501931858610078 0.00086136355370299922 0 -0.04096207524059662 0.00088489125135134941 0 -0.040469113839205907 0.0013564820584438904 0 -0.041501931858610078 0.00086136355370299922 0 -0.040832837260876276 0.00069049043069434671 0 -0.04096207524059662 0.00088489125135134941 0 -0.039882009798614303 0.0012342847770417244 0 -0.04096207524059662 0.00088489125135134941 0 -0.040469113839205907 0.0013564820584438904 0 -0.039882009798614303 0.0012342847770417244 0 -0.039882009798614303 0.0012342847770417244 0 -0.0393910958500098 0.0018354822066785849 0 -0.038683873882094544 0.0019443112444671167 0 -0.040469113839205907 0.0013564820584438904 0 -0.039882009798614303 0.0012342847770417244 0 -0.0393910958500098 0.0018354822066785849 0 -0.0393910958500098 0.0018354822066785849 0 -0.038095727099420801 0.0025777651304336882 0 -0.038683873882094544 0.0019443112444671167 0 -0.0393910958500098 0.0018354822066785849 0 -0.038095727099420801 0.0025777651304336882 0 -0.040159651769456448 0.0027518160023695714 0 -0.038095727099420801 0.0025777651304336882 0 -0.040159651769456448 0.0027518160023695714 0 -0.036295481291106532 0.0035228111565114902 0 -0.036618831162000806 0.0047817299125812729 0 -0.036704638311982098 0.0033228504092846691 0 -0.03382420973995702 0.0058997349269818309 0 -0.036295481291106532 0.0035228111565114902 0 -0.033356238282482374 0.0034884750171393264 0 -0.038095727099420801 0.0025777651304336882 0 -0.036295481291106532 0.0035228111565114902 0 -0.037368112193850174 0.0026283620218295347 0 -0.036295481291106532 0.0035228111565114902 0 -0.037368112193850174 0.0026283620218295347 0 -0.036582663031976839 0.0025532492885336254 0 -0.037368112193850174 0.0026283620218295347 0 -0.038051698933049494 0.0021266313761469776 0 -0.037202003024815085 0.0022530281323983807 0 -0.037368112193850174 0.0026283620218295347 0 -0.037202003024815085 0.0022530281323983807 0 -0.036582663031976839 0.0025532492885336254 0 -0.038051698933049494 0.0021266313761469776 0 -0.038104182249741179 0.0019028528516152785 0 -0.037202003024815085 0.0022530281323983807 0 -0.037368112193850174 0.0026283620218295347 0 -0.038051698933049494 0.0021266313761469776 0 -0.038683873882094544 0.0019443112444671167 0 -0.038095727099420801 0.0025777651304336882 0 -0.037368112193850174 0.0026283620218295347 0 -0.038683873882094544 0.0019443112444671167 0 -0.038051698933049494 0.0021266313761469776 0 -0.038683873882094544 0.0019443112444671167 0 -0.039042374110267473 0.0015129635672931387 0 -0.039882009798614303 0.0012342847770417244 0 -0.038683873882094544 0.0019443112444671167 0 -0.039042374110267473 0.0015129635672931387 0 -0.040012284947616182 0.0010096792636294935 0 -0.039882009798614303 0.0012342847770417244 0 -0.039042374110267473 0.0015129635672931387 0 -0.040012284947616182 0.0010096792636294935 0 -0.040508611519849476 0.00079630965139539924 0 -0.039882009798614303 0.0012342847770417244 0 -0.039968999644833039 0.00096673699235455253 0 -0.040012284947616182 0.0010096792636294935 0 -0.039042374110267473 0.0015129635672931387 0 -0.039968999644833039 0.00096673699235455253 0 -0.039042374110267473 0.0015129635672931387 0 -0.039387877640089122 0.0012346786530291231 0 -0.038051698933049494 0.0021266313761469776 0 -0.039042374110267473 0.0015129635672931387 0 -0.038104182249741179 0.0019028528516152785 0 -0.039042374110267473 0.0015129635672931387 0 -0.038538858824169499 0.0015457317186999156 0 -0.038104182249741179 0.0019028528516152785 0 -0.039042374110267473 0.0015129635672931387 0 -0.038538858824169499 0.0015457317186999156 0 -0.039387877640089122 0.0012346786530291231 0 -0.039810763229913393 0.00098982708100619067 0 -0.039387877640089122 0.0012346786530291231 0 -0.039195685017579619 0.0012570929773805472 0 -0.038538858824169499 0.0015457317186999156 0 -0.039387877640089122 0.0012346786530291231 0 -0.039195685017579619 0.0012570929773805472 0 -0.039195685017579619 0.0012570929773805472 0 -0.038643228865848693 0.0014023957824079913 0 -0.039104523633039304 0.001291079889586121 0 -0.038538858824169499 0.0015457317186999156 0 -0.038643228865848693 0.0014023957824079913 0 -0.037975025478274436 0.0014154006733084336 0 -0.038538858824169499 0.0015457317186999156 0 -0.039195685017579619 0.0012570929773805472 0 -0.038643228865848693 0.0014023957824079913 0 -0.038538858824169499 0.0015457317186999156 0 -0.037701874565802075 0.0018480225126057204 0 -0.037975025478274436 0.0014154006733084336 0 -0.037701874565802075 0.0018480225126057204 0 -0.037975025478274436 0.0014154006733084336 0 -0.037296765610080454 0.0017861833330529364 0 -0.037701874565802075 0.0018480225126057204 0 -0.038104182249741179 0.0019028528516152785 0 -0.037202003024815085 0.0022530281323983807 0 -0.038538858824169499 0.0015457317186999156 0 -0.037701874565802075 0.0018480225126057204 0 -0.038104182249741179 0.0019028528516152785 0 -0.037701874565802075 0.0018480225126057204 0 -0.037202003024815085 0.0022530281323983807 0 -0.036893875555765961 0.0019943016719301881 0 -0.037701874565802075 0.0018480225126057204 0 -0.036893875555765961 0.0019943016719301881 0 -0.037296765610080454 0.0017861833330529364 0 -0.036893875555765961 0.0019943016719301881 0 -0.036591280005640867 0.0021432556056102253 0 -0.036184817983979892 0.0017713273529344573 0 -0.037202003024815085 0.0022530281323983807 0 -0.036893875555765961 0.0019943016719301881 0 -0.036591280005640867 0.0021432556056102253 0 -0.036591280005640867 0.0021432556056102253 0 -0.036184817983979892 0.0017713273529344573 0 -0.035940987472344463 0.0021357930204312734 0 -0.036893875555765961 0.0019943016719301881 0 -0.036184817983979892 0.0017713273529344573 0 -0.036482546531943418 0.0017583092173341028 0 -0.036184817983979892 0.0017713273529344573 0 -0.035651506387067967 0.001129586931133249 0 -0.036058260688747505 0.0013534440584687943 0 -0.035651506387067967 0.001129586931133249 0 -0.035294912153705296 0.0015591564984760234 0 -0.034915232063849826 0.00090389093977995825 0 -0.036184817983979892 0.0017713273529344573 0 -0.035651506387067967 0.001129586931133249 0 -0.035294912153705296 0.0015591564984760234 0 -0.036184817983979892 0.0017713273529344573 0 -0.035294912153705296 0.0015591564984760234 0 -0.035940987472344463 0.0021357930204312734 0 -0.035294912153705296 0.0015591564984760234 0 -0.034666281189730974 0.0018834309703153762 0 -0.035940987472344463 0.0021357930204312734 0 -0.035294912153705296 0.0015591564984760234 0 -0.033591402491791607 0.0011613005483781329 0 -0.034915232063849826 0.00090389093977995825 0 -0.035294912153705296 0.0015591564984760234 0 -0.034666281189730974 0.0018834309703153762 0 -0.033591402491791607 0.0011613005483781329 0 -0.034666281189730974 0.0018834309703153762 0 -0.033225407223714795 0.0016914711882514248 0 -0.033591402491791607 0.0011613005483781329 0 -0.034666281189730974 0.0018834309703153762 0 -0.035586055437948974 0.0025263038057854203 0 -0.035940987472344463 0.0021357930204312734 0 -0.035586055437948974 0.0025263038057854203 0 -0.035940987472344463 0.0021357930204312734 0 -0.036582663031976839 0.0025532492885336254 0 -0.037202003024815085 0.0022530281323983807 0 -0.036591280005640867 0.0021432556056102253 0 -0.036582663031976839 0.0025532492885336254 0 -0.036591280005640867 0.0021432556056102253 0 -0.035940987472344463 0.0021357930204312734 0 -0.036582663031976839 0.0025532492885336254 0 -0.036295481291106532 0.0035228111565114902 0 -0.035586055437948974 0.0025263038057854203 0 -0.036582663031976839 0.0025532492885336254 0 -0.036295481291106532 0.0035228111565114902 0 -0.035586055437948974 0.0025263038057854203 0 -0.033732556571660868 0.0022758844035454329 0 -0.036295481291106532 0.0035228111565114902 0 -0.033732556571660868 0.0022758844035454329 0 -0.033356238282482374 0.0034884750171393264 0 -0.033732556571660868 0.0022758844035454329 0 -0.032353341696394561 0.0019142339499493564 0 -0.032293776463134687 0.0024378272932621303 0 -0.033732556571660868 0.0022758844035454329 0 -0.032293776463134687 0.0024378272932621303 0 -0.033356238282482374 0.0034884750171393264 0 -0.034666281189730974 0.0018834309703153762 0 -0.035586055437948974 0.0025263038057854203 0 -0.033732556571660868 0.0022758844035454329 0 -0.034666281189730974 0.0018834309703153762 0 -0.033732556571660868 0.0022758844035454329 0 -0.033225407223714795 0.0016914711882514248 0 -0.033225407223714795 0.0016914711882514248 0 -0.032263175482564695 0.0011892942146627613 0 -0.033591402491791607 0.0011613005483781329 0 -0.032263175482564695 0.0011892942146627613 0 -0.031668897279884679 0.0013023772194022821 0 -0.030495628985673803 0.00060358062240699394 0 -0.033225407223714795 0.0016914711882514248 0 -0.032263175482564695 0.0011892942146627613 0 -0.031668897279884679 0.0013023772194022821 0 -0.033225407223714795 0.0016914711882514248 0 -0.031668897279884679 0.0013023772194022821 0 -0.032353341696394561 0.0019142339499493564 0 -0.033732556571660868 0.0022758844035454329 0 -0.033225407223714795 0.0016914711882514248 0 -0.032353341696394561 0.0019142339499493564 0 -0.031668897279884679 0.0013023772194022821 0 -0.032353341696394561 0.0019142339499493564 0 -0.030847705314400758 0.0019785008562685268 0 -0.032353341696394561 0.0019142339499493564 0 -0.030847705314400758 0.0019785008562685268 0 -0.032293776463134687 0.0024378272932621303 0 -0.030847705314400758 0.0019785008562685268 0 -0.028361095893352763 0.00035380821865866908 0 -0.030495628985673803 0.00060358062240699394 0 -0.031668897279884679 0.0013023772194022821 0 -0.030847705314400758 0.0019785008562685268 0 -0.030495628985673803 0.00060358062240699394 0 -0.028131172432748996 2.3891796152556686e-06 0 -0.029932510988859289 9.0562604313735708e-05 0 -0.028361095893352763 0.00035380821865866908 0 -0.030342263911290052 0.0010578925109998724 0 -0.0287045257535995 0.0003141500864807913 0 -0.028131172432748996 2.3891796152556686e-06 0 -0.029932510988859289 9.0562604313735708e-05 0 -0.031286107901630646 -4.4568782767758821e-07 0 -0.029932510988859289 9.0562604313735708e-05 0 -0.031286107901630646 -4.4568782767758821e-07 0 -0.032862356499905078 1.3711637831466507e-05 0 -0.030342263911290052 0.0010578925109998724 0 -0.032418289243320395 0.0015094403449296095 0 -0.030847705314400758 0.0019785008562685268 0 -0.032293776463134687 0.0024378272932621303 0 -0.031922461739653983 0.0029032736446490052 0 -0.032293776463134687 0.0024378272932621303 0 -0.033356238282482374 0.0034884750171393264 0 -0.031922461739653983 0.0029032736446490052 0 -0.032113343769098607 0.0051458155234426787 0 -0.033356238282482374 0.0034884750171393264 0 -0.031922461739653983 0.0029032736446490052 0 -0.034440985488384902 2.2450024967590212e-07 0 -0.031286107901630646 -4.4568782767758821e-07 0 -0.032862356499905078 1.3711637831466507e-05 0 -0.033494466320618449 0.0031538593167934645 0 -0.032418289243320395 0.0015094403449296095 0 -0.0357640837029813 0.00010654348958580365 0 -0.034440985488384902 2.2450024967590212e-07 0 -0.032862356499905078 1.3711637831466507e-05 0 -0.038136237223756517 -0.0038233507813021771 0 -0.037981313740339542 -0.0036651233107165017 0 -0.03834524425373232 -0.0036541106836248376 0 -0.038136237223756517 -0.0038233507813021771 0 -0.037981313740339542 -0.0036651233107165017 0 -0.037884778999897693 -0.0038154618954868175 0 -0.037981313740339542 -0.0036651233107165017 0 -0.037884778999897693 -0.0038154618954868175 0 -0.037643783811462342 -0.0036675841744477963 0 -0.037960929308414361 -0.0039598495869957303 0 -0.037736966261434052 -0.0039071594721034773 0 -0.03783274301669845 -0.0041437590938545417 0 -0.037884778999897693 -0.0038154618954868175 0 -0.037960929308414361 -0.0039598495869957303 0 -0.037736966261434052 -0.0039071594721034773 0 -0.037960929308414361 -0.0039598495869957303 0 -0.038103130606689399 -0.0039955822043639747 0 -0.038003800300253535 -0.0040566881632709004 0 -0.038136237223756517 -0.0038233507813021771 0 -0.037884778999897693 -0.0038154618954868175 0 -0.037960929308414361 -0.0039598495869957303 0 -0.038136237223756517 -0.0038233507813021771 0 -0.037960929308414361 -0.0039598495869957303 0 -0.038103130606689399 -0.0039955822043639747 0 -0.038267504761371786 -0.0040007059916473426 0 -0.038299635180170682 -0.0040085925541965359 0 -0.03834524425373232 -0.0036541106836248376 0 -0.038084722759633177 -0.0061798536637312391 0 -0.038124363773201227 -0.0063455316120442458 0 -0.038136237223756517 -0.0038233507813021771 0 -0.038103130606689399 -0.0039955822043639747 0 -0.038267504761371786 -0.0040007059916473426 0 -0.038080459873484782 -0.007683637209617511 0 -0.038124363773201227 -0.0063455316120442458 0 -0.042562355139974958 -0.0045928917357727266 0 -0.042138182090602112 -0.0045655922578741728 0 -0.042484701802521917 -0.0042922548839348868 0 -0.042651316323562866 -0.0039565987836064605 0 -0.042484701802521917 -0.0042922548839348868 0 -0.04216672563807923 -0.0039635062147734858 0 -0.042138182090602112 -0.0045655922578741728 0 -0.042484701802521917 -0.0042922548839348868 0 -0.04216672563807923 -0.0039635062147734858 0 -0.038124363773201227 -0.0063455316120442458 0 -0.040980557143984173 -0.0032868689691872024 0 -0.038136237223756517 -0.0038233507813021771 0 -0.038267504761371786 -0.0040007059916473426 0 -0.03834524425373232 -0.0036541106836248376 0 -0.041908198862796696 -0.0036458225904961628 0 -0.042260147556700454 -0.0033352496071708693 0 -0.041327803006361123 -0.0033018327601824298 0 -0.041895983635218154 -0.0039799452136362922 0 -0.041908198862796696 -0.0036458225904961628 0 -0.041327803006361123 -0.0033018327601824298 0 -0.040980557143984173 -0.0032868689691872024 0 -0.041439461859345376 -0.0037446211507322275 0 -0.042651316323562866 -0.0039565987836064605 0 -0.041908198862796696 -0.0036458225904961628 0 -0.042260147556700454 -0.0033352496071708693 0 -0.042983072967791303 -0.0040082259518442872 0 -0.040980557143984173 -0.0032868689691872024 0 -0.042651316323562866 -0.0039565987836064605 0 -0.041896498772033344 -0.0039724604873426113 0 -0.041908198862796696 -0.0036458225904961628 0 -0.04321930968888079 -0.0033715164298529538 0 -0.043426385712237767 -0.003255680807201376 0 -0.043042893607714086 -0.0033237264428143515 0 -0.04321930968888079 -0.0033715164298529538 0 -0.043126473615070486 -0.0034033692426246316 0 -0.043042893607714086 -0.0033237264428143515 0 -0.042707915693099216 -0.0033768059080924889 0 -0.042114158388618872 -0.0033168610785083391 0 -0.043126473615070486 -0.0034033692426246316 0 -0.043042893607714086 -0.0033237264428143515 0 -0.04298021861049249 -0.0033532036813955658 0 -0.043234409104701582 -0.003244100857637051 0 -0.043140338836313324 -0.0032769186606334045 0 -0.043042893607714086 -0.0033237264428143515 0 -0.04298021861049249 -0.0033532036813955658 0 -0.042971026666149263 -0.0033341082951810971 0 -0.042114158388618872 -0.0033168610785083391 0 -0.04188306500920648 -0.0034209953520083162 0 -0.04298021861049249 -0.0033532036813955658 0 -0.042971026666149263 -0.0033341082951810971 0 -0.042999692363041062 -0.0032986991018895012 0 -0.043363074516963709 -0.0031432980259688834 0 -0.04341253070076951 -0.0031510138929112062 0 -0.043320769467090375 -0.0032263826910100806 0 -0.040705236421565358 -0.0039918410301751075 0 -0.041327803006361123 -0.0033018327601824298 0 -0.04037456298445187 -0.0032915309286623111 0 -0.039235749685506943 -0.0040295640496505001 0 -0.040980557143984173 -0.0032868689691872024 0 -0.040705236421565358 -0.0039918410301751075 0 -0.041895983635218154 -0.0039799452136362922 0 -0.041327803006361123 -0.0033018327601824298 0 -0.040705236421565358 -0.0039918410301751075 0 -0.04037456298445187 -0.0032915309286623111 0 -0.039903278658990675 -0.003546569087885215 0 -0.043234323432362241 -0.0031779450513085756 0 -0.043320769467090375 -0.0032263826910100806 0 -0.043177192818180943 -0.0032095525027763089 0 -0.043320769467090375 -0.0032263826910100806 0 -0.043177192818180943 -0.0032095525027763089 0 -0.043087298145865226 -0.0032652836030983702 0 -0.043140338836313324 -0.0032769186606334045 0 -0.043067015388531478 -0.0032867223061674371 0 -0.042971026666149263 -0.0033341082951810971 0 -0.042999692363041062 -0.0032986991018895012 0 -0.043064034343106183 -0.0032846456368925262 0 -0.04188306500920648 -0.0034209953520083162 0 -0.040313136398913811 -0.0019414725951601159 0 -0.043177192818180943 -0.0032095525027763089 0 -0.043087298145865226 -0.0032652836030983702 0 -0.043080599947334888 -0.003221882118032115 0 -0.043320769467090375 -0.0032263826910100806 0 -0.043064034343106183 -0.0032846456368925262 0 -0.043087298145865226 -0.0032652836030983702 0 -0.042999692363041062 -0.0032986991018895012 0 -0.043064034343106183 -0.0032846456368925262 0 -0.043076861855296626 -0.0032741001981994988 0 -0.043171480101489905 -0.0031782977479202748 0 -0.043177192818180943 -0.0032095525027763089 0 -0.043080599947334888 -0.003221882118032115 0 -0.043064034343106183 -0.0032846456368925262 0 -0.043059537759970859 -0.0032586696710683394 0 -0.043076861855296626 -0.0032741001981994988 0 -0.042524744640172543 -0.0018486079960582404 0 -0.040313136398913811 -0.0019414725951601159 0 -0.043064034343106183 -0.0032846456368925262 0 -0.043087298145865226 -0.0032652836030983702 0 -0.043059537759970859 -0.0032586696710683394 0 -0.04308007238674736 -0.0028285368172991251 0 -0.042524744640172543 -0.0018486079960582404 0 -0.040313136398913811 -0.0019414725951601159 0 -0.038734920782600477 0.00072084631534773125 0 -0.038959428378785944 0.0011937183080008389 0 -0.039121806683243471 0.0011854943991341513 0 -0.039030524592922979 0.0013103886470177532 0 -0.039158915006775485 0.0012617549317486309 0 -0.039030524592922979 0.0013103886470177532 0 -0.039205697509697393 0.0013135491357460923 0 -0.039121806683243471 0.0011854943991341513 0 -0.039158915006775485 0.0012617549317486309 0 -0.039210665230856208 0.0012271730395917919 0 -0.039121806683243471 0.0011854943991341513 0 -0.039158915006775485 0.0012617549317486309 0 -0.039030524592922979 0.0013103886470177532 0 -0.039171756331036874 -0.00049671113314649767 0 -0.038728520361431006 -0.00050061785771166869 0 -0.038961804126379118 -0.00094411433577695466 0 -0.038728520361431006 -0.00050061785771166869 0 -0.038867925767930987 -0.00094637929754898243 0 -0.038961804126379118 -0.00094411433577695466 0 -0.040313136398913811 -0.0019414725951601159 0 -0.038266033465457983 -0.001435389131997699 0 -0.039424977945239248 -0.0032956315245381471 0 -0.039420948369191876 -0.0037704516603778823 0 -0.039106050457947072 -0.0039902355963775549 0 -0.039424977945239248 -0.0032956315245381471 0 -0.039420948369191876 -0.0037704516603778823 0 -0.039587410848214287 -0.0035789622736555342 0 -0.039420948369191876 -0.0037704516603778823 0 -0.039502842473327228 -0.0039729010098548956 0 -0.039106050457947072 -0.0039902355963775549 0 -0.038790356573371418 -0.0037553206390360792 0 -0.038195684140664481 -0.0029602421044762355 0 -0.039903278658990675 -0.003546569087885215 0 -0.039587410848214287 -0.0035789622736555342 0 -0.039510212103007904 -0.0039974942743319529 0 -0.039420948369191876 -0.0037704516603778823 0 -0.039587410848214287 -0.0035789622736555342 0 -0.039510212103007904 -0.0039974942743319529 0 -0.040705236421565358 -0.0039918410301751075 0 -0.039903278658990675 -0.003546569087885215 0 -0.039510212103007904 -0.0039974942743319529 0 -0.04037456298445187 -0.0032915309286623111 0 -0.039424977945239248 -0.0032956315245381471 0 -0.039903278658990675 -0.003546569087885215 0 -0.039424977945239248 -0.0032956315245381471 0 -0.039903278658990675 -0.003546569087885215 0 -0.039587410848214287 -0.0035789622736555342 0 -0.039692568365515171 0.0010035824300619832 0 -0.039195685017579619 0.0012570929773805472 0 -0.039104523633039304 0.001291079889586121 0 -0.039692568365515171 0.0010035824300619832 0 -0.039104523633039304 0.001291079889586121 0 -0.039315624867269194 0.0012104560736989592 0 -0.038643228865848693 0.0014023957824079913 0 -0.039104523633039304 0.001291079889586121 0 -0.038866570167694181 0.0013718740602937925 0 -0.039104523633039304 0.001291079889586121 0 -0.039315624867269194 0.0012104560736989592 0 -0.039088449026143099 0.0013190371490115055 0 -0.039104523633039304 0.001291079889586121 0 -0.039088449026143099 0.0013190371490115055 0 -0.038866570167694181 0.0013718740602937925 0 -0.039088449026143099 0.0013190371490115055 0 -0.03922763629109137 0.0012063339670857632 0 -0.038866570167694181 0.0013718740602937925 0 -0.039088449026143099 0.0013190371490115055 0 -0.039206665412577842 0.0012758356939085605 0 -0.03922763629109137 0.0012063339670857632 0 -0.039088449026143099 0.0013190371490115055 0 -0.039214770464314576 0.0012525845698198263 0 -0.039206665412577842 0.0012758356939085605 0 -0.039295436130180363 0.001129401518951644 0 -0.039315624867269194 0.0012104560736989592 0 -0.039214770464314576 0.0012525845698198263 0 -0.039315624867269194 0.0012104560736989592 0 -0.039088449026143099 0.0013190371490115055 0 -0.039214770464314576 0.0012525845698198263 0 -0.039295436130180363 0.001129401518951644 0 -0.039121806683243471 0.0011854943991341513 0 -0.039210665230856208 0.0012271730395917919 0 -0.039295436130180363 0.001129401518951644 0 -0.039214770464314576 0.0012525845698198263 0 -0.039210665230856208 0.0012271730395917919 0 -0.039214770464314576 0.0012525845698198263 0 -0.039210665230856208 0.0012271730395917919 0 -0.039206665412577842 0.0012758356939085605 0 -0.039158915006775485 0.0012617549317486309 0 -0.039210665230856208 0.0012271730395917919 0 -0.039206665412577842 0.0012758356939085605 0 -0.03880684070022259 0.0010137129012649951 0 -0.038734920782600477 0.00072084631534773125 0 -0.039158915006775485 0.0012617549317486309 0 -0.039206665412577842 0.0012758356939085605 0 -0.039205697509697393 0.0013135491357460923 0 -0.038688533157309989 0.0014009135247664652 0 -0.037975025478274436 0.0014154006733084336 0 -0.039092975246904256 0.0011052049812824293 0 -0.038822521068302987 0.0015121532873287251 0 -0.038688533157309989 0.0014009135247664652 0 -0.039092975246904256 0.0011052049812824293 0 -0.038734920782600477 0.00072084631534773125 0 -0.038093237540101368 -4.2555065897890458e-05 0 -0.038734920782600477 0.00072084631534773125 0 -0.039008323854560475 0.0012484763344054557 0 -0.038822521068302987 0.0015121532873287251 0 -0.038688533157309989 0.0014009135247664652 0 -0.038866570167694181 0.0013718740602937925 0 -0.038688533157309989 0.0014009135247664652 0 -0.038866570167694181 0.0013718740602937925 0 -0.037975025478274436 0.0014154006733084336 0 -0.038643228865848693 0.0014023957824079913 0 -0.038866570167694181 0.0013718740602937925 0 -0.037975025478274436 0.0014154006733084336 0 -0.037975025478274436 0.0014154006733084336 0 -0.037054502948054104 0.0015745069352751362 0 -0.037296765610080454 0.0017861833330529364 0 -0.037975025478274436 0.0014154006733084336 0 -0.037054502948054104 0.0015745069352751362 0 -0.036474441710403996 0.0011532858261257297 0 -0.037850588712513754 0.0016962996395905449 0 -0.038093237540101368 -4.2555065897890458e-05 0 -0.037054502948054104 0.0015745069352751362 0 -0.036769485093850904 0.0015954957961751468 0 -0.036856243837157632 0.0017240453429718744 0 -0.037054502948054104 0.0015745069352751362 0 -0.036652837152750001 0.0014444103103801746 0 -0.036474441710403996 0.0011532858261257297 0 -0.037054502948054104 0.0015745069352751362 0 -0.036652837152750001 0.0014444103103801746 0 -0.036769485093850904 0.0015954957961751468 0 -0.036652837152750001 0.0014444103103801746 0 -0.036769485093850904 0.0015954957961751468 0 -0.036625079326299118 0.0015358188236549496 0 -0.036769485093850904 0.0015954957961751468 0 -0.036625079326299118 0.0015358188236549496 0 -0.036669789772228456 0.0016378598337837501 0 -0.036669789772228456 0.0016378598337837501 0 -0.036643806037725171 0.0017160504838198574 0 -0.036856243837157632 0.0017240453429718744 0 -0.036769485093850904 0.0015954957961751468 0 -0.036669789772228456 0.0016378598337837501 0 -0.036856243837157632 0.0017240453429718744 0 -0.036669789772228456 0.0016378598337837501 0 -0.036643806037725171 0.0017160504838198574 0 -0.03661062719307448 0.0016611959417461208 0 -0.036643806037725171 0.0017160504838198574 0 -0.036685355506618764 0.0017811930325062513 0 -0.036856243837157632 0.0017240453429718744 0 -0.036643806037725171 0.0017160504838198574 0 -0.036685355506618764 0.0017811930325062513 0 -0.036578763268095789 0.0017702044027026278 0 -0.036685355506618764 0.0017811930325062513 0 -0.036856243837157632 0.0017240453429718744 0 -0.036830297535515581 0.0018460241518579049 0 -0.037054502948054104 0.0015745069352751362 0 -0.036856243837157632 0.0017240453429718744 0 -0.037296765610080454 0.0017861833330529364 0 -0.036893875555765961 0.0019943016719301881 0 -0.036830297535515581 0.0018460241518579049 0 -0.037296765610080454 0.0017861833330529364 0 -0.036856243837157632 0.0017240453429718744 0 -0.036830297535515581 0.0018460241518579049 0 -0.037296765610080454 0.0017861833330529364 0 -0.039235749685506943 -0.0040295640496505001 0 -0.038195684140664481 -0.0029602421044762355 0 -0.037884778999897693 -0.0038154618954868175 0 -0.037643783811462342 -0.0036675841744477963 0 -0.037736966261434052 -0.0039071594721034773 0 -0.036974630893040331 -0.00097269115607550596 0 -0.036998590712726653 -0.00063342564720621339 0 -0.036808330358258076 -0.00052157778442268551 0 -0.038195684140664481 -0.0029602421044762355 0 -0.037177247113751886 -0.002140987193081428 0 -0.036974630893040331 -0.00097269115607550596 0 -0.03719930693985514 -0.00096241609401738265 0 -0.037144920840767814 -0.00088432926331325347 0 -0.038195684140664481 -0.0029602421044762355 0 -0.038266033465457983 -0.001435389131997699 0 -0.036974630893040331 -0.00097269115607550596 0 -0.037091251271861345 -0.00082167429692391871 0 -0.036998590712726653 -0.00063342564720621339 0 -0.036974630893040331 -0.00097269115607550596 0 -0.037144920840767814 -0.00088432926331325347 0 -0.037091251271861345 -0.00082167429692391871 0 -0.038253443185723122 -0.00063833565177778308 0 -0.038121845719215418 -0.00064495957148587183 0 -0.038198951526103017 -0.00046956287087257927 0 -0.038093237540101368 -4.2555065897890458e-05 0 -0.038266033465457983 -0.001435389131997699 0 -0.03719930693985514 -0.00096241609401738265 0 -0.037144920840767814 -0.00088432926331325347 0 -0.037246500686353531 -0.00085095317243681818 0 -0.038266033465457983 -0.001435389131997699 0 -0.037694926385051071 -4.2490184670434748e-05 0 -0.037144920840767814 -0.00088432926331325347 0 -0.037246500686353531 -0.00085095317243681818 0 -0.037148307669832854 -0.00081009244209686812 0 -0.036652837152750001 0.0014444103103801746 0 -0.036474441710403996 0.0011532858261257297 0 -0.036486538875860085 0.0014102477519108301 0 -0.038093237540101368 -4.2555065897890458e-05 0 -0.037694926385051071 -4.2490184670434748e-05 0 -0.036625079326299118 0.0015358188236549496 0 -0.036486538875860085 0.0014102477519108301 0 -0.036546250980915643 0.0015676851760011528 0 -0.037246500686353531 -0.00085095317243681818 0 -0.037148307669832854 -0.00081009244209686812 0 -0.037110545216631069 -0.00068471656541470283 0 -0.036652837152750001 0.0014444103103801746 0 -0.036625079326299118 0.0015358188236549496 0 -0.036486538875860085 0.0014102477519108301 0 -0.037091251271861345 -0.00082167429692391871 0 -0.037110545216631069 -0.00068471656541470283 0 -0.036998590712726653 -0.00063342564720621339 0 -0.037148307669832854 -0.00081009244209686812 0 -0.037091251271861345 -0.00082167429692391871 0 -0.037110545216631069 -0.00068471656541470283 0 -0.037144920840767814 -0.00088432926331325347 0 -0.037148307669832854 -0.00081009244209686812 0 -0.037091251271861345 -0.00082167429692391871 0 -0.036546250980915643 0.0015676851760011528 0 -0.036581549868423463 0.0017104407101560159 0 -0.036549743480876001 0.0018194605691514935 0 -0.037110545216631069 -0.00068471656541470283 0 -0.036998590712726653 -0.00063342564720621339 0 -0.037026535040120837 -0.00030321407255252155 0 -0.037246500686353531 -0.00085095317243681818 0 -0.037110545216631069 -0.00068471656541470283 0 -0.037026535040120837 -0.00030321407255252155 0 -0.036486538875860085 0.0014102477519108301 0 -0.036546250980915643 0.0015676851760011528 0 -0.036549743480876001 0.0018194605691514935 0 -0.036998590712726653 -0.00063342564720621339 0 -0.036931422647016966 -0.00041926774775393881 0 -0.037026535040120837 -0.00030321407255252155 0 -0.037694926385051071 -4.2490184670434748e-05 0 -0.036656167094456391 0.00083518192483818634 0 -0.036546250980915643 0.0015676851760011528 0 -0.03661062719307448 0.0016611959417461208 0 -0.036581549868423463 0.0017104407101560159 0 -0.036625079326299118 0.0015358188236549496 0 -0.036669789772228456 0.0016378598337837501 0 -0.036546250980915643 0.0015676851760011528 0 -0.036669789772228456 0.0016378598337837501 0 -0.036546250980915643 0.0015676851760011528 0 -0.03661062719307448 0.0016611959417461208 0 -0.036643806037725171 0.0017160504838198574 0 -0.03661062719307448 0.0016611959417461208 0 -0.036581549868423463 0.0017104407101560159 0 -0.036581549868423463 0.0017104407101560159 0 -0.036578763268095789 0.0017702044027026278 0 -0.036549743480876001 0.0018194605691514935 0 -0.036643806037725171 0.0017160504838198574 0 -0.036581549868423463 0.0017104407101560159 0 -0.036578763268095789 0.0017702044027026278 0 -0.036998590712726653 -0.00063342564720621339 0 -0.036931422647016966 -0.00041926774775393881 0 -0.036808330358258076 -0.00052157778442268551 0 -0.036931422647016966 -0.00041926774775393881 0 -0.036808330358258076 -0.00052157778442268551 0 -0.036710350049851521 -0.00025306314347789958 0 -0.036931422647016966 -0.00041926774775393881 0 -0.037026535040120837 -0.00030321407255252155 0 -0.036613882092787729 -8.1358606086042305e-05 0 -0.037026535040120837 -0.00030321407255252155 0 -0.036783304845539141 0.00018819156735762924 0 -0.036613882092787729 -8.1358606086042305e-05 0 -0.037177247113751886 -0.002140987193081428 0 -0.037239066597468534 -0.0017914924930699455 0 -0.036559848754809401 0.00010880164422685778 0 -0.037239066597468534 -0.0017914924930699455 0 -0.036578763268095789 0.0017702044027026278 0 -0.036526081382829381 0.0017512651247107004 0 -0.036544336806821023 0.0017655558028170431 0 -0.036578763268095789 0.0017702044027026278 0 -0.036549743480876001 0.0018194605691514935 0 -0.036526081382829381 0.0017512651247107004 0 -0.036549743480876001 0.0018194605691514935 0 -0.036526081382829381 0.0017512651247107004 0 -0.036464186335050067 0.0016156499660272101 0 -0.036526081382829381 0.0017512651247107004 0 -0.036464186335050067 0.0016156499660272101 0 -0.036544336806821023 0.0017655558028170431 0 -0.036549743480876001 0.0018194605691514935 0 -0.036464186335050067 0.0016156499660272101 0 -0.036579135089828775 0.0013790293700793712 0 -0.036464186335050067 0.0016156499660272101 0 -0.03632668823150647 0.0015339165151669746 0 -0.036310715739559359 0.0013043014565112564 0 -0.036464186335050067 0.0016156499660272101 0 -0.036579135089828775 0.0013790293700793712 0 -0.036310715739559359 0.0013043014565112564 0 -0.036656167094456391 0.00083518192483818634 0 -0.036684650027623819 0.00074301070468413602 0 -0.036893875555765961 0.0019943016719301881 0 -0.036830297535515581 0.0018460241518579049 0 -0.036482546531943418 0.0017583092173341028 0 -0.036830297535515581 0.0018460241518579049 0 -0.036544336806821023 0.0017655558028170431 0 -0.036482546531943418 0.0017583092173341028 0 -0.036685355506618764 0.0017811930325062513 0 -0.036830297535515581 0.0018460241518579049 0 -0.036544336806821023 0.0017655558028170431 0 -0.036685355506618764 0.0017811930325062513 0 -0.036578763268095789 0.0017702044027026278 0 -0.036544336806821023 0.0017655558028170431 0 -0.036544336806821023 0.0017655558028170431 0 -0.03632668823150647 0.0015339165151669746 0 -0.036482546531943418 0.0017583092173341028 0 -0.036464186335050067 0.0016156499660272101 0 -0.036544336806821023 0.0017655558028170431 0 -0.03632668823150647 0.0015339165151669746 0 -0.03632668823150647 0.0015339165151669746 0 -0.036482546531943418 0.0017583092173341028 0 -0.036058260688747505 0.0013534440584687943 0 -0.036184817983979892 0.0017713273529344573 0 -0.036482546531943418 0.0017583092173341028 0 -0.036058260688747505 0.0013534440584687943 0 -0.036058260688747505 0.0013534440584687943 0 -0.036047202836947879 0.0010321996563921543 0 -0.035669890626532363 0.00070299038237962939 0 -0.03632668823150647 0.0015339165151669746 0 -0.036058260688747505 0.0013534440584687943 0 -0.036047202836947879 0.0010321996563921543 0 -0.03632668823150647 0.0015339165151669746 0 -0.036047202836947879 0.0010321996563921543 0 -0.036310715739559359 0.0013043014565112564 0 -0.036047202836947879 0.0010321996563921543 0 -0.035669890626532363 0.00070299038237962939 0 -0.035807083739364656 0.00039134239613918985 0 -0.035651506387067967 0.001129586931133249 0 -0.036058260688747505 0.0013534440584687943 0 -0.035669890626532363 0.00070299038237962939 0 -0.035651506387067967 0.001129586931133249 0 -0.035669890626532363 0.00070299038237962939 0 -0.035370208922980741 0.00030707765929722196 0 -0.036684650027623819 0.00074301070468413602 0 -0.036566523291547255 0.00034117536200198545 0 -0.036783304845539141 0.00018819156735762924 0 -0.036534146792251712 0.0002804495914837275 0 -0.036605776907034135 0.0002532233004452916 0 -0.036579135089828775 0.0013790293700793712 0 -0.03623971176906856 0.00080915866773409797 0 -0.036534146792251712 0.0002804495914837275 0 -0.036047202836947879 0.0010321996563921543 0 -0.03623971176906856 0.00080915866773409797 0 -0.036310715739559359 0.0013043014565112564 0 -0.036579135089828775 0.0013790293700793712 0 -0.03623971176906856 0.00080915866773409797 0 -0.036310715739559359 0.0013043014565112564 0 -0.036047202836947879 0.0010321996563921543 0 -0.03623971176906856 0.00080915866773409797 0 -0.035807083739364656 0.00039134239613918985 0 -0.03623971176906856 0.00080915866773409797 0 -0.035807083739364656 0.00039134239613918985 0 -0.036534146792251712 0.0002804495914837275 0 -0.036786597693048595 0.00013417551589590409 0 -0.036605776907034135 0.0002532233004452916 0 -0.036648770562355819 -0.00014778893926209119 0 -0.036534146792251712 0.0002804495914837275 0 -0.036605776907034135 0.0002532233004452916 0 -0.036648770562355819 -0.00014778893926209119 0 -0.03703763246486149 -0.0013291440724503281 0 -0.036647982480982451 -0.0010559960325966997 0 -0.036452638193696971 -0.0013495189714927678 0 -0.03703763246486149 -0.0013291440724503281 0 -0.036647982480982451 -0.0010559960325966997 0 -0.036885483696005597 -0.00061436997374213307 0 -0.03690928464254168 -0.00063021868794920519 0 -0.036879285393282432 -0.00057473917005018671 0 -0.03703763246486149 -0.0013291440724503281 0 -0.036960246665325609 -0.0018419029224403208 0 -0.036452638193696971 -0.0013495189714927678 0 -0.03703763246486149 -0.0013291440724503281 0 -0.037225420028626194 -0.0018035313382920313 0 -0.036960246665325609 -0.0018419029224403208 0 -0.036786597693048595 0.00013417551589590409 0 -0.036605776907034135 0.0002532233004452916 0 -0.036579122367363111 0.00022588637909309232 0 -0.03690928464254168 -0.00063021868794920519 0 -0.036864365957668392 -0.00067776554713044499 0 -0.036783304845539141 0.00018819156735762924 0 -0.036605776907034135 0.0002532233004452916 0 -0.036579122367363111 0.00022588637909309232 0 -0.036864365957668392 -0.00067776554713044499 0 -0.037239066597468534 -0.0017914924930699455 0 -0.03769218620735601 -0.0031858611247908087 0 -0.037239066597468534 -0.0017914924930699455 0 -0.037225420028626194 -0.0018035313382920313 0 -0.036960246665325609 -0.0018419029224403208 0 -0.037410290132215661 -0.0022423587447321595 0 -0.036783304845539141 0.00018819156735762924 0 -0.036579122367363111 0.00022588637909309232 0 -0.036613882092787729 -8.1358606086042305e-05 0 -0.038044004427449075 -0.0043490809617000433 0 -0.038120260241751899 -0.0041255199992680123 0 -0.03783274301669845 -0.0041437590938545417 0 -0.038120260241751899 -0.0041255199992680123 0 -0.038003800300253535 -0.0040566881632709004 0 -0.03783274301669845 -0.0041437590938545417 0 -0.038103130606689399 -0.0039955822043639747 0 -0.038120260241751899 -0.0041255199992680123 0 -0.038003800300253535 -0.0040566881632709004 0 -0.037960929308414361 -0.0039598495869957303 0 -0.038003800300253535 -0.0040566881632709004 0 -0.03783274301669845 -0.0041437590938545417 0 -0.033487932241753234 -0.010576741727907733 0 -0.035420237659259501 -0.010989648664331641 0 -0.034198643549512832 -0.0094255338708000326 0 -0.035420237659259501 -0.010989648664331641 0 -0.034198643549512832 -0.0094255338708000326 0 -0.035568104362817904 -0.0087286054778951006 0 -0.038124363773201227 -0.0063455316120442458 0 -0.036808400870081658 -0.006992371989360373 0 -0.038293274438252312 -0.004008972149539841 0 -0.038120260241751899 -0.0041255199992680123 0 -0.038246893419955727 -0.0042852683170604014 0 -0.038103130606689399 -0.0039955822043639747 0 -0.038267504761371786 -0.0040007059916473426 0 -0.038120260241751899 -0.0041255199992680123 0 -0.038267504761371786 -0.0040007059916473426 0 -0.038293274438252312 -0.004008972149539841 0 -0.038120260241751899 -0.0041255199992680123 0 -0.038044004427449075 -0.0043490809617000433 0 -0.038120260241751899 -0.0041255199992680123 0 -0.038246893419955727 -0.0042852683170604014 0 -0.032746013142928916 -0.0090725931387528654 0 -0.034198643549512832 -0.0094255338708000326 0 -0.034200844289146257 -0.0078686721994238613 0 -0.034198643549512832 -0.0094255338708000326 0 -0.035568104362817904 -0.0087286054778951006 0 -0.034200844289146257 -0.0078686721994238613 0 -0.034200844289146257 -0.0078686721994238613 0 -0.035921772697477476 -0.0060571237596693849 0 -0.034137571526603738 -0.0062763482407541616 0 -0.035568104362817904 -0.0087286054778951006 0 -0.034200844289146257 -0.0078686721994238613 0 -0.035921772697477476 -0.0060571237596693849 0 -0.032890976922719209 -0.0072732885284935399 0 -0.034200844289146257 -0.0078686721994238613 0 -0.034137571526603738 -0.0062763482407541616 0 -0.036808400870081658 -0.006992371989360373 0 -0.036679942743363975 -0.0040646748850468447 0 -0.038044004427449075 -0.0043490809617000433 0 -0.038246893419955727 -0.0042852683170604014 0 -0.038216179514595036 -0.0045221619254097456 0 -0.03769218620735601 -0.0031858611247908087 0 -0.036679942743363975 -0.0040646748850468447 0 -0.036281332046912695 -0.0062840796896411737 0 -0.035524427481983714 -0.0056024339097233925 0 -0.036244647542437239 -0.0008711618095595165 0 -0.036679942743363975 -0.0040646748850468447 0 -0.036569419411937448 -0.0046273027743531508 0 -0.034137571526603738 -0.0062763482407541616 0 -0.034767540225383899 -0.0055422492185638319 0 -0.033856381206688789 -0.0051319814618587395 0 -0.035921772697477476 -0.0060571237596693849 0 -0.035524427481983714 -0.0056024339097233925 0 -0.034767540225383899 -0.0055422492185638319 0 -0.035921772697477476 -0.0060571237596693849 0 -0.034137571526603738 -0.0062763482407541616 0 -0.034767540225383899 -0.0055422492185638319 0 -0.035524427481983714 -0.0056024339097233925 0 -0.034767540225383899 -0.0055422492185638319 0 -0.034639834745979606 -0.0045294070924910982 0 -0.034639834745979606 -0.0045294070924910982 0 -0.033856381206688789 -0.0051319814618587395 0 -0.03379409225674871 -0.0040997256261326928 0 -0.034767540225383899 -0.0055422492185638319 0 -0.034639834745979606 -0.0045294070924910982 0 -0.033856381206688789 -0.0051319814618587395 0 -0.034639834745979606 -0.0045294070924910982 0 -0.034265268889565194 -0.001659665583147158 0 -0.036244647542437239 -0.0008711618095595165 0 -0.034639834745979606 -0.0045294070924910982 0 -0.03379409225674871 -0.0040997256261326928 0 -0.034272802924061853 -0.0032151894539041281 0 -0.034611267652034192 -0.0042429008507756365 0 -0.034303096018776097 -0.002559781880148982 0 -0.03379409225674871 -0.0040997256261326928 0 -0.034272802924061853 -0.0032151894539041281 0 -0.032612722488090308 -0.0032669034410260657 0 -0.036679942743363975 -0.0040646748850468447 0 -0.036184268523390892 -0.00088318746868328414 0 -0.036647982480982451 -0.0010559960325966997 0 -0.036244647542437239 -0.0008711618095595165 0 -0.036885483696005597 -0.00061436997374213307 0 -0.035524427481983714 -0.0056024339097233925 0 -0.034639834745979606 -0.0045294070924910982 0 -0.036244647542437239 -0.0008711618095595165 0 -0.036647982480982451 -0.0010559960325966997 0 -0.036452638193696971 -0.0013495189714927678 0 -0.036244647542437239 -0.0008711618095595165 0 -0.036244647542437239 -0.0008711618095595165 0 -0.036921664394674036 -0.00040129701249421937 0 -0.036885483696005597 -0.00061436997374213307 0 -0.036244647542437239 -0.0008711618095595165 0 -0.034305463750360948 0.0002521379395188118 0 -0.036921664394674036 -0.00040129701249421937 0 -0.031336088420238044 -0.00032365847087976551 0 -0.031567668805901512 -0.00028078292293203362 0 -0.031593807330484037 -0.00051117066716327084 0 -0.033415828703225944 -0.00061151518250946954 0 -0.034087161192788665 -0.00037562962764224329 0 -0.034265268889565194 -0.001659665583147158 0 -0.036244647542437239 -0.0008711618095595165 0 -0.034305463750360948 0.0002521379395188118 0 -0.034272802924061853 -0.0032151894539041281 0 -0.03393200985235769 -0.001496151854358464 0 -0.032612722488090308 -0.0032669034410260657 0 -0.034303096018776097 -0.002559781880148982 0 -0.033415828703225944 -0.00061151518250946954 0 -0.031336088420238044 -0.00032365847087976551 0 -0.031448253344001219 -5.2619541921006129e-05 0 -0.031358660216540317 -5.1404808178375911e-05 0 -0.033415828703225944 -0.00061151518250946954 0 -0.032868405238084882 0.0012307093873005785 0 -0.031336088420238044 -0.00032365847087976551 0 -0.03147650923041731 -0.00017031393842199696 0 -0.031448253344001219 -5.2619541921006129e-05 0 -0.031336088420238044 -0.00032365847087976551 0 -0.031567668805901512 -0.00028078292293203362 0 -0.03147650923041731 -0.00017031393842199696 0 -0.031567668805901512 -0.00028078292293203362 0 -0.031533346064117083 -7.1720467990289839e-06 0 -0.0316919360788342 -0.00013734408751593042 0 -0.031567668805901512 -0.00028078292293203362 0 -0.03147650923041731 -0.00017031393842199696 0 -0.031533346064117083 -7.1720467990289839e-06 0 -0.03147650923041731 -0.00017031393842199696 0 -0.031533346064117083 -7.1720467990289839e-06 0 -0.031448253344001219 -5.2619541921006129e-05 0 -0.031533346064117083 -7.1720467990289839e-06 0 -0.031448253344001219 -5.2619541921006129e-05 0 -0.031486193407826622 4.430347337682717e-05 0 -0.031448253344001219 -5.2619541921006129e-05 0 -0.031486193407826622 4.430347337682717e-05 0 -0.031358660216540317 -5.1404808178375911e-05 0 -0.031486193407826622 4.430347337682717e-05 0 -0.031458147289175946 5.1695531700263386e-05 0 -0.031358660216540317 -5.1404808178375911e-05 0 -0.032348943575852072 -1.841627531178329e-05 0 -0.0316919360788342 -0.00013734408751593042 0 -0.03177696791335792 0.0003622130733178447 0 -0.0316919360788342 -0.00013734408751593042 0 -0.031633147272979306 0.00018713405674959329 0 -0.03177696791335792 0.0003622130733178447 0 -0.031533346064117083 -7.1720467990289839e-06 0 -0.0316919360788342 -0.00013734408751593042 0 -0.031633147272979306 0.00018713405674959329 0 -0.031567668805901512 -0.00028078292293203362 0 -0.0316919360788342 -0.00013734408751593042 0 -0.031593807330484037 -0.00051117066716327084 0 -0.0316919360788342 -0.00013734408751593042 0 -0.03209851704827682 -0.00036909755351424175 0 -0.031593807330484037 -0.00051117066716327084 0 -0.032348943575852072 -1.841627531178329e-05 0 -0.0316919360788342 -0.00013734408751593042 0 -0.03209851704827682 -0.00036909755351424175 0 -0.034597280382937377 -0.00074575155242250619 0 -0.034087161192788665 -0.00037562962764224329 0 -0.03209851704827682 -0.00036909755351424175 0 -0.032509200616357557 -0.00095916650596140224 0 -0.031593807330484037 -0.00051117066716327084 0 -0.036599500329747105 -0.00060665356500638756 0 -0.036921664394674036 -0.00040129701249421937 0 -0.036885483696005597 -0.00061436997374213307 0 -0.036786597693048595 0.00013417551589590409 0 -0.036885483696005597 -0.00061436997374213307 0 -0.036648770562355819 -0.00014778893926209119 0 -0.036599500329747105 -0.00060665356500638756 0 -0.036885483696005597 -0.00061436997374213307 0 -0.036648770562355819 -0.00014778893926209119 0 -0.036599500329747105 -0.00060665356500638756 0 -0.036648770562355819 -0.00014778893926209119 0 -0.036208240399589003 -3.6495646945200179e-05 0 -0.035807083739364656 0.00039134239613918985 0 -0.036534146792251712 0.0002804495914837275 0 -0.036208240399589003 -3.6495646945200179e-05 0 -0.036534146792251712 0.0002804495914837275 0 -0.036648770562355819 -0.00014778893926209119 0 -0.036208240399589003 -3.6495646945200179e-05 0 -0.035807083739364656 0.00039134239613918985 0 -0.036208240399589003 -3.6495646945200179e-05 0 -0.034928381979905838 -0.00054919781511812802 0 -0.036599500329747105 -0.00060665356500638756 0 -0.036208240399589003 -3.6495646945200179e-05 0 -0.034928381979905838 -0.00054919781511812802 0 -0.032509200616357557 -0.00095916650596140224 0 -0.034928381979905838 -0.00054919781511812802 0 -0.033342012865624278 -0.00031406497030840401 0 -0.034597280382937377 -0.00074575155242250619 0 -0.034853843629305534 -0.00059419988901081083 0 -0.035669890626532363 0.00070299038237962939 0 -0.035300123494780913 7.8059399186798653e-05 0 -0.035370208922980741 0.00030707765929722196 0 -0.035807083739364656 0.00039134239613918985 0 -0.034928381979905838 -0.00054919781511812802 0 -0.035300123494780913 7.8059399186798653e-05 0 -0.035669890626532363 0.00070299038237962939 0 -0.035807083739364656 0.00039134239613918985 0 -0.035300123494780913 7.8059399186798653e-05 0 -0.034928381979905838 -0.00054919781511812802 0 -0.035300123494780913 7.8059399186798653e-05 0 -0.034942990253481888 -0.00020522427063339487 0 -0.034928381979905838 -0.00054919781511812802 0 -0.034942990253481888 -0.00020522427063339487 0 -0.034374564649093782 -0.00033512058279562117 0 -0.035300123494780913 7.8059399186798653e-05 0 -0.034942990253481888 -0.00020522427063339487 0 -0.035370208922980741 0.00030707765929722196 0 -0.034936445836698658 -0.00017595338780027761 0 -0.034777152294085976 -0.00013438208709070141 0 -0.034942990253481888 -0.00020522427063339487 0 -0.035370208922980741 0.00030707765929722196 0 -0.035271823477086718 -5.049149524225648e-05 0 -0.034942990253481888 -0.00020522427063339487 0 -0.034522975637488851 -0.00036389704610381398 0 -0.034421918926012866 -0.00044189452528667502 0 -0.034942990253481888 -0.00020522427063339487 0 -0.034318931865950954 -0.0001469885662507683 0 -0.034421918926012866 -0.00044189452528667502 0 -0.034942990253481888 -0.00020522427063339487 0 -0.034430341725702987 -0.00027288047505776914 0 -0.034374564649093782 -0.00033512058279562117 0 -0.034942990253481888 -0.00020522427063339487 0 -0.034430341725702987 -0.00027288047505776914 0 -0.034522975637488851 -0.00036389704610381398 0 -0.034430341725702987 -0.00027288047505776914 0 -0.034212608701844234 -9.9023796536114211e-05 0 -0.033784506944280673 -0.00015376518762568746 0 -0.034212608701844234 -9.9023796536114211e-05 0 -0.034522975637488851 -0.00036389704610381398 0 -0.034426069469175306 -0.00018614393193801346 0 -0.034212608701844234 -9.9023796536114211e-05 0 -0.034426069469175306 -0.00018614393193801346 0 -0.034222331728193722 9.7618128112393022e-05 0 -0.034430341725702987 -0.00027288047505776914 0 -0.034212608701844234 -9.9023796536114211e-05 0 -0.034522975637488851 -0.00036389704610381398 0 -0.034522975637488851 -0.00036389704610381398 0 -0.034454687354511716 -0.00052527439532347919 0 -0.034426069469175306 -0.00018614393193801346 0 -0.034522975637488851 -0.00036389704610381398 0 -0.034454687354511716 -0.00052527439532347919 0 -0.034421918926012866 -0.00044189452528667502 0 -0.032348943575852072 -1.841627531178329e-05 0 -0.03209851704827682 -0.00036909755351424175 0 -0.033342012865624278 -0.00031406497030840401 0 -0.03209851704827682 -0.00036909755351424175 0 -0.032509200616357557 -0.00095916650596140224 0 -0.033342012865624278 -0.00031406497030840401 0 -0.034928381979905838 -0.00054919781511812802 0 -0.033342012865624278 -0.00031406497030840401 0 -0.034374564649093782 -0.00033512058279562117 0 -0.033342012865624278 -0.00031406497030840401 0 -0.034374564649093782 -0.00033512058279562117 0 -0.033784506944280673 -0.00015376518762568746 0 -0.034430341725702987 -0.00027288047505776914 0 -0.034374564649093782 -0.00033512058279562117 0 -0.033784506944280673 -0.00015376518762568746 0 -0.034212608701844234 -9.9023796536114211e-05 0 -0.033784506944280673 -0.00015376518762568746 0 -0.03310883850874656 0.00027040194355632257 0 -0.033784506944280673 -0.00015376518762568746 0 -0.032661377014260959 0.00010511203323729961 0 -0.03310883850874656 0.00027040194355632257 0 -0.033342012865624278 -0.00031406497030840401 0 -0.033784506944280673 -0.00015376518762568746 0 -0.032661377014260959 0.00010511203323729961 0 -0.032348943575852072 -1.841627531178329e-05 0 -0.033342012865624278 -0.00031406497030840401 0 -0.032661377014260959 0.00010511203323729961 0 -0.032348943575852072 -1.841627531178329e-05 0 -0.032661377014260959 0.00010511203323729961 0 -0.03177696791335792 0.0003622130733178447 0 -0.032661377014260959 0.00010511203323729961 0 -0.031522088993441659 0.00079999957716090644 0 -0.03310883850874656 0.00027040194355632257 0 -0.032661377014260959 0.00010511203323729961 0 -0.031522088993441659 0.00079999957716090644 0 -0.03177696791335792 0.0003622130733178447 0 -0.031522088993441659 0.00079999957716090644 0 -0.03310883850874656 0.00027040194355632257 0 -0.034289063683373172 0.00049246095426712063 0 -0.031522088993441659 0.00079999957716090644 0 -0.029303452829080773 0.00041142313409110433 0 -0.02799127409036168 0.0014695525578244265 0 -0.031485826659248838 0.00084993285413460828 0 -0.03109586850511338 0.00089594063911494859 0 -0.029303452829080773 0.00041142313409110433 0 -0.030286055131423135 -0.00023774399397291006 0 -0.02812384302874496 -0.00053414419259554993 0 -0.031522088993441659 0.00079999957716090644 0 -0.029303452829080773 0.00041142313409110433 0 -0.030286055131423135 -0.00023774399397291006 0 -0.031522088993441659 0.00079999957716090644 0 -0.030286055131423135 -0.00023774399397291006 0 -0.031594365513363129 0.00024578706790384544 0 -0.034454687354511716 -0.00052527439532347919 0 -0.034426069469175306 -0.00018614393193801346 0 -0.034421150005111902 -0.00083728994199803108 0 -0.02799127409036168 0.0014695525578244265 0 -0.027728198506021873 0.00081267143166847359 0 -0.025774583153822108 0.0011070690412562667 0 -0.03109586850511338 0.00089594063911494859 0 -0.030055296819502444 0.00016515373336779146 0 -0.034426069469175306 -0.00018614393193801346 0 -0.034289063683373172 0.00049246095426712063 0 -0.034421150005111902 -0.00083728994199803108 0 -0.034426069469175306 -0.00018614393193801346 0 -0.034222331728193722 9.7618128112393022e-05 0 -0.034289063683373172 0.00049246095426712063 0 -0.034222331728193722 9.7618128112393022e-05 0 -0.03396745815610841 0.00017384106155176969 0 -0.034289063683373172 0.00049246095426712063 0 -0.034212608701844234 -9.9023796536114211e-05 0 -0.03310883850874656 0.00027040194355632257 0 -0.03396745815610841 0.00017384106155176969 0 -0.03310883850874656 0.00027040194355632257 0 -0.03396745815610841 0.00017384106155176969 0 -0.034289063683373172 0.00049246095426712063 0 -0.034212608701844234 -9.9023796536114211e-05 0 -0.034222331728193722 9.7618128112393022e-05 0 -0.03396745815610841 0.00017384106155176969 0 -0.029303452829080773 0.00041142313409110433 0 -0.027728198506021873 0.00081267143166847359 0 -0.02812384302874496 -0.00053414419259554993 0 -0.027728198506021873 0.00081267143166847359 0 -0.026533844338147067 -0.00034791656028679524 0 -0.02812384302874496 -0.00053414419259554993 0 -0.029303452829080773 0.00041142313409110433 0 -0.02799127409036168 0.0014695525578244265 0 -0.027728198506021873 0.00081267143166847359 0 -0.027728198506021873 0.00081267143166847359 0 -0.026533844338147067 -0.00034791656028679524 0 -0.025294899025626184 0.00044610263719809808 0 -0.027728198506021873 0.00081267143166847359 0 -0.025774583153822108 0.0011070690412562667 0 -0.025868220301135607 0.00025172113661367583 0 -0.027582763738310142 0.00075899750457252143 0 -0.025618799463967501 0.0003536584369107023 0 -0.026533844338147067 -0.00034791656028679524 0 -0.02812384302874496 -0.00053414419259554993 0 -0.025986714207686171 -0.0017497219038426872 0 -0.026533844338147067 -0.00034791656028679524 0 -0.025986714207686171 -0.0017497219038426872 0 -0.025211656867227258 -0.00076507679281246895 0 -0.02812384302874496 -0.00053414419259554993 0 -0.025986714207686171 -0.0017497219038426872 0 -0.028479301113417572 -0.0017055175997767709 0 -0.01862332856597165 0.0010550138181832903 0 -0.016722446630791012 7.1920881615058832e-05 0 -0.018134664034738911 -0.00036303512428559527 0 -0.021012477609713875 -0.00025986552111255878 0 -0.023490483420076199 -0.00030253135856365921 0 -0.015958956506868044 0.0012734435482593812 0 -0.01862332856597165 0.0010550138181832903 0 -0.016722446630791012 7.1920881615058832e-05 0 -0.015958956506868044 0.0012734435482593812 0 -0.014921026058848458 0.00046668924567445827 0 -0.016722446630791012 7.1920881615058832e-05 0 -0.030286055131423135 -0.00023774399397291006 0 -0.030565194837910339 -0.0009881803541219457 0 -0.031594365513363129 0.00024578706790384544 0 -0.030286055131423135 -0.00023774399397291006 0 -0.02812384302874496 -0.00053414419259554993 0 -0.028479301113417572 -0.0017055175997767709 0 -0.030286055131423135 -0.00023774399397291006 0 -0.028479301113417572 -0.0017055175997767709 0 -0.030565194837910339 -0.0009881803541219457 0 -0.023490483420076199 -0.00030253135856365921 0 -0.025494101238756322 -0.00020139821929945711 0 -0.01862332856597165 0.0010550138181832903 0 -0.018886656025690424 -4.5349626982154883e-05 0 -0.01976854098533953 6.211092133598274e-05 0 -0.01862332856597165 0.0010550138181832903 0 -0.018886656025690424 -4.5349626982154883e-05 0 -0.018134664034738911 -0.00036303512428559527 0 -0.020507591911723883 0.00060378324953391067 0 -0.01976854098533953 6.211092133598274e-05 0 -0.020526061795536843 -0.0002899414160352143 0 -0.01862332856597165 0.0010550138181832903 0 -0.020507591911723883 0.00060378324953391067 0 -0.01976854098533953 6.211092133598274e-05 0 -0.020507591911723883 0.00060378324953391067 0 -0.021521056040662467 0.0002078447671674776 0 -0.020526061795536843 -0.0002899414160352143 0 -0.025494101238756322 -0.00020139821929945711 0 -0.026282593266042018 -9.7598144575007127e-05 0 -0.030565194837910339 -0.0009881803541219457 0 -0.031421298020155128 -0.00043008877919445339 0 -0.031594365513363129 0.00024578706790384544 0 -0.031421298020155128 -0.00043008877919445339 0 -0.031565621633522715 4.7410616074999665e-05 0 -0.031594365513363129 0.00024578706790384544 0 -0.026282593266042018 -9.7598144575007127e-05 0 -0.027334783643834067 -0.00023507961748869463 0 -0.021521056040662467 0.0002078447671674776 0 -0.021941203425233546 -9.6481270317038339e-05 0 -0.021738750623616351 -0.00029701118715420665 0 -0.031521626077940415 -9.8869877812911137e-05 0 -0.031511170532244878 2.714384976413077e-05 0 -0.031491803038306516 1.0590431475656125e-05 0 -0.031521626077940415 -9.8869877812911137e-05 0 -0.031565621633522715 4.7410616074999665e-05 0 -0.031511170532244878 2.714384976413077e-05 0 -0.031421298020155128 -0.00043008877919445339 0 -0.031521626077940415 -9.8869877812911137e-05 0 -0.031565621633522715 4.7410616074999665e-05 0 -0.031565621633522715 4.7410616074999665e-05 0 -0.031518786507402509 7.7675957710175573e-05 0 -0.031557913295817433 0.00012386655194120016 0 -0.031565621633522715 4.7410616074999665e-05 0 -0.031511170532244878 2.714384976413077e-05 0 -0.031518786507402509 7.7675957710175573e-05 0 -0.031511170532244878 2.714384976413077e-05 0 -0.031518786507402509 7.7675957710175573e-05 0 -0.031467741206537198 7.0530582655365759e-05 0 -0.031518786507402509 7.7675957710175573e-05 0 -0.031458147289175946 5.1695531700263386e-05 0 -0.031467741206537198 7.0530582655365759e-05 0 -0.031518786507402509 7.7675957710175573e-05 0 -0.031486193407826622 4.430347337682717e-05 0 -0.031458147289175946 5.1695531700263386e-05 0 -0.031533346064117083 -7.1720467990289839e-06 0 -0.031557913295817433 0.00012386655194120016 0 -0.031633147272979306 0.00018713405674959329 0 -0.031533346064117083 -7.1720467990289839e-06 0 -0.031486193407826622 4.430347337682717e-05 0 -0.031557913295817433 0.00012386655194120016 0 -0.031518786507402509 7.7675957710175573e-05 0 -0.031486193407826622 4.430347337682717e-05 0 -0.031557913295817433 0.00012386655194120016 0 -0.031557913295817433 0.00012386655194120016 0 -0.031633147272979306 0.00018713405674959329 0 -0.031594365513363129 0.00024578706790384544 0 -0.031633147272979306 0.00018713405674959329 0 -0.03177696791335792 0.0003622130733178447 0 -0.031594365513363129 0.00024578706790384544 0 -0.031522088993441659 0.00079999957716090644 0 -0.03177696791335792 0.0003622130733178447 0 -0.031594365513363129 0.00024578706790384544 0 -0.031565621633522715 4.7410616074999665e-05 0 -0.031557913295817433 0.00012386655194120016 0 -0.031594365513363129 0.00024578706790384544 0 -0.024083833515783287 -0.00054831654383727022 0 -0.02700260641793539 -0.0034059790579431043 0 -0.020235682164994277 -6.5548282557390185e-06 0 -0.024083833515783287 -0.00054831654383727022 0 -0.02260500746070461 9.1524020452531182e-07 0 -0.020235682164994277 -6.5548282557390185e-06 0 -0.024083833515783287 -0.00054831654383727022 0 -0.026985654109435115 -0.00095561667730913701 0 -0.02700260641793539 -0.0034059790579431043 0 -0.024083833515783287 -0.00054831654383727022 0 -0.026985654109435115 -0.00095561667730913701 0 -0.025285096532454632 0.00018991496525176137 0 -0.026985654109435115 -0.00095561667730913701 0 -0.025285096532454632 0.00018991496525176137 0 -0.028873392614890987 -0.00029751152211671339 0 -0.025285096532454632 0.00018991496525176137 0 -0.026507936275294207 0.0015064006087611153 0 -0.028873392614890987 -0.00029751152211671339 0 -0.024083833515783287 -0.00054831654383727022 0 -0.025285096532454632 0.00018991496525176137 0 -0.02260500746070461 9.1524020452531182e-07 0 -0.025285096532454632 0.00018991496525176137 0 -0.02260500746070461 9.1524020452531182e-07 0 -0.024972028358909062 2.7618351903141179e-06 0 -0.025285096532454632 0.00018991496525176137 0 -0.024972028358909062 2.7618351903141179e-06 0 -0.026507936275294207 0.0015064006087611153 0 -0.024981110046507524 -3.7588334923492387e-06 0 -0.028361095893352763 0.00035380821865866908 0 -0.029915929601392159 -0.00064414422085095485 0 -0.024976942001050169 1.5281176428284981e-07 0 -0.02828797150717878 0.00045974696640931209 0 -0.028131172432748996 2.3891796152556686e-06 0 -0.024981110046507524 -3.7588334923492387e-06 0 -0.028361095893352763 0.00035380821865866908 0 -0.028361095893352763 0.00035380821865866908 0 -0.030495628985673803 0.00060358062240699394 0 -0.029915929601392159 -0.00064414422085095485 0 -0.02828797150717878 0.00045974696640931209 0 -0.030854015080646967 0.00089770814237622137 0 -0.026507936275294207 0.0015064006087611153 0 -0.031262391175165549 0.00098046223134586985 0 -0.028873392614890987 -0.00029751152211671339 0 -0.030495628985673803 0.00060358062240699394 0 -0.029915929601392159 -0.00064414422085095485 0 -0.031262391175165549 0.00098046223134586985 0 -0.032263175482564695 0.0011892942146627613 0 -0.030495628985673803 0.00060358062240699394 0 -0.031262391175165549 0.00098046223134586985 0 -0.032263175482564695 0.0011892942146627613 0 -0.031262391175165549 0.00098046223134586985 0 -0.033591402491791607 0.0011613005483781329 0 -0.031262391175165549 0.00098046223134586985 0 -0.0317877832329337 -0.00078431325480498931 0 -0.033501578043419751 0.00038736465575696415 0 -0.031262391175165549 0.00098046223134586985 0 -0.028873392614890987 -0.00029751152211671339 0 -0.0317877832329337 -0.00078431325480498931 0 -0.028873392614890987 -0.00029751152211671339 0 -0.029454820764296272 -0.0016121089515635778 0 -0.0317877832329337 -0.00078431325480498931 0 -0.026985654109435115 -0.00095561667730913701 0 -0.029454820764296272 -0.0016121089515635778 0 -0.02700260641793539 -0.0034059790579431043 0 -0.026985654109435115 -0.00095561667730913701 0 -0.028873392614890987 -0.00029751152211671339 0 -0.029454820764296272 -0.0016121089515635778 0 -0.029454820764296272 -0.0016121089515635778 0 -0.0317877832329337 -0.00078431325480498931 0 -0.031298542618867199 -0.0029127569996646356 0 -0.032507983296483495 -0.0016007536440942678 0 -0.0317877832329337 -0.00078431325480498931 0 -0.031298542618867199 -0.0029127569996646356 0 -0.032507983296483495 -0.0016007536440942678 0 -0.033324296468390566 -0.0011322978573807352 0 -0.033382006388675119 -0.00030815438402214144 0 -0.032507983296483495 -0.0016007536440942678 0 -0.033324296468390566 -0.0011322978573807352 0 -0.033385720914964563 -0.0018576056264432335 0 -0.032507983296483495 -0.0016007536440942678 0 -0.033382006388675119 -0.00030815438402214144 0 -0.0317877832329337 -0.00078431325480498931 0 -0.034308462796410318 -0.00058828147060859383 0 -0.0317877832329337 -0.00078431325480498931 0 -0.033501578043419751 0.00038736465575696415 0 -0.033791491531832515 -0.00043371239915461772 0 -0.031938264526003055 -0.00077131108127122705 0 -0.031262391175165549 0.00098046223134586985 0 -0.033501578043419751 0.00038736465575696415 0 -0.033591402491791607 0.0011613005483781329 0 -0.033501578043419751 0.00038736465575696415 0 -0.033591402491791607 0.0011613005483781329 0 -0.034915232063849826 0.00090389093977995825 0 -0.033501578043419751 0.00038736465575696415 0 -0.034863557069369264 0.00022578309308203545 0 -0.034915232063849826 0.00090389093977995825 0 -0.034308462796410318 -0.00058828147060859383 0 -0.033501578043419751 0.00038736465575696415 0 -0.034863557069369264 0.00022578309308203545 0 -0.034863557069369264 0.00022578309308203545 0 -0.034915232063849826 0.00090389093977995825 0 -0.035370208922980741 0.00030707765929722196 0 -0.035651506387067967 0.001129586931133249 0 -0.034915232063849826 0.00090389093977995825 0 -0.035370208922980741 0.00030707765929722196 0 -0.034863557069369264 0.00022578309308203545 0 -0.035370208922980741 0.00030707765929722196 0 -0.035271823477086718 -5.049149524225648e-05 0 -0.034318931865950954 -0.0001469885662507683 0 -0.033931311219218552 -0.00072216589366898634 0 -0.034421918926012866 -0.00044189452528667502 0 -0.034308462796410318 -0.00058828147060859383 0 -0.034863557069369264 0.00022578309308203545 0 -0.035271823477086718 -5.049149524225648e-05 0 -0.033791491531832515 -0.00043371239915461772 0 -0.034777152294085976 -0.00013438208709070141 0 -0.033382006388675119 -0.00030815438402214144 0 -0.034318931865950954 -0.0001469885662507683 0 -0.033931311219218552 -0.00072216589366898634 0 -0.033324296468390566 -0.0011322978573807352 0 -0.033382006388675119 -0.00030815438402214144 0 -0.033931311219218552 -0.00072216589366898634 0 -0.033324296468390566 -0.0011322978573807352 0 -0.033931311219218552 -0.00072216589366898634 0 -0.033385720914964563 -0.0018576056264432335 0 -0.033931311219218552 -0.00072216589366898634 0 -0.034201471424185101 -0.00081840968695982028 0 -0.033385720914964563 -0.0018576056264432335 0 -0.033931311219218552 -0.00072216589366898634 0 -0.034201471424185101 -0.00081840968695982028 0 -0.034421918926012866 -0.00044189452528667502 0 -0.034454687354511716 -0.00052527439532347919 0 -0.034201471424185101 -0.00081840968695982028 0 -0.034421918926012866 -0.00044189452528667502 0 -0.034454687354511716 -0.00052527439532347919 0 -0.034201471424185101 -0.00081840968695982028 0 -0.034421150005111902 -0.00083728994199803108 0 -0.030055296819502444 0.00016515373336779146 0 -0.028491532845928681 -0.00048650952767868508 0 -0.034201471424185101 -0.00081840968695982028 0 -0.034421150005111902 -0.00083728994199803108 0 -0.033385720914964563 -0.0018576056264432335 0 -0.025774583153822108 0.0011070690412562667 0 -0.024897141223027795 0.00046749061176240233 0 -0.023659121715348109 0.00089653298198838212 0 -0.023546153602511288 -5.0941986390379565e-05 0 -0.025294899025626184 0.00044610263719809808 0 -0.024462310585288461 -0.00050217813441283139 0 -0.024897141223027795 0.00046749061176240233 0 -0.024038838518988342 -0.00015306571048975446 0 -0.025868220301135607 0.00025172113661367583 0 -0.024897141223027795 0.00046749061176240233 0 -0.024038838518988342 -0.00015306571048975446 0 -0.023659121715348109 0.00089653298198838212 0 -0.023782305043339169 -9.5130454196346433e-05 0 -0.025618799463967501 0.0003536584369107023 0 -0.025294899025626184 0.00044610263719809808 0 -0.025211656867227258 -0.00076507679281246895 0 -0.024462310585288461 -0.00050217813441283139 0 -0.025774583153822108 0.0011070690412562667 0 -0.024897141223027795 0.00046749061176240233 0 -0.025868220301135607 0.00025172113661367583 0 -0.026533844338147067 -0.00034791656028679524 0 -0.025294899025626184 0.00044610263719809808 0 -0.025211656867227258 -0.00076507679281246895 0 -0.025211656867227258 -0.00076507679281246895 0 -0.024015693380357535 -0.001475301538143218 0 -0.024462310585288461 -0.00050217813441283139 0 -0.025986714207686171 -0.0017497219038426872 0 -0.025211656867227258 -0.00076507679281246895 0 -0.024015693380357535 -0.001475301538143218 0 -0.015958956506868044 0.0012734435482593812 0 -0.014921026058848458 0.00046668924567445827 0 -0.014517325614180149 0.00072768247604106172 0 -0.021012477609713875 -0.00025986552111255878 0 -0.019325007290853114 -0.00036779070627473574 0 -0.014921026058848458 0.00046668924567445827 0 -0.014517325614180149 0.00072768247604106172 0 -0.014431315389099829 0.00042896201343562443 0 -0.023546153602511288 -5.0941986390379565e-05 0 -0.024015693380357535 -0.001475301538143218 0 -0.022999281779548932 -0.00068308241843347743 0 -0.023546153602511288 -5.0941986390379565e-05 0 -0.024015693380357535 -0.001475301538143218 0 -0.024462310585288461 -0.00050217813441283139 0 -0.024015693380357535 -0.001475301538143218 0 -0.022999281779548932 -0.00068308241843347743 0 -0.022576378865826363 -0.0012890596331399497 0 -0.019325007290853114 -0.00036779070627473574 0 -0.01854714115315282 -0.00047754031152262224 0 -0.014517325614180149 0.00072768247604106172 0 -0.014502914440327839 0.0003363627953106048 0 -0.014431315389099829 0.00042896201343562443 0 -0.014522048080028513 0.0003614176983026162 0 -0.014502914440327839 0.0003363627953106048 0 -0.014431315389099829 0.00042896201343562443 0 -0.014609108628445796 0.00029120765037256432 0 -0.014502914440327839 0.0003363627953106048 0 -0.014774819916321793 8.8748487482082504e-05 0 -0.014609108628445796 0.00029120765037256432 0 -0.014522048080028513 0.0003614176983026162 0 -0.014502914440327839 0.0003363627953106048 0 -0.022999281779548932 -0.00068308241843347743 0 -0.022576378865826363 -0.0012890596331399497 0 -0.022335496317295502 -0.00039924543406994053 0 -0.022576378865826363 -0.0012890596331399497 0 -0.022335496317295502 -0.00039924543406994053 0 -0.021350853770049669 -0.0012150686207012171 0 -0.024038838518988342 -0.00015306571048975446 0 -0.022335496317295502 -0.00039924543406994053 0 -0.023659121715348109 0.00089653298198838212 0 -0.023782305043339169 -9.5130454196346433e-05 0 -0.02242683351865531 -0.00036881139547105925 0 -0.023546153602511288 -5.0941986390379565e-05 0 -0.022999281779548932 -0.00068308241843347743 0 -0.022335496317295502 -0.00039924543406994053 0 -0.022335496317295502 -0.00039924543406994053 0 -0.023659121715348109 0.00089653298198838212 0 -0.021876966240849203 0.00064732387793862099 0 -0.028491532845928681 -0.00048650952767868508 0 -0.026521556786806576 -0.0011325858548843902 0 -0.032507983296483495 -0.0016007536440942678 0 -0.033385720914964563 -0.0018576056264432335 0 -0.031298542618867199 -0.0029127569996646356 0 -0.021876966240849203 0.00064732387793862099 0 -0.02130595500636677 -0.00019647083090596566 0 -0.020535064463377498 0.00034428006072968867 0 -0.026521556786806576 -0.0011325858548843902 0 -0.023866285304241772 -0.0013990119055896947 0 -0.029454820764296272 -0.0016121089515635778 0 -0.031298542618867199 -0.0029127569996646356 0 -0.02700260641793539 -0.0034059790579431043 0 -0.02130595500636677 -0.00019647083090596566 0 -0.020612246233198309 -0.00040343579580648018 0 -0.020535064463377498 0.00034428006072968867 0 -0.022335496317295502 -0.00039924543406994053 0 -0.021876966240849203 0.00064732387793862099 0 -0.02130595500636677 -0.00019647083090596566 0 -0.022335496317295502 -0.00039924543406994053 0 -0.02130595500636677 -0.00019647083090596566 0 -0.021350853770049669 -0.0012150686207012171 0 -0.01854714115315282 -0.00047754031152262224 0 -0.018127385910435129 -0.00054877541627975659 0 -0.014774819916321793 8.8748487482082504e-05 0 -0.014712072656129104 0.00027419199615492837 0 -0.014839935366556249 0.00022500491618115219 0 -0.014609108628445796 0.00029120765037256432 0 -0.014774819916321793 8.8748487482082504e-05 0 -0.014712072656129104 0.00027419199615492837 0 -0.014774819916321793 8.8748487482082504e-05 0 -0.014948511754456247 0.00015603786143649918 0 -0.01501810485855895 8.6289039005151377e-05 0 -0.014774819916321793 8.8748487482082504e-05 0 -0.015106476566881449 -4.8762886538239025e-05 0 -0.01501810485855895 8.6289039005151377e-05 0 -0.014948511754456247 0.00015603786143649918 0 -0.014839935366556249 0.00022500491618115219 0 -0.014918718649831601 0.00021479377819579791 0 -0.014948511754456247 0.00015603786143649918 0 -0.015013029942123338 0.00017107425692655643 0 -0.014967109210168819 0.00019858900731994282 0 -0.014774819916321793 8.8748487482082504e-05 0 -0.014948511754456247 0.00015603786143649918 0 -0.014839935366556249 0.00022500491618115219 0 -0.02130595500636677 -0.00019647083090596566 0 -0.021350853770049669 -0.0012150686207012171 0 -0.020612246233198309 -0.00040343579580648018 0 -0.018127385910435129 -0.00054877541627975659 0 -0.017488598458120085 -0.00066005600592247519 0 -0.021350853770049669 -0.0012150686207012171 0 -0.020310661940227841 -0.0011202157561396287 0 -0.020612246233198309 -0.00040343579580648018 0 -0.020310661940227841 -0.0011202157561396287 0 -0.020004450780839081 -0.00048374475233099116 0 -0.020612246233198309 -0.00040343579580648018 0 -0.017488598458120085 -0.00066005600592247519 0 -0.018499785039354948 -0.00013201976111996183 0 -0.015106476566881449 -4.8762886538239025e-05 0 -0.01501810485855895 8.6289039005151377e-05 0 -0.015135152444016906 6.0561333502021069e-05 0 -0.015106476566881449 -4.8762886538239025e-05 0 -0.015135152444016906 6.0561333502021069e-05 0 -0.015263061361432968 0.00012727328660859923 0 -0.01501810485855895 8.6289039005151377e-05 0 -0.015135152444016906 6.0561333502021069e-05 0 -0.015149418070347486 0.00012214675679183781 0 -0.015135152444016906 6.0561333502021069e-05 0 -0.015149418070347486 0.00012214675679183781 0 -0.015263061361432968 0.00012727328660859923 0 -0.014948511754456247 0.00015603786143649918 0 -0.015061576979758592 0.00013700180315113993 0 -0.015013029942123338 0.00017107425692655643 0 -0.014948511754456247 0.00015603786143649918 0 -0.01501810485855895 8.6289039005151377e-05 0 -0.015061576979758592 0.00013700180315113993 0 -0.01501810485855895 8.6289039005151377e-05 0 -0.015149418070347486 0.00012214675679183781 0 -0.015061576979758592 0.00013700180315113993 0 -0.015149418070347486 0.00012214675679183781 0 -0.015061576979758592 0.00013700180315113993 0 -0.015078473985321389 0.00015773572328151524 0 -0.015106476566881449 -4.8762886538239025e-05 0 -0.015263061361432968 0.00012727328660859923 0 -0.015685444780989398 2.3285256207939926e-05 0 -0.014575260467952589 3.9460750520501576e-07 0 -0.014096746575636511 7.2845694736996703e-05 0 -0.014579500724127921 -3.4950579768563088e-07 0 -0.015263061361432968 0.00012727328660859923 0 -0.015202079711169148 5.7569010128255206e-05 0 -0.015149418070347486 0.00012214675679183781 0 -0.015263061361432968 0.00012727328660859923 0 -0.015202079711169148 5.7569010128255206e-05 0 -0.014579500724127921 -3.4950579768563088e-07 0 -0.015263061361432968 0.00012727328660859923 0 -0.015685444780989398 2.3285256207939926e-05 0 -0.014579500724127921 -3.4950579768563088e-07 0 -0.015685444780989398 2.3285256207939926e-05 0 -0.017044186369195115 7.77124253708871e-07 0 -0.016474588606365952 -2.5928478372669737e-05 0 -0.01632975536111329 7.7703077884907492e-05 0 -0.016710213012494129 3.1421315705307697e-05 0 -0.017488598458120085 -0.00066005600592247519 0 -0.015124889933345981 1.3004349746787324e-05 0 -0.016474588606365952 -2.5928478372669737e-05 0 -0.015685444780989398 2.3285256207939926e-05 0 -0.01632975536111329 7.7703077884907492e-05 0 -0.015685444780989398 2.3285256207939926e-05 0 -0.01632975536111329 7.7703077884907492e-05 0 -0.017044186369195115 7.77124253708871e-07 0 -0.01632975536111329 7.7703077884907492e-05 0 -0.017044186369195115 7.77124253708871e-07 0 -0.016710213012494129 3.1421315705307697e-05 0 -0.020004450780839081 -0.00048374475233099116 0 -0.020234228823577102 5.0224968253030426e-05 0 -0.019520715881579793 -1.1546442593057713e-06 0 -0.018499785039354948 -0.00013201976111996183 0 -0.019513620257544429 3.2377483421921669e-07 0 -0.017044186369195115 7.77124253708871e-07 0 -0.016710213012494129 3.1421315705307697e-05 0 -0.019512942151655017 -9.8775366301074254e-07 0 -0.020004450780839081 -0.00048374475233099116 0 -0.020612246233198309 -0.00040343579580648018 0 -0.020234228823577102 5.0224968253030426e-05 0 -0.020612246233198309 -0.00040343579580648018 0 -0.020234228823577102 5.0224968253030426e-05 0 -0.020535064463377498 0.00034428006072968867 0 -0.023866285304241772 -0.0013990119055896947 0 -0.020232186234139284 -6.1083152399724243e-07 0 -0.020234228823577102 5.0224968253030426e-05 0 -0.020535064463377498 0.00034428006072968867 0 -0.020224721011595306 1.4019178257507597e-06 0 -0.020234228823577102 5.0224968253030426e-05 0 -0.020224721011595306 1.4019178257507597e-06 0 -0.019520715881579793 -1.1546442593057713e-06 0 -0.0071218737294609586 0.00026137373673146324 0 -0.0075548069890926869 -1.8240296729493388e-05 0 -0.0093193874739540723 -4.0667953116815359e-07 0 -0.0071218737294609586 0.00026137373673146324 0 -0.0093193874739540723 -4.0667953116815359e-07 0 -0.0061308927618910509 -1.1609786451709454e-07 0 -0.0071218737294609586 0.00026137373673146324 0 -0.0071187297849288718 0.00034683650609470753 0 -0.0075548069890926869 -1.8240296729493388e-05 0 -0.0071218737294609586 0.00026137373673146324 0 -0.0071187297849288718 0.00034683650609470753 0 -0.0069279301095031909 9.9326659765444999e-05 0 -0.0071187297849288718 0.00034683650609470753 0 -0.0075548069890926869 -1.8240296729493388e-05 0 -0.0071804501185223626 -0.00050520730687177596 0 -0.0071187297849288718 0.00034683650609470753 0 -0.0071804501185223626 -0.00050520730687177596 0 -0.006598602664195488 -0.00081440616844875315 0 -0.0075548069890926869 -1.8240296729493388e-05 0 -0.0071804501185223626 -0.00050520730687177596 0 -0.007830146751756608 -0.00094224600363680298 0 -0.0075548069890926869 -1.8240296729493388e-05 0 -0.0093193874739540723 -4.0667953116815359e-07 0 -0.007830146751756608 -0.00094224600363680298 0 -0.0093280008910994732 6.6380460741140216e-09 0 -0.01110435651953858 -1.7493363151690501e-08 0 -0.010519342523354841 0.0001066792013012501 0 -0.0093236373708310508 -1.9618965757114379e-08 0 -0.0090593096221612754 -0.00044243150064504925 0 -0.011109510985604417 9.6029894231460441e-08 0 -0.011324594828898788 -0.00064786878526736677 0 -0.01110435651953858 -1.7493363151690501e-08 0 -0.010519342523354841 0.0001066792013012501 0 -0.010034599890651155 -0.00038980032646175866 0 -0.011112746950117906 -7.1742690119940084e-07 0 -0.012557758185928778 0.00019858558701576112 0 -0.012985822642791717 -0.0002844280613898584 0 -0.014574273704755523 -7.3680985617601964e-07 0 -0.012841406882163104 7.2359938361692833e-07 0 -0.012557758185928778 0.00019858558701576112 0 -0.011112746950117906 -7.1742690119940084e-07 0 -0.012841406882163104 7.2359938361692833e-07 0 -0.012557758185928778 0.00019858558701576112 0 -0.014998500911912861 0.00020608599397140754 0 -0.015078473985321389 0.00015773572328151524 0 -0.015013254186668197 0.00023689728701620881 0 -0.014998500911912861 0.00020608599397140754 0 -0.015013254186668197 0.00023689728701620881 0 -0.014939574755864821 0.000241733000645928 0 -0.014998500911912861 0.00020608599397140754 0 -0.015013029942123338 0.00017107425692655643 0 -0.015078473985321389 0.00015773572328151524 0 -0.014998500911912861 0.00020608599397140754 0 -0.015013029942123338 0.00017107425692655643 0 -0.014967109210168819 0.00019858900731994282 0 -0.015061576979758592 0.00013700180315113993 0 -0.015013029942123338 0.00017107425692655643 0 -0.015078473985321389 0.00015773572328151524 0 -0.015149418070347486 0.00012214675679183781 0 -0.015202079711169148 5.7569010128255206e-05 0 -0.015078473985321389 0.00015773572328151524 0 -0.015202079711169148 5.7569010128255206e-05 0 -0.015078473985321389 0.00015773572328151524 0 -0.015013254186668197 0.00023689728701620881 0 -0.014096746575636511 7.2845694736996703e-05 0 -0.011324594828898788 -0.00064786878526736677 0 -0.015202079711169148 5.7569010128255206e-05 0 -0.015013254186668197 0.00023689728701620881 0 -0.015027489713201522 0.00039491349539492706 0 -0.015013254186668197 0.00023689728701620881 0 -0.015027489713201522 0.00039491349539492706 0 -0.014930800637889955 0.00031845243409377817 0 -0.0094458997435162995 -0.00034627511710057083 0 -0.0095425355732282214 -0.00044428394091391174 0 -0.0097707207529511026 -0.00027504444606527614 0 -0.015027489713201522 0.00039491349539492706 0 -0.014937622548644934 0.00038512255160761929 0 -0.014930800637889955 0.00031845243409377817 0 -0.0071804501185223626 -0.00050520730687177596 0 -0.007830146751756608 -0.00094224600363680298 0 -0.0070816940407131442 -0.0013700295535260512 0 -0.011324594828898788 -0.00064786878526736677 0 -0.0094191493551278368 -0.00052695152951375641 0 -0.0071804501185223626 -0.00050520730687177596 0 -0.0070816940407131442 -0.0013700295535260512 0 -0.006598602664195488 -0.00081440616844875315 0 -0.0092244355766767788 -0.00050965487952477008 0 -0.0094191493551278368 -0.00052695152951375641 0 -0.011324594828898788 -0.00064786878526736677 0 -0.0092244355766767788 -0.00050965487952477008 0 -0.010519342523354841 0.0001066792013012501 0 -0.010034599890651155 -0.00038980032646175866 0 -0.0099669867860278857 -0.0003227322315572121 0 -0.0090593096221612754 -0.00044243150064504925 0 -0.0092244355766767788 -0.00050965487952477008 0 -0.0092244355766767788 -0.00050965487952477008 0 -0.0065247286771875565 -0.0010220957780488285 0 -0.006883999246168988 -0.0010295358039046265 0 -0.0064128807372986069 -0.0010516633672108852 0 -0.0072170214270206937 -0.00060203451116548135 0 -0.0067775400461041998 -0.0013034921938462765 0 -0.0069092833998134155 -0.0012300171251225591 0 -0.0069280487621397923 -0.0013312731257438763 0 -0.0065247286771875565 -0.0010220957780488285 0 -0.0066072376912686658 -0.0011683828342111142 0 -0.0067775400461041998 -0.0013034921938462765 0 -0.0067056104655067988 -0.0011332727782020656 0 -0.0069092833998134155 -0.0012300171251225591 0 -0.0067056104655067988 -0.0011332727782020656 0 -0.006883999246168988 -0.0010295358039046265 0 -0.0069092833998134155 -0.0012300171251225591 0 -0.0067056104655067988 -0.0011332727782020656 0 -0.006883999246168988 -0.0010295358039046265 0 -0.0064128807372986069 -0.0010516633672108852 0 -0.0063057735565434829 -0.0011332646564025681 0 -0.0066159501716827546 -0.0014189940668610178 0 -0.0064128807372986069 -0.0010516633672108852 0 -0.0066159501716827546 -0.0014189940668610178 0 -0.0067056104655067988 -0.0011332727782020656 0 -0.0064128807372986069 -0.0010516633672108852 0 -0.0076710162062491967 -0.00041403222586858051 0 -0.0081330936911399639 -7.6259227401502091e-05 0 -0.0093672259081485111 -6.5258616212068477e-05 0 -0.0094191493551278368 -0.00052695152951375641 0 -0.012530928205054522 0.00018937604938382355 0 -0.014937622548644934 0.00038512255160761929 0 -0.014930800637889955 0.00031845243409377817 0 -0.014784793575026352 0.00030369379425330788 0 -0.0094191493551278368 -0.00052695152951375641 0 -0.0078318242190922437 -0.00041038265053345809 0 -0.014246482245511354 0.00041083941346736091 0 -0.012530928205054522 0.00018937604938382355 0 -0.014930800637889955 0.00031845243409377817 0 -0.014917289585680983 0.00028855233853147572 0 -0.014880134476623719 0.00032367520804738227 0 -0.015013254186668197 0.00023689728701620881 0 -0.014917289585680983 0.00028855233853147572 0 -0.014939574755864821 0.000241733000645928 0 -0.015013254186668197 0.00023689728701620881 0 -0.014930800637889955 0.00031845243409377817 0 -0.014917289585680983 0.00028855233853147572 0 -0.014917289585680983 0.00028855233853147572 0 -0.014880134476623719 0.00032367520804738227 0 -0.014885702190541103 0.00026919568253687344 0 -0.014880134476623719 0.00032367520804738227 0 -0.014813267452679853 0.00031819530614299806 0 -0.014885702190541103 0.00026919568253687344 0 -0.012530928205054522 0.00018937604938382355 0 -0.014089363063408104 0.00077703022671322659 0 -0.014839935366556249 0.00022500491618115219 0 -0.014813267452679853 0.00031819530614299806 0 -0.014885702190541103 0.00026919568253687344 0 -0.014712072656129104 0.00027419199615492837 0 -0.014839935366556249 0.00022500491618115219 0 -0.014813267452679853 0.00031819530614299806 0 -0.014839935366556249 0.00022500491618115219 0 -0.014918718649831601 0.00021479377819579791 0 -0.014885702190541103 0.00026919568253687344 0 -0.014918718649831601 0.00021479377819579791 0 -0.014967109210168819 0.00019858900731994282 0 -0.014939574755864821 0.000241733000645928 0 -0.014948511754456247 0.00015603786143649918 0 -0.014918718649831601 0.00021479377819579791 0 -0.014967109210168819 0.00019858900731994282 0 -0.014998500911912861 0.00020608599397140754 0 -0.014967109210168819 0.00019858900731994282 0 -0.014939574755864821 0.000241733000645928 0 -0.014917289585680983 0.00028855233853147572 0 -0.014939574755864821 0.000241733000645928 0 -0.014885702190541103 0.00026919568253687344 0 -0.014918718649831601 0.00021479377819579791 0 -0.014939574755864821 0.000241733000645928 0 -0.014885702190541103 0.00026919568253687344 0 -0.012530928205054522 0.00018937604938382355 0 -0.012079661721655159 0.00028622540714633805 0 -0.0081330936911399639 -7.6259227401502091e-05 0 -0.0093672259081485111 -6.5258616212068477e-05 0 -0.010055747216109993 0.00025157404333333834 0 -0.014868450446624128 0.00033962129904290087 0 -0.014813267452679853 0.00031819530614299806 0 -0.014581219288280389 0.00038476341474823124 0 -0.014712072656129104 0.00027419199615492837 0 -0.014813267452679853 0.00031819530614299806 0 -0.014581219288280389 0.00038476341474823124 0 -0.014609108628445796 0.00029120765037256432 0 -0.014712072656129104 0.00027419199615492837 0 -0.014581219288280389 0.00038476341474823124 0 -0.0070931414470520593 -0.0011495288516057763 0 -0.0083925623512121506 -0.0027276513585024927 0 -0.0072156562897323579 -0.001169073595355137 0 -0.0069280487621397923 -0.0013312731257438763 0 -0.0069110722366662958 -0.0014011065882581488 0 -0.0072170214270206937 -0.00060203451116548135 0 -0.0072156562897323579 -0.001169073595355137 0 -0.0089253252166595007 -0.00095608287718389857 0 -0.006883999246168988 -0.0010295358039046265 0 -0.0072156562897323579 -0.001169073595355137 0 -0.0069092833998134155 -0.0012300171251225591 0 -0.006883999246168988 -0.0010295358039046265 0 -0.0072170214270206937 -0.00060203451116548135 0 -0.0072156562897323579 -0.001169073595355137 0 -0.0072156562897323579 -0.001169073595355137 0 -0.0069092833998134155 -0.0012300171251225591 0 -0.0069280487621397923 -0.0013312731257438763 0 -0.0065247286771875565 -0.0010220957780488285 0 -0.0068071074055616847 -0.0015034436172924814 0 -0.0067775400461041998 -0.0013034921938462765 0 -0.0069280487621397923 -0.0013312731257438763 0 -0.0067880442615170632 -0.0014686757121135667 0 -0.0069280487621397923 -0.0013312731257438763 0 -0.0067880442615170632 -0.0014686757121135667 0 -0.0069110722366662958 -0.0014011065882581488 0 -0.0071375683906016521 -0.00051985704229928764 0 -0.0065247286771875565 -0.0010220957780488285 0 -0.0063280522099927756 -0.00099343851718104075 0 -0.0064488018212294712 -0.0013992582548473843 0 -0.0067880442615170632 -0.0014686757121135667 0 -0.0061941487188888599 -0.0015214370901905146 0 -0.0063280522099927756 -0.00099343851718104075 0 -0.0064488018212294712 -0.0013992582548473843 0 -0.0061941487188888599 -0.0015214370901905146 0 -0.0064488018212294712 -0.0013992582548473843 0 -0.00651678521025749 -0.0016086305153096825 0 -0.00651678521025749 -0.0016086305153096825 0 -0.0067880442615170632 -0.0014686757121135667 0 -0.0067913344979332168 -0.0016464183191079963 0 -0.0064488018212294712 -0.0013992582548473843 0 -0.00651678521025749 -0.0016086305153096825 0 -0.0067880442615170632 -0.0014686757121135667 0 -0.0069110722366662958 -0.0014011065882581488 0 -0.0069738389742651655 -0.0016569156557839071 0 -0.0067913344979332168 -0.0016464183191079963 0 -0.0067880442615170632 -0.0014686757121135667 0 -0.0069110722366662958 -0.0014011065882581488 0 -0.0067913344979332168 -0.0016464183191079963 0 -0.0083925623512121506 -0.0027276513585024927 0 -0.0057205099770471033 -0.0040841011473959996 0 -0.01223981603892125 -0.0032875965871922643 0 -0.012400949089455337 -0.0046785941967567154 0 -0.011591802178134289 -0.0053885810676198723 0 -0.013798141519767946 -0.0037441995695772891 0 -0.0057205099770471033 -0.0040841011473959996 0 -0.010577807545154392 -0.0030853432793120665 0 -0.01223981603892125 -0.0032875965871922643 0 -0.010559116100037472 -0.0063477310871339352 0 -0.010577807545154392 -0.0030853432793120665 0 -0.0090058555605555448 -0.0038478469060698318 0 -0.010559116100037472 -0.0063477310871339352 0 -0.010577807545154392 -0.0030853432793120665 0 -0.0090058555605555448 -0.0038478469060698318 0 -0.0093105123895757692 -0.0019245215424161953 0 -0.0072156562897323579 -0.001169073595355137 0 -0.0090058555605555448 -0.0038478469060698318 0 -0.0093105123895757692 -0.0019245215424161953 0 -0.0072156562897323579 -0.001169073595355137 0 -0.0093105123895757692 -0.0019245215424161953 0 -0.0089253252166595007 -0.00095608287718389857 0 -0.0093105123895757692 -0.0019245215424161953 0 -0.0089253252166595007 -0.00095608287718389857 0 -0.010460761771326559 -0.0013305078455220429 0 -0.0093672259081485111 -6.5258616212068477e-05 0 -0.010055747216109993 0.00025157404333333834 0 -0.011238685483153292 0.00021531867624893653 0 -0.012079661721655159 0.00028622540714633805 0 -0.013422785653867047 0.0004373584906966426 0 -0.0078318242190922437 -0.00041038265053345809 0 -0.010909198066853773 0.00016091833115898318 0 -0.0072170214270206937 -0.00060203451116548135 0 -0.0089253252166595007 -0.00095608287718389857 0 -0.010268147498415155 0.00013461113616307038 0 -0.014522048080028513 0.0003614176983026162 0 -0.014581219288280389 0.00038476341474823124 0 -0.014431315389099829 0.00042896201343562443 0 -0.0089253252166595007 -0.00095608287718389857 0 -0.010268147498415155 0.00013461113616307038 0 -0.010460761771326559 -0.0013305078455220429 0 -0.014609108628445796 0.00029120765037256432 0 -0.014522048080028513 0.0003614176983026162 0 -0.014581219288280389 0.00038476341474823124 0 -0.012266979851788868 0.00047042400258050649 0 -0.011238685483153292 0.00021531867624893653 0 -0.01342190011916803 0.00036233887609350571 0 -0.010268147498415155 0.00013461113616307038 0 -0.01213483784840636 -0.0013032804072314224 0 -0.01342190011916803 0.00036233887609350571 0 -0.010055747216109993 0.00025157404333333834 0 -0.012266979851788868 0.00047042400258050649 0 -0.011238685483153292 0.00021531867624893653 0 -0.010909198066853773 0.00016091833115898318 0 -0.013184531947539697 0.00039605490418960536 0 -0.010268147498415155 0.00013461113616307038 0 -0.010460761771326559 -0.0013305078455220429 0 -0.01213483784840636 -0.0013032804072314224 0 -0.010577807545154392 -0.0030853432793120665 0 -0.01213483784840636 -0.0013032804072314224 0 -0.01223981603892125 -0.0032875965871922643 0 -0.010577807545154392 -0.0030853432793120665 0 -0.010460761771326559 -0.0013305078455220429 0 -0.01213483784840636 -0.0013032804072314224 0 -0.010577807545154392 -0.0030853432793120665 0 -0.0093105123895757692 -0.0019245215424161953 0 -0.010460761771326559 -0.0013305078455220429 0 -0.01213483784840636 -0.0013032804072314224 0 -0.014129933772061183 -0.00069681964255193689 0 -0.01419521992517434 -0.002204278095748911 0 -0.01213483784840636 -0.0013032804072314224 0 -0.01419521992517434 -0.002204278095748911 0 -0.01223981603892125 -0.0032875965871922643 0 -0.014781229740868707 0.00049275097544929515 0 -0.013422785653867047 0.0004373584906966426 0 -0.01213483784840636 -0.0013032804072314224 0 -0.01342190011916803 0.00036233887609350571 0 -0.014129933772061183 -0.00069681964255193689 0 -0.014921026058848458 0.00046668924567445827 0 -0.012266979851788868 0.00047042400258050649 0 -0.01342190011916803 0.00036233887609350571 0 -0.014921026058848458 0.00046668924567445827 0 -0.014129933772061183 -0.00069681964255193689 0 -0.015803767458366366 -0.0011717609394078772 0 -0.014921026058848458 0.00046668924567445827 0 -0.01342190011916803 0.00036233887609350571 0 -0.014129933772061183 -0.00069681964255193689 0 -0.014129933772061183 -0.00069681964255193689 0 -0.01419521992517434 -0.002204278095748911 0 -0.015803767458366366 -0.0011717609394078772 0 -0.01419521992517434 -0.002204278095748911 0 -0.01393588797559752 -0.0038817583679668808 0 -0.016008621823896445 -0.0031104850373091342 0 -0.01419521992517434 -0.002204278095748911 0 -0.01393588797559752 -0.0038817583679668808 0 -0.01223981603892125 -0.0032875965871922643 0 -0.01393588797559752 -0.0038817583679668808 0 -0.01223981603892125 -0.0032875965871922643 0 -0.012400949089455337 -0.0046785941967567154 0 -0.01393588797559752 -0.0038817583679668808 0 -0.012400949089455337 -0.0046785941967567154 0 -0.01338676335888881 -0.0051430919799020109 0 -0.012400949089455337 -0.0046785941967567154 0 -0.011840033744309036 -0.0055098426892734725 0 -0.011591802178134289 -0.0053885810676198723 0 -0.012400949089455337 -0.0046785941967567154 0 -0.01338676335888881 -0.0051430919799020109 0 -0.011840033744309036 -0.0055098426892734725 0 -0.01393588797559752 -0.0038817583679668808 0 -0.01338676335888881 -0.0051430919799020109 0 -0.01492287926820852 -0.0051244876024162424 0 -0.01393588797559752 -0.0038817583679668808 0 -0.01492287926820852 -0.0051244876024162424 0 -0.016008621823896445 -0.0031104850373091342 0 -0.01492287926820852 -0.0051244876024162424 0 -0.013767609757863038 -0.0065714731396367496 0 -0.01535808534730675 -0.0072865246433107475 0 -0.011851707134570797 -0.0058552013330935865 0 -0.012759352504462133 -0.0019753741106567973 0 -0.01338676335888881 -0.0051430919799020109 0 -0.01492287926820852 -0.0051244876024162424 0 -0.013767609757863038 -0.0065714731396367496 0 -0.01338676335888881 -0.0051430919799020109 0 -0.013767609757863038 -0.0065714731396367496 0 -0.011840033744309036 -0.0055098426892734725 0 -0.011851707134570797 -0.0058552013330935865 0 -0.011709249793998051 -0.0056119220528560894 0 -0.0097163464145327266 -0.0053136871703608635 0 -0.011840033744309036 -0.0055098426892734725 0 -0.010029099197344897 -0.0041889465272659998 0 -0.011840033744309036 -0.0055098426892734725 0 -0.011692124811558537 -0.0042067268112367965 0 -0.010029099197344897 -0.0041889465272659998 0 -0.010029099197344897 -0.0041889465272659998 0 -0.0085782394627799668 -0.0031383655534484227 0 -0.0077970762051275443 -0.0046443579821239794 0 -0.0097163464145327266 -0.0053136871703608635 0 -0.010029099197344897 -0.0041889465272659998 0 -0.0077970762051275443 -0.0046443579821239794 0 -0.007554971286692358 -0.0048057991949522587 0 -0.012759352504462133 -0.0019753741106567973 0 -0.0085782394627799668 -0.0031383655534484227 0 -0.0075188907935174361 -0.00038828332961264578 0 -0.0098279077000533784 -0.00081680462900281443 0 -0.010029099197344897 -0.0041889465272659998 0 -0.0085782394627799668 -0.0031383655534484227 0 -0.0098279077000533784 -0.00081680462900281443 0 -0.0085782394627799668 -0.0031383655534484227 0 -0.0075188907935174361 -0.00038828332961264578 0 -0.0064460450309520179 -0.001942015740751514 0 0.00559313957542114 -0.0013088133916822121 0 0.0052869920901507635 -0.0013965866631453867 0 0.0054200163742807216 -0.0017456679627077794 0 0.0021036796384799076 -0.00046937029889009875 0 -0.0026014628161679819 -0.001106002909641514 0 -0.0070281993516367568 0.003632436151356657 0 -0.0075188907935174361 -0.00038828332961264578 0 -0.0098279077000533784 -0.00081680462900281443 0 0.0052869920901507635 -0.0013965866631453867 0 0.0049750400759605885 -0.0012756776840765868 0 0.0049822903407306784 -0.0016516510427324368 0 0.0052869920901507635 -0.0013965866631453867 0 0.0054200163742807216 -0.0017456679627077794 0 0.0049822903407306784 -0.0016516510427324368 0 -0.011692124811558537 -0.0042067268112367965 0 -0.010029099197344897 -0.0041889465272659998 0 -0.0098279077000533784 -0.00081680462900281443 0 0.0050635808565528736 -0.0025731083696042488 0 0.0054200163742807216 -0.0017456679627077794 0 0.0047881047717492926 -0.0021001751737664475 0 0.0054200163742807216 -0.0017456679627077794 0 0.0047881047717492926 -0.0021001751737664475 0 0.0049822903407306784 -0.0016516510427324368 0 -0.0029211882917194927 -0.0033611089105437695 0 -0.0026014628161679819 -0.001106002909641514 0 0.0047881047717492926 -0.0021001751737664475 0 0.0049822903407306784 -0.0016516510427324368 0 0.0045035386380499033 -0.0016887062110342119 0 0.0047881047717492926 -0.0021001751737664475 0 0.0045035386380499033 -0.0016887062110342119 0 0.0043301547906827694 -0.0021313550359829251 0 0.0049822903407306784 -0.0016516510427324368 0 0.0047620209265054579 -0.0014427574542101823 0 0.0045035386380499033 -0.0016887062110342119 0 0.0049750400759605885 -0.0012756776840765868 0 0.0049822903407306784 -0.0016516510427324368 0 0.0047620209265054579 -0.0014427574542101823 0 0.0047620209265054579 -0.0014427574542101823 0 0.0046021072583948032 -0.0014301000243587181 0 0.0045035386380499033 -0.0016887062110342119 0 0.0046021072583948032 -0.0014301000243587181 0 0.0045264322537000648 -0.0015601962379421851 0 0.0045035386380499033 -0.0016887062110342119 0 0.0046021072583948032 -0.0014301000243587181 0 0.0045264322537000648 -0.0015601962379421851 0 0.0044951822101676406 -0.0014725273121680166 0 0.0050491704778671482 -0.0011129698496906296 0 0.00068256407021804587 -0.001443959180384773 0 0.0045264322537000648 -0.0015601962379421851 0 0.0045035386380499033 -0.0016887062110342119 0 0.0045021192609618213 -0.0015946958710698694 0 0.0045035386380499033 -0.0016887062110342119 0 0.0043301547906827694 -0.0021313550359829251 0 0.0038110298536123736 -0.0019590810459380421 0 0.0047881047717492926 -0.0021001751737664475 0 0.0043301547906827694 -0.0021313550359829251 0 0.0041422912491463444 -0.0027540640809405144 0 -0.0011381381031088913 -0.0023200069780672564 0 0.00068256407021804587 -0.001443959180384773 0 0.0043301547906827694 -0.0021313550359829251 0 0.0041422912491463444 -0.0027540640809405144 0 0.0038110298536123736 -0.0019590810459380421 0 -0.0067916687301309425 -0.0019025167388895315 0 -0.0065595219680945598 -0.0019563219322028501 0 -0.0065501959765256381 -0.0021367211570114367 0 0.0050635808565528736 -0.0025731083696042488 0 0.0047881047717492926 -0.0021001751737664475 0 0.0041422912491463444 -0.0027540640809405144 0 0.0050635808565528736 -0.0025731083696042488 0 0.0041422912491463444 -0.0027540640809405144 0 0.0043999911513502897 -0.0036148404192848579 0 -0.0029211882917194927 -0.0033611089105437695 0 -0.0057205099770471033 -0.0040841011473959996 0 -0.011840033744309036 -0.0055098426892734725 0 -0.011692124811558537 -0.0042067268112367965 0 -0.011591802178134289 -0.0053885810676198723 0 -0.0067916687301309425 -0.0019025167388895315 0 -0.0069738389742651655 -0.0016569156557839071 0 -0.0067913344979332168 -0.0016464183191079963 0 -0.0011381381031088913 -0.0023200069780672564 0 -0.0057205099770471033 -0.0040841011473959996 0 -0.0067916687301309425 -0.0019025167388895315 0 -0.0067913344979332168 -0.0016464183191079963 0 -0.0065472227294206672 -0.0017692926136680682 0 -0.00651678521025749 -0.0016086305153096825 0 -0.0067913344979332168 -0.0016464183191079963 0 -0.0065472227294206672 -0.0017692926136680682 0 -0.0061941487188888599 -0.0015214370901905146 0 -0.00651678521025749 -0.0016086305153096825 0 -0.0063070057104028096 -0.0017710810154598954 0 -0.00651678521025749 -0.0016086305153096825 0 -0.0065472227294206672 -0.0017692926136680682 0 -0.0063070057104028096 -0.0017710810154598954 0 0.004387531449825682 -0.0015392524678069235 0 0.0043649487465360149 -0.0014919488069139375 0 0.0042676413084444644 -0.0015779885942938758 0 -0.0065472227294206672 -0.0017692926136680682 0 -0.0063070057104028096 -0.0017710810154598954 0 -0.0063236418552679724 -0.002018135020980878 0 -0.0063070057104028096 -0.0017710810154598954 0 -0.0063236418552679724 -0.002018135020980878 0 -0.0060592886117899229 -0.0018987622395662538 0 -0.00098291463922728817 -0.0018623043248813607 0 -0.0028030550772893208 -0.0011790315614407937 0 -0.0067916687301309425 -0.0019025167388895315 0 -0.0065472227294206672 -0.0017692926136680682 0 -0.0065595219680945598 -0.0019563219322028501 0 -0.0063236418552679724 -0.002018135020980878 0 -0.0065595219680945598 -0.0019563219322028501 0 -0.0065501959765256381 -0.0021367211570114367 0 -0.0065472227294206672 -0.0017692926136680682 0 -0.0063236418552679724 -0.002018135020980878 0 -0.0065595219680945598 -0.0019563219322028501 0 0.0044473028486229022 -0.001509295493143717 0 0.0044951822101676406 -0.0014725273121680166 0 0.0044481270402925589 -0.0014728860540528519 0 -0.00098291463922728817 -0.0018623043248813607 0 0.00068256407021804587 -0.001443959180384773 0 0.004387531449825682 -0.0015392524678069235 0 0.0044473028486229022 -0.001509295493143717 0 0.0044481270402925589 -0.0014728860540528519 0 0.00068256407021804587 -0.001443959180384773 0 0.0042728736488470255 -0.0021598261251702298 0 0.0045264322537000648 -0.0015601962379421851 0 0.0045021192609618213 -0.0015946958710698694 0 0.0044951822101676406 -0.0014725273121680166 0 0.0045891220003879346 -0.0011951077768901101 0 0.0044951822101676406 -0.0014725273121680166 0 0.0045013837789534376 -0.0013430193534525708 0 0.0045891220003879346 -0.0011951077768901101 0 0.0046021072583948032 -0.0014301000243587181 0 0.0044951822101676406 -0.0014725273121680166 0 0.0044951822101676406 -0.0014725273121680166 0 0.0045013837789534376 -0.0013430193534525708 0 0.0044481270402925589 -0.0014728860540528519 0 0.0044733648810651337 -0.001296488673484988 0 0.0045013837789534376 -0.0013430193534525708 0 0.0044290693832014002 -0.0014105952623156197 0 0.0045013837789534376 -0.0013430193534525708 0 0.0044290693832014002 -0.0014105952623156197 0 0.0044481270402925589 -0.0014728860540528519 0 0.0044290693832014002 -0.0014105952623156197 0 0.0044481270402925589 -0.0014728860540528519 0 0.0043649487465360149 -0.0014919488069139375 0 0.004387531449825682 -0.0015392524678069235 0 0.0044481270402925589 -0.0014728860540528519 0 0.0043649487465360149 -0.0014919488069139375 0 0.0043649487465360149 -0.0014919488069139375 0 0.0043087558331893691 -0.0014565098600692334 0 0.0042676413084444644 -0.0015779885942938758 0 0.0044290693832014002 -0.0014105952623156197 0 0.0043649487465360149 -0.0014919488069139375 0 0.0043087558331893691 -0.0014565098600692334 0 0.0044290693832014002 -0.0014105952623156197 0 0.0043589342809511418 -0.001410876374372769 0 0.0043087558331893691 -0.0014565098600692334 0 0.0044221279191350681 -0.001297096715980486 0 0.0044733648810651337 -0.001296488673484988 0 0.0043589342809511418 -0.001410876374372769 0 0.0044733648810651337 -0.001296488673484988 0 0.0044290693832014002 -0.0014105952623156197 0 0.0043589342809511418 -0.001410876374372769 0 0.00025484733709385532 5.3209941655063692e-08 0 -2.1309195068015264e-05 -6.9598633497645434e-05 0 -0.0026687437748864904 0.00016351734832214328 0 0.0020412501198583928 -0.00054738465134912897 0 0.0012163049226378586 -0.0005968559341361883 0 0.0042508879572450689 -0.0014565924666734883 0 0.0043589342809511418 -0.001410876374372769 0 0.0043087558331893691 -0.0014565098600692334 0 0.00025484733709385532 5.3209941655063692e-08 0 -0.0026687437748864904 0.00016351734832214328 0 -0.0029364419915425635 5.7518361806200449e-07 0 -0.0026687437748864904 0.00016351734832214328 0 -0.0029364419915425635 5.7518361806200449e-07 0 -0.003708640639674445 5.9300572004953987e-05 0 -0.003708640639674445 5.9300572004953987e-05 0 -0.0035172790172328236 -0.00013846941791254371 0 -0.0056989081833778944 -7.1413879614008979e-05 0 -0.0029364419915425635 5.7518361806200449e-07 0 -0.0061308927618910509 -1.1609786451709454e-07 0 -0.0056989081833778944 -7.1413879614008979e-05 0 -0.0029364419915425635 5.7518361806200449e-07 0 -0.003708640639674445 5.9300572004953987e-05 0 -0.0056989081833778944 -7.1413879614008979e-05 0 -0.0026687437748864904 0.00016351734832214328 0 -0.003708640639674445 5.9300572004953987e-05 0 -0.0035172790172328236 -0.00013846941791254371 0 0.0012163049226378586 -0.0005968559341361883 0 -0.0028030550772893208 -0.0011790315614407937 0 -0.0061941487188888599 -0.0015214370901905146 0 -0.0063070057104028096 -0.0017710810154598954 0 -0.0060592886117899229 -0.0018987622395662538 0 -0.0071187297849288718 0.00034683650609470753 0 -0.0071919638606954836 -0.00054607200928131398 0 -0.0069279301095031909 9.9326659765444999e-05 0 -0.0071375683906016521 -0.00051985704229928764 0 -0.0028030550772893208 -0.0011790315614407937 0 -0.0071919638606954836 -0.00054607200928131398 0 -0.0069279301095031909 9.9326659765444999e-05 0 -0.0056989081833778944 -7.1413879614008979e-05 0 -0.0071218737294609586 0.00026137373673146324 0 -0.0069279301095031909 9.9326659765444999e-05 0 -0.0056989081833778944 -7.1413879614008979e-05 0 -0.0028030550772893208 -0.0011790315614407937 0 -0.0062870786400896885 -0.00025171037489200035 0 -0.0071218737294609586 0.00026137373673146324 0 -0.0061308927618910509 -1.1609786451709454e-07 0 -0.0056989081833778944 -7.1413879614008979e-05 0 -0.014713123778882051 0.00070180894098589516 0 -0.014436550998459047 0.0023132442628444028 0 -0.013295358453329364 0.001623215202084597 0 -0.014713123778882051 0.00070180894098589516 0 -0.015544403385224448 0.0022265308881850962 0 -0.014436550998459047 0.0023132442628444028 0 -0.014713123778882051 0.00070180894098589516 0 -0.016386613976838622 0.0010403990437868591 0 -0.015544403385224448 0.0022265308881850962 0 -0.015544403385224448 0.0022265308881850962 0 -0.017447590547523806 0.0022274911330643918 0 -0.016307973616340916 0.0038353718251538786 0 -0.016386613976838622 0.0010403990437868591 0 -0.015544403385224448 0.0022265308881850962 0 -0.017447590547523806 0.0022274911330643918 0 -0.015544403385224448 0.0022265308881850962 0 -0.014436550998459047 0.0023132442628444028 0 -0.015094273703348196 0.0037509544470455988 0 -0.014436550998459047 0.0023132442628444028 0 -0.013295358453329364 0.001623215202084597 0 -0.013525818566159144 0.0030431696163586274 0 -0.021912672470963301 -0.0012036430265475204 0 -0.021640494032320486 -0.0010686841724296544 0 -0.02206222923055233 -0.00096865924617771664 0 -0.01417444467107961 0.0012234316392346863 0 -0.017981434025570727 4.8044955313183068e-05 0 -0.011961988156770997 0.00243011162554599 0 -0.013295358453329364 0.001623215202084597 0 -0.013525818566159144 0.0030431696163586274 0 -0.021640494032320486 -0.0010686841724296544 0 -0.021901255275247122 -0.00074129901679526532 0 -0.02206222923055233 -0.00096865924617771664 0 -0.021640494032320486 -0.0010686841724296544 0 -0.021682278476128546 -0.00067516800298882498 0 -0.021901255275247122 -0.00074129901679526532 0 -0.017900244627397713 -0.00010760894398627012 0 -0.017981434025570727 4.8044955313183068e-05 0 -0.021294392668838414 -0.0010143761835751635 0 -0.021640494032320486 -0.0010686841724296544 0 -0.021682278476128546 -0.00067516800298882498 0 -0.021682278476128546 -0.00067516800298882498 0 -0.021901255275247122 -0.00074129901679526532 0 -0.021986210845446389 -0.00035598480094361151 0 -0.021941203425233546 -9.6481270317038339e-05 0 -0.021986210845446389 -0.00035598480094361151 0 -0.02200464715626281 -0.00028541318910577378 0 -0.021682278476128546 -0.00067516800298882498 0 -0.021986210845446389 -0.00035598480094361151 0 -0.021738750623616351 -0.00029701118715420665 0 -0.021941203425233546 -9.6481270317038339e-05 0 -0.021986210845446389 -0.00035598480094361151 0 -0.021738750623616351 -0.00029701118715420665 0 -0.021682278476128546 -0.00067516800298882498 0 -0.021738750623616351 -0.00029701118715420665 0 -0.021321605086004912 -0.00053983698346119879 0 -0.021521056040662467 0.0002078447671674776 0 -0.021738750623616351 -0.00029701118715420665 0 -0.021321605086004912 -0.00053983698346119879 0 -0.021294392668838414 -0.0010143761835751635 0 -0.021321605086004912 -0.00053983698346119879 0 -0.020673364704661312 -0.0010542473220056833 0 -0.021294392668838414 -0.0010143761835751635 0 -0.021682278476128546 -0.00067516800298882498 0 -0.021321605086004912 -0.00053983698346119879 0 -0.017900244627397713 -0.00010760894398627012 0 -0.018687927622532782 -0.00069834828198593157 0 -0.014713123778882051 0.00070180894098589516 0 -0.016386613976838622 0.0010403990437868591 0 -0.016759712679787379 -0.00041964764672371759 0 -0.021321605086004912 -0.00053983698346119879 0 -0.020673364704661312 -0.0010542473220056833 0 -0.020526061795536843 -0.0002899414160352143 0 -0.021521056040662467 0.0002078447671674776 0 -0.021321605086004912 -0.00053983698346119879 0 -0.020526061795536843 -0.0002899414160352143 0 -0.016759712679787379 -0.00041964764672371759 0 -0.018439307411048142 -0.00071676966144722254 0 -0.019033989309572785 -0.00090487607076560083 0 -0.020673364704661312 -0.0010542473220056833 0 -0.020526061795536843 -0.0002899414160352143 0 -0.019033989309572785 -0.00090487607076560083 0 -0.01976854098533953 6.211092133598274e-05 0 -0.020526061795536843 -0.0002899414160352143 0 -0.019033989309572785 -0.00090487607076560083 0 -0.018886656025690424 -4.5349626982154883e-05 0 -0.01976854098533953 6.211092133598274e-05 0 -0.019033989309572785 -0.00090487607076560083 0 -0.018439307411048142 -0.00071676966144722254 0 -0.019033989309572785 -0.00090487607076560083 0 -0.018315722495674123 -0.0012531351258846411 0 -0.018886656025690424 -4.5349626982154883e-05 0 -0.019033989309572785 -0.00090487607076560083 0 -0.018134664034738911 -0.00036303512428559527 0 -0.019033989309572785 -0.00090487607076560083 0 -0.018315722495674123 -0.0012531351258846411 0 -0.018134664034738911 -0.00036303512428559527 0 -0.018439307411048142 -0.00071676966144722254 0 -0.018315722495674123 -0.0012531351258846411 0 -0.018483716671098539 -0.0026065269839065561 0 -0.018498814845462445 -0.0007544530138338892 0 -0.018477039392303257 -0.00098302931959219999 0 -0.018439307411048142 -0.00071676966144722254 0 -0.017711553863263958 0.00060876052987077895 0 -0.018930762658270796 0.00096043742077219407 0 -0.016759712679787379 -0.00041964764672371759 0 -0.018439307411048142 -0.00071676966144722254 0 -0.017711553863263958 0.00060876052987077895 0 -0.016386613976838622 0.0010403990437868591 0 -0.016759712679787379 -0.00041964764672371759 0 -0.017711553863263958 0.00060876052987077895 0 -0.018687927622532782 -0.00069834828198593157 0 -0.018929399445432205 -0.00085096352343667827 0 -0.016722446630791012 7.1920881615058832e-05 0 -0.017141033772663919 -0.00092812464677936803 0 -0.015803767458366366 -0.0011717609394078772 0 -0.014921026058848458 0.00046668924567445827 0 -0.016722446630791012 7.1920881615058832e-05 0 -0.015803767458366366 -0.0011717609394078772 0 -0.016722446630791012 7.1920881615058832e-05 0 -0.017141033772663919 -0.00092812464677936803 0 -0.018134664034738911 -0.00036303512428559527 0 -0.018315722495674123 -0.0012531351258846411 0 -0.017141033772663919 -0.00092812464677936803 0 -0.018134664034738911 -0.00036303512428559527 0 -0.018315722495674123 -0.0012531351258846411 0 -0.017224169506800294 -0.0019436387395800822 0 -0.018483716671098539 -0.0026065269839065561 0 -0.018315722495674123 -0.0012531351258846411 0 -0.017141033772663919 -0.00092812464677936803 0 -0.017224169506800294 -0.0019436387395800822 0 -0.01419521992517434 -0.002204278095748911 0 -0.015803767458366366 -0.0011717609394078772 0 -0.016008621823896445 -0.0031104850373091342 0 -0.017141033772663919 -0.00092812464677936803 0 -0.017224169506800294 -0.0019436387395800822 0 -0.015803767458366366 -0.0011717609394078772 0 -0.017224169506800294 -0.0019436387395800822 0 -0.015803767458366366 -0.0011717609394078772 0 -0.016008621823896445 -0.0031104850373091342 0 -0.016008621823896445 -0.0031104850373091342 0 -0.017031995434343184 -0.0049450894386766624 0 -0.018483716671098539 -0.0026065269839065561 0 -0.017224169506800294 -0.0019436387395800822 0 -0.016008621823896445 -0.0031104850373091342 0 -0.018483716671098539 -0.0026065269839065561 0 -0.019550842846051308 -0.00060162407671951912 0 -0.018477039392303257 -0.00098302931959219999 0 -0.01492287926820852 -0.0051244876024162424 0 -0.016008621823896445 -0.0031104850373091342 0 -0.017031995434343184 -0.0049450894386766624 0 -0.020183575142074334 0.0029019440552008622 0 -0.018930762658270796 0.00096043742077219407 0 -0.017447590547523806 0.0022274911330643918 0 -0.020183575142074334 0.0029019440552008622 0 -0.017447590547523806 0.0022274911330643918 0 -0.018165298824900391 0.0045730466924046205 0 -0.017711553863263958 0.00060876052987077895 0 -0.018930762658270796 0.00096043742077219407 0 -0.017447590547523806 0.0022274911330643918 0 -0.016386613976838622 0.0010403990437868591 0 -0.017711553863263958 0.00060876052987077895 0 -0.017447590547523806 0.0022274911330643918 0 -0.017447590547523806 0.0022274911330643918 0 -0.016307973616340916 0.0038353718251538786 0 -0.018165298824900391 0.0045730466924046205 0 -0.016307973616340916 0.0038353718251538786 0 -0.018165298824900391 0.0045730466924046205 0 -0.015856636475716421 0.0058638395855008301 0 -0.018165298824900391 0.0045730466924046205 0 -0.019696298855539734 0.0059934507486243621 0 -0.017517240814955818 0.0072604157035406902 0 -0.018165298824900391 0.0045730466924046205 0 -0.017517240814955818 0.0072604157035406902 0 -0.015856636475716421 0.0058638395855008301 0 -0.020183575142074334 0.0029019440552008622 0 -0.019984625755970497 0.0045508698199235422 0 -0.021542853936007057 0.0049138060119866293 0 -0.019550842846051308 -0.00060162407671951912 0 -0.012759352504462133 -0.0019753741106567973 0 -0.01492287926820852 -0.0051244876024162424 0 -0.017031995434343184 -0.0049450894386766624 0 -0.01535808534730675 -0.0072865246433107475 0 -0.020183575142074334 0.0029019440552008622 0 -0.018165298824900391 0.0045730466924046205 0 -0.019984625755970497 0.0045508698199235422 0 -0.018165298824900391 0.0045730466924046205 0 -0.019984625755970497 0.0045508698199235422 0 -0.019696298855539734 0.0059934507486243621 0 -0.019984625755970497 0.0045508698199235422 0 -0.019696298855539734 0.0059934507486243621 0 -0.021542853936007057 0.0049138060119866293 0 -0.0039339696648531663 -0.0035291919769812985 0 -0.0065450709188137396 -0.0034947583410224843 0 -0.0068752608385590653 -0.0051732881370341001 0 -0.011982423098598751 0.001367747221153758 0 -0.012759352504462133 -0.0019753741106567973 0 -0.0085782394627799668 -0.0031383655534484227 0 -0.0065450709188137396 -0.0034947583410224843 0 -0.0068752608385590653 -0.0051732881370341001 0 -0.0039339696648531663 -0.0035291919769812985 0 -0.0065450709188137396 -0.0034947583410224843 0 -0.0064460450309520179 -0.001942015740751514 0 -0.0085782394627799668 -0.0031383655534484227 0 -0.0065450709188137396 -0.0034947583410224843 0 -0.0064460450309520179 -0.001942015740751514 0 -0.0039339696648531663 -0.0035291919769812985 0 -0.0064460450309520179 -0.001942015740751514 0 -0.0045615900762700518 -0.0011994469651730392 0 -0.0039339696648531663 -0.0035291919769812985 0 -0.0045615900762700518 -0.0011994469651730392 0 -0.0026847570881663708 -0.00088680610133188621 0 -0.0039024809677411431 0.00038301981366571002 0 -0.0045615900762700518 -0.0011994469651730392 0 -0.0026847570881663708 -0.00088680610133188621 0 -0.0039024809677411431 0.00038301981366571002 0 -0.0045615900762700518 -0.0011994469651730392 0 -0.0058389768674035562 -0.00022616574477144551 0 -0.0064460450309520179 -0.001942015740751514 0 -0.0045615900762700518 -0.0011994469651730392 0 -0.0058389768674035562 -0.00022616574477144551 0 -0.0062826601217193193 -0.0016958157154355299 0 -0.005669954410380821 0.00044341902620831993 0 -0.0075188907935174361 -0.00038828332961264578 0 -0.0064460450309520179 -0.001942015740751514 0 -0.0057019347748082823 0.00098932504773527959 0 -0.0070281993516367568 0.003632436151356657 0 -0.0075188907935174361 -0.00038828332961264578 0 -0.0057019347748082823 0.00098932504773527959 0 -0.0096121779007176025 0.0024050900503742824 0 -0.0067828861076953328 0.0036925686299076319 0 -0.017517240814955818 0.0072604157035406902 0 -0.015166394283931585 0.0085062722177119809 0 -0.015856636475716421 0.0058638395855008301 0 -0.0039339696648531663 -0.0035291919769812985 0 -0.0016368242261303012 -0.0023777112094481483 0 -0.0026847570881663708 -0.00088680610133188621 0 -0.011982423098598751 0.001367747221153758 0 -0.0096121779007176025 0.0024050900503742824 0 -0.0016368242261303012 -0.0023777112094481483 0 -0.0026847570881663708 -0.00088680610133188621 0 -0.0012978038333159316 0.00023146451286406325 0 -0.0039024809677411431 0.00038301981366571002 0 -0.0026847570881663708 -0.00088680610133188621 0 -0.0012978038333159316 0.00023146451286406325 0 0.00076334035015112548 0.00085814897210356852 0 -0.0012978038333159316 0.00023146451286406325 0 0.00077756871120489692 -0.0012689927117738539 0 -0.0016368242261303012 -0.0023777112094481483 0 -0.0012978038333159316 0.00023146451286406325 0 0.00077756871120489692 -0.0012689927117738539 0 -0.0067828861076953328 0.0036925686299076319 0 -0.0071862434276059274 0.0051309800125417466 0 -0.0071862434276059274 0.0051309800125417466 0 -0.014667358102389403 0.006649900219347674 0 -0.013700350785580188 0.0070014219161667569 0 -0.014282479277554489 0.0067248321679767107 0 -0.01399116421147676 0.0058975398380614096 0 -0.015166394283931585 0.0085062722177119809 0 -0.012792078316506392 0.0096166805137072129 0 -0.013532772252159249 0.0070306361692502742 0 -0.014282479277554489 0.0067248321679767107 0 -0.014677221172010731 0.0052656918084226035 0 -0.01399116421147676 0.0058975398380614096 0 0.0023925162234164016 0.0010390681358776555 0 0.00077756871120489692 -0.0012689927117738539 0 0.0030980845707538002 -4.1266951365928332e-05 0 -0.0079840628539277359 0.0052187320270566089 0 -0.0071862434276059274 0.0051309800125417466 0 -0.014677221172010731 0.0052656918084226035 0 -0.01399116421147676 0.0058975398380614096 0 -0.013839696386481656 0.0046018358559662296 0 -0.015166394283931585 0.0085062722177119809 0 -0.013532772252159249 0.0070306361692502742 0 -0.015856636475716421 0.0058638395855008301 0 -0.013532772252159249 0.0070306361692502742 0 -0.015856636475716421 0.0058638395855008301 0 -0.014466055523362421 0.0044958606362993292 0 -0.014677221172010731 0.0052656918084226035 0 -0.015094273703348196 0.0037509544470455988 0 -0.013839696386481656 0.0046018358559662296 0 -0.014667358102389403 0.006649900219347674 0 -0.014755564498994003 0.0040317748665315758 0 -0.015094273703348196 0.0037509544470455988 0 -0.013525818566159144 0.0030431696163586274 0 -0.013839696386481656 0.0046018358559662296 0 -0.014436550998459047 0.0023132442628444028 0 -0.015094273703348196 0.0037509544470455988 0 -0.013525818566159144 0.0030431696163586274 0 -0.01543785049625673 0.002402396334646791 0 -0.014755564498994003 0.0040317748665315758 0 -0.016307973616340916 0.0038353718251538786 0 -0.015856636475716421 0.0058638395855008301 0 -0.014466055523362421 0.0044958606362993292 0 -0.015544403385224448 0.0022265308881850962 0 -0.016307973616340916 0.0038353718251538786 0 -0.014466055523362421 0.0044958606362993292 0 -0.0066045861383867794 0.0014625082573484179 0 -0.0070452086423301143 0.0027358616573184241 0 -0.0061012874820291097 0.0026022137657767115 0 -0.011961988156770997 0.00243011162554599 0 -0.013525818566159144 0.0030431696163586274 0 -0.012576156478446612 0.0040215572988924085 0 -0.01417444467107961 0.0012234316392346863 0 -0.0091830165231600903 0.0032670190340283525 0 -0.013525818566159144 0.0030431696163586274 0 -0.013839696386481656 0.0046018358559662296 0 -0.012576156478446612 0.0040215572988924085 0 -0.013839696386481656 0.0046018358559662296 0 -0.012576156478446612 0.0040215572988924085 0 -0.013166997984860995 0.0055423752369981412 0 -0.0091830165231600903 0.0032670190340283525 0 -0.01078514006260021 0.0050802607147215715 0 -0.0070452086423301143 0.0027358616573184241 0 -0.0065343796927364722 0.0035354486904449257 0 -0.0074990195057328323 0.0039863256699668188 0 -0.0070452086423301143 0.0027358616573184241 0 -0.0065343796927364722 0.0035354486904449257 0 -0.0061012874820291097 0.0026022137657767115 0 -0.0065343796927364722 0.0035354486904449257 0 -0.0067015817304915699 0.0042807281841941982 0 -0.0074990195057328323 0.0039863256699668188 0 -0.01399116421147676 0.0058975398380614096 0 -0.013839696386481656 0.0046018358559662296 0 -0.013166997984860995 0.0055423752369981412 0 -0.013700350785580188 0.0070014219161667569 0 -0.01399116421147676 0.0058975398380614096 0 -0.013166997984860995 0.0055423752369981412 0 -0.0079840628539277359 0.0052187320270566089 0 -0.01078514006260021 0.0050802607147215715 0 -0.0079715998609489695 0.0052249480082146452 0 -0.0074990195057328323 0.0039863256699668188 0 -0.0071269537522059183 0.0048249602040362502 0 -0.0067015817304915699 0.0042807281841941982 0 -0.0074990195057328323 0.0039863256699668188 0 -0.0071269537522059183 0.0048249602040362502 0 -0.0067015817304915699 0.0042807281841941982 0 -0.0071269537522059183 0.0048249602040362502 0 -0.0064393473289951174 0.0049923609967696611 0 -0.005813367172318994 0.0050670359837780253 0 -0.0052387370296857888 0.0045586396696869558 0 -0.005960309741227807 0.0042113811135841579 0 -0.005813367172318994 0.0050670359837780253 0 -0.0064393473289951174 0.0049923609967696611 0 -0.005960309741227807 0.0042113811135841579 0 -0.0067015817304915699 0.0042807281841941982 0 -0.0064393473289951174 0.0049923609967696611 0 -0.005960309741227807 0.0042113811135841579 0 -0.0053464658442995789 0.0054499517624907708 0 -0.005813367172318994 0.0050670359837780253 0 -0.0052387370296857888 0.0045586396696869558 0 -0.0053464658442995789 0.0054499517624907708 0 -0.0052387370296857888 0.0045586396696869558 0 -0.0045875522739701564 0.0047758259601231243 0 -0.0022119042063665842 0.0040751150449767097 0 -0.001784774673932439 0.0038789304829250481 0 -0.0052387370296857888 0.0045586396696869558 0 -0.0046163850146753527 0.0047800395122284192 0 -0.0046207224394965041 0.0039834819303299716 0 -0.0054033216287092756 0.0040207094743848299 0 -0.001784774673932439 0.0038789304829250481 0 -0.0052387370296857888 0.0045586396696869558 0 -0.0053159152483067754 0.003942439088685099 0 -0.005960309741227807 0.0042113811135841579 0 -0.0052387370296857888 0.0045586396696869558 0 -0.0053159152483067754 0.003942439088685099 0 -0.0046207224394965041 0.0039834819303299716 0 -0.0053159152483067754 0.003942439088685099 0 -0.0049341120285119992 0.0035581563818035461 0 -0.0046207224394965041 0.0039834819303299716 0 -0.0053159152483067754 0.003942439088685099 0 -0.0049341120285119992 0.0035581563818035461 0 -0.0056999369794212126 0.0034318532341036721 0 -0.0065343796927364722 0.0035354486904449257 0 -0.005960309741227807 0.0042113811135841579 0 -0.0056999369794212126 0.0034318532341036721 0 -0.0053159152483067754 0.003942439088685099 0 -0.005960309741227807 0.0042113811135841579 0 -0.0056999369794212126 0.0034318532341036721 0 -0.0065343796927364722 0.0035354486904449257 0 -0.0067015817304915699 0.0042807281841941982 0 -0.005960309741227807 0.0042113811135841579 0 0.0011167913526285728 0.0042640231904226226 0 0.00046577552383649125 0.0027135360531580768 0 0.0020670416853655212 0.0034500390774603634 0 0.0011167913526285728 0.0042640231904226226 0 -0.00059201419225153986 0.0036647802020196222 0 0.00046577552383649125 0.0027135360531580768 0 0.00340399305034518 0.0023271371332205825 0 -0.001784774673932439 0.0038789304829250481 0 -0.001784774673932439 0.0038789304829250481 0 -0.0017373741200047478 0.0034139816591294051 0 -0.0046163850146753527 0.0047800395122284192 0 -0.0046207224394965041 0.0039834819303299716 0 -0.0038762376136866538 0.0041205972649608407 0 -0.0049341120285119992 0.0035581563818035461 0 -0.0046207224394965041 0.0039834819303299716 0 -0.0044340587454725702 0.0033390863935509915 0 -0.0046207224394965041 0.0039834819303299716 0 -0.0039175337856894622 0.0035697671539307026 0 -0.0044340587454725702 0.0033390863935509915 0 -0.0046207224394965041 0.0039834819303299716 0 -0.0038762376136866538 0.0041205972649608407 0 -0.0039175337856894622 0.0035697671539307026 0 0.00046577552383649125 0.0027135360531580768 0 0.0015165093348707727 0.0017657179304080947 0 0.0020670416853655212 0.0034500390774603634 0 -0.0038762376136866538 0.0041205972649608407 0 -0.0039175337856894622 0.0035697671539307026 0 -0.0031133135228083794 0.0034489363794626537 0 -0.0017373741200047478 0.0034139816591294051 0 -0.00086213709565653837 0.0035927545644454926 0 -0.0052892399827529418 0.0058967056783716318 0 -0.0059632032557277422 0.0061551781569937746 0 -0.0054980995561319315 0.005238388981449806 0 -0.0052892399827529418 0.0058967056783716318 0 -0.0051710103202114114 0.0065651903416329392 0 -0.0059632032557277422 0.0061551781569937746 0 -0.00086213709565653837 0.0035927545644454926 0 -0.0050917788913746233 0.004369493910677545 0 -0.0039175337856894622 0.0035697671539307026 0 -0.0031133135228083794 0.0034489363794626537 0 -0.0038658460830478416 0.0030162223339813719 0 -0.0038658460830478416 0.0030162223339813719 0 -0.0044340587454725702 0.0033390863935509915 0 -0.0046104590225209928 0.0025926758395911037 0 -0.0050917788913746233 0.004369493910677545 0 -0.0061103649678278596 0.0040568224555499188 0 -0.0039175337856894622 0.0035697671539307026 0 -0.0038658460830478416 0.0030162223339813719 0 -0.0044340587454725702 0.0033390863935509915 0 -0.004765756124464525 0.002987457170253329 0 -0.0061103649678278596 0.0040568224555499188 0 -0.0044340587454725702 0.0033390863935509915 0 -0.0046178392202435112 0.0025907815173445824 0 -0.0051413344596303 0.0030188412372604951 0 -0.0059632032557277422 0.0061551781569937746 0 -0.0068097005149233359 0.0057063329645415202 0 -0.0063296370802211743 0.0052413144716325763 0 -0.0068097005149233359 0.0057063329645415202 0 -0.0063296370802211743 0.0052413144716325763 0 -0.0070944571014286729 0.0046733652944029209 0 -0.0061103649678278596 0.0040568224555499188 0 -0.0077922958421301931 0.0045203914541911347 0 -0.0059632032557277422 0.0061551781569937746 0 -0.0063296370802211743 0.0052413144716325763 0 -0.0054980995561319315 0.005238388981449806 0 -0.0063296370802211743 0.0052413144716325763 0 -0.0054980995561319315 0.005238388981449806 0 -0.0063232891863758004 0.0043480559535543648 0 -0.0057373145394262592 0.0050084064018081492 0 -0.0057876901369020286 0.00482401703755252 0 -0.0065343796927364722 0.0035354486904449257 0 -0.0056999369794212126 0.0034318532341036721 0 -0.0061012874820291097 0.0026022137657767115 0 -0.0056999369794212126 0.0034318532341036721 0 -0.0051413344596303 0.0030188412372604951 0 -0.0061012874820291097 0.0026022137657767115 0 -0.0049341120285119992 0.0035581563818035461 0 -0.0056999369794212126 0.0034318532341036721 0 -0.0051413344596303 0.0030188412372604951 0 -0.0049341120285119992 0.0035581563818035461 0 -0.0044340587454725702 0.0033390863935509915 0 -0.0051413344596303 0.0030188412372604951 0 -0.0083301774956301786 0.004914848125427502 0 -0.0092583945951544948 0.0043752381079046254 0 -0.0086083477429651119 0.0037725590745117856 0 -0.0092583945951544948 0.0043752381079046254 0 -0.010171163620796323 0.003829039330629347 0 -0.0086083477429651119 0.0037725590745117856 0 -0.0051413344596303 0.0030188412372604951 0 -0.0053558275251808229 0.0021651608854603341 0 -0.0061012874820291097 0.0026022137657767115 0 -0.0046178392202435112 0.0025907815173445824 0 -0.0051413344596303 0.0030188412372604951 0 -0.0053558275251808229 0.0021651608854603341 0 -0.0061103649678278596 0.0040568224555499188 0 -0.0071100273173710692 0.0034708812554262725 0 -0.0071100273173710692 0.0034708812554262725 0 -0.011031339061790891 0.003096243284739474 0 -0.0066045861383867794 0.0014625082573484179 0 -0.0061012874820291097 0.0026022137657767115 0 -0.0061097419368340688 0.0017329714154737655 0 -0.0053558275251808229 0.0021651608854603341 0 -0.0061012874820291097 0.0026022137657767115 0 -0.0061097419368340688 0.0017329714154737655 0 -0.01417444467107961 0.0012234316392346863 0 -0.018846385136645133 0.00012547812166255332 0 -0.01417444467107961 0.0012234316392346863 0 -0.011031339061790891 0.003096243284739474 0 -0.015442263106936714 0.0019136072299713424 0 -0.015491401255225218 0.0014401262366249513 0 -0.015114481095963568 0.0011435952585661 0 -0.015821350383689099 0.0016931064942566462 0 -0.015442263106936714 0.0019136072299713424 0 -0.015491401255225218 0.0014401262366249513 0 -0.015821350383689099 0.0016931064942566462 0 -0.015491401255225218 0.0014401262366249513 0 -0.015583141850101304 0.0010041227655596451 0 -0.015583141850101304 0.0010041227655596451 0 -0.015114481095963568 0.0011435952585661 0 -0.015337869292758953 0.00029852449089559099 0 -0.018846385136645133 0.00012547812166255332 0 -0.020103984340848695 -0.00053254990927018681 0 -0.015491401255225218 0.0014401262366249513 0 -0.015583141850101304 0.0010041227655596451 0 -0.015114481095963568 0.0011435952585661 0 -0.015114481095963568 0.0011435952585661 0 -0.014684026893966969 0.00093546335927409006 0 -0.015337869292758953 0.00029852449089559099 0 -0.016566050900500146 0.0046056024467755049 0 -0.016297107419343346 0.0048693712713568432 0 -0.016196573423251891 0.0035491334634810733 0 -0.015605342585257427 0.0019629657641651054 0 -0.020103984340848695 -0.00053254990927018681 0 -0.015114481095963568 0.0011435952585661 0 -0.014684026893966969 0.00093546335927409006 0 -0.014632605609967951 0.0011542822122291591 0 -0.015605342585257427 0.0019629657641651054 0 -0.011819780914850102 0.0029268425020397911 0 -0.01365894218939909 0.0030043439256753797 0 -0.013349024382513067 0.0033118369818178743 0 -0.013544139138456358 0.003492097836159115 0 -0.015605342585257427 0.0019629657641651054 0 -0.011542293513984418 0.0036367846766204056 0 -0.011542293513984418 0.0036367846766204056 0 -0.011819780914850102 0.0029268425020397911 0 -0.011031339061790891 0.003096243284739474 0 -0.011819780914850102 0.0029268425020397911 0 -0.010171163620796323 0.003829039330629347 0 -0.0088794986152460707 0.0026370203872420131 0 -0.0086083477429651119 0.0037725590745117856 0 -0.011819780914850102 0.0029268425020397911 0 -0.0077922958421301931 0.0045203914541911347 0 -0.015442263106936714 0.0019136072299713424 0 -0.015114481095963568 0.0011435952585661 0 -0.014632605609967951 0.0011542822122291591 0 -0.0073858025492965704 0.0035547777018733245 0 -0.0070944571014286729 0.0046733652944029209 0 -0.0063232891863758004 0.0043480559535543648 0 -0.0063296370802211743 0.0052413144716325763 0 -0.0070944571014286729 0.0046733652944029209 0 -0.0063232891863758004 0.0043480559535543648 0 -0.011542293513984418 0.0036367846766204056 0 -0.0057876901369020286 0.00482401703755252 0 -0.007253100445168803 0.0034304031839993707 0 -0.0073858025492965704 0.0035547777018733245 0 -0.0063232891863758004 0.0043480559535543648 0 -0.0054980995561319315 0.005238388981449806 0 -0.0062440239581447636 0.0045660043353271691 0 -0.0053986555881191788 0.0044678408633532082 0 -0.0062440239581447636 0.0045660043353271691 0 -0.0053986555881191788 0.0044678408633532082 0 -0.0058310907021710962 0.0038436348994846329 0 -0.0053986555881191788 0.0044678408633532082 0 -0.0058310907021710962 0.0038436348994846329 0 -0.0048913586176427626 0.0038970969090609672 0 -0.0058310907021710962 0.0038436348994846329 0 -0.0061562080456483261 0.0030883952513239285 0 -0.0052852234400056694 0.0031836434806896971 0 -0.0058310907021710962 0.0038436348994846329 0 -0.0052852234400056694 0.0031836434806896971 0 -0.0048913586176427626 0.0038970969090609672 0 -0.0070103641997199487 0.0038470563426414102 0 -0.0058310907021710962 0.0038436348994846329 0 -0.0061562080456483261 0.0030883952513239285 0 -0.0070103641997199487 0.0038470563426414102 0 -0.0062440239581447636 0.0045660043353271691 0 -0.0058310907021710962 0.0038436348994846329 0 -0.016297107419343346 0.0048693712713568432 0 -0.014960010402866474 0.0036645919761489217 0 -0.016196573423251891 0.0035491334634810733 0 -0.011542293513984418 0.0036367846766204056 0 -0.010641315456071991 0.0035070544024553103 0 -0.014960010402866474 0.0036645919761489217 0 -0.016039313792466536 0.0021403778763690027 0 -0.016196573423251891 0.0035491334634810733 0 -0.0061562080456483261 0.0030883952513239285 0 -0.0052852234400056694 0.0031836434806896971 0 -0.0053185669957006004 0.0023459563073697752 0 -0.010641315456071991 0.0035070544024553103 0 -0.0094089629161816166 0.0021242921580987835 0 -0.014960010402866474 0.0036645919761489217 0 -0.014686698983675703 0.0015993038861866504 0 -0.013581619125360371 0.0024424959533129488 0 -0.014686698983675703 0.0015993038861866504 0 -0.013581619125360371 0.0024424959533129488 0 -0.013018905055924831 0.00037530202747456922 0 -0.014686698983675703 0.0015993038861866504 0 -0.016039313792466536 0.0021403778763690027 0 -0.015585395418207817 0.00030926741522679441 0 -0.014960010402866474 0.0036645919761489217 0 -0.014686698983675703 0.0015993038861866504 0 -0.016039313792466536 0.0021403778763690027 0 -0.01712113915878314 0.0024486063760989769 0 -0.016641197983684186 0.0011609212342256453 0 -0.017681711272014792 0.00025801034539238118 0 -0.021849627465700853 -0.00028928138038762468 0 -0.02200464715626281 -0.00028541318910577378 0 -0.022049665919120873 -0.00023908951735512052 0 -0.019411326111719217 0.0010502445139443516 0 -0.02395199002029344 0.00091721369363351537 0 -0.016039313792466536 0.0021403778763690027 0 -0.01712113915878314 0.0024486063760989769 0 -0.016641197983684186 0.0011609212342256453 0 -0.021849627465700853 -0.00028928138038762468 0 -0.02200464715626281 -0.00028541318910577378 0 -0.021957554701498558 -0.0002294323496728512 0 -0.021986210845446389 -0.00035598480094361151 0 -0.02200464715626281 -0.00028541318910577378 0 -0.021957554701498558 -0.0002294323496728512 0 -0.021901255275247122 -0.00074129901679526532 0 -0.021986210845446389 -0.00035598480094361151 0 -0.0222188518174911 -0.00068586056267930348 0 -0.021986210845446389 -0.00035598480094361151 0 -0.021962750127477934 -0.00020416906856485109 0 -0.021957554701498558 -0.0002294323496728512 0 -0.021901255275247122 -0.00074129901679526532 0 -0.02206222923055233 -0.00096865924617771664 0 -0.0222188518174911 -0.00068586056267930348 0 -0.020103984340848695 -0.00053254990927018681 0 -0.021272636135821647 0.00012211320125402769 0 -0.022459131555994934 -0.00059800953741251991 0 -0.020103984340848695 -0.00053254990927018681 0 -0.015605342585257427 0.0019629657641651054 0 -0.019411326111719217 0.0010502445139443516 0 -0.016039313792466536 0.0021403778763690027 0 -0.01712113915878314 0.0024486063760989769 0 -0.016196573423251891 0.0035491334634810733 0 -0.016566050900500146 0.0046056024467755049 0 -0.01712113915878314 0.0024486063760989769 0 -0.016196573423251891 0.0035491334634810733 0 -0.021490784697466226 0.00053336544728362664 0 -0.021849627465700853 -0.00028928138038762468 0 -0.022035318668934711 4.4141779070915645e-05 0 -0.021849627465700853 -0.00028928138038762468 0 -0.022035318668934711 4.4141779070915645e-05 0 -0.021957554701498558 -0.0002294323496728512 0 -0.0032358171080306623 0.0072392172704160533 0 -0.0031443771897638065 0.0071833829582089136 0 -0.0032037428690518733 0.0072643390141706671 0 -0.0031443771897638065 0.0071833829582089136 0 -0.0032037428690518733 0.0072643390141706671 0 -0.0031289834983954132 0.0072338769500840377 0 -0.0032358171080306623 0.0072392172704160533 0 -0.0031443771897638065 0.0071833829582089136 0 -0.0031181881066865195 0.0071330827034548697 0 -0.0032037428690518733 0.0072643390141706671 0 -0.0032504127667412428 0.0074239111380420822 0 -0.003236159960132547 0.0072473640128131386 0 -0.0032037428690518733 0.0072643390141706671 0 -0.0031289834983954132 0.0072338769500840377 0 -0.0032504127667412428 0.0074239111380420822 0 -0.0032358171080306623 0.0072392172704160533 0 -0.0032037428690518733 0.0072643390141706671 0 -0.0033142129018335527 0.0072019223093444463 0 -0.0032037428690518733 0.0072643390141706671 0 -0.0033142129018335527 0.0072019223093444463 0 -0.0032845050685902494 0.0071781566698365896 0 -0.0029905531537440426 0.005183707449303453 0 -0.007205451826532947 0.00404847554720525 0 -0.0033407984087941195 0.0027412520867607596 0 -0.0045167557304046828 0.0029355521265113224 0 -0.0044944603937740954 0.001602283859917943 0 -0.0032358171080306623 0.0072392172704160533 0 -0.0033142129018335527 0.0072019223093444463 0 -0.0034778285650210266 0.007177360733345994 0 -0.0053185669957006004 0.0023459563073697752 0 -0.0045167557304046828 0.0029355521265113224 0 -0.0044944603937740954 0.001602283859917943 0 -0.013581619125360371 0.0024424959533129488 0 -0.012192154912245456 0.0012130523783520325 0 -0.013018905055924831 0.00037530202747456922 0 -0.0094089629161816166 0.0021242921580987835 0 -0.007205451826532947 0.00404847554720525 0 -0.0052852234400056694 0.0031836434806896971 0 -0.0053185669957006004 0.0023459563073697752 0 -0.0045167557304046828 0.0029355521265113224 0 -0.0033407984087941195 0.0027412520867607596 0 -0.0045167557304046828 0.0029355521265113224 0 -0.0037791401578374209 0.0038350146313868355 0 -0.0052852234400056694 0.0031836434806896971 0 -0.0045167557304046828 0.0029355521265113224 0 -0.0048913586176427626 0.0038970969090609672 0 -0.0045167557304046828 0.0029355521265113224 0 -0.0037791401578374209 0.0038350146313868355 0 -0.0048913586176427626 0.0038970969090609672 0 -0.0037791401578374209 0.0038350146313868355 0 -0.0048913586176427626 0.0038970969090609672 0 -0.0045003523249857336 0.0046805418011586037 0 -0.0053986555881191788 0.0044678408633532082 0 -0.0048913586176427626 0.0038970969090609672 0 -0.0045003523249857336 0.0046805418011586037 0 -0.0054980995561319315 0.005238388981449806 0 -0.0053986555881191788 0.0044678408633532082 0 -0.0045003523249857336 0.0046805418011586037 0 -0.0037791401578374209 0.0038350146313868355 0 -0.0045003523249857336 0.0046805418011586037 0 -0.0031949507757591086 0.0047587209561207738 0 0.00060880363805559121 0.0038773729395995961 0 -0.00096093911207261948 0.0050772886399337138 0 -0.0037791401578374209 0.0038350146313868355 0 -0.0031949507757591086 0.0047587209561207738 0 -0.0022033366789096535 0.0038852180768549596 0 -0.0033407984087941195 0.0027412520867607596 0 -0.0037791401578374209 0.0038350146313868355 0 -0.0022033366789096535 0.0038852180768549596 0 -0.0029905531537440426 0.005183707449303453 0 -0.00096093911207261948 0.0050772886399337138 0 -0.0031443771897638065 0.0071833829582089136 0 -0.0031181881066865195 0.0071330827034548697 0 -0.0031182797257596874 0.0069797696923540528 0 0.0026470052725819475 0.0056041004403946659 0 0.00264585820348131 0.0038698169063491931 0 -0.00036757443481394783 0.0039716280082462861 0 0.0040279535250114656 0.0031322313930920642 0 0.0026470052725819475 0.0056041004403946659 0 0.00264585820348131 0.0038698169063491931 0 -0.00096093911207261948 0.0050772886399337138 0 0.0001352771624131849 0.0044746796127448137 0 0.0040279535250114656 0.0031322313930920642 0 0.00264585820348131 0.0038698169063491931 0 0.0028437220212835994 0.002577559733878501 0 0.00264585820348131 0.0038698169063491931 0 0.0028437220212835994 0.002577559733878501 0 -0.00036757443481394783 0.0039716280082462861 0 0.0040279535250114656 0.0031322313930920642 0 0.0028437220212835994 0.002577559733878501 0 0.003598416373330666 0.0027058314674225301 0 0.0028437220212835994 0.002577559733878501 0 0.0036242946673253943 0.0027974664609091253 0 0.0042512946509314763 0.0029878204208114096 0 0.0036242946673253943 0.0027974664609091253 0 0.003598416373330666 0.0027058314674225301 0 0.0038177852130930638 0.00286493523120238 0 0.0028437220212835994 0.002577559733878501 0 0.0036242946673253943 0.0027974664609091253 0 0.003598416373330666 0.0027058314674225301 0 0.0040279535250114656 0.0031322313930920642 0 0.003598416373330666 0.0027058314674225301 0 0.003993483150756435 0.0028066807306759908 0 0.003598416373330666 0.0027058314674225301 0 0.0037042868420637796 0.0027785337838850364 0 0.003993483150756435 0.0028066807306759908 0 0.0037042868420637796 0.0027785337838850364 0 0.0037679821389683763 0.0028797304874967635 0 0.0036521953403577741 0.0029034698318770552 0 0.0037576916906788033 0.0027550616477302792 0 0.0036352985163952845 0.0029073089427163429 0 0.0037042868420637796 0.0027785337838850364 0 0.0037679821389683763 0.0028797304874967635 0 0.0038177852130930638 0.00286493523120238 0 0.0037679821389683763 0.0028797304874967635 0 0.0038177852130930638 0.00286493523120238 0 0.0038113304420569149 0.0029474904391539368 0 0.0038177852130930638 0.00286493523120238 0 0.0041684410996440085 0.0029278642777913091 0 0.004749498611795161 0.0029470471922888246 0 0.0036242946673253943 0.0027974664609091253 0 0.0038177852130930638 0.00286493523120238 0 0.0041684410996440085 0.0029278642777913091 0 0.003598416373330666 0.0027058314674225301 0 0.0037042868420637796 0.0027785337838850364 0 0.0038177852130930638 0.00286493523120238 0 -0.0054980995561319315 0.005238388981449806 0 -0.0045003523249857336 0.0046805418011586037 0 -0.0041725983842091034 0.0056367063659600062 0 -0.0052892399827529418 0.0058967056783716318 0 -0.0054980995561319315 0.005238388981449806 0 -0.0041725983842091034 0.0056367063659600062 0 -0.0045003523249857336 0.0046805418011586037 0 -0.0031949507757591086 0.0047587209561207738 0 -0.0041725983842091034 0.0056367063659600062 0 0.00060880363805559121 0.0038773729395995961 0 -0.00014063221966229895 0.0044068754354479244 0 0.0037042868420637796 0.0027785337838850364 0 0.003993483150756435 0.0028066807306759908 0 0.0038516232951837565 0.0026869332190202102 0 0.003993483150756435 0.0028066807306759908 0 0.003950485604338503 0.00272182506799517 0 0.0038516232951837565 0.0026869332190202102 0 -0.0052892399827529418 0.0058967056783716318 0 -0.0051710103202114114 0.0065651903416329392 0 -0.0041725983842091034 0.0056367063659600062 0 -0.00086213709565653837 0.0035927545644454926 0 -0.00014063221966229895 0.0044068754354479244 0 0.0039593884532368329 0.0027212744128270734 0 0.003993483150756435 0.0028066807306759908 0 0.003950485604338503 0.00272182506799517 0 0.0039593884532368329 0.0027212744128270734 0 0.003950485604338503 0.00272182506799517 0 0.003938979334210186 0.0026652414418489672 0 -0.00086213709565653837 0.0035927545644454926 0 0.0047557930019950564 0.0024494334296348754 0 0.0015165093348707727 0.0017657179304080947 0 0.0030225364037400632 0.002635816273268329 0 0.0020670416853655212 0.0034500390774603634 0 0.0035829270932278292 0.0029744517261300137 0 0.0036521953403577741 0.0029034698318770552 0 0.0037218434966373049 0.0030609525119360262 0 0.003950485604338503 0.00272182506799517 0 0.003938979334210186 0.0026652414418489672 0 0.0038516232951837565 0.0026869332190202102 0 0.0047557930019950564 0.0024494334296348754 0 0.0036352985163952845 0.0029073089427163429 0 0.0068197075146863642 0.0017058769692674738 0 0.0065684152822108937 0.0013960524495457546 0 0.0072094430371183165 0.0013530863205548031 0 0.0047557930019950564 0.0024494334296348754 0 0.0054776418157730542 0.002170973869268269 0 0.0065407544892991604 0.00093326521011728866 0 0.0065684152822108937 0.0013960524495457546 0 0.0072094430371183165 0.0013530863205548031 0 0.0063484356768308105 0.0019321068550078263 0 0.0065684152822108937 0.0013960524495457546 0 0.0060865405026373992 0.0013053082349224491 0 0.0047557930019950564 0.0024494334296348754 0 0.0040752920179176356 0.002379873886395361 0 0.0065407544892991604 0.00093326521011728866 0 0.0065684152822108937 0.0013960524495457546 0 0.0060865405026373992 0.0013053082349224491 0 0.00340399305034518 0.0023271371332205825 0 0.0040752920179176356 0.002379873886395361 0 0.0038177852130930638 0.00286493523120238 0 0.0053330059241329776 0.0029265293526950556 0 0.004749498611795161 0.0029470471922888246 0 0.0038177852130930638 0.00286493523120238 0 0.0038113304420569149 0.0029474904391539368 0 0.0039402824062951267 0.0030097637994344318 0 0.0039425642572494708 0.0027862800910704462 0 0.004477194248828492 0.0029404370685916716 0 0.0038113304420569149 0.0029474904391539368 0 0.0038388149801914405 0.0030420186933674607 0 0.0039402824062951267 0.0030097637994344318 0 0.0037679821389683763 0.0028797304874967635 0 0.0036521953403577741 0.0029034698318770552 0 0.0038113304420569149 0.0029474904391539368 0 0.0036521953403577741 0.0029034698318770552 0 0.0038113304420569149 0.0029474904391539368 0 0.0037218434966373049 0.0030609525119360262 0 0.0038113304420569149 0.0029474904391539368 0 0.0037218434966373049 0.0030609525119360262 0 0.0038388149801914405 0.0030420186933674607 0 0.0075931224022335007 0.0016796192788591869 0 0.0072969759679229751 0.0016953930355449109 0 0.0072094430371183165 0.0013530863205548031 0 0.0072969759679229751 0.0016953930355449109 0 0.0068197075146863642 0.0017058769692674738 0 0.0072094430371183165 0.0013530863205548031 0 0.0057413519251488018 0.0024291901912417918 0 0.0054776418157730542 0.002170973869268269 0 0.0038866272325532151 0.0031593908276229825 0 0.0038388149801914405 0.0030420186933674607 0 0.0039402824062951267 0.0030097637994344318 0 0.0038866272325532151 0.0031593908276229825 0 0.0037218434966373049 0.0030609525119360262 0 0.0038388149801914405 0.0030420186933674607 0 0.00600127739064468 0.0024143783335006134 0 0.004477194248828492 0.0029404370685916716 0 0.0053330059241329776 0.0029265293526950556 0 0.005404026447573743 0.0028671396726017745 0 0.005819590913910962 0.002569466217504336 0 0.0063878288131695316 0.0021291272374458991 0 0.0053330059241329776 0.0029265293526950556 0 0.005819590913910962 0.002569466217504336 0 0.0053330059241329776 0.0029265293526950556 0 0.005404026447573743 0.0028671396726017745 0 0.004749498611795161 0.0029470471922888246 0 0.005404026447573743 0.0028671396726017745 0 0.004749498611795161 0.0029470471922888246 0 0.005051892566852666 0.0030406538538742668 0 0.005404026447573743 0.0028671396726017745 0 0.0053636835912942542 0.0028996299183896169 0 0.005051892566852666 0.0030406538538742668 0 0.005404026447573743 0.0028671396726017745 0 0.0057803768845641375 0.002528636120768923 0 0.0053636835912942542 0.0028996299183896169 0 0.0061925013546202052 0.0022322704416900302 0 0.005819590913910962 0.002569466217504336 0 0.0057803768845641375 0.002528636120768923 0 0.005404026447573743 0.0028671396726017745 0 0.005819590913910962 0.002569466217504336 0 0.0057803768845641375 0.002528636120768923 0 0.0057803768845641375 0.002528636120768923 0 0.0056118362396380241 0.0023888926455310562 0 0.0054096861371801712 0.0026898513059359168 0 0.0060129848015906661 0.0021420429837412341 0 0.0057803768845641375 0.002528636120768923 0 0.0056118362396380241 0.0023888926455310562 0 0.0056118362396380241 0.0023888926455310562 0 0.0051744798251122104 0.002647099833031605 0 0.0051166765118276719 0.0022538700201091381 0 0.00578032564216595 0.0020338250536657914 0 0.0056118362396380241 0.0023888926455310562 0 0.0051166765118276719 0.0022538700201091381 0 0.0056118362396380241 0.0023888926455310562 0 0.0051744798251122104 0.002647099833031605 0 0.0054096861371801712 0.0026898513059359168 0 0.0054096861371801712 0.0026898513059359168 0 0.0053636835912942542 0.0028996299183896169 0 0.0050575023956382949 0.0029740892341949482 0 0.0051744798251122104 0.002647099833031605 0 0.0054096861371801712 0.0026898513059359168 0 0.0050575023956382949 0.0029740892341949482 0 0.0057803768845641375 0.002528636120768923 0 0.0054096861371801712 0.0026898513059359168 0 0.0053636835912942542 0.0028996299183896169 0 0.0053636835912942542 0.0028996299183896169 0 0.0051786709950365564 0.0031048854418484267 0 0.005051892566852666 0.0030406538538742668 0 0.0053636835912942542 0.0028996299183896169 0 0.0051786709950365564 0.0031048854418484267 0 0.0050575023956382949 0.0029740892341949482 0 0.0051786709950365564 0.0031048854418484267 0 0.0050575023956382949 0.0029740892341949482 0 0.0048300714881693643 0.0033690701235063749 0 0.0048300714881693643 0.0033690701235063749 0 0.0050146332257452065 0.0033246347316029439 0 0.0048167626206288318 0.0037533594936138477 0 0.0051786709950365564 0.0031048854418484267 0 0.0048300714881693643 0.0033690701235063749 0 0.0050146332257452065 0.0033246347316029439 0 0.0051786709950365564 0.0031048854418484267 0 0.0050146332257452065 0.0033246347316029439 0 0.0050536989216648448 0.0032365447764094732 0 0.0048779560236900206 0.0030422483087023337 0 0.0042512946509314763 0.0029878204208114096 0 0.005051892566852666 0.0030406538538742668 0 0.0051786709950365564 0.0031048854418484267 0 0.0048779560236900206 0.0030422483087023337 0 0.0050536989216648448 0.0032365447764094732 0 0.0028437220212835994 0.002577559733878501 0 0.0048779560236900206 0.0030422483087023337 0 0.0042512946509314763 0.0029878204208114096 0 0.0042512946509314763 0.0029878204208114096 0 0.0041684410996440085 0.0029278642777913091 0 0.004749498611795161 0.0029470471922888246 0 0.0042512946509314763 0.0029878204208114096 0 0.004749498611795161 0.0029470471922888246 0 0.005051892566852666 0.0030406538538742668 0 0.0036242946673253943 0.0027974664609091253 0 0.0042512946509314763 0.0029878204208114096 0 0.0041684410996440085 0.0029278642777913091 0 0.0051786709950365564 0.0031048854418484267 0 0.0048779560236900206 0.0030422483087023337 0 0.005051892566852666 0.0030406538538742668 0 0.002299690084892665 0.0024368280854612568 0 0.0030697304826375039 0.0024853457541917229 0 0.0025330683058374598 0.0029646651499806386 0 0.0030697304826375039 0.0024853457541917229 0 0.0028006642808962321 0.0020230732571339793 0 0.0036511155768507043 0.002048638160166935 0 0.002299690084892665 0.0024368280854612568 0 0.0030697304826375039 0.0024853457541917229 0 0.0028006642808962321 0.0020230732571339793 0 0.0030697304826375039 0.0024853457541917229 0 0.0036511155768507043 0.002048638160166935 0 0.0039524605598306338 0.002511163412797644 0 0.0036511155768507043 0.002048638160166935 0 0.0039524605598306338 0.002511163412797644 0 0.0043356282423611774 0.002082025408269962 0 0.0039524605598306338 0.002511163412797644 0 0.0040741936236535345 0.0028938903644310102 0 0.0034250388988974487 0.002889158559596029 0 0.0030697304826375039 0.0024853457541917229 0 0.0039524605598306338 0.002511163412797644 0 0.0034250388988974487 0.002889158559596029 0 0.0039524605598306338 0.002511163412797644 0 0.0045736287070915031 0.0023833566606520666 0 0.0046596387852109516 0.002699741299005035 0 0.0039524605598306338 0.002511163412797644 0 0.0046596387852109516 0.002699741299005035 0 0.0040741936236535345 0.0028938903644310102 0 0.0045736287070915031 0.0023833566606520666 0 0.0043356282423611774 0.002082025408269962 0 0.0051166765118276719 0.0022538700201091381 0 0.0039524605598306338 0.002511163412797644 0 0.0045736287070915031 0.0023833566606520666 0 0.0043356282423611774 0.002082025408269962 0 0.0051744798251122104 0.002647099833031605 0 0.0051166765118276719 0.0022538700201091381 0 0.0046596387852109516 0.002699741299005035 0 0.0045736287070915031 0.0023833566606520666 0 0.0051166765118276719 0.0022538700201091381 0 0.0046596387852109516 0.002699741299005035 0 0.0051744798251122104 0.002647099833031605 0 0.0050575023956382949 0.0029740892341949482 0 0.0046596387852109516 0.002699741299005035 0 0.0050575023956382949 0.0029740892341949482 0 0.0046596387852109516 0.002699741299005035 0 0.0044772768117544576 0.0031264178386676625 0 0.0050575023956382949 0.0029740892341949482 0 0.0048300714881693643 0.0033690701235063749 0 0.0044772768117544576 0.0031264178386676625 0 0.0048300714881693643 0.0033690701235063749 0 0.0044772768117544576 0.0031264178386676625 0 0.0042349806610063549 0.0035676917054421357 0 0.0048300714881693643 0.0033690701235063749 0 0.0042349806610063549 0.0035676917054421357 0 0.0044417257091310626 0.0039663650237281396 0 0.0044772768117544576 0.0031264178386676625 0 0.0042349806610063549 0.0035676917054421357 0 0.0037922608427608628 0.0032605133728810282 0 0.0042349806610063549 0.0035676917054421357 0 0.0037922608427608628 0.0032605133728810282 0 0.0034096239701478415 0.0037913175722484316 0 0.0044772768117544576 0.0031264178386676625 0 0.0037922608427608628 0.0032605133728810282 0 0.0040741936236535345 0.0028938903644310102 0 0.0046596387852109516 0.002699741299005035 0 0.0044772768117544576 0.0031264178386676625 0 0.0040741936236535345 0.0028938903644310102 0 0.0037922608427608628 0.0032605133728810282 0 0.0040741936236535345 0.0028938903644310102 0 0.0034250388988974487 0.002889158559596029 0 0.0037922608427608628 0.0032605133728810282 0 0.0034250388988974487 0.002889158559596029 0 0.0031479240518169117 0.0032764652812811487 0 0.0034096239701478415 0.0037913175722484316 0 0.0031479240518169117 0.0032764652812811487 0 0.0025794106088259479 0.0035608684940149709 0 0.0037922608427608628 0.0032605133728810282 0 0.0034096239701478415 0.0037913175722484316 0 0.0031479240518169117 0.0032764652812811487 0 0.0018878447914848768 0.0032613928781069688 0 0.0025794106088259479 0.0035608684940149709 0 0.0025330683058374598 0.0029646651499806386 0 0.0031479240518169117 0.0032764652812811487 0 0.0025794106088259479 0.0035608684940149709 0 0.0025330683058374598 0.0029646651499806386 0 0.0018878447914848768 0.0032613928781069688 0 0.00186514150992143 0.0037991862330949162 0 0.0025794106088259479 0.0035608684940149709 0 0.0030697304826375039 0.0024853457541917229 0 0.0034250388988974487 0.002889158559596029 0 0.0025330683058374598 0.0029646651499806386 0 0.0034250388988974487 0.002889158559596029 0 0.0031479240518169117 0.0032764652812811487 0 0.0025330683058374598 0.0029646651499806386 0 0.0012374190889315312 0.0045708281954819473 0 0.0023207890693463721 0.0051304890327827637 0 0.002583021495392909 0.0043680640700084665 0 0.0012374190889315312 0.0045708281954819473 0 0.0023207890693463721 0.0051304890327827637 0 0.0019266061670371029 0.0061632268719354994 0 0.0027827275560207954 0.0057574419718796153 0 0.0023207890693463721 0.0051304890327827637 0 0.0019266061670371029 0.0061632268719354994 0 0.0027827275560207954 0.0057574419718796153 0 0.0023207890693463721 0.0051304890327827637 0 0.0028937764159484096 0.00499329174079516 0 0.0023207890693463721 0.0051304890327827637 0 0.002583021495392909 0.0043680640700084665 0 0.0028937764159484096 0.00499329174079516 0 0.0034096239701478415 0.0037913175722484316 0 0.0025794106088259479 0.0035608684940149709 0 0.002583021495392909 0.0043680640700084665 0 0.00186514150992143 0.0037991862330949162 0 0.0025794106088259479 0.0035608684940149709 0 0.002583021495392909 0.0043680640700084665 0 0.0034096239701478415 0.0037913175722484316 0 0.0033525764668068795 0.0045657541504251307 0 0.0039254311019800547 0.0042221616984894732 0 0.0034096239701478415 0.0037913175722484316 0 0.002583021495392909 0.0043680640700084665 0 0.0033525764668068795 0.0045657541504251307 0 0.0033525764668068795 0.0045657541504251307 0 0.0033569321655540873 0.0052438150503335123 0 0.0037953687886748567 0.004882903332698499 0 0.0033525764668068795 0.0045657541504251307 0 0.0028937764159484096 0.00499329174079516 0 0.0033569321655540873 0.0052438150503335123 0 0.002583021495392909 0.0043680640700084665 0 0.0033525764668068795 0.0045657541504251307 0 0.0028937764159484096 0.00499329174079516 0 0.0027827275560207954 0.0057574419718796153 0 0.0028937764159484096 0.00499329174079516 0 0.0033569321655540873 0.0052438150503335123 0 0.0027827275560207954 0.0057574419718796153 0 0.0033569321655540873 0.0052438150503335123 0 0.003280963116036146 0.0059233216401702368 0 0.0033569321655540873 0.0052438150503335123 0 0.0037499234882311617 0.0055435829669638918 0 0.003280963116036146 0.0059233216401702368 0 0.0033569321655540873 0.0052438150503335123 0 0.0037953687886748567 0.004882903332698499 0 0.0037499234882311617 0.0055435829669638918 0 0.0040120052448090133 0.0050926963655857698 0 0.0042729852621978355 0.0052825232452557427 0 0.0037499234882311617 0.0055435829669638918 0 0.0040120052448090133 0.0050926963655857698 0 0.0037953687886748567 0.004882903332698499 0 0.0037499234882311617 0.0055435829669638918 0 0.0040120052448090133 0.0050926963655857698 0 0.0041835046783538828 0.0046429288183124874 0 0.0042729852621978355 0.0052825232452557427 0 0.0040120052448090133 0.0050926963655857698 0 0.0041835046783538828 0.0046429288183124874 0 0.0037953687886748567 0.004882903332698499 0 0.0041835046783538828 0.0046429288183124874 0 0.0037953687886748567 0.004882903332698499 0 0.0039254311019800547 0.0042221616984894732 0 0.0042349806610063549 0.0035676917054421357 0 0.0034096239701478415 0.0037913175722484316 0 0.0039254311019800547 0.0042221616984894732 0 0.0042349806610063549 0.0035676917054421357 0 0.0039254311019800547 0.0042221616984894732 0 0.0044417257091310626 0.0039663650237281396 0 0.0033525764668068795 0.0045657541504251307 0 0.0037953687886748567 0.004882903332698499 0 0.0039254311019800547 0.0042221616984894732 0 0.0041835046783538828 0.0046429288183124874 0 0.0039254311019800547 0.0042221616984894732 0 0.0044417257091310626 0.0039663650237281396 0 0.0041835046783538828 0.0046429288183124874 0 0.0044417257091310626 0.0039663650237281396 0 0.0045404688297899249 0.0043403379586582393 0 0.0044417257091310626 0.0039663650237281396 0 0.0045404688297899249 0.0043403379586582393 0 0.0048167626206288318 0.0037533594936138477 0 0.0045404688297899249 0.0043403379586582393 0 0.0042729852621978355 0.0052825232452557427 0 0.0048814310787297652 0.0041350220845230209 0 0.0041835046783538828 0.0046429288183124874 0 0.0045404688297899249 0.0043403379586582393 0 0.0042729852621978355 0.0052825232452557427 0 -0.0055013027450130413 0.006393099054190941 0 -0.0056028259181523299 0.0063316343561258563 0 -0.0057328125518757659 0.0064082431599186834 0 -0.0055013027450130413 0.006393099054190941 0 -0.0056028259181523299 0.0063316343561258563 0 -0.0054435996709986225 0.0063089937064117786 0 -0.0056028259181523299 0.0063316343561258563 0 -0.0056113640490329485 0.0062888165761457405 0 -0.0057103903984931622 0.0064468414241839597 0 -0.0056113640490329485 0.0062888165761457405 0 -0.0055882289312494523 0.0061777304085571623 0 -0.0055133214057202862 0.0061709377999393106 0 -0.0056028259181523299 0.0063316343561258563 0 -0.0056113640490329485 0.0062888165761457405 0 -0.0055882289312494523 0.0061777304085571623 0 -0.0056028259181523299 0.0063316343561258563 0 -0.0055882289312494523 0.0061777304085571623 0 -0.0054435996709986225 0.0063089937064117786 0 -0.0055882289312494523 0.0061777304085571623 0 -0.0053801486387084286 0.0061023774024122415 0 -0.0054435996709986225 0.0063089937064117786 0 -0.005601825941308646 0.0063080170934984572 0 -0.0046589195373338693 0.0062833909788915449 0 -0.0053801486387084286 0.0061023774024122415 0 -0.0054435996709986225 0.0063089937064117786 0 -0.0051632648936023959 0.0061056779005368295 0 -0.0055882289312494523 0.0061777304085571623 0 -0.0053801486387084286 0.0061023774024122415 0 -0.0055578344173347139 0.0058210075242349476 0 -0.0055013027450130413 0.006393099054190941 0 -0.0054435996709986225 0.0063089937064117786 0 -0.0052028036558744656 0.0062677365443254331 0 0.0042729852621978355 0.0052825232452557427 0 0.0037499234882311617 0.0055435829669638918 0 0.003480352366071358 0.0066913878614202 0 -0.00075862294090933615 0.0058298251542702332 0 -0.0003434113253440069 0.0067727136801070805 0 -0.0054435996709986225 0.0063089937064117786 0 -0.0052028036558744656 0.0062677365443254331 0 -0.0051714046830457945 0.0061715863843335387 0 0.0037499234882311617 0.0055435829669638918 0 0.003280963116036146 0.0059233216401702368 0 0.003480352366071358 0.0066913878614202 0 0.0027827275560207954 0.0057574419718796153 0 0.003280963116036146 0.0059233216401702368 0 0.0028612246520443164 0.0064350291125831799 0 0.003280963116036146 0.0059233216401702368 0 0.0028612246520443164 0.0064350291125831799 0 0.003480352366071358 0.0066913878614202 0 0.0028612246520443164 0.0064350291125831799 0 0.003480352366071358 0.0066913878614202 0 0.002241103427273954 0.0073091970953693807 0 -0.0053801486387084286 0.0061023774024122415 0 -0.0052343494365607287 0.0059514619595978299 0 -0.0053605082264574482 0.005749685469205592 0 -0.0053801486387084286 0.0061023774024122415 0 -0.0052343494365607287 0.0059514619595978299 0 -0.0051632648936023959 0.0061056779005368295 0 -0.0052343494365607287 0.0059514619595978299 0 -0.0051632648936023959 0.0061056779005368295 0 -0.0050262340454236736 0.005827498327341544 0 -0.004841322745470813 0.0060612530993223255 0 -0.0052028036558744656 0.0062677365443254331 0 -0.0051714046830457945 0.0061715863843335387 0 -0.004841322745470813 0.0060612530993223255 0 -0.0051714046830457945 0.0061715863843335387 0 -0.0048919666516897987 0.0060087630118850913 0 0.0013143026471029307 0.0089694232571585486 0 0.003480352366071358 0.0066913878614202 0 0.002241103427273954 0.0073091970953693807 0 -0.0051632648936023959 0.0061056779005368295 0 -0.0050262340454236736 0.005827498327341544 0 -0.0047248832216183947 0.0058458553236395844 0 -0.0046589195373338693 0.0062833909788915449 0 -0.0082226857904164497 0.0028572827192113355 0 -0.0048582344792070962 0.0051836622210297261 0 -0.0003434113253440069 0.0067727136801070805 0 0.0013143026471029307 0.0089694232571585486 0 0.0016279022889634693 0.0077689412568945331 0 0.002241103427273954 0.0073091970953693807 0 0.0012562640577670921 0.0075136169694424975 0 0.0016279022889634693 0.0077689412568945331 0 0.0017883153789646773 0.0069631176945228563 0 0.0017883153789646773 0.0069631176945228563 0 0.002241103427273954 0.0073091970953693807 0 0.0023527383209447405 0.0065726721268873521 0 0.0016279022889634693 0.0077689412568945331 0 0.0017883153789646773 0.0069631176945228563 0 0.002241103427273954 0.0073091970953693807 0 0.0028612246520443164 0.0064350291125831799 0 0.002241103427273954 0.0073091970953693807 0 0.0023527383209447405 0.0065726721268873521 0 0.0027827275560207954 0.0057574419718796153 0 0.0023527383209447405 0.0065726721268873521 0 0.0019266061670371029 0.0061632268719354994 0 0.0027827275560207954 0.0057574419718796153 0 0.0028612246520443164 0.0064350291125831799 0 0.0023527383209447405 0.0065726721268873521 0 0.0017883153789646773 0.0069631176945228563 0 0.0023527383209447405 0.0065726721268873521 0 0.0019266061670371029 0.0061632268719354994 0 -0.0043833862696188962 0.00618312850025729 0 -0.0046340130617368762 0.0043337525353643828 0 -0.0052552047568467358 0.0061178715502522513 0 -0.0043833862696188962 0.00618312850025729 0 -0.0029588388391055451 0.0054696538901662199 0 -0.0046340130617368762 0.0043337525353643828 0 -0.0043833862696188962 0.00618312850025729 0 -0.0052552047568467358 0.0061178715502522513 0 -0.005356569585492201 0.0067934350620462878 0 -0.0043833862696188962 0.00618312850025729 0 -0.0033903740461435142 0.0063253382814386994 0 -0.0042657537008447041 0.0069844053910295533 0 -0.0043833862696188962 0.00618312850025729 0 -0.0033903740461435142 0.0063253382814386994 0 -0.0029588388391055451 0.0054696538901662199 0 -0.0033903740461435142 0.0063253382814386994 0 -0.0018108146594193646 0.0056839906327133703 0 -0.0031182797257596874 0.0069797696923540528 0 -0.00010996907937060975 0.0056418772517059018 0 -0.0018108146594193646 0.0056839906327133703 0 -0.0031182797257596874 0.0069797696923540528 0 -0.00096093911207261948 0.0050772886399337138 0 -0.0031955358028854484 0.0073234873756347482 0 -0.00010996907937060975 0.0056418772517059018 0 -0.0018108146594193646 0.0056839906327133703 0 -0.00036757443481394783 0.0039716280082462861 0 -0.0033903740461435142 0.0063253382814386994 0 -0.0018108146594193646 0.0056839906327133703 0 -0.0029588388391055451 0.0054696538901662199 0 -0.0029588388391055451 0.0054696538901662199 0 -0.00036757443481394783 0.0039716280082462861 0 -0.0046340130617368762 0.0043337525353643828 0 0.002564025097752129 0.0026403069024544231 0 0.00022585813261309615 0.0036799602553090585 0 0.0028437220212835994 0.002577559733878501 0 -0.00036757443481394783 0.0039716280082462861 0 -0.0046340130617368762 0.0043337525353643828 0 0.0028437220212835994 0.002577559733878501 0 0.0048779560236900206 0.0030422483087023337 0 0.0049672259898289961 0.0028273624544121875 0 -0.0018108146594193646 0.0056839906327133703 0 -0.0029588388391055451 0.0054696538901662199 0 -0.00036757443481394783 0.0039716280082462861 0 0.0048779560236900206 0.0030422483087023337 0 0.0049672259898289961 0.0028273624544121875 0 0.0050536989216648448 0.0032365447764094732 0 0.0050146332257452065 0.0033246347316029439 0 0.0050536989216648448 0.0032365447764094732 0 0.0048167626206288318 0.0037533594936138477 0 0.0050536989216648448 0.0032365447764094732 0 0.0048167626206288318 0.0037533594936138477 0 0.0048814310787297652 0.0041350220845230209 0 0.0049672259898289961 0.0028273624544121875 0 0.0050536989216648448 0.0032365447764094732 0 0.0048814310787297652 0.0041350220845230209 0 0.0048300714881693643 0.0033690701235063749 0 0.0044417257091310626 0.0039663650237281396 0 0.0048167626206288318 0.0037533594936138477 0 0.0045404688297899249 0.0043403379586582393 0 0.0048167626206288318 0.0037533594936138477 0 0.0048814310787297652 0.0041350220845230209 0 -0.0055013027450130413 0.006393099054190941 0 -0.0058132022741380508 0.0061326665874394054 0 -0.0057328125518757659 0.0064082431599186834 0 -0.00075862294090933615 0.0058298251542702332 0 -0.00046034610060274525 0.0050756541227599452 0 -0.0058132022741380508 0.0061326665874394054 0 -0.0056418598226734094 0.0064407973689709812 0 -0.0057328125518757659 0.0064082431599186834 0 0.00022585813261309615 0.0036799602553090585 0 -0.00046034610060274525 0.0050756541227599452 0 -0.0046340130617368762 0.0043337525353643828 0 -0.0058132022741380508 0.0061326665874394054 0 -0.0052552047568467358 0.0061178715502522513 0 -0.0058132022741380508 0.0061326665874394054 0 -0.0052552047568467358 0.0061178715502522513 0 -0.0056418598226734094 0.0064407973689709812 0 -0.0052552047568467358 0.0061178715502522513 0 -0.0056418598226734094 0.0064407973689709812 0 -0.005356569585492201 0.0067934350620462878 0 -0.0056418598226734094 0.0064407973689709812 0 -0.005723603908808641 0.0066242196166031875 0 -0.005356569585492201 0.0067934350620462878 0 -0.0056418598226734094 0.0064407973689709812 0 -0.005723603908808641 0.0066242196166031875 0 -0.0057328125518757659 0.0064082431599186834 0 -0.005723603908808641 0.0066242196166031875 0 -0.00584592882323616 0.006807455877579421 0 -0.005356569585492201 0.0067934350620462878 0 -0.005723603908808641 0.0066242196166031875 0 -0.0057328125518757659 0.0064082431599186834 0 -0.0057103903984931622 0.0064468414241839597 0 -0.0056028259181523299 0.0063316343561258563 0 -0.0057328125518757659 0.0064082431599186834 0 -0.0057103903984931622 0.0064468414241839597 0 -0.005723603908808641 0.0066242196166031875 0 -0.0057103903984931622 0.0064468414241839597 0 -0.0057990231444875803 0.0065737901675482118 0 -0.0057990231444875803 0.0065737901675482118 0 -0.0059156398150589842 0.0063945784721772224 0 -0.005690420690052737 0.006329635917470878 0 -0.0057103903984931622 0.0064468414241839597 0 -0.0057990231444875803 0.0065737901675482118 0 -0.005690420690052737 0.006329635917470878 0 -0.0056113640490329485 0.0062888165761457405 0 -0.0057103903984931622 0.0064468414241839597 0 -0.005690420690052737 0.006329635917470878 0 -0.005723603908808641 0.0066242196166031875 0 -0.00584592882323616 0.006807455877579421 0 -0.0057990231444875803 0.0065737901675482118 0 -0.0057990231444875803 0.0065737901675482118 0 -0.0061787965659158969 0.0065219897597189507 0 -0.0059156398150589842 0.0063945784721772224 0 -0.00584592882323616 0.006807455877579421 0 -0.0057990231444875803 0.0065737901675482118 0 -0.0061787965659158969 0.0065219897597189507 0 -0.00584592882323616 0.006807455877579421 0 -0.0062020288200481544 0.00670326194743418 0 -0.0061787965659158969 0.0065219897597189507 0 -0.00584592882323616 0.006807455877579421 0 -0.0062020288200481544 0.00670326194743418 0 -0.0062280630137505648 0.0068331969931314431 0 -0.0062020288200481544 0.00670326194743418 0 -0.0062280630137505648 0.0068331969931314431 0 -0.0066135925748369 0.0065857062999750754 0 -0.0062280630137505648 0.0068331969931314431 0 -0.0055434041322940325 0.0070071859226703967 0 -0.0066144501001482994 0.0070137738946026039 0 -0.00584592882323616 0.006807455877579421 0 -0.0062280630137505648 0.0068331969931314431 0 -0.0055434041322940325 0.0070071859226703967 0 -0.00584592882323616 0.006807455877579421 0 -0.0055434041322940325 0.0070071859226703967 0 -0.005356569585492201 0.0067934350620462878 0 -0.0055434041322940325 0.0070071859226703967 0 -0.0042657537008447041 0.0069844053910295533 0 -0.005356569585492201 0.0067934350620462878 0 -0.0043833862696188962 0.00618312850025729 0 -0.0042657537008447041 0.0069844053910295533 0 -0.005356569585492201 0.0067934350620462878 0 -0.0042657537008447041 0.0069844053910295533 0 -0.0031289834983954132 0.0072338769500840377 0 -0.0032504127667412428 0.0074239111380420822 0 -0.0045429029487638996 0.0068669686646240331 0 -0.0048107523456721885 0.0070913553789645166 0 -0.0031443771897638065 0.0071833829582089136 0 -0.0031182797257596874 0.0069797696923540528 0 -0.0031289834983954132 0.0072338769500840377 0 -0.0055434041322940325 0.0070071859226703967 0 -0.0042657537008447041 0.0069844053910295533 0 -0.0066144501001482994 0.0070137738946026039 0 -0.0033903740461435142 0.0063253382814386994 0 -0.0042657537008447041 0.0069844053910295533 0 -0.0031182797257596874 0.0069797696923540528 0 -0.0042657537008447041 0.0069844053910295533 0 -0.0031182797257596874 0.0069797696923540528 0 -0.0031289834983954132 0.0072338769500840377 0 -0.0048107523456721885 0.0070913553789645166 0 -0.0077752410293860756 0.0075007271178135337 0 -0.0062280630137505648 0.0068331969931314431 0 -0.0066144501001482994 0.0070137738946026039 0 -0.0068673502630590931 0.0066999097201196926 0 -0.0066144501001482994 0.0070137738946026039 0 -0.0068673502630590931 0.0066999097201196926 0 -0.0076511611934999609 0.0066053834841233033 0 -0.0066144501001482994 0.0070137738946026039 0 -0.0076511611934999609 0.0066053834841233033 0 -0.0078766965027870731 0.0066082425718720778 0 -0.0068673502630590931 0.0066999097201196926 0 -0.0072353333488271486 0.0064089630044383136 0 -0.0076511611934999609 0.0066053834841233033 0 -0.0072353333488271486 0.0064089630044383136 0 -0.0077912730961705173 0.0062837538309894938 0 -0.0076511611934999609 0.0066053834841233033 0 -0.0072353333488271486 0.0064089630044383136 0 -0.0077912730961705173 0.0062837538309894938 0 -0.007396773900417427 0.0060632140422620271 0 -0.0080524879509523313 0.0064387121394323477 0 -0.0084095813804948936 0.0061993792974753392 0 -0.0084824544596476901 0.0067267412172199561 0 -0.0076511611934999609 0.0066053834841233033 0 -0.0080524879509523313 0.0064387121394323477 0 -0.0084824544596476901 0.0067267412172199561 0 -0.007846213644751316 0.00719913008299021 0 -0.0077752410293860756 0.0075007271178135337 0 -0.0077912730961705173 0.0062837538309894938 0 -0.0080524879509523313 0.0064387121394323477 0 -0.0084095813804948936 0.0061993792974753392 0 -0.0077912730961705173 0.0062837538309894938 0 -0.0076511611934999609 0.0066053834841233033 0 -0.0080524879509523313 0.0064387121394323477 0 -0.0084095813804948936 0.0061993792974753392 0 -0.0087696741310620899 0.0057274780208455322 0 -0.0091259263830429926 0.0059293524962183708 0 -0.0084095813804948936 0.0061993792974753392 0 -0.0079992564999152339 0.0059060975365086933 0 -0.0087696741310620899 0.0057274780208455322 0 -0.0077912730961705173 0.0062837538309894938 0 -0.0084095813804948936 0.0061993792974753392 0 -0.0079992564999152339 0.0059060975365086933 0 -0.0079992564999152339 0.0059060975365086933 0 -0.0076193707581305959 0.0056111813536574313 0 -0.007396773900417427 0.0060632140422620271 0 -0.0077912730961705173 0.0062837538309894938 0 -0.0079992564999152339 0.0059060975365086933 0 -0.007396773900417427 0.0060632140422620271 0 -0.0079992564999152339 0.0059060975365086933 0 -0.0082215335249990629 0.0055336258976650234 0 -0.0076193707581305959 0.0056111813536574313 0 -0.0082215335249990629 0.0055336258976650234 0 -0.0076193707581305959 0.0056111813536574313 0 -0.0080636546158456592 0.0052148137608410815 0 -0.0082215335249990629 0.0055336258976650234 0 -0.0087696741310620899 0.0057274780208455322 0 -0.0087256585086785115 0.0051922682127091297 0 -0.0079992564999152339 0.0059060975365086933 0 -0.0082215335249990629 0.0055336258976650234 0 -0.0087696741310620899 0.0057274780208455322 0 -0.0071053025649289248 0.0054579432528898556 0 -0.0076193707581305959 0.0056111813536574313 0 -0.006997279346334824 0.0058749188275495842 0 -0.0071053025649289248 0.0054579432528898556 0 -0.006997279346334824 0.0058749188275495842 0 -0.0065688846784111056 0.0056927482410226464 0 -0.0071053025649289248 0.0054579432528898556 0 -0.0076193707581305959 0.0056111813536574313 0 -0.0075532456572691671 0.0051095711422573234 0 -0.007396773900417427 0.0060632140422620271 0 -0.006997279346334824 0.0058749188275495842 0 -0.0068372515367021228 0.006262335642505573 0 -0.0076193707581305959 0.0056111813536574313 0 -0.007396773900417427 0.0060632140422620271 0 -0.006997279346334824 0.0058749188275495842 0 -0.006997279346334824 0.0058749188275495842 0 -0.0068372515367021228 0.006262335642505573 0 -0.0065609191369830422 0.0060850521064751686 0 -0.0068372515367021228 0.006262335642505573 0 -0.0061787965659158969 0.0065219897597189507 0 -0.0065609191369830422 0.0060850521064751686 0 -0.0072353333488271486 0.0064089630044383136 0 -0.0068372515367021228 0.006262335642505573 0 -0.0066135925748369 0.0065857062999750754 0 -0.0072353333488271486 0.0064089630044383136 0 -0.007396773900417427 0.0060632140422620271 0 -0.0068372515367021228 0.006262335642505573 0 -0.0062280630137505648 0.0068331969931314431 0 -0.0068673502630590931 0.0066999097201196926 0 -0.0066135925748369 0.0065857062999750754 0 -0.0068673502630590931 0.0066999097201196926 0 -0.0072353333488271486 0.0064089630044383136 0 -0.0066135925748369 0.0065857062999750754 0 -0.0062020288200481544 0.00670326194743418 0 -0.0066135925748369 0.0065857062999750754 0 -0.0061787965659158969 0.0065219897597189507 0 -0.0068372515367021228 0.006262335642505573 0 -0.0066135925748369 0.0065857062999750754 0 -0.0061787965659158969 0.0065219897597189507 0 -0.0061787965659158969 0.0065219897597189507 0 -0.0059156398150589842 0.0063945784721772224 0 -0.0061702462353151544 0.0061922741659003163 0 -0.0061702462353151544 0.0061922741659003163 0 -0.0058482945543378824 0.0061848970774961648 0 -0.0061074501416134071 0.0058481179287314423 0 -0.0059156398150589842 0.0063945784721772224 0 -0.0061702462353151544 0.0061922741659003163 0 -0.0058482945543378824 0.0061848970774961648 0 -0.0061787965659158969 0.0065219897597189507 0 -0.0061702462353151544 0.0061922741659003163 0 -0.0065609191369830422 0.0060850521064751686 0 -0.0059156398150589842 0.0063945784721772224 0 -0.005690420690052737 0.006329635917470878 0 -0.0058482945543378824 0.0061848970774961648 0 -0.005690420690052737 0.006329635917470878 0 -0.0058482945543378824 0.0061848970774961648 0 -0.0056035856066255245 0.0060703593095654609 0 -0.0058482945543378824 0.0061848970774961648 0 -0.0056035856066255245 0.0060703593095654609 0 -0.0057957983928542088 0.0056494956857492612 0 -0.0056035856066255245 0.0060703593095654609 0 -0.0057957983928542088 0.0056494956857492612 0 -0.0050368994802588571 0.0055150001303870431 0 -0.0058482945543378824 0.0061848970774961648 0 -0.0057957983928542088 0.0056494956857492612 0 -0.0061074501416134071 0.0058481179287314423 0 -0.0057957983928542088 0.0056494956857492612 0 -0.0061074501416134071 0.0058481179287314423 0 -0.0063148195373007449 0.0051657271128475388 0 -0.0057957983928542088 0.0056494956857492612 0 -0.0063148195373007449 0.0051657271128475388 0 -0.0057643980283702189 0.0050131988680107197 0 -0.0057957983928542088 0.0056494956857492612 0 -0.0057643980283702189 0.0050131988680107197 0 -0.0050368994802588571 0.0055150001303870431 0 -0.0061702462353151544 0.0061922741659003163 0 -0.0065609191369830422 0.0060850521064751686 0 -0.0065688846784111056 0.0056927482410226464 0 -0.006997279346334824 0.0058749188275495842 0 -0.0065609191369830422 0.0060850521064751686 0 -0.0065688846784111056 0.0056927482410226464 0 -0.0061702462353151544 0.0061922741659003163 0 -0.0061074501416134071 0.0058481179287314423 0 -0.0065688846784111056 0.0056927482410226464 0 -0.0061074501416134071 0.0058481179287314423 0 -0.0065688846784111056 0.0056927482410226464 0 -0.0063148195373007449 0.0051657271128475388 0 -0.0071053025649289248 0.0054579432528898556 0 -0.0065688846784111056 0.0056927482410226464 0 -0.0069191489053963854 0.0051085171314976894 0 -0.0065688846784111056 0.0056927482410226464 0 -0.0069191489053963854 0.0051085171314976894 0 -0.0063148195373007449 0.0051657271128475388 0 -0.0069191489053963854 0.0051085171314976894 0 -0.0063148195373007449 0.0051657271128475388 0 -0.0068377932087955503 0.0045142207761953409 0 -0.0063148195373007449 0.0051657271128475388 0 -0.0068377932087955503 0.0045142207761953409 0 -0.0062360020002609423 0.0044245887401841485 0 -0.0068377932087955503 0.0045142207761953409 0 -0.0073837700079525956 0.0038954555497851743 0 -0.0074775174790418656 0.0045577947115965087 0 -0.0069191489053963854 0.0051085171314976894 0 -0.0068377932087955503 0.0045142207761953409 0 -0.0074775174790418656 0.0045577947115965087 0 -0.0063148195373007449 0.0051657271128475388 0 -0.0057643980283702189 0.0050131988680107197 0 -0.0062360020002609423 0.0044245887401841485 0 -0.0057643980283702189 0.0050131988680107197 0 -0.0062360020002609423 0.0044245887401841485 0 -0.0053575511999681691 0.0042643914203480317 0 -0.006220493590414238 0.0036674162500913259 0 -0.0053575511999681691 0.0042643914203480317 0 -0.0061831558899253548 0.0027330599732281239 0 -0.0059068368192521387 0.0031170540982211558 0 -0.0060996947824781119 0.0028654795658729234 0 -0.0062360020002609423 0.0044245887401841485 0 -0.006220493590414238 0.0036674162500913259 0 -0.0053575511999681691 0.0042643914203480317 0 -0.0062360020002609423 0.0044245887401841485 0 -0.006220493590414238 0.0036674162500913259 0 -0.0067672524506795385 0.0038276377306732611 0 -0.006220493590414238 0.0036674162500913259 0 -0.0065841399372771562 0.0032061686550592002 0 -0.0061831558899253548 0.0027330599732281239 0 -0.0068377932087955503 0.0045142207761953409 0 -0.0067672524506795385 0.0038276377306732611 0 -0.0073837700079525956 0.0038954555497851743 0 -0.0068377932087955503 0.0045142207761953409 0 -0.0062360020002609423 0.0044245887401841485 0 -0.0067672524506795385 0.0038276377306732611 0 -0.0067672524506795385 0.0038276377306732611 0 -0.0065841399372771562 0.0032061686550592002 0 -0.007260186558680012 0.0031975785221314782 0 -0.006220493590414238 0.0036674162500913259 0 -0.0067672524506795385 0.0038276377306732611 0 -0.0065841399372771562 0.0032061686550592002 0 -0.0067672524506795385 0.0038276377306732611 0 -0.007260186558680012 0.0031975785221314782 0 -0.0073837700079525956 0.0038954555497851743 0 -0.0073837700079525956 0.0038954555497851743 0 -0.0079434566981134384 0.0040488569788101336 0 -0.007996572728327803 0.0031983950524075589 0 -0.007260186558680012 0.0031975785221314782 0 -0.0073837700079525956 0.0038954555497851743 0 -0.007996572728327803 0.0031983950524075589 0 -0.0073837700079525956 0.0038954555497851743 0 -0.0079434566981134384 0.0040488569788101336 0 -0.0074775174790418656 0.0045577947115965087 0 -0.0079434566981134384 0.0040488569788101336 0 -0.0086182392780343106 0.0039120057728195892 0 -0.0082201974624069637 0.0046332978069695266 0 -0.0079434566981134384 0.0040488569788101336 0 -0.007996572728327803 0.0031983950524075589 0 -0.0086182392780343106 0.0039120057728195892 0 -0.007996572728327803 0.0031983950524075589 0 -0.0092614594157620061 0.0032088740509994022 0 -0.0086182392780343106 0.0039120057728195892 0 -0.0092614594157620061 0.0032088740509994022 0 -0.0092242317736973677 0.0043060821579587703 0 -0.01002860803614816 0.0038476989233117232 0 -0.0092614594157620061 0.0032088740509994022 0 -0.0092242317736973677 0.0043060821579587703 0 -0.0086182392780343106 0.0039120057728195892 0 -0.0092242317736973677 0.0043060821579587703 0 -0.0086182392780343106 0.0039120057728195892 0 -0.0082201974624069637 0.0046332978069695266 0 -0.0092242317736973677 0.0043060821579587703 0 -0.0082201974624069637 0.0046332978069695266 0 -0.0087256585086785115 0.0051922682127091297 0 -0.0092242317736973677 0.0043060821579587703 0 -0.0087256585086785115 0.0051922682127091297 0 -0.0094753812253806462 0.0050363946233190323 0 -0.0087696741310620899 0.0057274780208455322 0 -0.0087256585086785115 0.0051922682127091297 0 -0.009241319157458178 0.0053645584240028079 0 -0.0087256585086785115 0.0051922682127091297 0 -0.009241319157458178 0.0053645584240028079 0 -0.0094753812253806462 0.0050363946233190323 0 -0.0082215335249990629 0.0055336258976650234 0 -0.0087256585086785115 0.0051922682127091297 0 -0.0080636546158456592 0.0052148137608410815 0 -0.0082201974624069637 0.0046332978069695266 0 -0.0087256585086785115 0.0051922682127091297 0 -0.0080636546158456592 0.0052148137608410815 0 -0.0076193707581305959 0.0056111813536574313 0 -0.0080636546158456592 0.0052148137608410815 0 -0.0075532456572691671 0.0051095711422573234 0 -0.0082201974624069637 0.0046332978069695266 0 -0.0080636546158456592 0.0052148137608410815 0 -0.0075532456572691671 0.0051095711422573234 0 -0.0069191489053963854 0.0051085171314976894 0 -0.0075532456572691671 0.0051095711422573234 0 -0.0074775174790418656 0.0045577947115965087 0 -0.0071053025649289248 0.0054579432528898556 0 -0.0069191489053963854 0.0051085171314976894 0 -0.0075532456572691671 0.0051095711422573234 0 -0.0079434566981134384 0.0040488569788101336 0 -0.0082201974624069637 0.0046332978069695266 0 -0.0074775174790418656 0.0045577947115965087 0 -0.0082201974624069637 0.0046332978069695266 0 -0.0075532456572691671 0.0051095711422573234 0 -0.0074775174790418656 0.0045577947115965087 0 -0.01342800279140006 -0.00071104415287377091 0 -0.01360651830796558 -0.00023966047231375857 0 -0.013694684836417151 -0.00084536129713005286 0 -0.013242743802185864 -0.0003336190440100409 0 -0.01342800279140006 -0.00071104415287377091 0 -0.01360651830796558 -0.00023966047231375857 0 -0.013242743802185864 -0.0003336190440100409 0 -0.01327074376887735 0.00013758900599596504 0 -0.01360651830796558 -0.00023966047231375857 0 -0.0082226857904164497 0.0028572827192113355 0 -0.0093541579486163678 0.002611677928492847 0 -0.0050262340454236736 0.005827498327341544 0 -0.0047248832216183947 0.0058458553236395844 0 -0.0050105250215349032 0.0054819703716763365 0 -0.0050105250215349032 0.0054819703716763365 0 -0.0055507837039777226 0.0053944317434000679 0 -0.0053605082264574482 0.005749685469205592 0 -0.0052343494365607287 0.0059514619595978299 0 -0.0050262340454236736 0.005827498327341544 0 -0.0053605082264574482 0.005749685469205592 0 -0.0050262340454236736 0.005827498327341544 0 -0.0050105250215349032 0.0054819703716763365 0 -0.0053605082264574482 0.005749685469205592 0 -0.0050105250215349032 0.0054819703716763365 0 -0.0053398980479239218 0.0050279232336598216 0 -0.0055507837039777226 0.0053944317434000679 0 -0.01360651830796558 -0.00023966047231375857 0 -0.013924609743476127 -0.00064486040674043195 0 -0.013694684836417151 -0.00084536129713005286 0 -0.0093541579486163678 0.002611677928492847 0 -0.0098687111519070985 0.0020732142891286658 0 -0.0057012254013005482 0.0049936926378702784 0 -0.0055507837039777226 0.0053944317434000679 0 -0.0061161787398014899 0.0050688699963884268 0 -0.0053398980479239218 0.0050279232336598216 0 -0.0057012254013005482 0.0049936926378702784 0 -0.0055507837039777226 0.0053944317434000679 0 -0.0055882289312494523 0.0061777304085571623 0 -0.0055578344173347139 0.0058210075242349476 0 -0.0059271265189112087 0.0055999561314861767 0 -0.0055507837039777226 0.0053944317434000679 0 -0.0053605082264574482 0.005749685469205592 0 -0.0055578344173347139 0.0058210075242349476 0 -0.0053801486387084286 0.0061023774024122415 0 -0.0053605082264574482 0.005749685469205592 0 -0.0055578344173347139 0.0058210075242349476 0 -0.0055507837039777226 0.0053944317434000679 0 -0.0055578344173347139 0.0058210075242349476 0 -0.0059271265189112087 0.0055999561314861767 0 -0.0056300666627883741 0.0060865380537081185 0 -0.0056774117170873559 0.0060061307248834425 0 -0.0056113640490329485 0.0062888165761457405 0 -0.005690420690052737 0.006329635917470878 0 -0.0055133214057202862 0.0061709377999393106 0 -0.005690420690052737 0.006329635917470878 0 -0.0056035856066255245 0.0060703593095654609 0 -0.0055133214057202862 0.0061709377999393106 0 -0.0057326345558307273 0.0060004208416938858 0 -0.0058477922218605977 0.0047424458416763324 0 -0.0055507837039777226 0.0053944317434000679 0 -0.0059271265189112087 0.0055999561314861767 0 -0.0061161787398014899 0.0050688699963884268 0 -0.0056774117170873559 0.0060061307248834425 0 -0.0058477922218605977 0.0047424458416763324 0 -0.0056035856066255245 0.0060703593095654609 0 -0.0055133214057202862 0.0061709377999393106 0 -0.005537242221053471 0.0059818882509697809 0 -0.0058477922218605977 0.0047424458416763324 0 -0.0077901262573464554 0.001595249358877349 0 -0.0057012254013005482 0.0049936926378702784 0 -0.0061161787398014899 0.0050688699963884268 0 -0.0057264823767318833 0.0045533170913601645 0 -0.0057643980283702189 0.0050131988680107197 0 -0.0050368994802588571 0.0055150001303870431 0 -0.0053575511999681691 0.0042643914203480317 0 -0.0064264916863232737 0.0020964714925594428 0 -0.006457062332812266 0.0022400706856364272 0 -0.0063390738878457463 0.002316662883282381 0 -0.0064264916863232737 0.0020964714925594428 0 -0.006457062332812266 0.0022400706856364272 0 -0.0066026958890664338 0.0022832219345289015 0 -0.0058477922218605977 0.0047424458416763324 0 -0.0059068368192521387 0.0031170540982211558 0 -0.006457062332812266 0.0022400706856364272 0 -0.0063390738878457463 0.002316662883282381 0 -0.006437504553005487 0.0024950630363566209 0 -0.006457062332812266 0.0022400706856364272 0 -0.006437504553005487 0.0024950630363566209 0 -0.0066026958890664338 0.0022832219345289015 0 -0.0063390738878457463 0.002316662883282381 0 -0.006437504553005487 0.0024950630363566209 0 -0.0061831558899253548 0.0027330599732281239 0 -0.006437504553005487 0.0024950630363566209 0 -0.006844004035606064 0.0021028931381745263 0 -0.0068152285565727571 0.0024896879996818854 0 -0.006437504553005487 0.0024950630363566209 0 -0.006844004035606064 0.0021028931381745263 0 -0.0068624828120454721 0.0019017616091364098 0 -0.0061561993412733596 0.0027191254538832688 0 -0.0077901262573464554 0.001595249358877349 0 -0.0068152285565727571 0.0024896879996818854 0 -0.0071256371866283584 0.0022206876747212973 0 -0.0076066012446936292 0.0027294831620772279 0 -0.006844004035606064 0.0021028931381745263 0 -0.0068152285565727571 0.0024896879996818854 0 -0.0071256371866283584 0.0022206876747212973 0 -0.006844004035606064 0.0021028931381745263 0 -0.0072199226237079656 0.0022660778346682373 0 -0.0068624828120454721 0.0019017616091364098 0 -0.010216889214881461 0.00065225711258496495 0 -0.0077901262573464554 0.001595249358877349 0 -0.0073705586723803087 0.0010090879279789149 0 -0.010216889214881461 0.00065225711258496495 0 -0.014049238826493459 -0.0012354226259870546 0 -0.014202665937417078 -0.0010128183247277592 0 -0.013925066874953932 -0.00098900663781843192 0 -0.013924609743476127 -0.00064486040674043195 0 -0.014202665937417078 -0.0010128183247277592 0 -0.013925066874953932 -0.00098900663781843192 0 -0.0053398980479239218 0.0050279232336598216 0 -0.0057012254013005482 0.0049936926378702784 0 -0.0057264823767318833 0.0045533170913601645 0 -0.0098687111519070985 0.0020732142891286658 0 -0.0077901262573464554 0.001595249358877349 0 -0.013924609743476127 -0.00064486040674043195 0 -0.013694684836417151 -0.00084536129713005286 0 -0.013925066874953932 -0.00098900663781843192 0 -0.013694684836417151 -0.00084536129713005286 0 -0.013925066874953932 -0.00098900663781843192 0 -0.013743771547791446 -0.0011865860009143147 0 -0.014049238826493459 -0.0012354226259870546 0 -0.013743771547791446 -0.0011865860009143147 0 -0.013551715694304826 -0.0016007532802655938 0 -0.014049238826493459 -0.0012354226259870546 0 -0.013925066874953932 -0.00098900663781843192 0 -0.013743771547791446 -0.0011865860009143147 0 -0.010216889214881461 0.00065225711258496495 0 -0.014371647732794408 -0.0019164021745105872 0 -0.010216889214881461 0.00065225711258496495 0 -0.012722465822884889 -0.0012923140688575628 0 -0.013743771547791446 -0.0011865860009143147 0 -0.013545233940309523 -0.0013470973813689104 0 -0.013551715694304826 -0.0016007532802655938 0 -0.013743771547791446 -0.0011865860009143147 0 -0.013545233940309523 -0.0013470973813689104 0 -0.013523449725520081 -0.0011196055438692609 0 -0.013545233940309523 -0.0013470973813689104 0 -0.013430656361747052 -0.0015188431535749817 0 -0.013422885624686628 -0.001325913583667519 0 -0.013545233940309523 -0.0013470973813689104 0 -0.013430656361747052 -0.0015188431535749817 0 -0.013551715694304826 -0.0016007532802655938 0 -0.013545233940309523 -0.0013470973813689104 0 -0.013422885624686628 -0.001325913583667519 0 -0.013523449725520081 -0.0011196055438692609 0 -0.013359863086964944 -0.0011858070955377076 0 -0.013422885624686628 -0.001325913583667519 0 -0.013523449725520081 -0.0011196055438692609 0 -0.013359863086964944 -0.0011858070955377076 0 -0.01332223115790291 -0.0010004304574121211 0 -0.013523449725520081 -0.0011196055438692609 0 -0.013694684836417151 -0.00084536129713005286 0 -0.013743771547791446 -0.0011865860009143147 0 -0.013523449725520081 -0.0011196055438692609 0 -0.01342800279140006 -0.00071104415287377091 0 -0.013694684836417151 -0.00084536129713005286 0 -0.013523449725520081 -0.0011196055438692609 0 -0.01327734461675241 -0.00080132247062786332 0 -0.01332223115790291 -0.0010004304574121211 0 -0.01342800279140006 -0.00071104415287377091 0 -0.01332223115790291 -0.0010004304574121211 0 -0.01342800279140006 -0.00071104415287377091 0 -0.013523449725520081 -0.0011196055438692609 0 -0.016089819284926633 -0.0035431755815136124 0 -0.015999112774307881 -0.0042231697413262674 0 -0.015148962936058425 -0.0045991044556807073 0 -0.016089819284926633 -0.0035431755815136124 0 -0.015589292013867198 -0.0037206880365320298 0 -0.01571168265218199 -0.0035754411017080373 0 -0.016089819284926633 -0.0035431755815136124 0 -0.01571168265218199 -0.0035754411017080373 0 -0.015606173764112573 -0.0034081632129700627 0 -0.016712346358380342 -0.0043957828473352098 0 -0.012722465822884889 -0.0012923140688575628 0 -0.0163650464063416 -0.0039019697243938595 0 -0.016089819284926633 -0.0035431755815136124 0 -0.015999112774307881 -0.0042231697413262674 0 -0.016578255860156339 -0.004363688298475425 0 -0.015999112774307881 -0.0042231697413262674 0 -0.015821126193466491 -0.0047230702295838357 0 -0.014855353624225461 -0.0031263611027880873 0 -0.014371647732794408 -0.0019164021745105872 0 -0.015999112774307881 -0.0042231697413262674 0 -0.015821126193466491 -0.0047230702295838357 0 -0.015148962936058425 -0.0045991044556807073 0 -0.013326625425660012 -0.0016328138773664283 0 -0.013430656361747052 -0.0015188431535749817 0 -0.013551715694304826 -0.0016007532802655938 0 -0.013117156328592379 -0.0015996983124914692 0 -0.014371647732794408 -0.0019164021745105872 0 -0.014371647732794408 -0.0019164021745105872 0 -0.012722465822884889 -0.0012923140688575628 0 -0.011543869769014581 -0.0012965771920240611 0 -0.013312435159367189 -0.00042940329550283999 0 -0.012414420094153267 -0.00026776196422352149 0 -0.015589292013867198 -0.0037206880365320298 0 -0.015520713502753497 -0.0035753721870231459 0 -0.01571168265218199 -0.0035754411017080373 0 -0.01571168265218199 -0.0035754411017080373 0 -0.01548626980560637 -0.0035322083576995451 0 -0.015606173764112573 -0.0034081632129700627 0 -0.015520713502753497 -0.0035753721870231459 0 -0.01571168265218199 -0.0035754411017080373 0 -0.01548626980560637 -0.0035322083576995451 0 -0.015444295533234469 -0.0035284635051686789 0 -0.01548626980560637 -0.0035322083576995451 0 -0.015433280441802226 -0.003406590049038676 0 -0.01548626980560637 -0.0035322083576995451 0 -0.015399378348663562 -0.0034057152748527926 0 -0.015433280441802226 -0.003406590049038676 0 -0.015520713502753497 -0.0035753721870231459 0 -0.01548626980560637 -0.0035322083576995451 0 -0.015399378348663562 -0.0034057152748527926 0 -0.015444295533234469 -0.0035284635051686789 0 -0.015433280441802226 -0.003406590049038676 0 -0.015447351874567056 -0.0035062963010773227 0 -0.015589292013867198 -0.0037206880365320298 0 -0.015520713502753497 -0.0035753721870231459 0 -0.015399378348663562 -0.0034057152748527926 0 -0.0068152285565727571 0.0024896879996818854 0 -0.0076066012446936292 0.0027294831620772279 0 -0.0066794345939751457 0.0028387093199293951 0 -0.012722465822884889 -0.0012923140688575628 0 -0.010826509485177809 -0.00018834065029322387 0 -0.0066794345939751457 0.0028387093199293951 0 -0.0061831558899253548 0.0027330599732281239 0 -0.0063190685005432489 0.0025076483794028242 0 -0.010826509485177809 -0.00018834065029322387 0 -0.011139582615331106 -0.00021484546638808171 0 -0.006437504553005487 0.0024950630363566209 0 -0.0066794345939751457 0.0028387093199293951 0 -0.0061831558899253548 0.0027330599732281239 0 -0.006437504553005487 0.0024950630363566209 0 -0.0068152285565727571 0.0024896879996818854 0 -0.0066794345939751457 0.0028387093199293951 0 -0.015433280441802226 -0.003406590049038676 0 -0.015595192629404333 -0.0033335708473988756 0 -0.01566601207774259 -0.0028770881405166498 0 -0.015399378348663562 -0.0034057152748527926 0 -0.015433280441802226 -0.003406590049038676 0 -0.01566601207774259 -0.0028770881405166498 0 -0.015433280441802226 -0.003406590049038676 0 -0.015447351874567056 -0.0035062963010773227 0 -0.015595192629404333 -0.0033335708473988756 0 -0.015518011623322113 -0.0036828164776398433 0 -0.015366795820914885 -0.0038348409451095192 0 -0.015756929005286923 -0.0039946474148089169 0 -0.015595192629404333 -0.0033335708473988756 0 -0.015518011623322113 -0.0036828164776398433 0 -0.015817580590874968 -0.0035919861772426478 0 -0.015447351874567056 -0.0035062963010773227 0 -0.015595192629404333 -0.0033335708473988756 0 -0.015518011623322113 -0.0036828164776398433 0 -0.015447351874567056 -0.0035062963010773227 0 -0.015518011623322113 -0.0036828164776398433 0 -0.015415807387248282 -0.0036158209395276159 0 -0.015518011623322113 -0.0036828164776398433 0 -0.015366795820914885 -0.0038348409451095192 0 -0.015415807387248282 -0.0036158209395276159 0 -0.022743789542452854 -0.0075121133801822953 0 -0.023669983909140598 -0.0082668217579994572 0 -0.020770206054765084 -0.0078115335857002512 0 -0.019489550932684452 -0.0060708178312355501 0 -0.018517176759889384 -0.0062626260731267862 0 -0.023281205506229453 -0.0070056507398763707 0 -0.022743789542452854 -0.0075121133801822953 0 -0.023823959016623087 -0.0077893256403243852 0 -0.022743789542452854 -0.0075121133801822953 0 -0.023823959016623087 -0.0077893256403243852 0 -0.023669983909140598 -0.0082668217579994572 0 -0.023281205506229453 -0.0070056507398763707 0 -0.024213904975157224 -0.0067889594516735447 0 -0.023823959016623087 -0.0077893256403243852 0 -0.023823959016623087 -0.0077893256403243852 0 -0.023669983909140598 -0.0082668217579994572 0 -0.024247000617161153 -0.007702357591714365 0 -0.024398069252088567 -0.0071844714378907753 0 -0.023823959016623087 -0.0077893256403243852 0 -0.024247000617161153 -0.007702357591714365 0 -0.023669983909140598 -0.0082668217579994572 0 -0.024247000617161153 -0.007702357591714365 0 -0.024462700580990707 -0.0082076147796211057 0 -0.015444295533234469 -0.0035284635051686789 0 -0.01548626980560637 -0.0035322083576995451 0 -0.015606173764112573 -0.0034081632129700627 0 -0.019489550932684452 -0.0060708178312355501 0 -0.020084895634541917 -0.0058324919800068755 0 -0.015444295533234469 -0.0035284635051686789 0 -0.015415807387248282 -0.0036158209395276159 0 -0.015606173764112573 -0.0034081632129700627 0 -0.015366795820914885 -0.0038348409451095192 0 -0.015415807387248282 -0.0036158209395276159 0 -0.015606173764112573 -0.0034081632129700627 0 -0.015444295533234469 -0.0035284635051686789 0 -0.015447351874567056 -0.0035062963010773227 0 -0.015415807387248282 -0.0036158209395276159 0 -0.024462700580990707 -0.0082076147796211057 0 -0.024657065710004186 -0.0076811461805628726 0 -0.025004332174832725 -0.008073482173883097 0 -0.024247000617161153 -0.007702357591714365 0 -0.024462700580990707 -0.0082076147796211057 0 -0.024657065710004186 -0.0076811461805628726 0 -0.024493078813666459 -0.0074929963921715245 0 -0.024247000617161153 -0.007702357591714365 0 -0.024657065710004186 -0.0076811461805628726 0 -0.024668473368793388 -0.0073883225985206828 0 -0.02494480204341816 -0.0074539357006876677 0 -0.024657065710004186 -0.0076811461805628726 0 -0.024493078813666459 -0.0074929963921715245 0 -0.024668473368793388 -0.0073883225985206828 0 -0.024657065710004186 -0.0076811461805628726 0 -0.024657065710004186 -0.0076811461805628726 0 -0.025035065405768626 -0.0077056852515975044 0 -0.025004332174832725 -0.008073482173883097 0 -0.02494480204341816 -0.0074539357006876677 0 -0.025035065405768626 -0.0077056852515975044 0 -0.025310054659325992 -0.0075104638464247014 0 -0.02494480204341816 -0.0074539357006876677 0 -0.024657065710004186 -0.0076811461805628726 0 -0.025035065405768626 -0.0077056852515975044 0 -0.025485043095419626 -0.0076878359217576239 0 -0.025310054659325992 -0.0075104638464247014 0 -0.025270893927473691 -0.0077995729201014415 0 -0.025035065405768626 -0.0077056852515975044 0 -0.025310054659325992 -0.0075104638464247014 0 -0.025270893927473691 -0.0077995729201014415 0 -0.025557441698207003 -0.0079653563716110352 0 -0.025270893927473691 -0.0077995729201014415 0 -0.025004332174832725 -0.008073482173883097 0 -0.025035065405768626 -0.0077056852515975044 0 -0.025270893927473691 -0.0077995729201014415 0 -0.025004332174832725 -0.008073482173883097 0 -0.025342671833030805 -0.0084685445588070195 0 -0.024462700580990707 -0.0082076147796211057 0 -0.025004332174832725 -0.008073482173883097 0 -0.025557441698207003 -0.0079653563716110352 0 -0.025342671833030805 -0.0084685445588070195 0 -0.025004332174832725 -0.008073482173883097 0 -0.016279345173468192 -0.0033971385397112241 0 -0.016089819284926633 -0.0035431755815136124 0 -0.015606173764112573 -0.0034081632129700627 0 -0.020652884828885869 -0.0059909142249203167 0 -0.020084895634541917 -0.0058324919800068755 0 -0.012462048656644008 -0.00035125369377099198 0 -0.014235307201725951 -0.00060668322393843345 0 -0.017052670132623831 -0.002481926982770066 0 -0.01703932729280231 -0.0038115203676752072 0 -0.018223812923880593 -0.0036054636053844597 0 -0.017052670132623831 -0.002481926982770066 0 -0.019126391033343824 -0.0025587879753824158 0 -0.018223812923880593 -0.0036054636053844597 0 -0.007996572728327803 0.0031983950524075589 0 -0.0092614594157620061 0.0032088740509994022 0 -0.0095177442728665105 0.0012849189760824396 0 -0.0092614594157620061 0.0032088740509994022 0 -0.0095177442728665105 0.0012849189760824396 0 -0.010494020009181058 0.0027286112058482613 0 -0.007260186558680012 0.0031975785221314782 0 -0.007996572728327803 0.0031983950524075589 0 -0.0077573838480732805 0.0018145064211022484 0 -0.007996572728327803 0.0031983950524075589 0 -0.0077573838480732805 0.0018145064211022484 0 -0.0095177442728665105 0.0012849189760824396 0 -0.007260186558680012 0.0031975785221314782 0 -0.0077573838480732805 0.0018145064211022484 0 -0.0068577268202797831 0.0027425236679888654 0 -0.0077573838480732805 0.0018145064211022484 0 -0.0068577268202797831 0.0027425236679888654 0 -0.0063190685005432489 0.0025076483794028242 0 -0.0065841399372771562 0.0032061686550592002 0 -0.007260186558680012 0.0031975785221314782 0 -0.0068577268202797831 0.0027425236679888654 0 -0.0065841399372771562 0.0032061686550592002 0 -0.0068577268202797831 0.0027425236679888654 0 -0.0061831558899253548 0.0027330599732281239 0 -0.0068577268202797831 0.0027425236679888654 0 -0.0061831558899253548 0.0027330599732281239 0 -0.0063190685005432489 0.0025076483794028242 0 -0.015595192629404333 -0.0033335708473988756 0 -0.01566601207774259 -0.0028770881405166498 0 -0.015829668042859891 -0.0032071681237317881 0 -0.01566601207774259 -0.0028770881405166498 0 -0.015829668042859891 -0.0032071681237317881 0 -0.016273550148602926 -0.0031858858908194584 0 -0.015829668042859891 -0.0032071681237317881 0 -0.016273550148602926 -0.0031858858908194584 0 -0.015817580590874968 -0.0035919861772426478 0 -0.015595192629404333 -0.0033335708473988756 0 -0.015829668042859891 -0.0032071681237317881 0 -0.015817580590874968 -0.0035919861772426478 0 -0.017052670132623831 -0.002481926982770066 0 -0.01566601207774259 -0.0028770881405166498 0 -0.016273550148602926 -0.0031858858908194584 0 -0.017052670132623831 -0.002481926982770066 0 -0.016273550148602926 -0.0031858858908194584 0 -0.01703932729280231 -0.0038115203676752072 0 -0.012462048656644008 -0.00035125369377099198 0 -0.011139582615331106 -0.00021484546638808171 0 -0.016273550148602926 -0.0031858858908194584 0 -0.01703932729280231 -0.0038115203676752072 0 -0.016274940817951423 -0.0040174456849941488 0 -0.01703932729280231 -0.0038115203676752072 0 -0.016274940817951423 -0.0040174456849941488 0 -0.017134750999251939 -0.0045890744346504019 0 -0.01703932729280231 -0.0038115203676752072 0 -0.017134750999251939 -0.0045890744346504019 0 -0.018151211155626484 -0.0046397097606602142 0 -0.016273550148602926 -0.0031858858908194584 0 -0.015817580590874968 -0.0035919861772426478 0 -0.016274940817951423 -0.0040174456849941488 0 -0.015518011623322113 -0.0036828164776398433 0 -0.015817580590874968 -0.0035919861772426478 0 -0.015756929005286923 -0.0039946474148089169 0 -0.015817580590874968 -0.0035919861772426478 0 -0.016274940817951423 -0.0040174456849941488 0 -0.015756929005286923 -0.0039946474148089169 0 -0.022119043922165512 -0.0069804942078949359 0 -0.022743789542452854 -0.0075121133801822953 0 -0.020770206054765084 -0.0078115335857002512 0 -0.015366795820914885 -0.0038348409451095192 0 -0.015756929005286923 -0.0039946474148089169 0 -0.01607371357145548 -0.0048480982478677805 0 -0.016274940817951423 -0.0040174456849941488 0 -0.015756929005286923 -0.0039946474148089169 0 -0.01607371357145548 -0.0048480982478677805 0 -0.018436570523730392 -0.0060797301065006809 0 -0.018517176759889384 -0.0062626260731267862 0 -0.018386193589364629 -0.0059830407164816598 0 -0.01607371357145548 -0.0048480982478677805 0 -0.017134750999251939 -0.0045890744346504019 0 -0.016274940817951423 -0.0040174456849941488 0 -0.01607371357145548 -0.0048480982478677805 0 -0.017134750999251939 -0.0045890744346504019 0 -0.018386193589364629 -0.0059830407164816598 0 -0.018151211155626484 -0.0046397097606602142 0 -0.019095184159804674 -0.0055798868432619039 0 -0.018386193589364629 -0.0059830407164816598 0 -0.017134750999251939 -0.0045890744346504019 0 -0.018151211155626484 -0.0046397097606602142 0 -0.018151211155626484 -0.0046397097606602142 0 -0.018223812923880593 -0.0036054636053844597 0 -0.019422830204688876 -0.0044765818817835597 0 -0.01703932729280231 -0.0038115203676752072 0 -0.018151211155626484 -0.0046397097606602142 0 -0.018223812923880593 -0.0036054636053844597 0 -0.019126391033343824 -0.0025587879753824158 0 -0.018223812923880593 -0.0036054636053844597 0 -0.019422830204688876 -0.0044765818817835597 0 -0.020307259515586804 -0.0059344678838811641 0 -0.019422830204688876 -0.0044765818817835597 0 -0.019095184159804674 -0.0055798868432619039 0 -0.018151211155626484 -0.0046397097606602142 0 -0.019422830204688876 -0.0044765818817835597 0 -0.019095184159804674 -0.0055798868432619039 0 -0.020307259515586804 -0.0059344678838811641 0 -0.021704443964699033 -0.0056756199112708476 0 -0.020733279415558234 -0.0041167069580213813 0 -0.020307259515586804 -0.0059344678838811641 0 -0.019422830204688876 -0.0044765818817835597 0 -0.020733279415558234 -0.0041167069580213813 0 -0.021704443964699033 -0.0056756199112708476 0 -0.02209899358084871 -0.0044740198846675485 0 -0.020733279415558234 -0.0041167069580213813 0 -0.023019464547239125 -0.0044056225141991682 0 -0.016857054315574455 -0.0012195075173375809 0 -0.022669643170976552 -0.0036257980051920802 0 -0.021475223828962872 -0.0013395174277971891 0 -0.024346007884170004 -0.0018595487667473272 0 -0.02209899358084871 -0.0044740198846675485 0 -0.020733279415558234 -0.0041167069580213813 0 -0.021077937687308448 -0.002796029749186781 0 -0.019126391033343824 -0.0025587879753824158 0 -0.019422830204688876 -0.0044765818817835597 0 -0.020733279415558234 -0.0041167069580213813 0 -0.019126391033343824 -0.0025587879753824158 0 -0.020733279415558234 -0.0041167069580213813 0 -0.021077937687308448 -0.002796029749186781 0 -0.016857054315574455 -0.0012195075173375809 0 -0.0093162809875330845 0.0032193640287272317 0 -0.0095177442728665105 0.0012849189760824396 0 -0.011670673743574523 0.00084111737128425199 0 -0.010494020009181058 0.0027286112058482613 0 -0.014235307201725951 -0.00060668322393843345 0 -0.016857054315574455 -0.0012195075173375809 0 -0.012214826847569258 -0.0016279338752626523 0 -0.015291304975929511 0.00039265599662735779 0 -0.012825060911808042 0.0020793029469441484 0 -0.015291304975929511 0.00039265599662735779 0 -0.012825060911808042 0.0020793029469441484 0 -0.01411150737225737 0.0029487898744021534 0 -0.012825060911808042 0.0020793029469441484 0 -0.01411150737225737 0.0029487898744021534 0 -0.013527919549515372 0.0034955390574523716 0 -0.01411150737225737 0.0029487898744021534 0 -0.013527919549515372 0.0034955390574523716 0 -0.014148995522717336 0.0038429893050106485 0 -0.012825060911808042 0.0020793029469441484 0 -0.013527919549515372 0.0034955390574523716 0 -0.011971840321958962 0.003170006252507017 0 -0.012214826847569258 -0.0016279338752626523 0 -0.012825060911808042 0.0020793029469441484 0 -0.010494020009181058 0.0027286112058482613 0 -0.012825060911808042 0.0020793029469441484 0 -0.011971840321958962 0.003170006252507017 0 -0.010494020009181058 0.0027286112058482613 0 -0.020679802250413114 0.0048805282565975378 0 -0.018318790157274778 0.0010657851084996792 0 -0.023332753353040428 0.00072778523205961393 0 -0.020679802250413114 0.0048805282565975378 0 -0.023332753353040428 0.00072778523205961393 0 -0.025758399264261864 0.0029262891177625765 0 -0.014494872284882152 0.0030744939338251498 0 -0.018128844460261671 0.0042214691413955605 0 -0.01411150737225737 0.0029487898744021534 0 -0.020679802250413114 0.0048805282565975378 0 -0.018318790157274778 0.0010657851084996792 0 -0.01411150737225737 0.0029487898744021534 0 -0.016088655823731365 0.0034526748851957962 0 -0.014917827901313439 0.0040896098686350737 0 -0.015291304975929511 0.00039265599662735779 0 -0.01411150737225737 0.0029487898744021534 0 -0.018318790157274778 0.0010657851084996792 0 -0.015291304975929511 0.00039265599662735779 0 -0.018318790157274778 0.0010657851084996792 0 -0.019322936160062497 -0.0027925576031092719 0 -0.016857054315574455 -0.0012195075173375809 0 -0.021860353244163244 -0.0022881361994894597 0 -0.012214826847569258 -0.0016279338752626523 0 -0.015291304975929511 0.00039265599662735779 0 -0.019322936160062497 -0.0027925576031092719 0 -0.023332753353040428 0.00072778523205961393 0 -0.019322936160062497 -0.0027925576031092719 0 -0.026820376748022786 -0.0023872471955660459 0 -0.018318790157274778 0.0010657851084996792 0 -0.023332753353040428 0.00072778523205961393 0 -0.019322936160062497 -0.0027925576031092719 0 -0.024346007884170004 -0.0018595487667473272 0 -0.025446373232723096 -0.0041449576568795303 0 -0.026820376748022786 -0.0023872471955660459 0 -0.021860353244163244 -0.0022881361994894597 0 -0.026469709313725803 -0.0024603235571623769 0 -0.022669643170976552 -0.0036257980051920802 0 -0.024346007884170004 -0.0018595487667473272 0 -0.025446373232723096 -0.0041449576568795303 0 -0.023477317615040228 -0.0059610461622056554 0 -0.023019464547239125 -0.0044056225141991682 0 -0.023798038630035243 -0.0059235356176485943 0 -0.022669643170976552 -0.0036257980051920802 0 -0.025446373232723096 -0.0041449576568795303 0 -0.025446373232723096 -0.0041449576568795303 0 -0.028039104571144259 -0.0041126782955566588 0 -0.026820376748022786 -0.0023872471955660459 0 -0.027365899298589225 -0.0057641723668153911 0 -0.025446373232723096 -0.0041449576568795303 0 -0.028039104571144259 -0.0041126782955566588 0 -0.026820376748022786 -0.0023872471955660459 0 -0.030106120344579046 -0.0030616155171433101 0 -0.029531537595402311 -0.00065929853150991128 0 -0.028039104571144259 -0.0041126782955566588 0 -0.026820376748022786 -0.0023872471955660459 0 -0.030106120344579046 -0.0030616155171433101 0 -0.03379409225674871 -0.0040997256261326928 0 -0.032888936225103478 -0.0045974975842193733 0 -0.032612722488090308 -0.0032669034410260657 0 -0.031179834512552292 -0.0048806022598881582 0 -0.032888936225103478 -0.0045974975842193733 0 -0.032612722488090308 -0.0032669034410260657 0 -0.031179834512552292 -0.0048806022598881582 0 -0.028039104571144259 -0.0041126782955566588 0 -0.030106120344579046 -0.0030616155171433101 0 -0.031179834512552292 -0.0048806022598881582 0 -0.032612722488090308 -0.0032669034410260657 0 -0.030106120344579046 -0.0030616155171433101 0 -0.032612722488090308 -0.0032669034410260657 0 -0.031585544224373499 -0.0012993721571178017 0 -0.030106120344579046 -0.0030616155171433101 0 -0.031585544224373499 -0.0012993721571178017 0 -0.030106120344579046 -0.0030616155171433101 0 -0.029531537595402311 -0.00065929853150991128 0 -0.03393200985235769 -0.001496151854358464 0 -0.032612722488090308 -0.0032669034410260657 0 -0.031585544224373499 -0.0012993721571178017 0 -0.033415828703225944 -0.00061151518250946954 0 -0.032182863043011961 -0.0014346933459459974 0 -0.034810333182386924 -0.0015068787240979397 0 -0.031585544224373499 -0.0012993721571178017 0 -0.031911339349938977 0.00099763450858179957 0 -0.034810333182386924 -0.0015068787240979397 0 -0.031911339349938977 0.00099763450858179957 0 -0.034036068875036615 0.0021905439138213195 0 -0.031585544224373499 -0.0012993721571178017 0 -0.031911339349938977 0.00099763450858179957 0 -0.029531537595402311 -0.00065929853150991128 0 -0.031911339349938977 0.00099763450858179957 0 -0.02979456408211343 0.0022454494092819803 0 -0.029531537595402311 -0.00065929853150991128 0 -0.031911339349938977 0.00099763450858179957 0 -0.02979456408211343 0.0022454494092819803 0 -0.031960013384544857 0.0037074000450256521 0 -0.02979456408211343 0.0022454494092819803 0 -0.031960013384544857 0.0037074000450256521 0 -0.029884007842871155 0.0053135502424944293 0 -0.031911339349938977 0.00099763450858179957 0 -0.031960013384544857 0.0037074000450256521 0 -0.034036068875036615 0.0021905439138213195 0 -0.023332753353040428 0.00072778523205961393 0 -0.026820376748022786 -0.0023872471955660459 0 -0.027356164005410195 0.00093804757205658343 0 -0.026820376748022786 -0.0023872471955660459 0 -0.029531537595402311 -0.00065929853150991128 0 -0.027356164005410195 0.00093804757205658343 0 -0.02979456408211343 0.0022454494092819803 0 -0.029531537595402311 -0.00065929853150991128 0 -0.027356164005410195 0.00093804757205658343 0 -0.02979456408211343 0.0022454494092819803 0 -0.028048988480296147 0.0032716254611902828 0 -0.029884007842871155 0.0053135502424944293 0 -0.027356164005410195 0.00093804757205658343 0 -0.028048988480296147 0.0032716254611902828 0 -0.025758399264261864 0.0029262891177625765 0 -0.02979456408211343 0.0022454494092819803 0 -0.027356164005410195 0.00093804757205658343 0 -0.028048988480296147 0.0032716254611902828 0 -0.020679802250413114 0.0048805282565975378 0 -0.025758399264261864 0.0029262891177625765 0 -0.026479708676788227 0.0059668075822994363 0 -0.028048988480296147 0.0032716254611902828 0 -0.025758399264261864 0.0029262891177625765 0 -0.026370582463903988 0.0047743296932913782 0 -0.025502578367844555 0.0040067222782737243 0 -0.023534896415470463 0.0035370801234873976 0 -0.023332753353040428 0.00072778523205961393 0 -0.027356164005410195 0.00093804757205658343 0 -0.025758399264261864 0.0029262891177625765 0 -0.018128844460261671 0.0042214691413955605 0 -0.023534896415470463 0.0035370801234873976 0 -0.018396363016543151 0.0038970711829288528 0 -0.01761966915407133 0.0053085997615929578 0 -0.016689969110629865 0.0046714525992504509 0 -0.028048988480296147 0.0032716254611902828 0 -0.026370582463903988 0.0047743296932913782 0 -0.029884007842871155 0.0053135502424944293 0 -0.023534896415470463 0.0035370801234873976 0 -0.027230546694159113 0.0036755411803748293 0 -0.023407795982255043 0.0015536720625241975 0 -0.023922679568946944 0.0022567352353107741 0 -0.024324326528126116 0.0017185989536765206 0 -0.023922679568946944 0.0022567352353107741 0 -0.023625735002697764 0.0025427984540811722 0 -0.024307936690505912 0.0028003386828042145 0 -0.023407795982255043 0.0015536720625241975 0 -0.023922679568946944 0.0022567352353107741 0 -0.023634430888112408 0.0025524803844405933 0 -0.023585743986003303 0.0018416215716524755 0 -0.020727263836571308 0.0038141555911391629 0 -0.018943285813691861 0.0062055211742635084 0 -0.017299177994224146 0.006380324231655082 0 -0.01761966915407133 0.0053085997615929578 0 -0.023534896415470463 0.0035370801234873976 0 -0.020727263836571308 0.0038141555911391629 0 -0.018396363016543151 0.0038970711829288528 0 -0.018943285813691861 0.0062055211742635084 0 -0.01761966915407133 0.0053085997615929578 0 -0.031458147289175946 5.1695531700263386e-05 0 -0.031358660216540317 -5.1404808178375911e-05 0 -0.031431648096395072 8.1553267233187181e-05 0 -0.032868405238084882 0.0012307093873005785 0 -0.030116173063625129 0.0016507523729727797 0 -0.031960013384544857 0.0037074000450256521 0 -0.034036068875036615 0.0021905439138213195 0 -0.033216654142874683 0.0059171289143636879 0 -0.031458147289175946 5.1695531700263386e-05 0 -0.031467741206537198 7.0530582655365759e-05 0 -0.031431648096395072 8.1553267233187181e-05 0 -0.030976122613762928 0.0012538371315544228 0 -0.030116173063625129 0.0016507523729727797 0 -0.031960013384544857 0.0037074000450256521 0 -0.033216654142874683 0.0059171289143636879 0 -0.029884007842871155 0.0053135502424944293 0 -0.030116173063625129 0.0016507523729727797 0 -0.027230546694159113 0.0036755411803748293 0 -0.025274118580610849 0.0018907838693965023 0 -0.024324326528126116 0.0017185989536765206 0 -0.024571656874274588 0.0022920725484962268 0 -0.024571656874274588 0.0022920725484962268 0 -0.025056066217767507 0.0026981165809502601 0 -0.024307936690505912 0.0028003386828042145 0 -0.023922679568946944 0.0022567352353107741 0 -0.024324326528126116 0.0017185989536765206 0 -0.024571656874274588 0.0022920725484962268 0 -0.023922679568946944 0.0022567352353107741 0 -0.024571656874274588 0.0022920725484962268 0 -0.024307936690505912 0.0028003386828042145 0 -0.031467741206537198 7.0530582655365759e-05 0 -0.031482133038379462 7.8173388034896924e-05 0 -0.031491803038306516 1.0590431475656125e-05 0 -0.031511170532244878 2.714384976413077e-05 0 -0.031467741206537198 7.0530582655365759e-05 0 -0.031491803038306516 1.0590431475656125e-05 0 -0.025274118580610849 0.0018907838693965023 0 -0.024571656874274588 0.0022920725484962268 0 -0.025056066217767507 0.0026981165809502601 0 -0.030116173063625129 0.0016507523729727797 0 -0.028373271969581299 0.00130842688728173 0 -0.028373271969581299 0.00130842688728173 0 -0.02395199002029344 0.00091721369363351537 0 -0.031521626077940415 -9.8869877812911137e-05 0 -0.031491803038306516 1.0590431475656125e-05 0 -0.031435876340250142 -2.7024951500005895e-06 0 -0.025056066217767507 0.0026981165809502601 0 -0.024307936690505912 0.0028003386828042145 0 -0.024843984270884335 0.003496470880042523 0 -0.024307936690505912 0.0028003386828042145 0 -0.024843984270884335 0.003496470880042523 0 -0.023836709367124186 0.0035221115492911135 0 -0.016641197983684186 0.0011609212342256453 0 -0.017681711272014792 0.00025801034539238118 0 -0.015656408845869142 0.00030891383004673009 0 -0.02395199002029344 0.00091721369363351537 0 -0.018002594338498264 0.0024404954492141017 0 -0.027334783643834067 -0.00023507961748869463 0 -0.02395199002029344 0.00091721369363351537 0 -0.021941203425233546 -9.6481270317038339e-05 0 -0.02200464715626281 -0.00028541318910577378 0 -0.022049665919120873 -0.00023908951735512052 0 -0.018943285813691861 0.0062055211742635084 0 -0.017299177994224146 0.006380324231655082 0 -0.017806137959045149 0.0073759207154968946 0 -0.017102844625954173 0.005799862076610888 0 -0.014501268853648563 0.0042454117490366922 0 -0.020727263836571308 0.0038141555911391629 0 -0.017102844625954173 0.005799862076610888 0 -0.017880138326265369 0.002767667641413511 0 -0.016982604483226287 0.0036795176025671388 0 -0.018298873076398509 0.0045382775208948779 0 -0.020727263836571308 0.0038141555911391629 0 -0.018002594338498264 0.0024404954492141017 0 -0.023625735002697764 0.0025427984540811722 0 -0.024307936690505912 0.0028003386828042145 0 -0.023836709367124186 0.0035221115492911135 0 -0.016039313792466536 0.0021403778763690027 0 -0.016641197983684186 0.0011609212342256453 0 -0.015656408845869142 0.00030891383004673009 0 -0.015527425993531416 0.0010721322186428009 0 -0.018002594338498264 0.0024404954492141017 0 -0.018002594338498264 0.0024404954492141017 0 -0.014501268853648563 0.0042454117490366922 0 -0.014686698983675703 0.0015993038861866504 0 -0.015585395418207817 0.00030926741522679441 0 -0.013018905055924831 0.00037530202747456922 0 -0.016982604483226287 0.0036795176025671388 0 -0.018298873076398509 0.0045382775208948779 0 -0.016086294347029708 0.0045957104053816035 0 -0.014501268853648563 0.0042454117490366922 0 -0.010940090155542596 0.0072037222221598592 0 -0.016662116454779864 0.0085474667141852718 0 -0.016071352587879929 0.0071652218840692235 0 -0.0147985175058492 0.0086063910421689954 0 -0.011001704857705425 0.0059609083857303348 0 -0.011899447298535426 0.0050370508489500773 0 -0.010050543039158857 0.0050940996227796052 0 -0.007205451826532947 0.00404847554720525 0 -0.014501268853648563 0.0042454117490366922 0 -0.017299177994224146 0.006380324231655082 0 -0.017806137959045149 0.0073759207154968946 0 -0.016071352587879929 0.0071652218840692235 0 -0.017806137959045149 0.0073759207154968946 0 -0.016662116454779864 0.0085474667141852718 0 -0.016071352587879929 0.0071652218840692235 0 -0.017299177994224146 0.006380324231655082 0 -0.016071352587879929 0.0071652218840692235 0 -0.016207862209117789 0.0060979563003987899 0 -0.016071352587879929 0.0071652218840692235 0 -0.014645175330111424 0.0070071232492714053 0 -0.0147985175058492 0.0086063910421689954 0 -0.014645175330111424 0.0070071232492714053 0 -0.0147985175058492 0.0086063910421689954 0 -0.013939798461521963 0.0068530288363812314 0 -0.014645175330111424 0.0070071232492714053 0 -0.013939798461521963 0.0068530288363812314 0 -0.014175929836304273 0.0061774426777627791 0 -0.016071352587879929 0.0071652218840692235 0 -0.014645175330111424 0.0070071232492714053 0 -0.015160801520869157 0.0061456099738872241 0 -0.0033142129018335527 0.0072019223093444463 0 -0.0034778285650210266 0.007177360733345994 0 -0.0034141302038305146 0.0071272619277984103 0 -0.007205451826532947 0.00404847554720525 0 -0.010940090155542596 0.0072037222221598592 0 -0.013922711523194934 0.0079909136870053576 0 -0.012752261957893378 0.0080205991918340172 0 -0.012791855209489953 0.0074313044827599159 0 -0.0033142129018335527 0.0072019223093444463 0 -0.0034141302038305146 0.0071272619277984103 0 -0.0032845050685902494 0.0071781566698365896 0 -0.010940090155542596 0.0072037222221598592 0 -0.0075286710633696539 0.0076288799803931233 0 -0.012752261957893378 0.0080205991918340172 0 -0.012093729850721624 0.007425856921849514 0 -0.012791855209489953 0.0074313044827599159 0 -0.0075286710633696539 0.0076288799803931233 0 -0.0077752410293860756 0.0075007271178135337 0 -0.012752261957893378 0.0080205991918340172 0 -0.011390923672914914 0.0081174079328244497 0 -0.012093729850721624 0.007425856921849514 0 -0.0032037428690518733 0.0072643390141706671 0 -0.0032845050685902494 0.0071781566698365896 0 -0.003236159960132547 0.0072473640128131386 0 -0.0084824544596476901 0.0067267412172199561 0 -0.0091259263830429926 0.0059293524962183708 0 -0.010468480738485917 0.0054199560811874284 0 -0.0077752410293860756 0.0075007271178135337 0 -0.011862116184520285 0.0055769132123887205 0 -0.011390923672914914 0.0081174079328244497 0 -0.012093729850721624 0.007425856921849514 0 -0.012355590975622166 0.0061203487862585447 0 -0.012093729850721624 0.007425856921849514 0 -0.012478925190661658 0.0069681176593102559 0 -0.012355590975622166 0.0061203487862585447 0 -0.0084095813804948936 0.0061993792974753392 0 -0.0084824544596476901 0.0067267412172199561 0 -0.0091259263830429926 0.0059293524962183708 0 -0.012093729850721624 0.007425856921849514 0 -0.012478925190661658 0.0069681176593102559 0 -0.012791855209489953 0.0074313044827599159 0 -0.012478925190661658 0.0069681176593102559 0 -0.012654844737752587 0.0066445817007877274 0 -0.012355590975622166 0.0061203487862585447 0 -0.0094986799514770667 0.0055894930694603993 0 -0.0091259263830429926 0.0059293524962183708 0 -0.010468480738485917 0.0054199560811874284 0 -0.0087696741310620899 0.0057274780208455322 0 -0.0094986799514770667 0.0055894930694603993 0 -0.009241319157458178 0.0053645584240028079 0 -0.0087696741310620899 0.0057274780208455322 0 -0.0094986799514770667 0.0055894930694603993 0 -0.0091259263830429926 0.0059293524962183708 0 -0.010940090155542596 0.0072037222221598592 0 -0.014047306099453521 0.0073696023506463291 0 -0.013922711523194934 0.0079909136870053576 0 -0.012791855209489953 0.0074313044827599159 0 -0.012654844737752587 0.0066445817007877274 0 -0.0147985175058492 0.0086063910421689954 0 -0.012654844737752587 0.0066445817007877274 0 -0.013939798461521963 0.0068530288363812314 0 -0.012478925190661658 0.0069681176593102559 0 -0.012791855209489953 0.0074313044827599159 0 -0.012654844737752587 0.0066445817007877274 0 -0.013939798461521963 0.0068530288363812314 0 -0.013489127629102602 0.0059084637177356653 0 -0.014175929836304273 0.0061774426777627791 0 -0.013489127629102602 0.0059084637177356653 0 -0.014175929836304273 0.0061774426777627791 0 -0.014419297040411833 0.005339921373416932 0 -0.012654844737752587 0.0066445817007877274 0 -0.013939798461521963 0.0068530288363812314 0 -0.013489127629102602 0.0059084637177356653 0 -0.012654844737752587 0.0066445817007877274 0 -0.013489127629102602 0.0059084637177356653 0 -0.012355590975622166 0.0061203487862585447 0 -0.013489127629102602 0.0059084637177356653 0 -0.012355590975622166 0.0061203487862585447 0 -0.013822998169652203 0.0048122880851920692 0 -0.013489127629102602 0.0059084637177356653 0 -0.013822998169652203 0.0048122880851920692 0 -0.014419297040411833 0.005339921373416932 0 -0.010468480738485917 0.0054199560811874284 0 -0.010135127663581607 0.0047676455588266976 0 -0.011182309619119611 0.0041835853024435286 0 -0.009241319157458178 0.0053645584240028079 0 -0.0097538068454118242 0.005264674812327323 0 -0.0094753812253806462 0.0050363946233190323 0 -0.0094986799514770667 0.0055894930694603993 0 -0.009241319157458178 0.0053645584240028079 0 -0.0097538068454118242 0.005264674812327323 0 -0.0094986799514770667 0.0055894930694603993 0 -0.0097538068454118242 0.005264674812327323 0 -0.010468480738485917 0.0054199560811874284 0 -0.0097538068454118242 0.005264674812327323 0 -0.010468480738485917 0.0054199560811874284 0 -0.010135127663581607 0.0047676455588266976 0 -0.0092242317736973677 0.0043060821579587703 0 -0.010135127663581607 0.0047676455588266976 0 -0.0094753812253806462 0.0050363946233190323 0 -0.0097538068454118242 0.005264674812327323 0 -0.010135127663581607 0.0047676455588266976 0 -0.0094753812253806462 0.0050363946233190323 0 -0.0092242317736973677 0.0043060821579587703 0 -0.010135127663581607 0.0047676455588266976 0 -0.01002860803614816 0.0038476989233117232 0 -0.010135127663581607 0.0047676455588266976 0 -0.011182309619119611 0.0041835853024435286 0 -0.01002860803614816 0.0038476989233117232 0 -0.011971840321958962 0.003170006252507017 0 -0.010494020009181058 0.0027286112058482613 0 -0.011182309619119611 0.0041835853024435286 0 -0.010494020009181058 0.0027286112058482613 0 -0.011182309619119611 0.0041835853024435286 0 -0.01002860803614816 0.0038476989233117232 0 -0.0092614594157620061 0.0032088740509994022 0 -0.010494020009181058 0.0027286112058482613 0 -0.01002860803614816 0.0038476989233117232 0 -0.013527919549515372 0.0034955390574523716 0 -0.012355590975622166 0.0061203487862585447 0 -0.013822998169652203 0.0048122880851920692 0 -0.013249863964085716 0.0035420063135421505 0 -0.011862116184520285 0.0055769132123887205 0 -0.013527919549515372 0.0034955390574523716 0 -0.010468480738485917 0.0054199560811874284 0 -0.011182309619119611 0.0041835853024435286 0 -0.013527919549515372 0.0034955390574523716 0 -0.011971840321958962 0.003170006252507017 0 -0.011182309619119611 0.0041835853024435286 0 -0.013527919549515372 0.0034955390574523716 0 -0.013822998169652203 0.0048122880851920692 0 -0.014148995522717336 0.0038429893050106485 0 -0.013822998169652203 0.0048122880851920692 0 -0.014148995522717336 0.0038429893050106485 0 -0.014917827901313439 0.0040896098686350737 0 -0.01411150737225737 0.0029487898744021534 0 -0.014148995522717336 0.0038429893050106485 0 -0.014917827901313439 0.0040896098686350737 0 -0.016088655823731365 0.0034526748851957962 0 -0.014917827901313439 0.0040896098686350737 0 -0.015505869044147084 0.0051197498206696527 0 -0.013822998169652203 0.0048122880851920692 0 -0.014917827901313439 0.0040896098686350737 0 -0.014419297040411833 0.005339921373416932 0 -0.014917827901313439 0.0040896098686350737 0 -0.014419297040411833 0.005339921373416932 0 -0.015505869044147084 0.0051197498206696527 0 -0.016088655823731365 0.0034526748851957962 0 -0.018396363016543151 0.0038970711829288528 0 -0.016689969110629865 0.0046714525992504509 0 -0.016088655823731365 0.0034526748851957962 0 -0.016689969110629865 0.0046714525992504509 0 -0.015505869044147084 0.0051197498206696527 0 -0.016689969110629865 0.0046714525992504509 0 -0.016207862209117789 0.0060979563003987899 0 -0.015505869044147084 0.0051197498206696527 0 -0.01761966915407133 0.0053085997615929578 0 -0.016689969110629865 0.0046714525992504509 0 -0.016207862209117789 0.0060979563003987899 0 -0.017299177994224146 0.006380324231655082 0 -0.01761966915407133 0.0053085997615929578 0 -0.016207862209117789 0.0060979563003987899 0 -0.016071352587879929 0.0071652218840692235 0 -0.016207862209117789 0.0060979563003987899 0 -0.015160801520869157 0.0061456099738872241 0 -0.016207862209117789 0.0060979563003987899 0 -0.015160801520869157 0.0061456099738872241 0 -0.015505869044147084 0.0051197498206696527 0 -0.015160801520869157 0.0061456099738872241 0 -0.014175929836304273 0.0061774426777627791 0 -0.014419297040411833 0.005339921373416932 0 -0.014645175330111424 0.0070071232492714053 0 -0.015160801520869157 0.0061456099738872241 0 -0.014175929836304273 0.0061774426777627791 0 -0.015160801520869157 0.0061456099738872241 0 -0.014419297040411833 0.005339921373416932 0 -0.015505869044147084 0.0051197498206696527 0 
</DataArray>
</PointData>
<CellData Scalars="region_id,cross_section_updated," Vectors="" Tensors="stress,">
<DataArray type="Float64" Name="region_id" format="ascii">
5 5 5 5 5 5 6 5 5 5 6 5 5 5 6 5 5 5 5 5 5 6 6 5 5 5 5 6 6 5 6 6 5 6 5 5 5 6 5 5 6 5 5 5 5 5 5 5 6 5 5 5 5 5 5 5 5 6 5 5 6 5 6 5 6 5 6 5 5 5 5 5 5 5 5 5 5 5 5 5 5 5 5 6 5 5 5 5 5 5 5 5 6 5 5 6 6 5 5 5 5 5 5 5 5 5 5 5 5 6 5 5 5 5 5 6 5 5 6 5 5 5 5 5 5 5 5 5 5 5 5 5 5 5 5 5 5 5 6 5 5 5 5 5 6 5 5 5 5 5 5 5 5 5 5 5 5 5 5 5 5 5 5 5 5 5 5 5 5 6 5 6 5 5 5 6 5 5 5 6 5 5 5 6 6 5 5 6 5 5 5 5 6 5 5 5 5 5 6 5 5 5 5 6 5 6 5 5 6 5 5 5 6 5 5 6 5 5 5 5 5 5 5 5 5 5 6 5 5 6 5 5 5 5 5 5 5 6 5 5 5 5 5 5 5 5 5 5 5 5 5 5 5 5 5 5 5 5 5 6 5 6 5 5 5 5 5 6 5 5 5 5 5 5 5 5 6 5 5 5 6 5 5 6 5 5 5 5 6 5 5 6 5 5 5 5 5 6 5 6 5 5 5 5 5 5 5 5 5 5 5 5 5 5 5 5 5 5 6 5 5 5 5 5 6 6 5 5 5 5 5 5 5 5 5 5 6 5 5 5 5 5 5 5 5 5 6 5 5 6 6 5 5 5 6 5 5 6 5 5 5 5 5 5 5 5 5 5 5 5 5 5 5 6 5 5 5 5 5 5 5 5 6 5 5 6 5 5 5 5 6 5 5 5 5 5 5 5 5 5 5 5 5 5 5 6 6 5 5 6 6 5 6 5 6 5 6 5 5 6 5 5 5 5 5 5 5 5 5 6 6 5 5 6 5 5 5 5 5 6 5 5 6 5 5 5 5 6 5 5 5 6 5 5 5 6 5 6 5 5 6 5 5 5 5 5 5 5 5 5 5 5 6 5 5 5 5 5 5 6 5 5 5 6 5 5 5 5 5 5 5 6 5 5 5 5 5 6 5 6 5 5 5 5 5 6 6 5 5 5 6 6 5 6 5 5 5 5 5 5 5 6 5 5 5 5 5 5 5 5 5 5 5 5 5 5 6 5 5 6 5 6 5 5 5 5 5 5 5 5 5 5 5 5 5 5 6 5 5 5 5 5 5 5 5 5 5 5 5 5 5 5 5 6 5 5 5 5 5 5 5 5 5 5 5 6 6 5 5 5 5 5 5 5 5 5 5 5 5 5 5 5 5 6 5 5 5 5 5 5 5 6 5 5 5 5 5 5 5 5 6 5 5 5 6 5 5 5 5 5 5 5 5 5 5 5 5 5 5 5 5 5 5 5 5 5 5 5 5 5 5 5 5 6 5 6 5 5 5 5 5 5 5 5 5 5 5 5 5 6 5 5 5 6 5 5 5 5 5 5 5 5 5 5 5 5 5 6 6 5 5 5 5 5 5 5 6 5 5 5 5 5 5 5 5 5 5 5 6 5 5 5 5 5 5 5 6 5 5 5 5 5 5 5 5 5 5 5 5 5 5 5 5 5 6 5 5 5 5 5 5 5 5 5 5 6 5 5 5 5 5 6 5 5 5 6 5 5 5 5 6 5 5 5 5 5 5 5 6 5 6 5 5 6 5 6 5 5 5 5 5 5 5 5 5 5 5 5 5 5 5 5 5 5 5 5 5 5 5 5 5 5 5 5 5 5 5 5 5 5 5 6 5 6 6 5 5 5 5 5 5 5 5 5 5 5 6 5 5 5 5 5 5 5 6 5 6 5 6 5 5 5 5 5 5 6 5 6 6 5 5 5 5 5 5 5 5 5 5 5 5 5 5 5 5 5 6 5 5 5 5 5 5 5 5 5 5 5 5 5 5 6 5 5 5 5 5 5 5 5 5 5 5 5 5 6 5 5 5 5 5 5 5 5 5 6 5 5 5 5 5 6 6 5 5 5 5 6 6 5 5 5 5 5 5 5 5 5 5 5 6 5 5 5 5 6 5 5 5 5 5 5 6 5 5 6 5 6 5 5 5 6 5 5 5 5 5 5 5 6 5 5 5 5 6 6 5 5 6 5 5 5 6 6 6 6 5 5 6 5 5 5 5 5 5 5 5 6 6 5 5 5 5 5 5 6 5 6 5 5 5 6 5 5 5 5 5 5 5 5 5 5 5 5 5 5 5 5 5 5 5 5 5 5 5 5 5 5 5 5 6 5 5 5 5 5 5 5 5 5 5 5 5 5 5 5 5 5 5 5 5 5 6 5 5 5 5 5 5 5 5 5 6 5 5 5 5 5 5 6 5 5 5 5 5 6 5 5 5 5 5 6 5 5 5 5 5 5 5 5 5 5 6 5 5 5 5 6 6 5 5 6 5 5 5 5 6 5 5 6 5 5 5 5 5 6 6 5 5 5 5 5 5 6 5 5 5 5 5 5 5 6 6 5 5 5 6 5 5 5 6 5 5 6 5 6 5 5 5 6 5 5 6 6 5 5 5 5 5 5 6 5 6 5 6 5 5 5 6 6 5 6 5 5 5 5 5 5 5 5 5 5 5 5 5 5 5 5 6 5 5 5 5 5 5 5 6 5 5 5 5 5 6 5 5 5 6 5 5 5 5 6 5 6 5 6 5 5 5 5 6 5 5 6 5 5 5 5 5 5 5 5 5 5 5 6 5 5 5 5 6 5 5 5 5 6 5 5 5 5 5 5 6 5 5 5 6 5 6 6 5 5 5 5 5 5 5 5 5 5 5 5 5 5 5 5 5 5 5 5 5 5 5 5 5 5 5 5 6 5 5 6 6 5 6 5 5 5 5 6 5 5 6 5 5 5 5 5 5 5 5 5 5 5 5 5 5 5 5 5 5 5 5 5 5 5 5 5 5 5 5 6 5 5 5 5 5 5 5 5 6 5 5 5 5 5 5 5 6 5 6 5 5 5 6 5 5 5 5 5 5 5 6 5 6 5 5 5 5 5 6 5 5 5 5 5 5 5 5 5 5 5 5 5 5 5 5 5 5 5 5 5 5 5 5 5 5 5 5 5 5 5 5 5 5 5 5 5 5 5 6 6 5 5 6 5 5 5 6 5 5 5 6 6 5 5 6 5 5 5 5 5 5 5 5 5 5 5 5 5 5 5 5 5 5 5 5 5 6 5 6 5 5 5 5 5 5 5 5 5 5 5 5 5 5 5 5 5 5 5 5 5 5 5 5 5 5 5 5 5 5 5 5 5 5 5 5 5 5 5 5 5 5 5 5 5 6 5 6 5 6 5 5 6 5 5 5 5 5 5 5 5 5 5 5 5 5 5 5 5 5 5 5 5 5 5 5 5 5 5 5 6 5 5 5 5 5 5 5 5 5 5 5 5 5 5 5 5 5 5 5 5 5 5 5 5 5 5 5 5 5 5 5 5 5 5 5 5 5 5 5 5 5 5 5 5 5 5 5 5 5 6 5 5 5 5 6 5 5 5 5 5 5 5 5 6 5 5 5 5 5 6 6 6 5 5 5 5 6 6 5 5 6 5 5 5 5 5 5 5 5 5 5 5 5 5 5 6 6 5 6 5 5 5 5 5 5 5 5 5 5 5 5 5 5 5 5 5 5 6 5 5 5 5 5 5 6 5 5 5 5 5 5 5 5 5 5 5 5 5 5 5 5 5 5 6 5 5 5 5 5 5 5 5 5 6 5 5 6 5 5 5 5 5 5 5 5 5 5 5 5 5 5 5 5 6 5 6 5 5 5 5 6 5 6 5 5 6 6 5 5 6 5 5 5 6 5 5 5 5 5 5 6 5 5 5 6 5 5 5 5 6 5 5 5 5 5 5 5 6 5 5 5 5 5 6 5 5 6 5 5 5 5 5 5 5 6 5 5 5 6 6 5 5 5 6 5 5 5 5 5 6 6 6 5 5 5 5 5 5 5 5 5 6 6 5 6 5 5 5 5 5 6 5 5 6 5 6 5 5 5 6 5 5 6 5 5 5 5 5 5 5 6 5 5 6 6 5 5 6 5 6 5 5 6 5 5 6 5 6 5 5 5 6 5 5 6 5 6 5 5 6 5 6 5 5 5 5 6 6 5 5 5 5 5 5 5 5 5 6 5 5 5 5 5 5 5 5 5 5 5 5 5 5 5 5 5 5 6 6 5 5 5 6 5 5 5 5 6 5 5 6 5 5 5 6 5 5 6 5 5 5 5 6 5 5 5 5 5 6 5 5 5 6 6 5 5 6 5 5 5 5 5 6 6 5 5 5 5 6 5 5 5 5 6 5 5 5 5 5 5 5 5 5 5 5 5 5 5 5 5 5 5 5 5 5 5 5 5 5 5 5 5 6 5 5 5 5 5 5 5 5 5 5 5 6 5 5 5 5 6 5 5 5 6 5 5 6 5 5 5 5 5 6 5 5 5 5 5 5 5 5 5 5 5 5 5 5 5 5 5 5 5 5 6 5 5 5 5 5 6 5 5 5 5 5 5 5 6 5 5 5 5 5 5 5 5 5 5 5 5 5 6 5 5 5 5 5 6 6 5 5 5 5 6 5 6 5 5 5 6 6 5 5 6 5 5 5 6 5 5 5 5 6 5 5 6 6 5 5 5 5 5 5 6 5 5 6 5 5 5 5 6 5 5 5 5 5 5 5 5 5 5 5 5 5 5 5 5 5 5 5 6 5 6 5 5 5 6 5 6 5 6 5 5 6 5 5 6 6 6 5 5 5 6 5 5 5 5 5 5 6 5 5 5 5 5 5 5 6 5 6 5 5 5 5 5 5 5 6 5 5 5 5 5 5 5 5 5 5 5 6 5 5 6 5 5 5 5 5 5 5 5 5 5 5 5 5 5 5 5 6 5 5 5 5 5 5 5 5 5 5 5 5 5 5 5 5 5 5 5 5 5 6 5 5 5 6 5 5 5 5 5 5 5 5 5 5 6 5 5 5 5 5 5 5 5 5 5 6 5 5 5 5 5 5 6 5 5 5 6 5 5 5 5 5 5 5 5 5 5 5 5 5 5 5 5 5 5 5 5 5 6 5 5 5 5 5 6 5 5 6 5 5 5 5 5 5 6 5 5 5 5 6 5 5 5 5 5 5 5 5 5 5 5 5 5 5 5 5 5 5 6 5 5 5 5 5 6 5 5 5 6 5 6 5 5 5 5 5 5 5 6 5 5 5 6 6 5 5 5 5 5 6 5 5 5 6 5 5 5 5 5 5 5 5 5 5 5 5 5 5 5 6 5 5 5 5 5 5 6 5 5 5 5 5 5 5 5 5 5 5 6 5 5 5 5 5 5 5 5 5 6 5 5 5 5 6 6 5 5 5 5 5 5 5 5 6 6 5 6 5 5 5 5 5 6 5 5 5 5 5 5 6 5 6 5 5 5 5 5 5 5 5 5 5 6 5 5 5 5 5 5 6 5 5 5 5 5 5 5 5 6 5 5 5 5 5 6 5 5 6 5 5 5 5 5 5 6 5 5 5 5 5 5 5 5 6 5 5 5 5 6 5 5 5 5 5 5 5 5 5 5 6 5 5 5 5 5 5 5 5 5 6 5 5 5 5 6 5 5 5 5 5 5 5 5 6 5 6 5 5 5 6 5 5 5 5 5 5 5 5 6 5 5 5 6 5 5 5 6 5 5 6 5 5 5 5 5 5 5 5 5 5 5 5 5 5 5 5 5 5 5 5 5 5 5 5 5 5 5 5 5 5 5 5 5 5 5 5 5 5 5 5 5 5 5 5 5 5 5 5 5 5 5 5 5 6 5 5 5 6 5 5 5 5 5 5 6 5 6 5 5 5 5 6 6 5 5 5 5 5 5 5 5 5 5 5 5 5 5 5 5 5 5 5 5 5 5 6 5 5 6 5 5 5 6 5 5 5 5 5 5 5 5 5 5 5 5 5 5 6 5 6 5 6 5 5 5 5 5 5 5 5 5 5 5 5 5 5 5 5 5 6 5 5 5 5 5 5 5 5 5 5 5 5 5 5 5 5 5 5 5 5 5 5 5 5 5 5 5 5 5 5 5 5 5 6 5 5 5 5 5 5 6 5 5 6 5 6 5 5 6 5 5 5 6 5 5 5 5 5 5 5 5 5 5 5 5 5 5 5 5 5 5 5 5 5 5 5 5 5 6 5 5 5 5 6 5 5 6 5 5 5 5 5 5 5 5 5 5 5 5 5 5 5 5 5 5 5 5 5 5 5 5 5 5 5 5 5 5 6 5 5 5 6 5 5 5 5 6 5 5 5 5 5 6 5 5 5 5 6 5 5 5 5 5 5 5 5 5 5 5 5 5 5 6 6 5 6 5 6 5 5 5 5 5 5 5 5 5 5 5 5 5 5 5 5 5 5 5 5 5 5 5 5 5 6 6 5 5 6 5 5 6 5 5 5 5 5 5 5 5 5 5 5 6 5 5 6 5 5 5 5 5 5 5 5 5 5 5 5 5 5 6 6 5 6 6 5 5 5 5 6 5 5 5 6 6 5 5 5 5 5 5 5 6 5 5 5 5 5 5 5 5 5 5 5 5 5 5 5 5 6 5 5 5 5 6 5 5 5 5 5 5 5 6 5 5 5 5 5 5 5 6 5 5 6 5 5 5 5 5 5 5 5 5 5 5 5 5 5 5 6 5 5 5 5 5 5 5 5 6 5 5 5 5 5 5 5 6 5 5 5 5 5 6 5 5 5 5 6 5 5 5 5 5 5 5 5 5 5 5 5 6 5 5 5 5 5 5 5 5 5 5 5 5 5 5 6 5 5 5 5 5 5 5 5 5 5 5 5 5 6 6 5 5 6 5 5 5 5 6 5 5 5 6 5 5 6 5 5 5 5 6 5 5 5 5 5 5 5 5 5 5 5 5 5 5 5 5 5 5 5 5 5 5 5 5 5 5 5 5 5 5 5 5 5 5 6 5 5 5 6 5 6 5 5 5 5 5 5 5 5 5 5 5 5 5 5 6 5 5 5 5 5 5 5 5 6 5 5 5 6 5 5 5 5 5 5 5 6 5 6 5 5 5 5 5 5 5 5 5 5 5 5 5 5 6 5 5 6 5 5 5 5 5 5 5 6 5 5 5 5 5 5 5 5 5 5 5 5 5 5 5 5 5 5 5 5 5 5 5 5 5 5 5 6 5 5 6 5 5 5 6 5 5 6 5 5 5 5 5 5 5 5 5 5 5 5 5 5 5 5 5 5 5 6 5 5 5 5 5 5 5 5 5 5 5 5 5 6 5 5 5 5 5 5 5 5 5 5 5 5 5 5 5 5 5 5 5 6 5 5 5 5 5 5 5 5 5 5 5 5 5 5 5 5 6 5 5 6 5 5 5 6 5 5 6 5 5 5 5 5 5 5 5 5 5 5 5 5 5 6 5 5 6 5 5 5 5 5 5 5 5 5 5 5 5 5 5 5 5 5 5 5 5 5 5 5 5 5 5 5 5 5 5 5 5 5 5 5 5 6 5 5 5 5 6 5 5 5 5 5 5 5 5 5 5 5 5 5 5 5 6 5 6 6 5 5 6 5 6 5 5 5 5 5 5 5 5 6 5 5 6 5 5 5 5 6 6 5 6 5 5 5 5 5 5 5 5 5 5 5 5 5 5 5 5 5 5 5 5 5 6 5 5 5 5 5 5 5 5 5 5 5 5 5 5 5 5 5 5 5 5 5 5 5 5 5 6 5 5 5 5 5 6 5 5 5 5 5 5 5 5 5 6 5 5 5 5 5 5 5 5 5 5 5 5 5 5 5 5 5 6 6 5 5 6 5 5 5 6 5 5 5 5 5 5 5 5 5 5 6 5 5 6 5 6 5 5 5 5 6 5 5 5 6 5 5 5 5 5 5 6 5 5 5 5 5 5 6 5 5 5 5 5 5 5 5 5 5 5 5 5 5 6 5 5 6 5 5 5 6 6 5 5 5 5 5 5 5 5 5 5 6 5 5 5 6 5 5 5 5 6 5 5 5 5 5 5 5 5 6 5 5 5 5 5 6 6 5 5 5 6 5 6 6 5 5 5 5 5 6 5 5 5 5 5 5 6 5 5 5 5 5 5 5 6 5 5 6 5 5 6 5 5 5 5 5 5 5 5 5 5 5 5 5 5 6 5 5 5 6 5 5 6 5 5 5 5 6 5 5 5 5 5 5 5 5 6 5 5 5 5 6 5 5 5 5 5 5 5 5 6 5 5 5 5 5 5 5 5 5 6 5 5 5 6 5 5 6 5 5 6 5 5 5 5 5 5 5 5 5 6 5 5 5 5 5 5 5 5 5 5 5 5 5 5 5 5 6 5 5 5 5 5 5 5 5 5 5 5 5 5 5 5 5 5 5 5 5 5 5 5 5 5 5 6 5 6 5 5 5 5 5 5 5 5 5 5 6 5 5 6 5 5 5 5 5 5 5 5 5 5 5 5 5 5 5 5 5 5 5 5 5 6 5 5 5 5 5 5 5 5 5 6 5 6 5 5 5 5 5 5 5 6 5 6 5 5 5 5 5 5 5 5 5 5 5 6 5 5 5 5 6 5 6 5 5 5 5 5 5 6 5 5 6 5 5 6 5 5 5 6 6 6 5 5 5 5 5 5 5 5 5 5 5 5 5 6 5 5 5 5 5 5 5 6 5 6 5 6 5 5 6 6 5 5 5 5 5 5 6 5 5 5 5 6 5 6 5 6 5 6 5 5 5 5 6 5 5 5 5 5 6 5 5 5 5 5 5 5 5 5 5 5 5 5 5 6 5 5 5 5 5 6 5 5 5 6 5 5 5 5 5 5 5 5 5 5 5 5 5 5 5 5 5 6 5 5 5 5 6 5 5 5 5 5 5 6 5 5 5 5 5 5 5 5 5 5 6 5 5 6 5 6 5 5 5 5 5 5 5 5 5 5 5 6 5 5 5 5 5 5 6 5 6 6 5 6 5 5 5 5 5 5 5 6 5 5 5 5 5 5 5 5 5 5 5 5 5 5 5 5 6 5 5 5 5 5 5 5 5 5 5 6 5 5 5 5 5 5 5 5 5 5 6 5 5 5 5 6 5 5 5 5 5 6 5 5 5 5 6 5 5 5 5 5 5 5 5 5 5 5 5 5 5 5 5 5 5 6 5 5 5 5 5 5 5 5 6 5 6 6 5 5 5 5 5 6 5 5 5 5 5 5 5 5 5 5 5 5 5 5 6 5 5 6 5 6 6 5 5 5 5 5 5 6 5 5 5 5 6 5 6 5 5 6 5 5 5 5 5 5 6 6 5 5 5 5 5 5 5 5 5 5 5 5 5 5 5 6 5 5 5 5 5 5 5 6 5 6 5 5 5 6 5 6 5 5 5 5 5 5 5 5 6 5 5 5 5 5 6 5 6 5 5 5 5 6 5 5 5 5 5 6 5 5 5 5 5 5 5 5 5 5 5 5 5 5 5 5 5 5 5 5 5 5 5 5 6 5 5 5 6 5 6 5 5 5 6 5 5 5 5 5 5 5 5 5 5 5 5 5 5 5 5 5 6 6 6 6 5 5 5 5 5 5 6 5 5 5 6 5 5 5 5 5 5 5 5 5 5 6 6 6 5 5 6 6 5 5 5 5 5 5 5 5 5 6 5 5 5 5 5 5 5 5 6 6 5 5 5 6 5 5 5 5 5 5 5 5 5 5 5 6 5 6 5 5 5 5 5 6 6 5 5 6 6 5 5 5 5 5 5 5 5 5 5 5 5 5 5 5 5 5 5 5 5 5 5 5 5 5 5 5 5 5 5 5 5 5 5 5 5 5 5 5 5 5 5 6 6 5 5 5 5 5 5 5 5 5 5 5 5 5 5 5 5 5 5 5 5 6 5 5 5 5 5 5 5 5 5 5 5 5 5 5 5 5 6 5 6 5 5 5 5 5 5 5 5 6 5 5 5 5 5 5 5 5 5 5 5 6 5 5 6 5 5 6 5 5 5 5 6 5 5 5 5 6 5 5 6 5 6 5 5 5 5 5 6 5 5 5 5 5 5 5 6 5 5 5 5 5 5 5 5 5 5 5 5 5 5 5 5 5 5 5 5 5 5 5 5 6 5 5 5 6 5 5 6 5 5 5 6 5 5 5 5 6 5 6 5 5 5 5 5 5 5 5 6 5 5 5 5 5 5 5 5 5 5 6 5 5 6 5 5 6 5 5 6 6 5 5 5 5 5 5 5 6 6 5 5 5 6 5 5 6 6 5 5 5 6 6 5 6 5 5 6 5 5 5 5 6 5 6 6 5 5 5 6 5 6 6 5 6 6 6 6 5 6 5 6 5 6 5 5 5 6 5 5 6 5 6 6 5 5 5 5 6 5 6 6 5 5 5 6 6 5 5 6 6 5 5 5 5 6 5 5 5 5 6 5 5 5 5 6 5 6 5 6 5 6 5 6 5 6 5 5 5 5 5 6 5 5 6 6 6 5 5 6 6 5 6 5 5 6 5 5 5 5 5 5 6 5 5 6 5 6 5 5 5 5 6 5 6 5 6 5 5 5 6 5 5 6 5 6 5 6 5 5 5 5 5 6 5 5 5 5 5 5 5 5 5 5 6 5 5 5 5 6 5 5 6 5 5 5 5 5 6 5 5 6 5 5 5 6 5 6 5 5 5 6 5 5 5 5 6 5 5 5 5 6 6 5 5 5 5 5 5 6 5 5 6 5 5 5 5 5 5 5 5 5 5 5 5 5 5 5 5 5 5 5 5 5 5 5 5 5 5 5 5 5 5 5 5 5 5 5 5 5 5 5 5 5 5 5 5 5 5 5 5 5 5 5 5 5 5 5 5 5 5 6 5 5 5 5 5 5 5 5 5 5 5 5 6 5 5 6 5 5 5 6 5 5 5 5 5 5 5 5 5 5 5 5 5 5 5 6 5 5 5 5 5 5 5 5 5 5 5 5 5 5 5 5 6 5 5 5 5 5 5 5 5 5 5 5 5 5 6 5 5 6 5 5 6 5 6 5 5 5 5 5 5 5 6 5 5 5 5 5 5 5 5 5 5 5 5 6 5 5 5 6 5 5 5 5 5 5 5 5 5 6 5 5 5 5 5 5 6 5 5 5 5 5 5 6 5 5 5 6 5 5 5 5 5 5 5 6 5 5 5 5 5 5 5 5 5 5 6 5 5 5 5 5 5 5 5 5 5 5 5 5 5 5 5 6 5 6 5 5 5 5 5 5 5 5 5 5 6 5 6 5 5 5 5 5 5 5 5 5 5 5 6 5 5 5 5 5 5 5 5 5 5 5 6 5 5 5 5 5 5 5 6 5 5 5 5 5 5 5 6 5 5 5 5 5 5 5 5 5 5 5 6 5 5 5 5 5 5 5 5 6 5 6 5 5 5 5 5 5 5 5 5 5 6 5 5 5 6 5 5 5 5 5 5 5 5 5 6 5 5 5 5 5 5 5 5 5 5 5 5 5 5 5 5 6 5 5 5 5 5 5 5 5 5 5 5 5 5 5 5 5 5 5 6 5 5 6 5 5 6 5 5 5 5 5 6 5 5 5 5 5 5 5 5 5 5 5 5 5 5 5 5 5 5 5 5 5 5 5 5 5 5 5 5 5 5 5 5 5 5 5 5 5 5 5 5 5 5 5 5 5 5 5 5 5 5 5 5 5 5 5 5 5 5 5 6 5 5 6 5 5 5 5 5 5 5 5 5 5 5 5 5 5 5 5 5 5 5 5 5 5 5 5 6 6 5 5 5 5 5 5 5 5 5 5 5 5 5 5 5 5 6 6 5 5 5 5 5 5 5 6 5 6 5 5 6 6 5 5 5 5 5 5 5 5 5 5 5 6 5 6 5 5 5 6 5 5 5 6 5 6 5 5 5 5 5 6 6 5 5 5 5 5 5 5 5 5 5 5 5 5 5 5 5 5 5 5 5 5 5 5 5 5 5 5 5 5 5 5 5 5 5 5 5 5 5 5 5 5 5 5 5 5 5 5 5 5 5 5 5 5 5 5 5 5 5 5 5 5 5 5 5 5 5 5 5 5 5 5 5 5 5 5 5 5 5 5 5 5 5 5 5 5 5 5 5 5 5 5 5 5 5 5 5 5 5 5 5 5 5 5 5 6 6 5 6 5 6 5 5 6 5 5 5 5 6 5 5 5 5 5 5 5 6 6 6 5 5 5 5 5 6 6 5 5 5 5 5 5 5 5 5 5 5 5 5 5 5 5 5 5 5 5 5 5 5 5 5 5 5 5 5 5 5 5 5 5 6 5 5 6 5 5 5 5 5 5 5 5 5 5 5 6 5 5 5 5 5 5 5 6 5 5 5 5 5 5 5 5 5 5 5 5 5 5 5 5 6 5 5 6 5 5 5 5 5 5 5 5 5 5 5 5 5 5 5 5 5 5 5 5 5 5 5 6 5 5 6 5 5 6 5 5 5 5 5 5 5 6 5 5 5 5 5 5 6 5 5 6 5 5 5 5 6 5 6 5 5 6 5 5 5 5 6 5 6 5 5 6 5 5 5 5 5 5 5 5 5 5 5 5 6 5 5 5 6 5 5 6 5 5 5 5 6 5 5 5 5 5 5 5 5 5 5 6 5 5 5 5 5 5 5 5 5 5 6 5 5 5 5 5 5 5 5 5 5 5 5 6 5 5 6 5 5 5 5 5 5 5 5 5 5 6 5 5 5 5 5 6 5 6 6 5 5 6 5 5 5 5 5 5 5 5 5 6 6 5 5 5 5 5 5 6 5 5 5 5 5 5 5 5 5 5 5 5 5 5 5 5 5 5 5 5 5 5 5 5 5 6 5 5 5 5 5 5 5 5 5 5 5 5 5 5 5 5 5 5 5 5 5 5 5 5 5 5 5 5 5 5 5 5 5 5 5 5 5 5 5 5 6 5 5 5 5 5 5 5 5 5 5 6 5 5 5 6 5 6 5 5 5 6 5 5 5 6 5 6 5 6 5 6 6 5 5 6 5 5 5 6 5 5 5 5 5 6 5 5 5 5 6 5 5 5 6 5 5 5 5 6 5 6 5 5 5 5 5 5 5 5 5 5 5 5 5 5 6 5 5 5 5 6 5 5 6 5 5 6 6 5 5 6 5 6 5 5 5 6 6 6 6 5 5 6 5 5 5 5 6 5 6 5 5 6 6 6 5 6 5 5 6 6 6 5 5 5 5 5 5 5 5 5 6 6 5 5 5 5 6 6 5 5 5 6 5 6 5 5 5 5 5 5 5 5 5 5 5 6 5 5 5 5 5 5 5 5 5 5 5 5 5 5 5 5 5 5 5 5 5 5 5 6 5 5 5 5 5 5 5 5 5 5 5 5 5 5 5 5 6 5 5 6 5 5 5 5 5 5 5 5 5 6 5 5 5 6 6 5 5 6 5 5 5 5 5 6 5 6 5 5 5 6 5 5 5 5 5 5 5 6 5 5 6 5 5 5 5 6 5 5 5 6 6 5 5 6 5 5 5 6 5 5 5 5 5 5 5 6 5 5 6 5 6 6 6 5 6 5 6 6 5 5 5 5 5 5 6 5 5 6 5 5 5 5 5 5 5 5 5 5 5 5 5 5 5 5 5 5 5 5 5 5 5 5 5 5 5 5 5 5 5 5 5 5 5 6 6 5 5 5 5 5 5 5 5 6 6 6 6 5 5 6 5 5 5 5 5 5 5 5 6 5 5 6 5 5 5 6 5 5 5 5 6 5 5 5 5 5 5 5 5 5 5 5 5 5 5 6 5 5 5 5 5 6 5 5 5 5 5 5 5 5 6 5 5 5 6 6 5 5 6 6 5 5 5 5 5 6 5 5 5 5 5 5 6 5 6 5 5 5 5 5 5 5 5 6 6 5 6 6 6 5 6 5 5 5 5 5 5 6 5 5 5 5 5 5 5 6 5 5 5 5 5 5 5 5 5 5 5 5 5 5 5 5 5 5 5 5 5 5 5 5 5 5 5 5 5 5 5 5 5 5 5 5 5 5 5 5 5 5 5 5 5 5 5 5 5 5 5 5 5 5 5 5 5 6 5 5 5 5 5 5 5 6 5 5 6 5 5 5 6 5 6 5 5 6 5 5 5 5 5 5 5 6 5 5 5 6 5 5 5 5 5 5 5 6 5 6 5 5 5 5 5 5 5 5 5 5 5 5 5 5 5 5 5 5 5 5 5 5 5 5 5 6 6 5 6 5 5 5 5 5 5 5 6 5 6 5 6 6 6 5 5 6 5 5 6 5 5 5 6 5 5 5 5 5 5 5 6 6 5 5 6 5 5 5 6 5 5 5 5 6 5 6 5 5 5 5 5 5 6 5 6 5 5 5 5 5 6 5 5 6 5 5 5 5 5 5 5 5 5 5 5 5 5 5 5 5 6 5 5 6 6 5 6 5 5 5 5 5 5 5 5 6 5 5 5 5 5 5 5 5 5 5 5 5 5 5 5 5 6 5 5 5 6 5 5 6 5 5 5 5 5 5 6 5 5 5 5 5 5 5 5 5 5 5 5 5 5 5 5 5 5 5 6 6 5 5 5 5 5 5 5 6 5 5 5 6 5 5 6 5 6 5 5 6 5 6 6 5 6 5 6 5 6 5 5 5 5 5 5 5 5 5 5 5 5 5 5 5 6 6 5 5 5 5 5 5 5 6 5 5 5 5 5 5 5 5 5 5 5 5 5 5 5 6 5 6 5 5 5 5 5 5 6 5 5 5 6 5 5 5 6 5 5 5 5 5 5 5 5 5 5 5 5 5 5 5 5 5 5 5 5 5 6 5 5 5 5 6 5 5 5 5 5 6 5 5 5 6 5 5 5 5 5 5 5 5 5 5 5 5 6 5 5 5 5 6 5 5 5 5 5 5 5 5 6 5 5 5 5 5 5 5 6 5 5 5 5 6 5 5 5 5 5 5 5 5 6 5 5 5 5 5 5 5 5 5 6 5 5 5 5 5 5 5 5 5 5 5 5 5 5 5 5 5 5 5 5 5 5 5 5 5 5 5 5 6 5 5 5 5 5 5 5 6 5 5 5 5 5 5 5 5 5 5 5 5 5 5 5 5 5 5 5 5 5 5 5 5 5 5 5 5 5 6 5 5 5 5 5 5 5 5 5 5 5 5 5 5 5 5 5 5 5 5 5 5 5 5 5 5 5 5 5 5 5 5 6 5 5 6 5 5 5 5 6 5 5 6 5 5 5 5 6 5 5 5 6 5 5 5 6 5 5 5 5 5 5 5 5 5 5 6 5 5 6 5 5 5 5 5 5 6 5 5 5 5 5 6 5 5 5 5 6 5 5 5 5 5 5 5 5 5 5 6 5 5 5 5 5 5 5 5 5 6 5 5 5 5 5 5 5 5 5 5 5 5 5 6 5 5 5 5 5 5 5 6 5 5 5 5 5 6 5 5 5 5 5 5 5 5 5 5 5 5 5 5 6 5 5 5 5 5 5 5 5 6 5 5 5 5 5 5 5 5 5 5 5 5 5 5 5 5 5 5 5 5 5 5 5 5 5 5 5 5 5 5 5 5 5 6 5 5 5 5 6 6 5 5 6 5 5 6 5 5 6 5 5 5 5 5 5 5 5 5 5 5 5 5 5 5 5 5 5 5 6 5 5 5 5 6 5 5 5 5 5 5 5 5 5 5 5 5 5 5 5 5 5 5 5 5 5 5 5 5 5 5 5 5 5 5 5 5 5 5 5 5 5 5 5 5 5 5 5 5 5 5 5 5 5 5 5 5 5 5 5 5 5 5 5 5 5 5 5 5 5 5 5 5 5 5 5 6 5 5 5 5 6 5 6 5 5 6 5 5 5 5 6 5 5 6 5 5 5 5 5 5 5 5 5 5 5 5 5 5 5 5 5 5 5 5 5 5 5 5 5 5 5 5 5 5 5 5 5 5 5 5 5 5 5 5 5 5 5 5 5 5 5 5 5 5 5 5 5 5 5 5 5 5 5 5 6 5 5 5 5 5 5 5 5 5 6 5 5 5 5 5 5 5 6 5 5 5 5 5 5 5 5 5 5 5 5 5 5 5 5 5 5 5 6 6 5 5 6 5 6 5 5 5 5 5 5 5 5 5 5 5 5 5 5 5 5 5 5 5 5 5 5 5 5 5 5 5 5 5 5 5 5 5 5 5 5 5 5 5 5 5 5 5 5 5 5 5 5 5 5 5 5 5 5 5 6 6 5 5 5 5 5 5 5 5 5 5 5 5 5 5 5 5 5 5 5 5 6 5 5 5 5 5 5 5 5 5 5 6 5 5 5 6 5 5 5 5 5 5 6 5 5 5 5 5 5 5 5 5 5 5 5 5 6 5 5 5 5 5 5 6 6 5 6 5 5 6 5 5 5 6 5 5 5 6 5 5 5 5 5 6 5 6 5 5 5 5 6 5 5 5 5 6 5 6 5 5 6 6 5 5 5 5 5 6 5 5 5 5 5 6 6 6 5 6 5 6 5 5 5 5 5 6 5 5 5 5 5 5 5 5 6 6 5 5 6 5 5 5 5 6 5 5 6 5 5 6 5 5 5 5 5 5 5 5 5 6 5 5 5 5 5 5 5 5 6 5 5 5 5 5 5 5 5 5 6 6 5 5 5 5 5 5 5 5 5 5 5 5 5 5 5 5 5 5 5 5 5 5 5 5 5 5 5 5 5 5 5 5 5 5 5 6 5 5 5 5 6 5 5 5 5 5 5 5 5 5 5 5 5 5 5 5 5 6 6 5 5 5 5 5 5 5 5 5 6 5 5 5 5 6 5 5 6 5 5 5 5 5 5 5 5 5 5 5 5 5 6 5 5 5 5 5 5 5 5 5 5 5 5 5 5 5 5 5 5 5 5 5 5 5 5 5 6 5 5 5 5 5 6 5 5 5 6 5 5 5 6 6 5 5 5 5 5 5 5 5 5 5 5 5 5 5 6 5 5 5 6 5 5 5 5 6 6 5 5 5 5 5 5 5 5 5 5 5 5 5 5 5 5 5 5 5 5 5 5 5 6 5 5 5 5 5 5 5 5 5 6 5 5 5 5 6 5 6 5 5 5 5 6 5 5 5 5 5 5 5 5 5 5 5 5 5 5 5 6 5 5 6 5 5 5 5 5 5 5 5 5 5 6 6 5 5 5 5 6 5 5 5 6 5 5 5 5 6 6 5 6 5 6 5 6 5 5 6 5 5 6 5 5 6 5 5 5 6 5 5 6 5 6 5 6 5 5 6 5 5 5 5 5 5 5 5 5 5 5 5 5 6 5 5 5 5 5 5 5 5 5 5 5 5 5 5 5 5 6 6 5 5 5 5 5 6 5 5 5 5 6 5 5 6 5 5 5 5 6 5 5 5 5 5 5 5 5 5 5 5 5 5 5 5 5 5 5 5 5 5 5 5 5 5 5 5 5 5 5 5 5 5 5 5 5 5 5 6 5 5 5 5 5 5 5 5 5 5 5 5 5 6 5 6 5 5 5 5 6 5 5 5 5 5 5 5 5 5 5 5 5 5 5 5 5 5 5 6 5 6 5 5 6 5 5 5 6 5 5 5 5 5 5 5 5 5 5 5 5 5 5 5 5 5 5 5 5 5 5 5 5 5 5 5 6 5 5 6 5 5 5 5 5 5 5 5 5 5 5 5 5 5 5 5 5 5 5 5 5 5 5 5 5 5 5 5 5 5 5 5 5 5 5 6 5 6 5 5 5 5 5 5 5 5 5 5 5 5 5 5 5 5 5 6 6 5 5 5 5 5 6 5 5 5 5 6 5 5 5 5 6 5 5 5 5 5 5 5 5 5 5 5 5 5 5 5 5 5 5 6 5 5 5 5 5 5 6 5 5 6 5 5 5 5 5 5 5 5 5 5 5 5 6 5 5 6 5 5 5 5 5 5 5 5 6 5 5 5 5 5 5 6 5 5 6 5 5 5 5 5 5 5 5 5 5 5 5 5 5 5 5 5 5 5 5 5 5 5 5 5 5 5 5 5 5 5 5 5 5 5 5 6 5 5 5 6 5 5 6 5 5 5 5 5 5 6 5 5 5 5 5 6 5 5 5 5 5 5 6 5 5 5 5 6 5 6 5 5 6 5 5 5 6 5 5 5 5 5 5 5 5 5 5 5 5 5 6 5 5 5 5 5 5 5 5 5 5 5 5 5 5 5 5 5 5 5 5 5 5 5 5 6 5 6 5 6 5 6 5 5 5 5 6 5 5 5 5 6 5 5 5 5 5 5 5 5 5 5 5 5 5 5 6 5 5 5 6 5 5 5 6 5 5 6 5 5 5 6 5 5 5 5 6 5 5 5 5 6 5 5 5 5 5 5 5 5 5 5 6 5 5 5 5 5 6 5 6 5 5 5 5 5 6 6 5 5 6 5 6 5 5 6 5 5 5 5 5 5 5 5 5 5 5 5 5 6 5 5 5 5 5 6 5 5 5 5 5 5 5 5 5 5 6 5 6 5 5 6 5 5 6 5 6 5 6 5 5 5 5 5 6 6 5 5 5 5 5 5 5 5 5 5 5 6 5 5 5 5 5 6 5 5 5 6 5 6 5 5 5 5 5 5 5 5 5 5 5 5 5 5 5 6 5 5 5 5 6 5 5 5 5 5 5 5 5 5 5 5 5 5 5 5 5 5 5 5 5 5 5 5 6 5 5 6 5 5 5 5 5 5 5 6 5 5 6 5 6 5 5 5 5 5 5 5 5 5 6 5 5 6 5 5 5 6 5 5 5 5 5 5 5 6 5 5 5 5 6 6 5 5 5 5 5 5 5 5 5 6 5 5 5 5 5 5 5 5 5 5 5 5 5 5 5 5 6 5 6 5 5 5 6 5 5 5 5 5 5 5 5 5 5 5 5 5 6 5 5 5 5 5 6 5 5 5 6 6 5 5 5 6 5 5 6 5 5 5 5 6 6 5 5 5 6 5 5 6 5 5 5 5 6 5 6 5 5 5 6 5 5 5 5 5 5 5 5 5 5 5 5 5 5 5 5 5 5 5 5 5 6 5 5 5 5 5 5 5 5 5 6 5 5 5 6 5 6 5 5 5 5 5 5 5 5 5 5 5 6 5 5 5 5 5 6 5 5 5 5 5 6 5 5 5 5 5 5 5 5 5 5 5 5 5 5 5 5 6 5 5 5 5 5 5 5 5 5 6 5 5 5 5 5 5 5 5 5 5 5 5 5 5 5 6 5 5 5 5 5 5 5 5 5 5 5 5 5 5 5 5 5 5 5 5 5 5 5 5 5 5 5 5 5 6 5 5 5 5 6 5 6 6 5 5 5 5 5 5 6 5 6 5 5 5 6 5 5 6 5 5 5 5 5 5 6 5 5 5 5 5 5 5 6 5 5 5 5 6 5 5 5 5 5 5 6 5 5 5 5 5 5 5 5 5 5 5 5 6 5 6 5 5 5 5 5 5 5 6 6 5 5 5 5 5 5 5 5 6 5 5 5 6 5 5 6 5 5 5 5 5 5 5 5 5 5 5 5 5 5 5 5 5 5 5 5 5 5 5 5 5 6 5 5 6 5 5 5 5 5 6 5 5 6 5 6 5 5 5 6 5 5 5 5 6 5 5 6 6 5 5 5 5 5 6 5 5 6 5 5 5 5 5 6 5 5 5 5 5 5 5 5 5 6 5 5 5 5 6 5 5 5 5 5 5 6 5 6 5 5 5 6 5 6 5 5 6 5 6 5 5 5 6 5 5 5 5 5 5 5 5 5 5 5 5 5 6 5 5 5 5 6 5 5 5 5 5 5 6 5 5 5 5 5 5 5 6 5 5 5 5 5 5 6 5 5 5 5 5 5 5 6 5 5 6 5 5 5 5 5 5 5 5 5 6 6 5 5 5 5 5 5 5 5 5 5 5 5 6 5 5 5 5 5 5 5 6 5 5 5 6 5 6 5 5 6 5 5 5 5 5 6 5 5 5 6 5 5 5 5 6 5 5 5 6 5 5 5 5 5 5 5 6 5 5 6 5 5 5 6 5 5 5 6 5 5 5 5 6 5 5 5 6 5 5 5 5 5 5 5 5 5 6 5 5 5 5 5 5 5 5 5 6 5 5 5 5 6 5 5 6 5 5 5 5 5 5 5 5 5 5 5 5 5 5 5 5 5 5 5 5 5 5 5 5 5 5 6 5 5 5 5 5 5 5 5 5 5 5 6 5 5 5 6 5 5 5 5 5 5 6 5 5 5 5 5 5 5 5 5 5 5 5 5 5 5 5 5 5 5 5 5 5 5 5 5 5 6 5 6 5 5 6 6 5 5 5 5 5 5 5 5 5 5 5 5 5 5 5 5 5 6 5 5 5 5 5 5 5 5 5 5 5 5 5 5 5 5 5 5 5 5 5 5 5 5 5 5 5 5 5 5 5 5 5 5 5 5 5 5 5 5 5 5 5 5 5 5 5 5 5 5 5 5 5 5 5 5 5 5 5 5 5 6 5 5 6 5 5 5 5 6 5 5 5 5 5 5 5 5 5 5 6 5 6 5 5 5 6 5 5 5 6 5 6 5 5 5 6 5 6 5 6 5 5 5 6 5 5 5 5 6 5 6 5 5 5 5 5 6 5 6 6 5 5 5 5 5 5 6 5 5 5 6 5 5 5 5 5 5 5 5 5 5 5 5 5 5 5 5 5 5 5 6 5 5 5 6 6 5 5 5 5 5 6 5 5 5 5 5 5 5 5 5 5 5 5 5 5 6 5 5 6 5 6 5 5 5 6 5 6 5 5 6 5 5 5 5 5 5 5 5 5 5 5 6 5 5 5 5 5 5 5 5 5 5 6 6 5 5 5 5 5 5 5 6 5 5 5 5 5 5 5 5 5 5 5 5 5 5 6 5 5 5 5 5 5 5 5 5 5 6 5 5 5 6 5 6 6 5 5 5 5 5 5 5 5 6 5 5 5 5 5 5 5 5 5 6 5 6 5 6 5 5 5 5 5 5 5 5 6 5 6 5 5 5 5 5 5 6 5 5 6 5 6 5 5 5 5 5 5 5 5 5 5 5 5 5 5 6 5 5 5 5 5 5 5 5 5 5 6 5 5 5 5 5 5 6 5 5 5 5 5 5 5 5 5 5 5 5 5 5 5 5 5 5 5 5 5 5 5 5 5 6 5 5 5 5 5 6 5 5 5 5 5 5 5 5 5 5 5 6 5 5 5 5 6 5 5 5 5 5 6 5 5 5 5 5 6 5 5 6 5 5 5 5 5 5 5 5 5 5 5 5 5 5 5 5 5 5 5 5 5 5 5 5 5 5 6 5 5 6 5 5 5 5 5 5 5 5 5 5 5 5 5 5 5 6 5 5 5 5 5 5 5 5 5 6 5 5 5 5 5 5 5 6 5 5 5 5 5 6 5 5 5 5 5 5 6 5 5 5 5 6 5 5 5 5 5 5 5 6 5 5 6 5 5 6 5 5 5 5 6 5 5 5 5 5 5 5 5 6 5 5 6 5 5 5 5 5 5 5 5 5 6 5 5 5 5 5 6 5 5 5 5 6 5 5 5 6 5 5 5 5 5 5 5 5 5 5 5 6 6 5 5 5 5 5 5 5 5 5 5 5 6 5 5 5 5 5 6 5 6 6 5 6 6 5 5 6 5 5 5 5 5 5 6 5 6 6 5 5 5 5 5 6 5 5 5 5 5 5 5 5 6 5 5 5 5 6 5 5 5 5 5 6 5 5 6 5 5 5 5 5 5 5 6 5 6 5 5 5 5 5 5 5 6 6 5 5 5 5 5 5 5 6 5 5 5 5 5 5 6 5 5 5 5 5 5 5 5 5 5 5 5 5 5 6 5 5 6 5 5 5 5 6 5 5 5 5 6 5 5 5 5 5 5 6 5 5 5 5 5 5 5 6 5 5 5 6 5 5 5 5 6 5 5 6 5 5 5 5 5 5 5 6 5 5 5 5 6 5 6 5 5 5 5 5 5 5 5 5 5 5 5 5 5 6 5 5 5 5 5 5 5 6 5 5 6 5 5 6 5 5 5 5 5 5 5 5 5 6 5 5 5 6 5 5 5 5 5 5 5 5 5 6 5 5 5 5 5 5 5 5 5 5 5 6 5 5 5 6 5 5 5 5 5 5 5 5 5 5 5 6 5 5 5 5 5 5 5 5 5 5 6 5 5 5 5 5 6 5 5 5 5 5 5 5 5 6 5 5 6 5 5 6 5 5 5 5 6 6 5 5 5 5 6 5 5 5 5 6 5 5 6 5 5 5 5 6 5 5 6 5 5 5 5 5 6 5 5 5 5 5 5 5 5 6 5 6 5 5 5 5 5 5 5 5 5 6 6 5 5 5 5 5 5 6 5 5 6 5 5 6 5 6 5 5 5 6 5 5 6 5 5 5 5 5 5 5 5 6 6 5 5 6 6 5 5 5 5 6 5 5 5 6 5 6 5 6 6 6 5 6 5 5 5 6 5 5 5 5 5 5 5 5 5 6 5 5 6 5 5 5 5 5 5 6 5 5 5 5 5 5 6 6 6 5 5 5 5 5 5 5 5 5 5 5 6 5 5 5 5 6 5 5 5 5 5 5 5 5 6 5 5 6 5 5 5 6 5 5 5 5 5 5 5 5 5 6 5 5 5 5 5 5 5 5 6 5 5 5 6 5 5 6 5 5 5 6 5 6 5 5 6 5 6 5 5 6 5 5 5 5 5 5 6 5 5 6 5 5 5 5 5 5 5 5 5 5 5 5 5 5 5 5 5 5 5 5 5 5 5 5 5 5 5 5 5 5 5 5 5 5 5 5 5 5 5 5 5 5 5 5 5 5 5 5 5 5 5 5 5 5 5 5 5 5 5 5 5 5 5 5 5 5 5 5 5 5 5 5 5 5 5 5 5 5 5 5 5 5 5 5 5 5 5 5 5 5 5 5 5 5 5 5 6 5 5 5 5 6 5 5 5 5 5 5 5 5 5 5 5 5 6 6 5 5 5 5 5 5 5 5 5 5 5 5 5 5 5 6 5 5 5 6 5 5 5 5 5 5 5 5 5 5 6 5 6 5 5 5 5 5 5 5 5 5 5 5 5 5 5 5 5 5 5 5 5 5 5 5 5 6 5 5 5 5 6 5 5 5 5 5 5 5 5 6 5 5 5 5 5 5 5 5 5 5 5 5 5 5 5 5 5 5 5 5 5 5 5 5 5 5 5 5 5 5 5 5 5 5 5 5 5 5 5 5 5 5 5 5 5 5 5 5 5 6 5 5 5 5 5 5 5 5 5 5 5 5 5 5 5 5 5 5 5 5 5 5 5 5 5 5 5 5 5 5 5 5 6 5 5 5 5 5 5 6 5 5 5 5 5 5 6 5 5 6 5 6 5 6 5 5 5 5 6 5 5 5 5 5 6 5 5 5 6 6 5 5 5 6 5 5 5 5 6 6 5 5 5 5 5 5 5 5 5 5 5 5 5 5 6 5 5 6 5 5 6 6 5 5 5 5 5 5 5 5 5 5 6 5 6 5 5 5 5 5 5 5 5 5 5 5 6 5 5 5 5 5 5 5 6 5 5 5 5 5 5 5 5 5 5 5 5 5 5 5 5 5 5 6 6 5 5 5 5 5 5 5 5 5 5 5 5 5 5 5 5 5 6 5 5 5 5 5 5 5 5 5 6 5 5 5 5 5 5 5 5 5 5 5 5 6 5 5 5 5 6 5 6 5 5 5 5 5 5 5 5 5 6 5 5 5 5 6 5 5 5 5 6 5 6 5 5 5 5 5 5 5 5 5 5 5 5 6 5 5 5 5 5 5 5 5 5 5 5 5 5 5 5 6 5 6 5 5 6 5 5 5 6 5 6 5 5 6 5 5 6 5 6 5 5 5 5 5 5 5 6 6 5 5 5 5 6 6 5 5 6 6 5 6 5 5 6 6 5 5 6 5 5 6 5 5 5 5 5 5 5 5 6 5 5 6 5 6 5 5 5 6 5 5 5 5 5 5 5 5 6 5 5 5 5 5 5 5 5 5 5 5 5 5 5 5 5 5 5 5 5 5 5 6 5 5 5 5 5 5 5 5 5 5 5 5 5 5 5 5 5 5 
</DataArray>
<DataArray type="Float64" Name="stress" NumberOfComponents="9" format="ascii">
-3203.558504747707 202.15915223866924 0 202.15915223866924 -1.9433519211087975 0 0 0 0 -5488.7917232442123 1517.0748195340448 0 1517.0748195340448 537.45262367703765 0 0 0 0 -3619.0474176106363 3097.8607615300812 0 3097.8607615300812 -361.50510700052047 0 0 0 0 -2779.5051015589488 804.12718554422031 0 804.12718554422031 3.6983745029296529 0 0 0 0 745.24733599553292 74.350412896068605 0 74.350412896068605 -580.07417780275648 0 0 0 0 -1891.1345464920305 2902.3339541871278 0 2902.3339541871278 -1783.8572807764572 0 0 0 0 -35.337160130313748 -0.81830403449919942 0 -0.81830403449919942 -1.0171638718694183 0 0 0 0 93.789334147950285 41.894048099066936 0 41.894048099066936 -29.18261845693371 0 0 0 0 -1865.103789083747 -566.3016601775812 0 -566.3016601775812 2502.5684675656285 0 0 0 0 -555.76154956960818 -105.08412968123287 0 -105.08412968123287 1094.2695329861631 0 0 0 0 -65.408389606158266 -8.0552843621820003 0 -8.0552843621820003 2.7539470556717651 0 0 0 0 -3734.2034643642255 -876.6080704762511 0 -876.6080704762511 -153.27325638194526 0 0 0 0 1268.550588898448 666.38410943145846 0 666.38410943145846 297.21270749636 0 0 0 0 565.14172969240462 -1195.7512792687185 0 -1195.7512792687185 -2463.037687633449 0 0 0 0 -18.389260656167494 -7.5811930647274295 0 -7.5811930647274295 -3.127371868222812 0 0 0 0 -2228.2947072484239 -125.40557545522596 0 -125.40557545522596 -1093.7829764827629 0 0 0 0 -808.46080953378987 892.52991201722284 0 892.52991201722284 -1052.4345830736734 0 0 0 0 -2177.8062999743579 515.5839477134831 0 515.5839477134831 329.73341332206428 0 0 0 0 -411.56217472944991 -330.36486805403069 0 -330.36486805403069 62.706311241163931 0 0 0 0 -88.373416400805581 -114.23464096806411 0 -114.23464096806411 0.32387992121908804 0 0 0 0 -188.56218190114305 -12.567316632840516 0 -12.567316632840516 7.7666258077348402 0 0 0 0 -9.8161599112164595 -5.5544785597632256 0 -5.5544785597632256 1.0011241828916484 0 0 0 0 -52.508797175704331 -12.289697970687694 0 -12.289697970687694 1.284078010302359 0 0 0 0 -1278.1885366201896 -677.69298966891768 0 -677.69298966891768 645.92958391849857 0 0 0 0 -32.809336253623769 1.944777679631337 0 1.944777679631337 18.759062309293771 0 0 0 0 10.571003099423251 17.709251677400438 0 17.709251677400438 8.5493078547578136 0 0 0 0 -17.510781079879962 -0.68599252290249702 0 -0.68599252290249702 8.3528436627542071 0 0 0 0 -0.44233116561315455 1.4741881778166785 0 1.4741881778166785 -1.2603834105120935 0 0 0 0 -2.0250390178498492 1.2365446559399516 0 1.2365446559399516 -0.40780335067793888 0 0 0 0 -33.917082662490429 6.5221770005032909 0 6.5221770005032909 7.6578250506898513 0 0 0 0 -24.975355663303503 3.6493645407714013 0 3.6493645407714013 2.6384899793135235 0 0 0 0 -38.61839072263831 10.493054233869913 0 10.493054233869913 8.4698028365618754 0 0 0 0 -19.419697774763335 32.722942033965154 0 32.722942033965154 -13.855865636673343 0 0 0 0 -10.938145491565137 13.666033751719368 0 13.666033751719368 1.0173536153936689 0 0 0 0 -22.568981119227828 43.581444999663859 0 43.581444999663859 -47.898843225291657 0 0 0 0 -65.198430336411548 56.431656784649277 0 56.431656784649277 19.63601411442005 0 0 0 0 -22.633492987952195 57.473933351904165 0 57.473933351904165 10.990601208745318 0 0 0 0 -39.363435449690655 27.935108407805416 0 27.935108407805416 -4.038969171791523 0 0 0 0 -321.89015912709874 994.37217447469641 0 994.37217447469641 163.24350108438671 0 0 0 0 541.07880170999124 -907.07481494740148 0 -907.07481494740148 -1487.8556474642305 0 0 0 0 -10.21669189524215 5.7477582423530009 0 5.7477582423530009 5.3775193323160266 0 0 0 0 -56.392864033958176 14.632090902742334 0 14.632090902742334 -34.038399116247092 0 0 0 0 -213.45487473439425 -156.68705976864794 0 -156.68705976864794 -181.02646003686596 0 0 0 0 -5.6173436694225529 47.483536716364682 0 47.483536716364682 7.6319441308950218 0 0 0 0 -49.394079292833339 11.722711839291719 0 11.722711839291719 1.6284358723276 0 0 0 0 -66.795971465733601 21.723280334457513 0 21.723280334457513 27.604704510423744 0 0 0 0 -79.757566808082629 15.2274268538618 0 15.2274268538618 26.060090765555515 0 0 0 0 -177.38425241366349 -1087.9519608603164 0 -1087.9519608603164 -487.69718741678923 0 0 0 0 -30.295855827296634 -6.4171755556755414 0 -6.4171755556755414 -0.43619144216884642 0 0 0 0 -929.13403059241682 -2100.1055631882659 0 -2100.1055631882659 282.15908701129047 0 0 0 0 -2435.0395057522983 -105.94618104897276 0 -105.94618104897276 628.70388963961705 0 0 0 0 -1256.3217126317613 902.2025198909032 0 902.2025198909032 -126.34391582588634 0 0 0 0 -334.77301119832555 516.45435878379033 0 516.45435878379033 35.090738762804733 0 0 0 0 -594.38319025703822 265.70596844477052 0 265.70596844477052 76.199127677123215 0 0 0 0 -1279.7258875346743 359.96060292549896 0 359.96060292549896 156.94031394763601 0 0 0 0 -773.42024015760398 -408.11254617773983 0 -408.11254617773983 590.75786647950531 0 0 0 0 -631.76590537004813 -72.101806209210736 0 -72.101806209210736 82.627472970698363 0 0 0 0 -112.95732408424124 10.438492871821303 0 10.438492871821303 12.19328039578637 0 0 0 0 -645.22575922029137 -123.8931828694715 0 -123.8931828694715 147.16080683840937 0 0 0 0 -49.362678700868855 42.655861260728287 0 42.655861260728287 13.682742345434065 0 0 0 0 -30.489836185837817 31.345542518950637 0 31.345542518950637 3.9300115218067688 0 0 0 0 -608.58128401756403 -360.2485572320075 0 -360.2485572320075 247.21237198158639 0 0 0 0 -114.1164165296758 12.289601959594606 0 12.289601959594606 15.153746230480397 0 0 0 0 -522.12016027742357 -418.53332662160403 0 -418.53332662160403 74.084419790532138 0 0 0 0 -30.819284783703267 1.2111241604422105 0 1.2111241604422105 17.191097813636663 0 0 0 0 -524.97437757524312 -62.862840209546448 0 -62.862840209546448 15.213665640866111 0 0 0 0 -59.408906823436098 39.187118184072801 0 39.187118184072801 -10.655468298341059 0 0 0 0 -499.56208139657247 -32.246478692644587 0 -32.246478692644587 14.223682149623528 0 0 0 0 -328.74650754169852 -52.938542556675657 0 -52.938542556675657 16.700426693721965 0 0 0 0 -573.47902679510298 64.390775812476022 0 64.390775812476022 63.059273935656165 0 0 0 0 -588.18458501556324 -45.45513810704449 0 -45.45513810704449 98.155445738695562 0 0 0 0 -630.61048681075044 45.683564379823338 0 45.683564379823338 81.074533665790113 0 0 0 0 -390.03560022749298 336.75624147959206 0 336.75624147959206 -176.8818179753298 0 0 0 0 -640.16961725169676 66.662001413729286 0 66.662001413729286 63.204241456333818 0 0 0 0 -599.03315216682677 -107.41767393961072 0 -107.41767393961072 102.79544557862482 0 0 0 0 -748.24376345833298 -166.57024769514692 0 -166.57024769514692 81.576787436289123 0 0 0 0 -748.58913980530633 -15.028879190132102 0 -15.028879190132102 96.427576977362605 0 0 0 0 -698.47142308230832 -79.94448554136352 0 -79.94448554136352 143.86908904001393 0 0 0 0 -904.00023209197388 -78.89908000415744 0 -78.89908000415744 144.6075551785674 0 0 0 0 -644.67374141335313 -237.04347817361986 0 -237.04347817361986 123.26209978853331 0 0 0 0 -646.04962137705297 -259.59269801492474 0 -259.59269801492474 -63.227725229083717 0 0 0 0 -650.5911491386214 -183.8071766811513 0 -183.8071766811513 33.676207126881309 0 0 0 0 -582.70521047398506 -212.22186210271229 0 -212.22186210271229 44.74181127693555 0 0 0 0 -13.332291683757859 -22.905601078882768 0 -22.905601078882768 47.052591452548796 0 0 0 0 -627.19926355409552 -586.99946588227249 0 -586.99946588227249 -601.42114085888534 0 0 0 0 -683.91788405970874 -221.6664543334316 0 -221.6664543334316 74.875208419876799 0 0 0 0 -1141.021027730545 -966.3265491547827 0 -966.3265491547827 224.62318401587692 0 0 0 0 -3229.8165561086644 -3126.2085072506538 0 -3126.2085072506538 174.51270001715403 0 0 0 0 -1009.477755509608 -1537.0281683262779 0 -1537.0281683262779 -1594.0490079802248 0 0 0 0 -5491.2126876260445 -4104.1552719237288 0 -4104.1552719237288 -699.77713865171677 0 0 0 0 -3309.1556029287312 -2504.3483586761513 0 -2504.3483586761513 339.19790368826796 0 0 0 0 -1104.5327798984072 -3272.4683216482304 0 -3272.4683216482304 -5986.284531251119 0 0 0 0 -26.086477245305446 -12.230468967741849 0 -12.230468967741849 -8.9969459564330307 0 0 0 0 -781.9468807613448 -806.80446408817534 0 -806.80446408817534 -706.11553157114486 0 0 0 0 -495.21320359643869 -813.39219490110327 0 -813.39219490110327 -1076.0751458954437 0 0 0 0 -64.012911353587981 -29.867344918079588 0 -29.867344918079588 0.060712869592902008 0 0 0 0 -26.321726757467275 -1.5426539103011123 0 -1.5426539103011123 -2.6104716768210858 0 0 0 0 217.79546075266262 -164.53494457512861 0 -164.53494457512861 -388.12135576507467 0 0 0 0 -1222.9699368510737 -378.48064136869345 0 -378.48064136869345 297.36293304886732 0 0 0 0 -1376.0492158262168 195.29495156030629 0 195.29495156030629 557.07791522662524 0 0 0 0 -5491.7553487881232 2039.5902433089425 0 2039.5902433089425 337.12073463119191 0 0 0 0 -5486.5855654019833 224.93943912717714 0 224.93943912717714 572.30874899528578 0 0 0 0 -2457.3687559299724 -1120.567952299838 0 -1120.567952299838 -459.78851043798045 0 0 0 0 -524.89900974035845 -1392.3000793229412 0 -1392.3000793229412 -496.36632056694827 0 0 0 0 -373.01624545641243 -357.58509834667615 0 -357.58509834667615 -727.10928023561428 0 0 0 0 121.49516933539053 755.81900429878726 0 755.81900429878726 -202.53197435291207 0 0 0 0 -640.29267035922385 183.76969552315268 0 183.76969552315268 -15.08909114248921 0 0 0 0 -29.391977091778244 23.497762046224011 0 23.497762046224011 -636.81093815661688 0 0 0 0 -454.87619596766308 -138.99918064724397 0 -138.99918064724397 -505.36511255400558 0 0 0 0 -111.0782763117935 6.2206696749807406 0 6.2206696749807406 16.779068536182841 0 0 0 0 -636.7156296447065 -240.74651371253731 0 -240.74651371253731 81.430383352000717 0 0 0 0 -895.37585608579684 -465.35176476105335 0 -465.35176476105335 -545.16403767922634 0 0 0 0 -63.285009170627745 8.6754847825688444 0 8.6754847825688444 -10.503728271142677 0 0 0 0 -76.172148389974609 31.46995448076143 0 31.46995448076143 -5.9836723093312685 0 0 0 0 -70.069963661950169 9.0760195823383327 0 9.0760195823383327 -40.38564692676961 0 0 0 0 -3.6799391067361853 -3.1840290512224954 0 -3.1840290512224954 -2.4183214795766874 0 0 0 0 -144.01726234314265 44.284442296925612 0 44.284442296925612 -31.129393779929856 0 0 0 0 -110.95889710591291 82.835135390635401 0 82.835135390635401 -24.934292224431495 0 0 0 0 -2.2958860831849961 -1.6864204640029072 0 -1.6864204640029072 -1.0579361893851309 0 0 0 0 -56.658384658185241 13.987369995653372 0 13.987369995653372 -22.5879346901372 0 0 0 0 -62.926642403122969 47.904663323479454 0 47.904663323479454 -24.825112967410991 0 0 0 0 -88.809925894442131 27.144024322642593 0 27.144024322642593 -0.084480974362292183 0 0 0 0 -73.158491563401185 40.399740782305081 0 40.399740782305081 -15.663243155524583 0 0 0 0 -139.38493205176201 41.41050877768231 0 41.41050877768231 2.4761615163451722 0 0 0 0 -157.06380705752235 70.83702611512507 0 70.83702611512507 -21.621673080893324 0 0 0 0 -231.71527019678615 65.714588935033248 0 65.714588935033248 -3.4004350058349573 0 0 0 0 -234.31327527609392 48.461271550715288 0 48.461271550715288 -17.473346164584299 0 0 0 0 -237.09735285394709 39.865613792466824 0 39.865613792466824 0.016661156328288386 0 0 0 0 -299.53613855806179 67.827206983229473 0 67.827206983229473 3.2688865575632278 0 0 0 0 -309.25601314417509 37.805383866900314 0 37.805383866900314 0.056377667133118516 0 0 0 0 -360.76334507080901 68.731194352324493 0 68.731194352324493 16.801259057192468 0 0 0 0 -352.99304934098473 -15.781519405724739 0 -15.781519405724739 -42.854582579056725 0 0 0 0 -241.38694606354693 101.04444050051308 0 101.04444050051308 -15.446324579110726 0 0 0 0 -324.30928996196599 72.856444133937345 0 72.856444133937345 -9.5438490776114673 0 0 0 0 -117.19274944998324 147.13422741330206 0 147.13422741330206 -78.127931386105956 0 0 0 0 -398.1362994389201 142.69968053077139 0 142.69968053077139 60.568644176892533 0 0 0 0 -354.89819773146883 -94.146731063452819 0 -94.146731063452819 15.319695765191909 0 0 0 0 -522.44191136400332 -14.746489433945461 0 -14.746489433945461 27.47038856868982 0 0 0 0 -0.40834194767600707 -1.2766035341576867 0 -1.2766035341576867 -2.9066755051670943 0 0 0 0 -102.98096914528287 7.4597125162700593 0 7.4597125162700593 -8.7590795639697774 0 0 0 0 -102.16513450991579 34.704175795897783 0 34.704175795897783 9.0705773488242585 0 0 0 0 -110.11508066231909 16.871553275207475 0 16.871553275207475 8.0781858782338531 0 0 0 0 -516.75497961961082 13.077478216708329 0 13.077478216708329 45.258136853115388 0 0 0 0 -140.05719452907215 14.936600778546989 0 14.936600778546989 -2.8387692435322691 0 0 0 0 -0.53155188525406416 -0.40885857218546562 0 -0.40885857218546562 -0.91465123309829943 0 0 0 0 -320.12443221974536 47.56043815615454 0 47.56043815615454 -8.609069384604048 0 0 0 0 -284.24381059072402 -38.825944950152874 0 -38.825944950152874 -6.0796578165994646 0 0 0 0 -165.00244595471304 45.039112067400197 0 45.039112067400197 -0.041158473457788974 0 0 0 0 -132.50478276528156 25.559133453992828 0 25.559133453992828 -2.2580970723093969 0 0 0 0 -123.57237145504041 5.5655073788683112 0 5.5655073788683112 -37.976053635501415 0 0 0 0 -90.048577931709588 49.542609104641173 0 49.542609104641173 -27.376881838977152 0 0 0 0 -82.352464483643416 34.09184936188403 0 34.09184936188403 -7.0138348207915442 0 0 0 0 -99.107217627057253 36.168474580126073 0 36.168474580126073 0.7669233371488815 0 0 0 0 -106.53244247674593 8.6379977154896856 0 8.6379977154896856 -31.642042893099532 0 0 0 0 -49.498888110276312 56.945232377729255 0 56.945232377729255 -0.0097270557565493094 0 0 0 0 -45.739572843027418 41.498584347833557 0 41.498584347833557 -11.881926069396343 0 0 0 0 -46.57835710173822 47.038756163327434 0 47.038756163327434 -28.948159386669829 0 0 0 0 -50.8005300994555 34.822066109075195 0 34.822066109075195 22.270886561412226 0 0 0 0 -20.131199509818543 43.343913329107266 0 43.343913329107266 -15.994208976318419 0 0 0 0 -54.717136926163221 46.537347947094531 0 46.537347947094531 -11.010656022381383 0 0 0 0 -82.186572864127811 33.030451517322945 0 33.030451517322945 -10.937512671195918 0 0 0 0 -84.910118331470585 37.440135204087994 0 37.440135204087994 12.626267172860707 0 0 0 0 -62.224223023076775 51.657967493014553 0 51.657967493014553 10.452983358585357 0 0 0 0 -80.339259520929772 48.235878253945884 0 48.235878253945884 15.574530340133492 0 0 0 0 -58.875588968105149 41.332526576933901 0 41.332526576933901 -0.32671139613258049 0 0 0 0 -69.323874346155208 53.633699401398417 0 53.633699401398417 10.608941193290207 0 0 0 0 -79.782129445695318 30.602886375522189 0 30.602886375522189 0.10603540456281735 0 0 0 0 -67.782761356618721 51.656036396032505 0 51.656036396032505 8.4781619991579191 0 0 0 0 -69.844044868266792 48.000129897020315 0 48.000129897020315 57.815891103312197 0 0 0 0 -10.306840406299784 19.814249405847697 0 19.814249405847697 0.56788249387107903 0 0 0 0 -49.392707997205434 41.694840328453722 0 41.694840328453722 17.950913548812537 0 0 0 0 -44.819291854689197 22.433450052755859 0 22.433450052755859 2.3285288420795722 0 0 0 0 -45.83364064359921 60.336469046812397 0 60.336469046812397 25.01971736050379 0 0 0 0 -49.650700272788526 49.909642287774659 0 49.909642287774659 5.5034517022105547 0 0 0 0 -38.607971270146663 69.238803477101783 0 69.238803477101783 -1.0962045033838876 0 0 0 0 -44.900069999404934 36.825274173186926 0 36.825274173186926 -21.31993653145453 0 0 0 0 -29.307819590583676 60.180951583229898 0 60.180951583229898 -1.7903466790407947 0 0 0 0 -35.715541045443388 36.27362365220597 0 36.27362365220597 -12.470410538814804 0 0 0 0 -45.986408561126154 56.355588218788625 0 56.355588218788625 6.8491715460913838 0 0 0 0 -50.733345992141096 48.416546595583696 0 48.416546595583696 -23.345069052259365 0 0 0 0 -58.210127022670349 41.134646569810911 0 41.134646569810911 -12.952198029588544 0 0 0 0 -141.64102409068437 125.0983772866482 0 125.0983772866482 -65.907544028872508 0 0 0 0 -188.45257760260574 51.769573363397512 0 51.769573363397512 -22.318450936872068 0 0 0 0 -20.251485403468905 18.180441410399297 0 18.180441410399297 -0.9099424058675698 0 0 0 0 -75.967587680678889 67.471894272583796 0 67.471894272583796 -16.349414008314167 0 0 0 0 11.172182668466121 166.47301156290996 0 166.47301156290996 -149.67429565780731 0 0 0 0 76.362972240982344 250.21726148131427 0 250.21726148131427 -191.41832853976894 0 0 0 0 9.2744767484857107 37.520637914106018 0 37.520637914106018 2.1219012550740413 0 0 0 0 -13.026515533943893 55.992168289983113 0 55.992168289983113 -26.470356541024557 0 0 0 0 -53.957122696194347 73.117820124929779 0 73.117820124929779 -31.111049319756603 0 0 0 0 -15.617201652028598 63.434755621216027 0 63.434755621216027 -7.2025907298420861 0 0 0 0 -2.0216241334551341 -76.071584207879084 0 -76.071584207879084 -161.55228562225057 0 0 0 0 23.068382452511003 15.733470702178622 0 15.733470702178622 -0.83620919103125679 0 0 0 0 -28.959383432695176 249.72825827963243 0 249.72825827963243 -295.98657525013266 0 0 0 0 -466.88697631852119 467.58678608369837 0 467.58678608369837 -201.70470149048606 0 0 0 0 -752.19930791278603 -222.28860958280302 0 -222.28860958280302 -139.23716900267664 0 0 0 0 14.044636586928391 287.12777780802128 0 287.12777780802128 -640.49796837659096 0 0 0 0 -1162.4435784463501 410.27374145830623 0 410.27374145830623 -81.26918340298289 0 0 0 0 -0.80213976575737433 4.9847039937297097 0 4.9847039937297097 -2.6979700899122587 0 0 0 0 -533.0886178658111 -303.03456792678662 0 -303.03456792678662 -87.860609841849509 0 0 0 0 -1160.5127271375968 74.631378803017469 0 74.631378803017469 104.162228973325 0 0 0 0 -2.1349626169107978 10.140634340253996 0 10.140634340253996 -578.32059530331571 0 0 0 0 -43.201617259299383 -117.29249214310448 0 -117.29249214310448 -309.56405345090229 0 0 0 0 -0.012370915994836196 -0.22272202994821555 0 -0.22272202994821555 0.48389083945458644 0 0 0 0 -143.15010888655888 26.225115239413071 0 26.225115239413071 8.1163622561421107 0 0 0 0 -13.610306459882167 7.790546889425741 0 7.790546889425741 -2.5578376419173519 0 0 0 0 -1028.1383679998689 174.28868302657597 0 174.28868302657597 107.45996615931563 0 0 0 0 -978.6910672863014 301.83023152746728 0 301.83023152746728 -82.610823969917078 0 0 0 0 -2.0384895857079783 -0.64716862472960202 0 -0.64716862472960202 -1.9956153957705911 0 0 0 0 -513.45860896637896 262.92288951212868 0 262.92288951212868 -190.97228591543399 0 0 0 0 -258.91947328524839 -97.036421025821568 0 -97.036421025821568 -41.160409368144599 0 0 0 0 -60.157083970625536 21.119708319301026 0 21.119708319301026 1.5929123838033092 0 0 0 0 -0.40852790028640129 0.024766090161136844 0 0.024766090161136844 -1.2685016505209314 0 0 0 0 -29.153157142107375 -0.66551952759027699 0 -0.66551952759027699 -11.115265134385481 0 0 0 0 -42.395837755582761 31.959388227070235 0 31.959388227070235 -0.11572993928552933 0 0 0 0 -31.112614009391393 24.33517021067783 0 24.33517021067783 -14.206080050898215 0 0 0 0 -54.918031544686528 25.025854900582544 0 25.025854900582544 3.2673161572313916 0 0 0 0 -51.966520520145423 23.94013162091963 0 23.94013162091963 -7.5048906915471889 0 0 0 0 -34.602607116055879 29.025502897468272 0 29.025502897468272 -7.8066671486058112 0 0 0 0 -75.463093391124858 35.844880990949264 0 35.844880990949264 6.8117174088038155 0 0 0 0 -74.604961906942663 6.4122749805057033 0 6.4122749805057033 -8.3302780414087465 0 0 0 0 -775.0673165442422 -235.9491471928996 0 -235.9491471928996 109.17651605018372 0 0 0 0 -873.77677546854829 541.4372102146973 0 541.4372102146973 -389.70822034306605 0 0 0 0 -233.01343525787524 326.32791168491383 0 326.32791168491383 -325.18951732033293 0 0 0 0 -832.69629649346462 206.92035940177857 0 206.92035940177857 54.725952468917697 0 0 0 0 -84.662847091880394 -1.3501583023290209 0 -1.3501583023290209 -72.030205799052467 0 0 0 0 -3.7626475492469353 -4.0349175364642065 0 -4.0349175364642065 -4.2289079651291335 0 0 0 0 133.76619873533491 225.20299354435724 0 225.20299354435724 114.96909160345012 0 0 0 0 -81.913757108501159 94.487147735995677 0 94.487147735995677 353.90984316280765 0 0 0 0 -3.2244374532471056 1.5169854172699786 0 1.5169854172699786 0.24518455471297695 0 0 0 0 -57.28613804129418 16.044688132528819 0 16.044688132528819 117.03768064071073 0 0 0 0 46.003857251722366 56.92450892567058 0 56.92450892567058 -94.68251180803145 0 0 0 0 78.11847779317759 138.69890129685791 0 138.69890129685791 -7.2860293867768178 0 0 0 0 42.949924204265699 61.668241623890992 0 61.668241623890992 -43.225742132179676 0 0 0 0 220.06032539893204 -77.518758692250771 0 -77.518758692250771 -91.30509687375843 0 0 0 0 61.970716440700926 83.126440149130758 0 83.126440149130758 -131.35400458220511 0 0 0 0 -112.47686779947253 -118.88398333867485 0 -118.88398333867485 -67.104285339934563 0 0 0 0 -5.9203440047896265 2.3280952990212427 0 2.3280952990212427 -1.9221322857002936 0 0 0 0 -510.98012198338984 -186.50127703560815 0 -186.50127703560815 -4.8034812681733001 0 0 0 0 -39.732720263185911 -58.49994169780166 0 -58.49994169780166 -170.48355478681447 0 0 0 0 -288.06699035329802 11.019909792340002 0 11.019909792340002 -66.196386142628398 0 0 0 0 -405.20978529297281 -139.27311109238673 0 -139.27311109238673 85.306407309376709 0 0 0 0 -865.25287454406498 -72.588113677661795 0 -72.588113677661795 91.529816927963566 0 0 0 0 -972.6573411641657 37.551583495242483 0 37.551583495242483 153.44863104171554 0 0 0 0 -934.45801098743686 172.97283255737852 0 172.97283255737852 92.192832616726719 0 0 0 0 -854.84151610301342 10.764437683308643 0 10.764437683308643 153.95292851063664 0 0 0 0 -757.86213420756394 95.360862635823082 0 95.360862635823082 11.748294595350671 0 0 0 0 -742.37451417034026 166.75263207996136 0 166.75263207996136 55.237137743176845 0 0 0 0 -728.60739290513447 235.08590539985607 0 235.08590539985607 -138.14325560102998 0 0 0 0 -374.22840069845552 25.881798762473863 0 25.881798762473863 -38.560223603863392 0 0 0 0 -362.65278938356641 -34.306742758914993 0 -34.306742758914993 -36.949368476906329 0 0 0 0 -161.30779388730298 -15.834297636410156 0 -15.834297636410156 -303.95256009888408 0 0 0 0 -448.86686511320295 313.67593227633915 0 313.67593227633915 -582.8905268257613 0 0 0 0 64.756383901854861 -6.5346110862089972 0 -6.5346110862089972 -118.80015945695914 0 0 0 0 -196.20880221588595 -94.269988007887889 0 -94.269988007887889 -92.91116164529285 0 0 0 0 -72.799423977558035 74.444831289858712 0 74.444831289858712 -183.45090209268665 0 0 0 0 37.750246852399869 -28.232406383126431 0 -28.232406383126431 -166.41326973420428 0 0 0 0 40.495589083326195 -5.3200744316052351 0 -5.3200744316052351 -64.93553341613233 0 0 0 0 126.97004147189728 -27.724489422504121 0 -27.724489422504121 -58.53584071718808 0 0 0 0 -53.694467719264793 -48.582689678849761 0 -48.582689678849761 -21.018958055502921 0 0 0 0 91.332785372214857 10.069251812599646 0 10.069251812599646 -86.141535759363933 0 0 0 0 -46.956837749380611 -39.917011877697689 0 -39.917011877697689 -15.387350184834993 0 0 0 0 178.40967961339629 -192.91111290459912 0 -192.91111290459912 -52.2432913562549 0 0 0 0 -446.47567597712623 57.047384482305915 0 57.047384482305915 -69.530491715186145 0 0 0 0 -403.71259986463701 -41.032283299809023 0 -41.032283299809023 -48.929072899336234 0 0 0 0 -444.28808758909145 47.046650864205958 0 47.046650864205958 -167.16538245630295 0 0 0 0 -290.92692117788829 -29.467430145746221 0 -29.467430145746221 -159.76652586940713 0 0 0 0 18.498988627077154 -11.532271756378179 0 -11.532271756378179 -19.121500481449978 0 0 0 0 -446.49816728147562 -208.47441925699707 0 -208.47441925699707 44.820944694991454 0 0 0 0 -492.08787101236521 -121.82262837909116 0 -121.82262837909116 -117.28877639583766 0 0 0 0 -605.1018380517271 -124.35065297806258 0 -124.35065297806258 30.479063913746359 0 0 0 0 -571.75043100255425 -175.34822864252209 0 -175.34822864252209 107.8585954221605 0 0 0 0 -821.06244100620097 175.85569911716129 0 175.85569911716129 -12.540976470068358 0 0 0 0 -703.98587922513252 -32.579421684819295 0 -32.579421684819295 40.036921926915966 0 0 0 0 -538.47756557006505 8.5714094938693961 0 8.5714094938693961 -33.30594129189285 0 0 0 0 -1468.351697364953 352.32478644472098 0 352.32478644472098 497.51677560987036 0 0 0 0 -113.83414849359019 -18.791840538100338 0 -18.791840538100338 11.914352968927917 0 0 0 0 25.493343965470558 20.748696154349943 0 20.748696154349943 -0.53142004599999382 0 0 0 0 71.663712882611435 6.1658324904416304 0 6.1658324904416304 -0.61416329700637107 0 0 0 0 -49.868526037433185 -4.452586108388914 0 -4.452586108388914 -8.296288090833059 0 0 0 0 -14.107982421842166 -0.8926294622270774 0 -0.8926294622270774 -3.2317382434078916 0 0 0 0 -49.228202384536417 15.010406556863387 0 15.010406556863387 -1.0018210814901067 0 0 0 0 -38.805540382745676 -5.4552522949431932 0 -5.4552522949431932 -10.46673108689356 0 0 0 0 -19.261157879283587 0.44121059111813565 0 0.44121059111813565 15.441134588371725 0 0 0 0 -73.25070411953493 10.083689957117485 0 10.083689957117485 0.29635239264757729 0 0 0 0 -177.33498334226897 201.87978691573383 0 201.87978691573383 -1736.3165942334158 0 0 0 0 -42.22699491889216 -14.48734472664546 0 -14.48734472664546 2.8499885510127569 0 0 0 0 -33.395859220705461 -13.633982549596112 0 -13.633982549596112 -0.88687218629638664 0 0 0 0 -22.993029616300277 0.39900362729872541 0 0.39900362729872541 2.3818442448540793 0 0 0 0 -20.992464299837593 -4.4274030145652432 0 -4.4274030145652432 0.045448294820744195 0 0 0 0 -38.8506797079026 -7.2058028259200455 0 -7.2058028259200455 0.98715358565277711 0 0 0 0 -19.463818393131646 -7.592360921077784 0 -7.592360921077784 -5.6243716284529341 0 0 0 0 -95.789869413070846 40.874097198821801 0 40.874097198821801 -21.985961143244822 0 0 0 0 -62.218055715573428 -5.1568581580017963 0 -5.1568581580017963 0.37669716724485625 0 0 0 0 -66.136467865289887 -8.3318325343989272 0 -8.3318325343989272 4.8677567868771803 0 0 0 0 24.716085135092726 68.160347813005956 0 68.160347813005956 80.828662550666195 0 0 0 0 14.189813151722774 -16.418827130634327 0 -16.418827130634327 27.911911154555128 0 0 0 0 -15.332595106332064 -4.0079042679681152 0 -4.0079042679681152 9.7593367179550334 0 0 0 0 -101.89472253044369 -132.53391522564289 0 -132.53391522564289 -30.071794501591185 0 0 0 0 -32.975127218075158 -9.7137215367064869 0 -9.7137215367064869 0.10138230624088962 0 0 0 0 -65.563536001092871 35.431674918801036 0 35.431674918801036 161.67393040837487 0 0 0 0 -94.979625213272811 -60.336940384931495 0 -60.336940384931495 -22.124832628165677 0 0 0 0 15.986980514600873 80.884742338259457 0 80.884742338259457 48.920390413178211 0 0 0 0 -88.954688096098835 -21.940997019965835 0 -21.940997019965835 -70.492611752370976 0 0 0 0 -85.523657279307372 -41.543638607203093 0 -41.543638607203093 14.111846102469826 0 0 0 0 -198.79753327654907 -210.51307419146633 0 -210.51307419146633 -174.93070722399898 0 0 0 0 -314.62539512015064 -257.8786966062853 0 -257.8786966062853 -71.043249635970824 0 0 0 0 -226.09616555491812 -239.94729518356098 0 -239.94729518356098 -100.85730214092564 0 0 0 0 -292.64578223362332 -222.05220988591918 0 -222.05220988591918 5.1696737158317774 0 0 0 0 -278.31695403276535 -221.02645743275912 0 -221.02645743275912 -90.386932853721646 0 0 0 0 -420.29529793471738 -309.2803603015409 0 -309.2803603015409 -73.067538610087468 0 0 0 0 -257.0616998650512 -31.977517048669938 0 -31.977517048669938 -423.28286557995034 0 0 0 0 -529.34696608589729 275.19143105198918 0 275.19143105198918 -541.95572883994464 0 0 0 0 -206.86675602348987 -135.72441911097803 0 -135.72441911097803 -282.651131152777 0 0 0 0 -324.46889702357294 -195.07108554473939 0 -195.07108554473939 -47.301063051445453 0 0 0 0 -156.32409158782684 -154.74339712640722 0 -154.74339712640722 -55.498575557520326 0 0 0 0 -352.08278536437138 -33.10843249744903 0 -33.10843249744903 273.45626733663357 0 0 0 0 -291.79874969873345 -241.76050500022075 0 -241.76050500022075 -42.396271052900829 0 0 0 0 -1.5479028683799925 1.1650839259870622 0 1.1650839259870622 4.2399887541796701 0 0 0 0 173.57825319048425 220.20724109280582 0 220.20724109280582 140.87260709645943 0 0 0 0 -82.421096872596536 110.24144082896328 0 110.24144082896328 -28.801895443192997 0 0 0 0 -98.401582390681142 -40.296772883723406 0 -40.296772883723406 26.148800476068573 0 0 0 0 -38.293374833978305 76.126069031568932 0 76.126069031568932 88.47784823037 0 0 0 0 -79.81559176837618 87.506161465697915 0 87.506161465697915 -313.15656759253079 0 0 0 0 -81.180537820272662 -9.4983415208076565 0 -9.4983415208076565 17.848880637044601 0 0 0 0 -11.842403957230943 -6.674589731682147 0 -6.674589731682147 -26.495964623184278 0 0 0 0 -285.1408865659032 301.37332116865127 0 301.37332116865127 305.62869506524385 0 0 0 0 -202.12359701433161 -330.92373020860555 0 -330.92373020860555 212.06447179878592 0 0 0 0 -63.46765142170625 38.319407823472829 0 38.319407823472829 -74.700087243658345 0 0 0 0 -85.989518983933522 106.34574790402522 0 106.34574790402522 10.93746067154143 0 0 0 0 -139.77041619036027 48.366043916069316 0 48.366043916069316 -12.623426631078473 0 0 0 0 -137.28501383805997 35.348233075578719 0 35.348233075578719 -0.024674407084603445 0 0 0 0 -126.70504052873002 18.644314119405863 0 18.644314119405863 2.1300166025396265 0 0 0 0 -116.37557105941232 31.049676454922974 0 31.049676454922974 -28.641448340875286 0 0 0 0 -93.167328633411671 13.978608728335907 0 13.978608728335907 -17.889887613253471 0 0 0 0 -104.48432927318208 43.370759784101807 0 43.370759784101807 -1.3874238396164174 0 0 0 0 -3.734272415791196 6.3106675636231273 0 6.3106675636231273 13.673279159935456 0 0 0 0 -115.16048030092497 25.039062967691507 0 25.039062967691507 -26.12539345845471 0 0 0 0 -262.69985325609741 34.640735449151293 0 34.640735449151293 62.015712831926066 0 0 0 0 -112.38210310199065 -54.768461185557499 0 -54.768461185557499 62.304688220935532 0 0 0 0 -225.58259540988365 -125.32132121079212 0 -125.32132121079212 -43.786405656796887 0 0 0 0 -142.86519312285236 -42.993498237819949 0 -42.993498237819949 33.539264547354833 0 0 0 0 -143.09217148338212 -54.763500744600606 0 -54.763500744600606 75.081242279957223 0 0 0 0 -181.52412051707506 -79.714206153916166 0 -79.714206153916166 64.669166792320539 0 0 0 0 -105.28846978256479 93.606330987579895 0 93.606330987579895 27.874750861930806 0 0 0 0 -205.05363194007077 -32.84230137937675 0 -32.84230137937675 79.455806042577024 0 0 0 0 -27.306969061093611 -4.0144760905415353 0 -4.0144760905415353 8.5389674935982605 0 0 0 0 -75.621118042094167 -6.7620617615872334 0 -6.7620617615872334 11.436218149753586 0 0 0 0 -75.569678372587077 -5.5253826239154478 0 -5.5253826239154478 4.6649605276397779 0 0 0 0 -63.497068434629853 -7.7355271426013559 0 -7.7355271426013559 2.3539821578330464 0 0 0 0 -9.4456681265093891 -1.5151719038025533 0 -1.5151719038025533 -0.1244976209392874 0 0 0 0 49.675668365205638 108.02813488570973 0 108.02813488570973 149.42508988922054 0 0 0 0 -132.7190568363294 -0.80964250602482934 0 -0.80964250602482934 25.299204190814407 0 0 0 0 -132.51683146157302 25.677196272101583 0 25.677196272101583 17.245870160339678 0 0 0 0 0.9060302065149699 -3.2712837936212722 0 -3.2712837936212722 2.7575742774822589 0 0 0 0 -161.41013104637386 46.539727077462345 0 46.539727077462345 48.190795620317033 0 0 0 0 -85.511982485870249 -5.9177436430607031 0 -5.9177436430607031 -55.110391753540171 0 0 0 0 -72.824034769870423 -20.237127644530567 0 -20.237127644530567 9.4048435421604157 0 0 0 0 -123.8300276605878 11.364083180520993 0 11.364083180520993 17.011076269954174 0 0 0 0 -125.20886956652976 46.948993655061031 0 46.948993655061031 6.6217813780172037 0 0 0 0 -106.78598570439499 40.515970998104876 0 40.515970998104876 -0.54723361626406586 0 0 0 0 -145.31889063934796 28.208934125910673 0 28.208934125910673 12.464554750835759 0 0 0 0 -130.72944554084097 12.732796950660031 0 12.732796950660031 21.023681058196985 0 0 0 0 -130.71839200821705 21.673904362191934 0 21.673904362191934 3.6522776867004723 0 0 0 0 -120.0426647226559 24.748387964529684 0 24.748387964529684 9.2394054560409131 0 0 0 0 -122.90644940719358 31.494305271193639 0 31.494305271193639 -5.5763872692468794 0 0 0 0 -94.697292969678529 13.704024741870853 0 13.704024741870853 1.3924635886728538 0 0 0 0 -97.993735368072521 25.025042991605005 0 25.025042991605005 -33.529866824046621 0 0 0 0 -73.68461334661697 43.782429012661396 0 43.782429012661396 -19.269763215526837 0 0 0 0 -85.81182475053356 74.592278883876133 0 74.592278883876133 -96.389093725011662 0 0 0 0 -111.1078475274262 56.784524589960711 0 56.784524589960711 -23.476640696010691 0 0 0 0 -93.018780838684961 21.077201290381268 0 21.077201290381268 26.167500853940965 0 0 0 0 -120.2097554889333 71.453549019649017 0 71.453549019649017 14.698831571097799 0 0 0 0 -16.773501590704086 14.339760897088041 0 14.339760897088041 5.5292361556211835 0 0 0 0 -87.65221089523402 100.70824090335555 0 100.70824090335555 -57.057223915437135 0 0 0 0 -169.76391548833635 13.930581708975751 0 13.930581708975751 -24.002904139049861 0 0 0 0 -188.52356667607091 41.513832956254191 0 41.513832956254191 3.9240355726105918 0 0 0 0 -168.22595289460151 50.016700104745723 0 50.016700104745723 7.4738433586314841 0 0 0 0 -132.90108949190471 29.804074966550615 0 29.804074966550615 -17.172372801496749 0 0 0 0 -137.42600575141842 25.622741549034799 0 25.622741549034799 5.2841362858316643 0 0 0 0 -135.19612016688916 33.716449120573088 0 33.716449120573088 -18.969361437855696 0 0 0 0 -131.90576133865397 37.429711119687454 0 37.429711119687454 -54.210642921460021 0 0 0 0 -118.42892766150794 -11.000977979933623 0 -11.000977979933623 18.741934657391205 0 0 0 0 -150.88350160718255 38.181394346486286 0 38.181394346486286 -15.771339312312193 0 0 0 0 -219.59531527446234 45.642089640018639 0 45.642089640018639 -16.554483381059072 0 0 0 0 -26.146517869504891 -1.3463752080455436 0 -1.3463752080455436 10.847156170981428 0 0 0 0 -325.25752770440886 -48.494031781101683 0 -48.494031781101683 301.51009379484185 0 0 0 0 -175.18396135755756 188.13928030679176 0 188.13928030679176 60.252131254210781 0 0 0 0 -131.26173521854798 211.10565917088672 0 211.10565917088672 68.364462636108499 0 0 0 0 -51.248791945254197 95.113304875410449 0 95.113304875410449 -35.9427293969743 0 0 0 0 -91.498804367243764 58.407068740207478 0 58.407068740207478 -10.075466808936747 0 0 0 0 -53.147051690801163 123.31146943207023 0 123.31146943207023 -48.425833714064538 0 0 0 0 -44.31902519057985 132.87588650253588 0 132.87588650253588 -93.538360752821063 0 0 0 0 -38.992225187612348 103.36251398881313 0 103.36251398881313 -67.978554650423803 0 0 0 0 -137.66614922628651 162.76266599831388 0 162.76266599831388 -47.463115011291848 0 0 0 0 -140.36397420479625 159.97183517778694 0 159.97183517778694 -3.5242472043910311 0 0 0 0 -132.04242976813111 176.37932908880748 0 176.37932908880748 -69.855627046510108 0 0 0 0 -196.14588111171906 112.59126259276468 0 112.59126259276468 -98.135391460949904 0 0 0 0 -72.533339931316732 178.53914831869724 0 178.53914831869724 -196.19050314579044 0 0 0 0 -167.91023651904834 204.69588862807518 0 204.69588862807518 -192.10209201175348 0 0 0 0 -71.000575681086048 -12.539259322627032 0 -12.539259322627032 -174.36733587041414 0 0 0 0 -117.00558290533081 89.6604232130735 0 89.6604232130735 -17.831201101449551 0 0 0 0 -31.115509093389846 -49.203660218769983 0 -49.203660218769983 -21.899086751678624 0 0 0 0 -8.2461824201527634 5.503974563322771 0 5.503974563322771 -3.1871224650599288 0 0 0 0 -30.95069803440856 -39.598996900623149 0 -39.598996900623149 17.809040204473717 0 0 0 0 -16.904638636426796 -4.4736374486612931 0 -4.4736374486612931 4.3960459004301313 0 0 0 0 2.585340362212321 -13.765420007490548 0 -13.765420007490548 -8.3009287211761205 0 0 0 0 -45.459532808279619 65.596505235966106 0 65.596505235966106 -71.591448127923286 0 0 0 0 -9.0175405530899297 -4.8512142193146701 0 -4.8512142193146701 -50.354224361001343 0 0 0 0 -71.523424545543065 -4.5605147919685578 0 -4.5605147919685578 -3.0255507114687106 0 0 0 0 -60.844415507819406 -4.8352441516243516 0 -4.8352441516243516 5.270975247087506 0 0 0 0 -160.6947177885304 74.439247265072026 0 74.439247265072026 37.171766600185038 0 0 0 0 -7.9178796154254769 4.4362430505489527 0 4.4362430505489527 2.6528281898149517 0 0 0 0 -60.928998704861442 16.072172520193362 0 16.072172520193362 22.582380520201696 0 0 0 0 -63.62537638714582 17.819437009381179 0 17.819437009381179 3.5459690795024783 0 0 0 0 -71.541271396432421 -1.2622248768770987 0 -1.2622248768770987 45.880207015043425 0 0 0 0 -44.295996015150408 18.4271346605628 0 18.4271346605628 32.262515744775591 0 0 0 0 -359.42881329185911 209.78796087030332 0 209.78796087030332 114.35604067333406 0 0 0 0 -408.70238249326212 -545.08632757794203 0 -545.08632757794203 -360.24434634748832 0 0 0 0 -72.834794676595976 -14.216077826907471 0 -14.216077826907471 6.1132990014360349 0 0 0 0 -35.775092142110225 0.013144676982847159 0 0.013144676982847159 28.114337036522556 0 0 0 0 -103.30985415767645 -310.01799529480013 0 -310.01799529480013 -369.60700172204088 0 0 0 0 -506.7114972473064 -329.46034447727743 0 -329.46034447727743 -185.64112193852088 0 0 0 0 -940.58925932637067 -350.4326324004835 0 -350.4326324004835 -145.40904191875052 0 0 0 0 -1042.3564803770096 -577.65363779692848 0 -577.65363779692848 -195.90308124190051 0 0 0 0 -660.68369856668869 -377.08642681922265 0 -377.08642681922265 -238.02667423966159 0 0 0 0 -872.29123572426033 -403.64976647022013 0 -403.64976647022013 -145.13786883907414 0 0 0 0 -810.17611340686562 -459.7472920149944 0 -459.7472920149944 -326.61666745597176 0 0 0 0 -582.86801215373271 -328.20030149532522 0 -328.20030149532522 -231.53067529879445 0 0 0 0 0.45419594721668943 9.3548923175855805 0 9.3548923175855805 4.0579256061307483 0 0 0 0 -33.956805103162367 35.185291446733103 0 35.185291446733103 16.612552738145467 0 0 0 0 127.06886977679642 129.40495543592124 0 129.40495543592124 32.419808682338044 0 0 0 0 -983.42307257502398 -387.80215287077226 0 -387.80215287077226 -204.59036760452364 0 0 0 0 -5.6055519813152301 2.4047889765392512 0 2.4047889765392512 2.7857356841992384 0 0 0 0 167.15966034404119 -40.022949412859816 0 -40.022949412859816 9.3127223285846412 0 0 0 0 -110.37065232337773 32.937587419064585 0 32.937587419064585 14.551490523744178 0 0 0 0 -83.278056971998012 3.2623125504637756 0 3.2623125504637756 17.166708112451488 0 0 0 0 83.000906014640009 -133.85657524696663 0 -133.85657524696663 -64.213062797343582 0 0 0 0 83.193670854219818 -113.35954449666127 0 -113.35954449666127 0.053868836370384088 0 0 0 0 -27.057289016453765 -12.194651026760724 0 -12.194651026760724 19.881654896624514 0 0 0 0 -98.143203932471806 26.539834538592913 0 26.539834538592913 3.4028955795733964 0 0 0 0 -109.34546980056621 1.1378023577840395 0 1.1378023577840395 29.672916594043926 0 0 0 0 -14.135854550839156 -13.115600801215578 0 -13.115600801215578 20.492564474343432 0 0 0 0 -165.5199239544454 9.8281309970761868 0 9.8281309970761868 73.091910841221534 0 0 0 0 -63.808463419336476 -105.07987358536457 0 -105.07987358536457 63.644693332468819 0 0 0 0 -119.74361269628571 -6.1786235552217477 0 -6.1786235552217477 59.145381508504215 0 0 0 0 -94.264902139460901 10.693318380165806 0 10.693318380165806 44.120065688547129 0 0 0 0 -36.018855406174154 -6.8034136747492653 0 -6.8034136747492653 22.472915453950968 0 0 0 0 -71.68304621441348 15.805660965936113 0 15.805660965936113 13.34770411331256 0 0 0 0 -44.41294605670555 -22.352831492092037 0 -22.352831492092037 -92.001342767926872 0 0 0 0 -65.150522481846565 -39.296573312826922 0 -39.296573312826922 -0.96776402448267618 0 0 0 0 -84.766599755598577 2.8257176926377134 0 2.8257176926377134 9.0193072161095191 0 0 0 0 -114.81478155584773 -19.862125090337031 0 -19.862125090337031 61.513008842046474 0 0 0 0 -122.99488884185848 9.2248762234912647 0 9.2248762234912647 18.000550048732293 0 0 0 0 -79.766708254217519 -8.6766541367399554 0 -8.6766541367399554 24.574229514667195 0 0 0 0 -78.601979158085101 -0.28965529122649869 0 -0.28965529122649869 8.9915947323967238 0 0 0 0 -100.63170631494722 7.7150759986316189 0 7.7150759986316189 12.821714845170618 0 0 0 0 -50.582116349057799 -16.828676937829613 0 -16.828676937829613 26.811484918225474 0 0 0 0 -102.27024728800461 12.441212419249723 0 12.441212419249723 21.607202733390295 0 0 0 0 -102.17984932530817 12.095441982572765 0 12.095441982572765 16.936428330591298 0 0 0 0 -27.268009682424108 10.71966973881996 0 10.71966973881996 -0.2590592934498801 0 0 0 0 -99.027318514097715 17.489423741000337 0 17.489423741000337 11.738131462107958 0 0 0 0 -98.950025677375379 19.355045107776959 0 19.355045107776959 17.961108049713403 0 0 0 0 -108.97805569724733 22.548896948062293 0 22.548896948062293 61.156307596516854 0 0 0 0 -119.59827093951753 0.78848886599280377 0 0.78848886599280377 26.126834365789819 0 0 0 0 -134.45116494508693 9.0643061999476231 0 9.0643061999476231 66.826850305109986 0 0 0 0 -145.06452156942396 21.63373621200094 0 21.63373621200094 63.951860030341891 0 0 0 0 -439.43548592850857 84.861284089554147 0 84.861284089554147 48.048091756085711 0 0 0 0 -138.20551790979516 16.98803428168236 0 16.98803428168236 59.944946360495777 0 0 0 0 34.799890844275069 36.097582281803966 0 36.097582281803966 -26.112057794862494 0 0 0 0 191.27080050427321 185.17475531336015 0 185.17475531336015 -76.377427440269457 0 0 0 0 -166.67007398925853 53.514316435988547 0 53.514316435988547 85.597075839666104 0 0 0 0 -4.8584338617711182 -1.7246168831582906 0 -1.7246168831582906 1.5640467591085478 0 0 0 0 -97.587346046726452 70.755197116510544 0 70.755197116510544 79.151522244093485 0 0 0 0 -10.585892432471155 59.250961432907388 0 59.250961432907388 31.18419504226722 0 0 0 0 -84.651208757371933 10.166038061519203 0 10.166038061519203 -2.9510065983631648 0 0 0 0 -86.845410677662585 8.6695475349740718 0 8.6695475349740718 -0.21937920083837525 0 0 0 0 -112.77047949489497 3.9850559392168634 0 3.9850559392168634 -2.9286457160328609 0 0 0 0 -82.152232828608248 8.6447730677236905 0 8.6447730677236905 -2.0896768743541543 0 0 0 0 1.071836864300181 -1.7335994469158322 0 -1.7335994469158322 -0.38646898553121956 0 0 0 0 -220.55674519350578 17.156657776013503 0 17.156657776013503 9.4470863415382382 0 0 0 0 -132.64159287275834 73.647546920365926 0 73.647546920365926 -26.238327787468279 0 0 0 0 -50.45350611719914 16.509743939688974 0 16.509743939688974 -27.591067221692811 0 0 0 0 -13.830290021465714 1.8719796580496393 0 1.8719796580496393 0.16406651563261931 0 0 0 0 -19.903308910201304 9.2434991986317527 0 9.2434991986317527 -45.038127219538751 0 0 0 0 -65.648745076934574 27.859334769392945 0 27.859334769392945 -25.306547423008283 0 0 0 0 -66.290005876639043 25.364839859180961 0 25.364839859180961 -34.521690463513096 0 0 0 0 -65.062901461933507 24.791649462456689 0 24.791649462456689 -8.2519521113758856 0 0 0 0 -74.765981776916306 20.651886835844266 0 20.651886835844266 -7.6330733509207676 0 0 0 0 -94.341123101708945 39.771584438084574 0 39.771584438084574 -20.10200694709124 0 0 0 0 -79.265689591862611 8.1439961766232045 0 8.1439961766232045 -6.1344087561246852 0 0 0 0 -22.428011287282004 24.613851616235877 0 24.613851616235877 -8.8130100503221005 0 0 0 0 -85.135946568741929 13.634328119285783 0 13.634328119285783 -5.2737825609128777 0 0 0 0 -81.20888928513159 9.4090019266923264 0 9.4090019266923264 -6.9578354376326388 0 0 0 0 -75.282200797199039 8.9790719327211264 0 8.9790719327211264 -9.4453937779380794 0 0 0 0 -85.219982816619449 7.3893345594801758 0 7.3893345594801758 0.78762111267587898 0 0 0 0 -76.968192876694957 0.43005314248148352 0 0.43005314248148352 0.080929247343021871 0 0 0 0 -33.537096283050232 -4.9230708467461994 0 -4.9230708467461994 4.6715726404006421 0 0 0 0 -65.005380317466916 -3.0476931865077859 0 -3.0476931865077859 0.14829277984426881 0 0 0 0 -42.907625195842854 -1.1801782314743328 0 -1.1801782314743328 0.46443991914937133 0 0 0 0 -32.375121334909636 2.7406614920690799 0 2.7406614920690799 1.4515705111161878 0 0 0 0 -59.710539757405058 -7.234524130266891 0 -7.234524130266891 1.4593814727668359 0 0 0 0 -23.724930298078107 4.8099199173138913 0 4.8099199173138913 7.773397279672281 0 0 0 0 -71.537362265502452 14.684495802094716 0 14.684495802094716 -17.985948311888933 0 0 0 0 -74.192346734169405 24.565059738331456 0 24.565059738331456 -18.898393158979161 0 0 0 0 -33.342994039224095 1.2785631287823662 0 1.2785631287823662 0.94637243158243578 0 0 0 0 -34.118007875548074 0.49390867674145511 0 0.49390867674145511 -5.908364975230846 0 0 0 0 -36.8283700311149 7.0940391944213843 0 7.0940391944213843 -24.942514006514102 0 0 0 0 -84.724760776793119 28.442451383823936 0 28.442451383823936 -27.96741996016226 0 0 0 0 -91.017732895561494 28.129693308841524 0 28.129693308841524 -16.948922659430536 0 0 0 0 -1.9403241413448313 10.629539391408109 0 10.629539391408109 -1.8820522914594788 0 0 0 0 -25.72022669057057 24.924276764970926 0 24.924276764970926 -10.866072527961625 0 0 0 0 -83.351752549642697 20.177218465381884 0 20.177218465381884 -19.208915164777864 0 0 0 0 -47.557135731467156 3.1497885453627106 0 3.1497885453627106 3.7620376781184692 0 0 0 0 -78.20253282035992 12.465067039929636 0 12.465067039929636 -12.849302229979003 0 0 0 0 -2408.0852071563422 -390.21415583663475 0 -390.21415583663475 -428.80490439219557 0 0 0 0 -1543.9878357846392 -274.64528118514761 0 -274.64528118514761 -382.04239190239241 0 0 0 0 -1404.3175926956173 -471.28175285870452 0 -471.28175285870452 -566.88627423364142 0 0 0 0 -2155.995009915132 -825.33314038077378 0 -825.33314038077378 -420.39527869826998 0 0 0 0 -2085.4243887230987 -451.79503378108234 0 -451.79503378108234 -420.27886699705141 0 0 0 0 -1961.7292593001039 -412.16094387672547 0 -412.16094387672547 -407.70061661166528 0 0 0 0 -5.467612293515387 -6.0658205876424063 0 -6.0658205876424063 5.750130387939409 0 0 0 0 -2429.6832423265441 -530.69115763821401 0 -530.69115763821401 -246.00528991241595 0 0 0 0 -5740.5406997235768 -1501.9087253157149 0 -1501.9087253157149 -536.29508615087207 0 0 0 0 -2117.1081186627562 -606.93054337536046 0 -606.93054337536046 -425.64633936035671 0 0 0 0 -5382.5371128730367 -565.67781197297222 0 -565.67781197297222 192.96422211752042 0 0 0 0 -4314.9927467040252 -1045.8010048910801 0 -1045.8010048910801 390.83262854184858 0 0 0 0 -4217.8227393760171 -388.65376037369191 0 -388.65376037369191 754.5668702277078 0 0 0 0 -5498.1560060349439 -873.97169205808495 0 -873.97169205808495 577.84372714782444 0 0 0 0 -4531.0469321496457 -1387.0515966880926 0 -1387.0515966880926 473.99838308037664 0 0 0 0 -4329.8273365477507 -846.61233875705625 0 -846.61233875705625 120.34889306286101 0 0 0 0 -4065.982639857084 -1075.2598385878409 0 -1075.2598385878409 304.56412440273039 0 0 0 0 -4045.5509049242246 -1143.349203203906 0 -1143.349203203906 165.01033804939027 0 0 0 0 -3844.2390100406046 -1644.0659162383834 0 -1644.0659162383834 510.23732547082898 0 0 0 0 -5500.7437381285263 -2434.2542162065838 0 -2434.2542162065838 939.41384749763472 0 0 0 0 -716.18071017537295 -1693.4132775745006 0 -1693.4132775745006 -408.26937009191647 0 0 0 0 -4.1279248294667141 -4.055211989122995 0 -4.055211989122995 7.3078516363815016 0 0 0 0 -4433.0422844562272 -1841.1907496611434 0 -1841.1907496611434 232.96766448588804 0 0 0 0 -2730.8282611269096 -19.927662995204287 0 -19.927662995204287 -263.08929936508093 0 0 0 0 3.7479364936531994 -6.8081030109750031 0 -6.8081030109750031 13.013423024217026 0 0 0 0 -2487.2207530097367 -1667.3256979565544 0 -1667.3256979565544 5.0075030071666333 0 0 0 0 -6.0437978506099199 -11.286823775305862 0 -11.286823775305862 12.729790938957253 0 0 0 0 -3886.6918444016774 -1007.2462889157678 0 -1007.2462889157678 380.69171423732087 0 0 0 0 -1177.765033869935 -49.271597447937665 0 -49.271597447937665 247.86593142814309 0 0 0 0 -874.94966132978152 -651.34153269987291 0 -651.34153269987291 -536.73904296120418 0 0 0 0 -813.98327639236959 -616.00258349531896 0 -616.00258349531896 385.7943741806439 0 0 0 0 -454.20168287195702 -372.51198406115441 0 -372.51198406115441 3.1656510042521404 0 0 0 0 -931.97866728206282 -263.12051987594396 0 -263.12051987594396 166.98156356943127 0 0 0 0 -1000.6372292547458 -216.85573514431599 0 -216.85573514431599 136.19863882546133 0 0 0 0 -877.12407843842084 -93.317512908481604 0 -93.317512908481604 137.41625923604715 0 0 0 0 -1161.4585033098556 -88.643116197649306 0 -88.643116197649306 142.69458385778876 0 0 0 0 -951.22820837460313 78.592835872961132 0 78.592835872961132 26.148098387076971 0 0 0 0 -1376.8554398816923 35.889477135796369 0 35.889477135796369 24.506112531779451 0 0 0 0 -1299.4776076839626 -26.219761090845168 0 -26.219761090845168 73.686143277222982 0 0 0 0 -1107.3346378762217 -261.63748476861269 0 -261.63748476861269 -398.95033168057489 0 0 0 0 -1020.8356853425212 -231.84023887233411 0 -231.84023887233411 129.12182389453119 0 0 0 0 0.21736870154273902 -0.48720667222328018 0 -0.48720667222328018 0.25017574162514578 0 0 0 0 -363.08272385636519 -55.735974582021754 0 -55.735974582021754 252.98329189348942 0 0 0 0 -997.37237256007211 92.37102122736087 0 92.37102122736087 91.202795401034209 0 0 0 0 -791.38491389636329 110.14521282117971 0 110.14521282117971 90.397001987720614 0 0 0 0 -784.97651460309862 138.4828360365359 0 138.4828360365359 -62.72703434112583 0 0 0 0 -601.49949690391077 226.22273424094351 0 226.22273424094351 -53.57863874569648 0 0 0 0 -330.15589867612289 173.11771771265558 0 173.11771771265558 -111.8562095937541 0 0 0 0 -339.34401082566001 226.03082555900477 0 226.03082555900477 -283.86384079005165 0 0 0 0 -222.06488124580937 182.91662265081197 0 182.91662265081197 -529.93707619810129 0 0 0 0 -817.53403552720556 257.49770748558558 0 257.49770748558558 -240.11458957202763 0 0 0 0 -761.59511129381281 145.47679058615319 0 145.47679058615319 -364.53488093770966 0 0 0 0 -1576.7073438215011 419.09232701049712 0 419.09232701049712 -442.72404086190448 0 0 0 0 -995.14174135650683 347.31812252706345 0 347.31812252706345 -245.32208694510018 0 0 0 0 -702.80622353544459 -61.574202095801184 0 -61.574202095801184 -997.07631951489861 0 0 0 0 -718.81663904723246 -78.947288747386665 0 -78.947288747386665 -149.70480123796597 0 0 0 0 -274.91672654592548 -478.0447381680724 0 -478.0447381680724 -372.34919904992285 0 0 0 0 -597.65572036561207 119.60913687374595 0 119.60913687374595 132.29656989344107 0 0 0 0 -1.3923585480616794 0.13935291555904428 0 0.13935291555904428 -0.0039721065137130473 0 0 0 0 -119.28535182234191 328.50914064138908 0 328.50914064138908 -352.90553283592658 0 0 0 0 -1215.9842532200564 -184.21369677576604 0 -184.21369677576604 -688.12980381241232 0 0 0 0 -1121.8225279878388 -57.602074365423277 0 -57.602074365423277 -318.65011903113054 0 0 0 0 -1464.7202632110275 -116.27016152739884 0 -116.27016152739884 -308.71060606546013 0 0 0 0 -1491.0245921185597 -373.19859300808253 0 -373.19859300808253 -720.78459739357095 0 0 0 0 -1266.2043034096714 18.804807421711757 0 18.804807421711757 -1140.3608910320677 0 0 0 0 -1712.0232908227481 -29.062470565351305 0 -29.062470565351305 -484.52520442450509 0 0 0 0 -1315.6374061693059 -68.968270507478337 0 -68.968270507478337 -663.95344993629578 0 0 0 0 -1587.9882404898599 327.63952831431766 0 327.63952831431766 -51.960140730252277 0 0 0 0 -1810.2036820855865 15.233487826353837 0 15.233487826353837 -469.40076345855937 0 0 0 0 -1204.3953035881568 468.40986684101131 0 468.40986684101131 -713.1178552466863 0 0 0 0 -1.1000491524294436 -2.6516733728327608 0 -2.6516733728327608 -10.099417040340706 0 0 0 0 -10.865505332919591 -5.2086846643406943 0 -5.2086846643406943 -24.428566767950745 0 0 0 0 -283.27521071834781 -242.55852454159321 0 -242.55852454159321 -286.07739217857579 0 0 0 0 -685.31974286599143 168.33786646214594 0 168.33786646214594 -315.00455860610555 0 0 0 0 -1644.8056954580825 -113.47837158457821 0 -113.47837158457821 -30.402998920262974 0 0 0 0 -2159.648964034146 -146.1738923545505 0 -146.1738923545505 -14.766527279846969 0 0 0 0 -1863.0324434169306 102.23184928048852 0 102.23184928048852 -153.92446895266335 0 0 0 0 -102.97193366436113 15.347916283276163 0 15.347916283276163 -132.59635993893153 0 0 0 0 -692.33203784987563 -171.1481414868822 0 -171.1481414868822 146.83660729101143 0 0 0 0 -755.77583879244048 -294.27598231267984 0 -294.27598231267984 101.70143913918128 0 0 0 0 -791.65590676800639 -364.58802508794838 0 -364.58802508794838 -73.271304628759935 0 0 0 0 -585.90276105457451 -366.90838422727256 0 -366.90838422727256 -112.88752041780754 0 0 0 0 -719.93662442604546 -479.43921101057094 0 -479.43921101057094 -137.21639836405575 0 0 0 0 -863.77239820099203 -576.02101420017061 0 -576.02101420017061 -658.11463721528639 0 0 0 0 -1325.5733891168761 -504.8297449924122 0 -504.8297449924122 -108.39948740404088 0 0 0 0 -794.61034378792465 -433.26944405499876 0 -433.26944405499876 -165.3827788644594 0 0 0 0 -782.27951304250746 -189.18586788042558 0 -189.18586788042558 14.701898995620468 0 0 0 0 -788.9515773547173 -269.27171900060603 0 -269.27171900060603 -241.02982354528126 0 0 0 0 -88.386135755805753 -35.948620438062044 0 -35.948620438062044 -8.7211106984146021 0 0 0 0 -724.78747959347675 -423.2716877245939 0 -423.2716877245939 -270.35553268642616 0 0 0 0 -712.13242802060267 -322.04724473356509 0 -322.04724473356509 -238.35482231088315 0 0 0 0 -643.85050845128717 -453.76805551957477 0 -453.76805551957477 -190.39304276979874 0 0 0 0 -840.94080084771849 -400.19704966357676 0 -400.19704966357676 -176.11961831459303 0 0 0 0 -789.99056538782315 -542.6623922062372 0 -542.6623922062372 -169.83693493860392 0 0 0 0 -588.69562931123073 -410.78282935196512 0 -410.78282935196512 -175.17825866236581 0 0 0 0 -548.10214583406923 -246.22419156277283 0 -246.22419156277283 -49.34081505251379 0 0 0 0 -65.000833273820518 -26.752868377675654 0 -26.752868377675654 -12.748247518305108 0 0 0 0 -596.61034378541774 -89.336552137917224 0 -89.336552137917224 80.202444255590308 0 0 0 0 -359.93375629491129 -146.58581819875189 0 -146.58581819875189 4.2208639791188034 0 0 0 0 -325.9767672039161 -184.92484320449375 0 -184.92484320449375 -148.07384895412179 0 0 0 0 -431.20380596324685 -303.78887258592295 0 -303.78887258592295 -170.30240851470444 0 0 0 0 -615.97501763419132 -282.17194643945913 0 -282.17194643945913 -92.858349582423216 0 0 0 0 -673.91850275364413 -376.13257571062741 0 -376.13257571062741 -87.640033590709209 0 0 0 0 -2056.6777775436203 -150.69604984278885 0 -150.69604984278885 -406.02073942568404 0 0 0 0 -2009.4805023671124 -279.44845543914607 0 -279.44845543914607 -233.09663304900005 0 0 0 0 -12.777152751304758 -27.741468443991465 0 -27.741468443991465 -23.321357410052983 0 0 0 0 -2057.2660571610577 348.79040502807607 0 348.79040502807607 50.620663344404875 0 0 0 0 -558.55121636966942 -515.72928557413525 0 -515.72928557413525 -489.87354097438583 0 0 0 0 4.3050118185346946 -83.655274372513304 0 -83.655274372513304 -110.00225874042735 0 0 0 0 -0.1190766392948035 -3.1276968167659049 0 -3.1276968167659049 -11.13373098538128 0 0 0 0 -1768.1957343261747 119.8980476904967 0 119.8980476904967 -342.77556810085844 0 0 0 0 -1715.8131707608845 -218.59897337181428 0 -218.59897337181428 193.50640132348144 0 0 0 0 -1972.3166709782236 69.058850893554791 0 69.058850893554791 73.324555016973136 0 0 0 0 -1747.7133154830663 177.80797615748816 0 177.80797615748816 -46.767623443990487 0 0 0 0 -1979.8360498780094 328.005462832577 0 328.005462832577 100.17179033750884 0 0 0 0 -2170.1382870663656 241.74017014394576 0 241.74017014394576 97.823465605711178 0 0 0 0 -2398.9078805940298 73.590797425276492 0 73.590797425276492 2.1628554691615136 0 0 0 0 -2102.8440192395065 44.457807675414642 0 44.457807675414642 -95.564239543646636 0 0 0 0 -2566.706956452108 278.31814069137408 0 278.31814069137408 311.44968204694851 0 0 0 0 -2484.507030882949 254.9764123522682 0 254.9764123522682 317.03690545562495 0 0 0 0 -2745.9962052708142 33.594342987506934 0 33.594342987506934 146.73586790837544 0 0 0 0 -2445.0098950390384 19.527879004471743 0 19.527879004471743 -86.940017007881579 0 0 0 0 -2439.1327376185363 48.338769379795167 0 48.338769379795167 7.919555841645689 0 0 0 0 -2129.1722019554654 -181.11295739426686 0 -181.11295739426686 -232.39700755032322 0 0 0 0 -2113.6718040100532 -150.2830827857768 0 -150.2830827857768 -330.57443777817718 0 0 0 0 -2155.7089655000746 -111.21189568836661 0 -111.21189568836661 -263.272130309369 0 0 0 0 -2419.6566866437061 -130.18703820361011 0 -130.18703820361011 -147.34113273304894 0 0 0 0 -2846.3921304979813 217.85284270156259 0 217.85284270156259 -450.50053163819791 0 0 0 0 -3089.7184816473891 2.6579590600372853 0 2.6579590600372853 -63.941063119626669 0 0 0 0 -2418.918038784861 -121.57551304944033 0 -121.57551304944033 -376.25097929471264 0 0 0 0 -3472.4447340107763 -88.846594682002433 0 -88.846594682002433 -99.91936486539305 0 0 0 0 -2246.648919601801 -365.18045803446273 0 -365.18045803446273 -215.93724005369268 0 0 0 0 -3734.6955686837809 902.32454623953936 0 902.32454623953936 -714.94542300245234 0 0 0 0 -2168.9109157436033 81.122787123299474 0 81.122787123299474 -272.09845867211362 0 0 0 0 -2457.8112763741228 -346.63919306054731 0 -346.63919306054731 -195.23484776795087 0 0 0 0 -3855.7442848912106 507.30544166664293 0 507.30544166664293 529.06148372847156 0 0 0 0 -5499.4647615885478 -153.55315742692787 0 -153.55315742692787 1016.1896659033605 0 0 0 0 -7205.5277499765798 356.89039621539382 0 356.89039621539382 816.3991967834836 0 0 0 0 -11.075190496233404 -5.9470413368064499 0 -5.9470413368064499 0.37778685376620968 0 0 0 0 -2417.8632059619704 -826.66749716141726 0 -826.66749716141726 73.195955941670604 0 0 0 0 -15.415509800519644 -13.462566092783049 0 -13.462566092783049 -5.3870726761013854 0 0 0 0 -4486.4798022500472 716.97163610843518 0 716.97163610843518 119.04958024224496 0 0 0 0 -5005.2096180270455 723.81553953566367 0 723.81553953566367 514.33897625612644 0 0 0 0 -5498.7558958587397 1001.1663712124845 0 1001.1663712124845 453.47154189012429 0 0 0 0 -4770.3219629066298 1256.4106803978589 0 1256.4106803978589 -136.80611719981334 0 0 0 0 -3158.9897031214277 369.86269260937331 0 369.86269260937331 -2.303614961166204 0 0 0 0 -2598.1235889304953 534.15403690517633 0 534.15403690517633 15.981092457066552 0 0 0 0 -1725.8063936127146 190.51806091776962 0 190.51806091776962 131.42928284961818 0 0 0 0 -2657.2729932311922 100.35204496070764 0 100.35204496070764 315.51592409870136 0 0 0 0 -2576.9207846951904 232.95084978676095 0 232.95084978676095 511.84660240032099 0 0 0 0 -5308.6359490790928 1419.4117893329867 0 1419.4117893329867 -146.8835880498882 0 0 0 0 -5500.0436706646506 1734.4539840274149 0 1734.4539840274149 -505.8049530273571 0 0 0 0 -4585.6399107898324 1733.7937171867775 0 1733.7937171867775 -775.14414934666434 0 0 0 0 -1576.2723503286579 -326.15783612773521 0 -326.15783612773521 91.952485429052103 0 0 0 0 -17.662100584763749 -10.872662634531423 0 -10.872662634531423 -18.645189051244458 0 0 0 0 -5175.6470147019427 1790.731255562582 0 1790.731255562582 -1511.2169836497267 0 0 0 0 -5080.9104765590891 3155.3971117145193 0 3155.3971117145193 -1139.4092253788976 0 0 0 0 -7121.0317032326711 1646.8362593831594 0 1646.8362593831594 -337.87963003229737 0 0 0 0 -5.2927868901612669 -6.6963479737246843 0 -6.6963479737246843 -7.0186475599977545 0 0 0 0 -1985.0421128364687 -225.99131248503181 0 -225.99131248503181 411.34630486799733 0 0 0 0 -1981.2803795647342 -425.97087318870217 0 -425.97087318870217 354.51644587352712 0 0 0 0 -1973.9747473468597 -65.518653289927897 0 -65.518653289927897 346.63244566156027 0 0 0 0 -2624.8408448270056 -367.69319441818152 0 -367.69319441818152 530.17855579261504 0 0 0 0 -3017.1389865717501 258.8613477337658 0 258.8613477337658 513.23551870775088 0 0 0 0 -2712.57330616127 -244.15384377932605 0 -244.15384377932605 532.55278639826065 0 0 0 0 -3464.0622992302815 -807.47361755237489 0 -807.47361755237489 654.85282700693642 0 0 0 0 -2544.5441387946776 -1006.3362489586198 0 -1006.3362489586198 234.23639746071422 0 0 0 0 -1826.7426614234573 -424.80469554040974 0 -424.80469554040974 139.32338412938407 0 0 0 0 -1060.6704328282503 -2187.7177632316316 0 -2187.7177632316316 -2093.5715816095253 0 0 0 0 -192.23999035495217 188.38796015371827 0 188.38796015371827 -837.57934962974468 0 0 0 0 -4655.7522584668477 -1350.5139167115503 0 -1350.5139167115503 203.39425645499955 0 0 0 0 -5499.7652167714477 1205.4259009087966 0 1205.4259009087966 -322.99078211097714 0 0 0 0 -13.228205286194409 -9.0993456186399442 0 -9.0993456186399442 -21.330834823755911 0 0 0 0 -27.911249137258736 21.932628547011944 0 21.932628547011944 -9.3377676562715379 0 0 0 0 -95.967879086583707 76.848338114855395 0 76.848338114855395 -648.92403347402774 0 0 0 0 -1852.4058555160445 530.51643150929704 0 530.51643150929704 -58.068589810384765 0 0 0 0 -2434.4069134496094 519.93220247596628 0 519.93220247596628 167.55965315510639 0 0 0 0 -2007.5362195959169 266.54099964599118 0 266.54099964599118 -30.328832623967173 0 0 0 0 -2466.8285488037363 433.48270802222942 0 433.48270802222942 405.64828680667415 0 0 0 0 -2632.0562106219586 513.2553490499904 0 513.2553490499904 667.32381810990046 0 0 0 0 -3710.0373459035163 592.85995332829361 0 592.85995332829361 827.75417917715458 0 0 0 0 -41.718549777463807 5.9714696728524927 0 5.9714696728524927 -1.1264088792641545 0 0 0 0 -2474.0296513939538 1440.8136692105199 0 1440.8136692105199 596.47198115288938 0 0 0 0 -5045.2019745162925 408.65942038998344 0 408.65942038998344 802.47059050831012 0 0 0 0 -488.69194869488274 400.84407889085287 0 400.84407889085287 -58.780908287697457 0 0 0 0 -1826.8364085876965 -1156.6583567883131 0 -1156.6583567883131 -393.5007664154665 0 0 0 0 -3957.0659120790515 -1301.0584803079646 0 -1301.0584803079646 -160.13180835828689 0 0 0 0 -3630.2800866979378 -320.83058630462801 0 -320.83058630462801 -201.54668035694203 0 0 0 0 -6711.6621973734 -929.95900022923843 0 -929.95900022923843 281.85922795381816 0 0 0 0 -5490.5273527910613 -2211.7864035021043 0 -2211.7864035021043 779.98339283782002 0 0 0 0 -2221.6169288416822 -2734.5433902341642 0 -2734.5433902341642 -1725.1640957001814 0 0 0 0 -5853.019864084752 122.74836470350465 0 122.74836470350465 479.73336231138728 0 0 0 0 -650.15145537377248 -381.01431016006705 0 -381.01431016006705 -391.24783928343982 0 0 0 0 -27.52558029896899 28.767920501866882 0 28.767920501866882 -15.361327867404182 0 0 0 0 -3961.0001473299635 -286.71054149674774 0 -286.71054149674774 427.76627242476638 0 0 0 0 -3284.0180765192854 -1155.329402185951 0 -1155.329402185951 505.53670569144845 0 0 0 0 -3392.8017078808844 -978.82445836716363 0 -978.82445836716363 1056.8063722762579 0 0 0 0 -5501.0779724447166 -534.59229397440947 0 -534.59229397440947 1209.1875133231042 0 0 0 0 -3665.9529803251353 170.24889555250263 0 170.24889555250263 933.34039356157336 0 0 0 0 -3904.9375255877676 760.90809316129275 0 760.90809316129275 240.99262122510501 0 0 0 0 -817.69634661215241 468.03179132828518 0 468.03179132828518 158.55194322480452 0 0 0 0 -14.312092083560287 10.199389076605726 0 10.199389076605726 -4.9812490882396965 0 0 0 0 -2510.8427456950376 114.68985016238884 0 114.68985016238884 -870.22070918948498 0 0 0 0 -3527.8016101806425 -428.57013122482169 0 -428.57013122482169 -200.71011802145654 0 0 0 0 -4436.0935825665892 501.43043122085908 0 501.43043122085908 413.21298441397744 0 0 0 0 -3173.5052787910317 583.24664783284402 0 583.24664783284402 414.82266354296712 0 0 0 0 -3391.0414585662584 301.96530876848743 0 301.96530876848743 223.97650773946589 0 0 0 0 -1992.5541836862103 -98.72922805702899 0 -98.72922805702899 -163.88879678927458 0 0 0 0 -2210.1531702722714 165.29668974169317 0 165.29668974169317 209.78812139233628 0 0 0 0 -1481.7539578224678 388.57923389566827 0 388.57923389566827 -92.775214087493396 0 0 0 0 -3200.8986639967552 652.29123987871219 0 652.29123987871219 278.196617364541 0 0 0 0 -3110.5707883604373 1060.2771863873809 0 1060.2771863873809 230.79915757598701 0 0 0 0 -5502.7693850727665 1570.0141304197589 0 1570.0141304197589 757.62832093822612 0 0 0 0 -5497.0796893926345 706.7512888309609 0 706.7512888309609 807.07205077700598 0 0 0 0 -4043.0305336250567 1175.9407218463118 0 1175.9407218463118 779.89984460273604 0 0 0 0 -4101.3839885416455 923.61160302922326 0 923.61160302922326 492.00275284361612 0 0 0 0 -150.06349784170015 111.69257149230873 0 111.69257149230873 0.65349042816121283 0 0 0 0 -140.42114792943903 -160.05856326771959 0 -160.05856326771959 -260.37504014318301 0 0 0 0 38.774357181027881 44.666426622112567 0 44.666426622112567 -50.644969835783627 0 0 0 0 -2.7362667903585418 -2.2591151893614665 0 -2.2591151893614665 -1.4040016945936902 0 0 0 0 -351.49280257926875 -173.52159199829285 0 -173.52159199829285 -7.8331247619319617 0 0 0 0 -630.78520637487964 -200.18289347146288 0 -200.18289347146288 -114.84432897908914 0 0 0 0 -376.38668614346534 -278.48130119508494 0 -278.48130119508494 -290.2189079842376 0 0 0 0 -1492.2515193015715 3.1448170384517766 0 3.1448170384517766 -114.51833495756694 0 0 0 0 -673.1461984605121 -329.75297584544114 0 -329.75297584544114 -286.6689827260916 0 0 0 0 -2006.9418041494723 -502.34702062201893 0 -502.34702062201893 111.00187950651934 0 0 0 0 -706.74876432396559 -85.584502444930081 0 -85.584502444930081 -276.59020341890971 0 0 0 0 -557.72198386513264 -272.29335376606002 0 -272.29335376606002 -179.66061997209067 0 0 0 0 225.28186850517159 58.319562287486974 0 58.319562287486974 -236.52904628410056 0 0 0 0 -596.41347473225323 -659.89499865443418 0 -659.89499865443418 -64.871155523963466 0 0 0 0 -3.6661688293850432 -0.94616063041901199 0 -0.94616063041901199 -0.41628488338139591 0 0 0 0 -2411.0650613811413 -245.79683762202416 0 -245.79683762202416 348.25625017124474 0 0 0 0 -1498.219891695524 421.83437130377268 0 421.83437130377268 -251.82366556331536 0 0 0 0 254.9109788207503 255.28966468547696 0 255.28966468547696 203.90225475591745 0 0 0 0 261.86896375226934 -152.69592209258309 0 -152.69592209258309 -258.94059124561329 0 0 0 0 -97.811650034847844 -58.633531839257273 0 -58.633531839257273 486.94256031307168 0 0 0 0 -6.5554448686558828 -0.348598981417787 0 -0.348598981417787 0.72874205279939519 0 0 0 0 -133.40183295861789 1.3837937524964445 0 1.3837937524964445 328.53554278361224 0 0 0 0 -18.167303095933676 111.87834029386792 0 111.87834029386792 17.000728103664642 0 0 0 0 -10.143463490043359 53.815717095429477 0 53.815717095429477 102.0948016114495 0 0 0 0 -3.6209805634149461 0.67588344307930015 0 0.67588344307930015 1.3001729756388354 0 0 0 0 -85.6150122031504 -31.430123131776 0 -31.430123131776 441.60638619574695 0 0 0 0 -78.333631999972567 -33.468787972464838 0 -33.468787972464838 313.5200375630946 0 0 0 0 -89.422435911423236 67.764411480934768 0 67.764411480934768 90.307717725386169 0 0 0 0 -3.3698817217009491 -126.44773379375641 0 -126.44773379375641 189.6417972651488 0 0 0 0 -70.313788209038933 3.5937323314412843 0 3.5937323314412843 6.6217668995689358 0 0 0 0 -273.36543294820149 -197.68321257445552 0 -197.68321257445552 -15.279362792473876 0 0 0 0 9.0889825104422926 -32.988522433342609 0 -32.988522433342609 -125.1118284306649 0 0 0 0 -1225.7073934749496 580.91230149895546 0 580.91230149895546 790.29845231272157 0 0 0 0 -1265.6044456547461 215.23203144566082 0 215.23203144566082 -925.4029414404597 0 0 0 0 -1767.3750582734272 1120.0512090627756 0 1120.0512090627756 160.47489709398451 0 0 0 0 -37.21945312362368 -151.57726922761373 0 -151.57726922761373 309.9315290170436 0 0 0 0 -661.01109984475625 760.41593954649397 0 760.41593954649397 -163.45480722944922 0 0 0 0 -23.661742793830197 2.5949032714344611 0 2.5949032714344611 10.141569654933878 0 0 0 0 -1417.9204185321869 741.52473188958652 0 741.52473188958652 556.2213103131071 0 0 0 0 -98.861134344718153 14.858119363373504 0 14.858119363373504 5.5331724381968428 0 0 0 0 -1568.4199520632101 -280.65699479932846 0 -280.65699479932846 867.40807080937157 0 0 0 0 24.221027057563333 34.754364123532127 0 34.754364123532127 -42.274148875374976 0 0 0 0 -27.610787311022833 -17.882075071158937 0 -17.882075071158937 24.575225248768731 0 0 0 0 -1818.3449599112937 142.66238019956745 0 142.66238019956745 250.7363088314969 0 0 0 0 -0.87053811145737114 -25.25376331620879 0 -25.25376331620879 -0.57417911409816114 0 0 0 0 87.868092688593606 -58.818104588331494 0 -58.818104588331494 -78.268838584563127 0 0 0 0 -1561.5487217055438 -263.5623988047999 0 -263.5623988047999 120.61497105531635 0 0 0 0 -1474.61439774686 -362.51153682027689 0 -362.51153682027689 223.44434017917055 0 0 0 0 -1186.9470630512224 141.47963497929959 0 141.47963497929959 -76.187900925434406 0 0 0 0 -361.96295357149211 -98.597488100117062 0 -98.597488100117062 -46.832995431163909 0 0 0 0 -203.48863544297274 17.958299010078804 0 17.958299010078804 16.497705017671251 0 0 0 0 -24.491785639402224 17.563189631560817 0 17.563189631560817 -79.484092063570188 0 0 0 0 -98.28434320409724 -68.365910708538649 0 -68.365910708538649 23.172611298283755 0 0 0 0 -399.70026108960155 -144.58713130358319 0 -144.58713130358319 -138.44681778899394 0 0 0 0 -267.38890243362403 -202.87435897869864 0 -202.87435897869864 -158.91292468638312 0 0 0 0 -817.47694974760816 -392.31731102841786 0 -392.31731102841786 -177.31833577210091 0 0 0 0 -622.00220512523083 -318.09370904417119 0 -318.09370904417119 -211.666454714672 0 0 0 0 -569.06628577470474 -331.32405365205295 0 -331.32405365205295 -256.58293362226323 0 0 0 0 -781.57785087822413 -394.22847122237272 0 -394.22847122237272 -211.36274229427727 0 0 0 0 -596.18581420193368 -272.42229314484121 0 -272.42229314484121 -151.05621176782506 0 0 0 0 -575.28170338935888 -352.59377315279016 0 -352.59377315279016 -201.61776806460875 0 0 0 0 -304.45547517675732 -254.43872492613355 0 -254.43872492613355 -221.02858828118337 0 0 0 0 -568.06619555599173 -294.08050228032653 0 -294.08050228032653 -218.23276867441928 0 0 0 0 -567.87240643827681 -308.29871395250609 0 -308.29871395250609 -149.0844136781152 0 0 0 0 -780.59053583479545 -457.32328366603815 0 -457.32328366603815 -169.19732218381228 0 0 0 0 -714.2102352703223 -426.36160558085066 0 -426.36160558085066 -240.47360630685444 0 0 0 0 -985.89599852110405 -344.16162605017917 0 -344.16162605017917 -265.1386614005969 0 0 0 0 -974.56463587208418 -378.2102302680496 0 -378.2102302680496 -163.5097049744345 0 0 0 0 -1003.416309002645 -512.33790337890537 0 -512.33790337890537 -192.49404603392031 0 0 0 0 -847.47530749836005 -489.87509249653158 0 -489.87509249653158 -303.81966072971773 0 0 0 0 155.04662750783609 99.590382096452231 0 99.590382096452231 60.486463662062306 0 0 0 0 -1472.0946001680568 -591.15729861078944 0 -591.15729861078944 -262.46814266154615 0 0 0 0 -863.86261728105455 -443.16631310976982 0 -443.16631310976982 -436.81932389902067 0 0 0 0 -770.99995102207322 -377.36578874491943 0 -377.36578874491943 -252.51326536343186 0 0 0 0 -760.04712397838011 -468.81031301276471 0 -468.81031301276471 -305.45604783879571 0 0 0 0 -956.24136922939215 -473.59195642404302 0 -473.59195642404302 -212.44622591914413 0 0 0 0 -774.2368436209581 -448.77511930856281 0 -448.77511930856281 -231.899665114659 0 0 0 0 -943.88808771270487 -489.34143855727916 0 -489.34143855727916 -249.56821369910904 0 0 0 0 249.94656779745128 27.036247049634312 0 27.036247049634312 55.373666901459501 0 0 0 0 76.902813357650302 -16.526777592163 0 -16.526777592163 103.76301928920566 0 0 0 0 -12.985209929796056 -2.5487762055723806 0 -2.5487762055723806 4.4149133320691263 0 0 0 0 14.657253826357191 81.972108670528996 0 81.972108670528996 87.886716148078449 0 0 0 0 -65.971206370196768 37.953919359412595 0 37.953919359412595 27.20471969706195 0 0 0 0 -0.89314483161366809 3.8995384666329471 0 3.8995384666329471 4.2811200345337221 0 0 0 0 -241.54611302517878 -186.8196202256691 0 -186.8196202256691 -124.07563436923419 0 0 0 0 52.531635081410059 59.869975779333686 0 59.869975779333686 -134.87692434905193 0 0 0 0 -122.34087039300357 52.232020417271769 0 52.232020417271769 0.36914912518022902 0 0 0 0 -125.98246584393382 -3.9123900023704579 0 -3.9123900023704579 -81.845270009437172 0 0 0 0 -370.63177155415178 231.3178547563291 0 231.3178547563291 -287.22488935386446 0 0 0 0 -538.72025999322068 57.858540067007198 0 57.858540067007198 -32.287533029232009 0 0 0 0 157.43592105436255 23.571901151452948 0 23.571901151452948 -138.00433323269908 0 0 0 0 -114.33431909039791 51.186191644935434 0 51.186191644935434 103.14916709997624 0 0 0 0 -92.495356744955643 127.26819394539189 0 127.26819394539189 -329.17239847901874 0 0 0 0 -1024.9643891332835 -499.12820048413255 0 -499.12820048413255 -81.875068407921844 0 0 0 0 203.30878755205777 163.47704118060938 0 163.47704118060938 -60.948979789133546 0 0 0 0 -34.77446574030381 30.539491190721705 0 30.539491190721705 13.107772339313048 0 0 0 0 218.8763615967473 121.35847076692085 0 121.35847076692085 52.626226721934586 0 0 0 0 -809.69533700081956 -531.10357558695603 0 -531.10357558695603 -393.03829226292191 0 0 0 0 -992.85986401015543 -515.47271808724736 0 -515.47271808724736 -76.873119884693494 0 0 0 0 -976.35215488475785 -581.5261675610526 0 -581.5261675610526 -291.42136514440506 0 0 0 0 -305.10986769400552 -152.22684423721142 0 -152.22684423721142 122.38126967897097 0 0 0 0 -57.080349929135991 257.75793055890267 0 257.75793055890267 28.170793698902742 0 0 0 0 -983.92068806925181 225.53490642444359 0 225.53490642444359 250.40068151139712 0 0 0 0 -43.319859899677112 40.12722290860107 0 40.12722290860107 -4.1473248406596257 0 0 0 0 8.1629977125994628 90.910499122012766 0 90.910499122012766 -82.355388325325293 0 0 0 0 0.10850350026775146 -0.26809517788643689 0 -0.26809517788643689 2.2587763388063777 0 0 0 0 -130.17739970578987 134.65642230995104 0 134.65642230995104 15.258669285285919 0 0 0 0 -34.620048434484389 47.76014107030025 0 47.76014107030025 -12.436882182503943 0 0 0 0 89.565555930392293 102.45403362184425 0 102.45403362184425 -928.03468472587679 0 0 0 0 -2268.3818943650695 -257.32432115102074 0 -257.32432115102074 537.60892828078397 0 0 0 0 -2144.843498294329 -929.53819456430733 0 -929.53819456430733 283.32508071820757 0 0 0 0 -1312.8081862580148 -1189.2899515318722 0 -1189.2899515318722 -821.37364031850643 0 0 0 0 -1239.4678541737085 222.61658936082767 0 222.61658936082767 905.08997925228743 0 0 0 0 -781.62138296742341 457.63731741913716 0 457.63731741913716 899.33983424091525 0 0 0 0 -20.164223975732767 -1.7876476130758014 0 -1.7876476130758014 1.6539311280298701 0 0 0 0 -750.54628184791363 -1085.9083251761117 0 -1085.9083251761117 -1204.637033314144 0 0 0 0 -1.0873642256395328 0.53973541173722239 0 0.53973541173722239 0.81182356491270347 0 0 0 0 -49.600850530022512 1.2752707624324842 0 1.2752707624324842 2.2091602058600341 0 0 0 0 -107.1429839234188 -130.92613269545024 0 -130.92613269545024 740.6861702936427 0 0 0 0 491.73636319961224 155.29026527460186 0 155.29026527460186 694.36958640482567 0 0 0 0 -290.69943231366051 41.2863667395535 0 41.2863667395535 144.2711931446278 0 0 0 0 61.297441630558751 -67.14093194691651 0 -67.14093194691651 -357.74216551906159 0 0 0 0 -248.0689101517637 -158.40137560749213 0 -158.40137560749213 -162.14016415381789 0 0 0 0 -564.57289750902419 -434.93614522845525 0 -434.93614522845525 -293.12893572527253 0 0 0 0 -647.29651157594344 -405.53323912823544 0 -405.53323912823544 -157.90017334904758 0 0 0 0 -923.19209221812707 -623.90165495168822 0 -623.90165495168822 -198.35186480518416 0 0 0 0 -920.4502037009006 -680.20750198573182 0 -680.20750198573182 -174.21610396848325 0 0 0 0 -280.37950099194131 -632.330080654722 0 -632.330080654722 -980.66970369992032 0 0 0 0 -15.870868409063405 3.3617625300288978 0 3.3617625300288978 -2.12397134520279 0 0 0 0 -18.459870389371645 -1.6303333319506237 0 -1.6303333319506237 1.5523481100096888 0 0 0 0 -19.665366778659518 -0.44436693232319158 0 -0.44436693232319158 4.8125303511012589 0 0 0 0 -17.396815722296196 1.702404748925554 0 1.702404748925554 6.2975743598917688 0 0 0 0 -60.059567189557129 -22.494676717658535 0 -22.494676717658535 20.521242685563493 0 0 0 0 -17.365679565855999 -0.097358053259116062 0 -0.097358053259116062 9.0977320473884902 0 0 0 0 -11.633065917136264 12.133559832707761 0 12.133559832707761 24.672278430579581 0 0 0 0 -14.141877578215315 2.0889063764739149 0 2.0889063764739149 -0.07708432338331328 0 0 0 0 9.3081396166526247 59.081013689976771 0 59.081013689976771 -46.168973855652666 0 0 0 0 -53.283389239841199 63.421853237217306 0 63.421853237217306 -41.568542558106174 0 0 0 0 21.026200422085822 23.454743055193376 0 23.454743055193376 -2.6883932472625247 0 0 0 0 -4.7450501303619603 -5.8209179521437235 0 -5.8209179521437235 -18.429461397039631 0 0 0 0 -4.2995650183875114 3.8920006206926701 0 3.8920006206926701 3.7055972083178403 0 0 0 0 -4.4187350267893635 -18.005390796593019 0 -18.005390796593019 -4.3964442240182962 0 0 0 0 -4.3579812784737442 -26.793276182168938 0 -26.793276182168938 -22.53306893673016 0 0 0 0 -33.783641510628513 -44.791966063850396 0 -44.791966063850396 17.050550048192235 0 0 0 0 -24.176653801870998 -25.754338335054854 0 -25.754338335054854 -1.8144743729707216 0 0 0 0 -25.836171621202084 -51.225540797045596 0 -51.225540797045596 -52.377393447612121 0 0 0 0 -144.31871772909653 -43.021595902522677 0 -43.021595902522677 -4.2926815620903653 0 0 0 0 -22.568033901676245 -34.718569678143069 0 -34.718569678143069 -25.92361586041261 0 0 0 0 -19.439717292014393 98.99165270220567 0 98.99165270220567 -334.85090173277217 0 0 0 0 -78.864424690014857 -68.438619171715857 0 -68.438619171715857 -70.677222744248866 0 0 0 0 -4.8213198815561213 1.5506519898728932 0 1.5506519898728932 -0.12112345103149758 0 0 0 0 32.170111641054973 -1.6057819364505121 0 -1.6057819364505121 -74.061042631300779 0 0 0 0 -66.886886652995599 39.922702308054568 0 39.922702308054568 -3.1795743536220016 0 0 0 0 -211.38919335994433 208.11475268669471 0 208.11475268669471 -145.38113076876289 0 0 0 0 -240.30309506738558 -78.703831356696355 0 -78.703831356696355 -43.971594819669463 0 0 0 0 -538.26088754690136 110.44213059999356 0 110.44213059999356 57.276996550386684 0 0 0 0 -335.85874896106543 79.344524128059675 0 79.344524128059675 62.054915560930567 0 0 0 0 -434.04241014935542 -15.292916299924855 0 -15.292916299924855 12.955250830851583 0 0 0 0 -142.17228797569987 -14.816492056344941 0 -14.816492056344941 9.5576434362303644 0 0 0 0 -336.82656595658045 73.995326233459309 0 73.995326233459309 34.412975879144142 0 0 0 0 -46.410945418901974 59.833342585095579 0 59.833342585095579 35.014555119491547 0 0 0 0 -99.303988597283023 13.108964697680221 0 13.108964697680221 56.89762710229752 0 0 0 0 -278.39778213051613 208.33925096354233 0 208.33925096354233 135.55330834317283 0 0 0 0 -551.48401845215631 152.85927586681416 0 152.85927586681416 138.17372070754936 0 0 0 0 -2.4048876219081308 1.9317437226714986 0 1.9317437226714986 -1.6545577135680265 0 0 0 0 -359.81489281542599 221.05071612522397 0 221.05071612522397 212.9718608031335 0 0 0 0 -748.90263779500674 -342.77812253181469 0 -342.77812253181469 126.99033393051377 0 0 0 0 -1014.8156009208178 151.04317430348874 0 151.04317430348874 458.07557960846498 0 0 0 0 74.928182667092187 13.941472201357101 0 13.941472201357101 37.870049607263354 0 0 0 0 26.117032397480216 214.22918096241983 0 214.22918096241983 86.576797513332622 0 0 0 0 -190.23404262005351 -57.425612048044286 0 -57.425612048044286 -47.313287187998412 0 0 0 0 -193.17387098411564 -127.53937629965662 0 -127.53937629965662 -23.600594798062048 0 0 0 0 -387.81926831378951 -273.9933404026865 0 -273.9933404026865 -135.95448683703762 0 0 0 0 -171.36090573275578 -124.79298448958525 0 -124.79298448958525 -165.02934559275695 0 0 0 0 -14.028606633731087 1.4960443477098124 0 1.4960443477098124 7.6008131520723126 0 0 0 0 -225.52576064219465 -2.9219231061723576 0 -2.9219231061723576 102.82550199271975 0 0 0 0 -177.1786581651977 31.594649113926828 0 31.594649113926828 13.254318830228513 0 0 0 0 -200.93036964401836 4.4966999657047175 0 4.4966999657047175 29.634890730182786 0 0 0 0 -240.97961273623514 11.110426232420195 0 11.110426232420195 31.58937251782254 0 0 0 0 -219.42465755372541 -8.8410361249832476 0 -8.8410361249832476 -82.769549677769646 0 0 0 0 -7.5468723302309968 5.6864435690405486 0 5.6864435690405486 -4.7234271283944782 0 0 0 0 0.66756664566298696 0.54020418682172533 0 0.54020418682172533 -2.2516272125979819 0 0 0 0 -175.35490082411343 40.474504808347881 0 40.474504808347881 -23.87581814826558 0 0 0 0 -8.9641763911349699 33.117359465716618 0 33.117359465716618 57.898278375989321 0 0 0 0 -80.193664299644297 -50.706518182029654 0 -50.706518182029654 -13.309919120141842 0 0 0 0 -205.3343790910003 -62.531167737186507 0 -62.531167737186507 -1.3458572346046367 0 0 0 0 -18.517469293052557 8.5413399819298945 0 8.5413399819298945 0.14290293098293905 0 0 0 0 -11.07626969132258 -2.0234677853658951 0 -2.0234677853658951 4.8479047436875264 0 0 0 0 -8.2382324863046961 27.016728510070777 0 27.016728510070777 21.613440169462592 0 0 0 0 -26.143813056565705 -2.6341348429823483 0 -2.6341348429823483 40.439642581261978 0 0 0 0 -16.164623298842344 -5.7037482102361992 0 -5.7037482102361992 29.526079195454258 0 0 0 0 -17.245101938548032 -12.531416237829035 0 -12.531416237829035 86.742091623175838 0 0 0 0 -22.962427845213824 -10.288483675631937 0 -10.288483675631937 37.848953093311138 0 0 0 0 -23.536639420461142 3.0056698729276832 0 3.0056698729276832 2.3324826578491411 0 0 0 0 -17.148306573159061 -10.800291814647153 0 -10.800291814647153 4.2333864614040522 0 0 0 0 -23.972100346123625 -15.379940967211667 0 -15.379940967211667 14.959960899152975 0 0 0 0 -16.961012704083032 -1.8314694888538874 0 -1.8314694888538874 1.1092571668814344 0 0 0 0 -28.863426085619722 5.3384904274594192 0 5.3384904274594192 21.481237927647044 0 0 0 0 -31.480025730139459 23.1367561218849 0 23.1367561218849 6.4938780842577444 0 0 0 0 -9.813568893853585 3.9467663743905064 0 3.9467663743905064 5.9281371039653727 0 0 0 0 -10.498237528574919 24.339792549232527 0 24.339792549232527 2.4578840878123742 0 0 0 0 -25.989237558489549 8.5167692842546785 0 8.5167692842546785 4.2283962105170758 0 0 0 0 -8.4622721338437259 -3.0305167195146332 0 -3.0305167195146332 0.6997878665230246 0 0 0 0 -25.464930116580945 8.237511899892354 0 8.237511899892354 -0.098646762350654171 0 0 0 0 -6.9219655661559614 -2.4518965256329466 0 -2.4518965256329466 4.8758788848351813 0 0 0 0 2.1797818734776229 2.707284070835783 0 2.707284070835783 -7.4968710282992106 0 0 0 0 -24.531501248740824 0.53634286718875046 0 0.53634286718875046 7.063578666711237 0 0 0 0 -50.998489012061327 -10.741643147488617 0 -10.741643147488617 39.6717716105004 0 0 0 0 -6.7331214598816587 40.802799856068077 0 40.802799856068077 -23.682200829529847 0 0 0 0 23.882801248197211 3.3782066387416592 0 3.3782066387416592 -4.6172894036229764 0 0 0 0 8.7951275957384496 21.081998211881228 0 21.081998211881228 0.51749001692957108 0 0 0 0 -19.830801601834992 11.44130598959925 0 11.44130598959925 -3.9722758128819571 0 0 0 0 -22.00158611178631 26.143978186876666 0 26.143978186876666 18.804047559668106 0 0 0 0 -19.634305592422606 5.4711652543601303 0 5.4711652543601303 7.4968950613993002 0 0 0 0 -26.310765135483734 14.351910692632202 0 14.351910692632202 4.1059200740046595 0 0 0 0 -45.431458500628651 -3.928770924306491 0 -3.928770924306491 -6.0307341871334756 0 0 0 0 -18.994755735058021 9.7240140722950343 0 9.7240140722950343 4.2399253228778999 0 0 0 0 -38.062707463999686 -0.27930350502811052 0 -0.27930350502811052 -7.6935303436242748 0 0 0 0 -47.718015252059558 6.6939859673236697 0 6.6939859673236697 -11.790301077016466 0 0 0 0 -71.284370304139884 35.035524524839559 0 35.035524524839559 2.5046551116474802 0 0 0 0 -24.984779714229234 -13.245546369830393 0 -13.245546369830393 3.3308696124880064 0 0 0 0 -43.70856883552915 -47.989709529029945 0 -47.989709529029945 -5.0419052684235908 0 0 0 0 -29.932742974997382 16.019422445612797 0 16.019422445612797 2.9612528015520212 0 0 0 0 -138.95883900440822 -27.609694150970881 0 -27.609694150970881 -0.16043200510293332 0 0 0 0 -152.7823860803037 41.076194819971192 0 41.076194819971192 -78.015318222752285 0 0 0 0 -156.1156224161241 36.0155740677517 0 36.0155740677517 -16.820180743631894 0 0 0 0 -200.848988001213 6.1179086619668457 0 6.1179086619668457 15.191599831452521 0 0 0 0 -319.19117461919086 -33.973422761633628 0 -33.973422761633628 12.201402289696794 0 0 0 0 14.024051789241867 0.63584156878060583 0 0.63584156878060583 -3.5581158131064203 0 0 0 0 -161.93089401152247 52.73695345690453 0 52.73695345690453 -4.4721092789168324 0 0 0 0 -145.36936423899897 -7.2394816123364762 0 -7.2394816123364762 17.683194580518887 0 0 0 0 -156.16075151781843 -4.1567862628041894 0 -4.1567862628041894 30.886841875786786 0 0 0 0 -128.88457686424954 30.022508196281251 0 30.022508196281251 -19.326472279775771 0 0 0 0 -29.214670769147496 44.828536489495249 0 44.828536489495249 -0.48908293554732829 0 0 0 0 -42.103085262218599 -10.008137178350964 0 -10.008137178350964 2.2570331817517983 0 0 0 0 -433.09268000830343 -102.58357554692586 0 -102.58357554692586 -31.701043798237947 0 0 0 0 -68.268568139779745 -3.7984167207331723 0 -3.7984167207331723 17.980430253305258 0 0 0 0 4.223019535714343 12.286533853111678 0 12.286533853111678 -1.6811374672562813 0 0 0 0 -266.1435743207694 -131.15749538485741 0 -131.15749538485741 -96.667394358903039 0 0 0 0 -121.39098989347258 76.512138677481175 0 76.512138677481175 -18.621811167804481 0 0 0 0 -17.106567806011299 9.6648513072898083 0 9.6648513072898083 10.120084858733662 0 0 0 0 -20.278291084074183 10.487353052582847 0 10.487353052582847 2.2007580265586988 0 0 0 0 -55.488162524983579 34.390913281939696 0 34.390913281939696 20.018816057647424 0 0 0 0 -53.50777948331995 7.3741609917944544 0 7.3741609917944544 12.822433636621884 0 0 0 0 -12.103831359427346 1.583603080930942 0 1.583603080930942 6.0626550578070946 0 0 0 0 -40.985812969476683 -1.7540723467761836 0 -1.7540723467761836 -2.7951714383075341 0 0 0 0 -714.38889988287701 -349.19533035311019 0 -349.19533035311019 -36.237143540336547 0 0 0 0 -12.889571550896484 6.2924724974507313 0 6.2924724974507313 3.9676536174412682 0 0 0 0 -485.31211481864375 -29.843655136448177 0 -29.843655136448177 34.646711453655257 0 0 0 0 -54.381120654048573 -1.6994288776473923 0 -1.6994288776473923 -6.1575848672214306 0 0 0 0 -584.20783665923227 -68.46980607951599 0 -68.46980607951599 117.55949849973427 0 0 0 0 -31.767040526829078 -3.7722376053417292 0 -3.7722376053417292 9.0888808865161081 0 0 0 0 -54.941889042114781 -2.2815509400604697 0 -2.2815509400604697 14.580199349926147 0 0 0 0 -38.594526369020969 -3.9673432887368847 0 -3.9673432887368847 1.6466614856178694 0 0 0 0 -47.558897874841932 8.9269124164815139 0 8.9269124164815139 8.0757370095898295 0 0 0 0 -60.517008568989695 1.3600302749871389 0 1.3600302749871389 15.994880458975558 0 0 0 0 -38.99749953201183 2.2993104369787645 0 2.2993104369787645 0.82567657133053718 0 0 0 0 -37.524119547787365 3.3134954632134423 0 3.3134954632134423 1.0270014065176853 0 0 0 0 -41.501955410200026 -0.15510038998047548 0 -0.15510038998047548 8.1525695228544919 0 0 0 0 -34.019491049533826 -0.45584363033162845 0 -0.45584363033162845 -7.2902947469453352 0 0 0 0 -35.31136119797884 -2.3415861280731178 0 -2.3415861280731178 18.745225802302571 0 0 0 0 -41.2917603114347 9.7172114656627286 0 9.7172114656627286 30.309092638239235 0 0 0 0 -40.346660718598287 1.332616671974165 0 1.332616671974165 16.22704431112561 0 0 0 0 -46.7763790848403 -1.595203183182889 0 -1.595203183182889 79.660573316346245 0 0 0 0 -33.595291724571524 8.0974836499267688 0 8.0974836499267688 -0.80423447777702473 0 0 0 0 -29.974854309284638 10.668866281531393 0 10.668866281531393 37.145603794402632 0 0 0 0 -23.176534011592366 9.2491559859496988 0 9.2491559859496988 -0.94194366639828253 0 0 0 0 -33.700242978909955 1.0399065786581332 0 1.0399065786581332 -3.4802395952401639 0 0 0 0 -95.045313975868339 -155.7663619526536 0 -155.7663619526536 120.97985847758584 0 0 0 0 -945.52602978226128 88.464140273891758 0 88.464140273891758 153.07451001259085 0 0 0 0 -3.7902752084297617 -1.7512707355580517 0 -1.7512707355580517 -0.38854871506880251 0 0 0 0 -11.671121423802106 56.884893611441157 0 56.884893611441157 16.292149431832854 0 0 0 0 -13.621729896911347 30.887586447879414 0 30.887586447879414 -9.2821424249145821 0 0 0 0 -212.89484581840225 136.71371198060262 0 136.71371198060262 -65.32630078581542 0 0 0 0 -968.0012174565345 -252.96951450430106 0 -252.96951450430106 149.05286819130595 0 0 0 0 -229.94048730764189 229.15068101837062 0 229.15068101837062 460.07971393690741 0 0 0 0 -1163.5947725560691 251.34149054104557 0 251.34149054104557 911.41794962150288 0 0 0 0 -1369.0038827682074 -138.32213007444932 0 -138.32213007444932 194.89086092793946 0 0 0 0 -1107.4399205347145 -462.88538394020543 0 -462.88538394020543 25.585752281045302 0 0 0 0 -344.10600506933406 -154.50605894148543 0 -154.50605894148543 -30.505253214998447 0 0 0 0 -1062.3284270933073 156.93197941814827 0 156.93197941814827 183.84036403081996 0 0 0 0 -853.66098817689272 -124.02879911793747 0 -124.02879911793747 -220.95539042683276 0 0 0 0 -959.36075212832657 -175.45736285083763 0 -175.45736285083763 182.45061857193826 0 0 0 0 -881.42370020412636 -147.92694654500775 0 -147.92694654500775 149.75310504788035 0 0 0 0 -863.33811206211976 97.625500998123499 0 97.625500998123499 28.586277381463148 0 0 0 0 -916.04047208402335 3.8639881186468017 0 3.8639881186468017 179.71192534795142 0 0 0 0 -1379.109424416034 44.468130769500704 0 44.468130769500704 118.20543002810666 0 0 0 0 -950.19159184975433 -526.50889181875846 0 -526.50889181875846 -308.99063197635502 0 0 0 0 -901.38388450494676 13.073858791821351 0 13.073858791821351 112.25480376138833 0 0 0 0 -955.63777051402576 -3.0251173222201544 0 -3.0251173222201544 188.8548935256083 0 0 0 0 -879.51382080967596 -25.827993456979925 0 -25.827993456979925 194.91852254067643 0 0 0 0 -888.80125906910598 49.860216157709424 0 49.860216157709424 225.8954648034167 0 0 0 0 -900.79227962085861 41.45048923887984 0 41.45048923887984 237.82174392558991 0 0 0 0 -637.28847033109196 83.811675242491077 0 83.811675242491077 161.9469988396699 0 0 0 0 -894.27707892483886 28.92618143060966 0 28.92618143060966 219.26706818843064 0 0 0 0 -770.69300984726033 -53.784416874107052 0 -53.784416874107052 210.26701186875229 0 0 0 0 -362.83544582732065 209.11606304864 0 209.11606304864 107.86685397413487 0 0 0 0 -74.138742098861258 -271.69457861274003 0 -271.69457861274003 195.16006478867985 0 0 0 0 29.038651773195852 19.717270399381704 0 19.717270399381704 45.832304297749033 0 0 0 0 -6.0835874712779514 -4.1467448541313701 0 -4.1467448541313701 -2.0604505579083119 0 0 0 0 -168.69272146392177 -4.9314413647913327 0 -4.9314413647913327 117.1387463696198 0 0 0 0 -190.9658569379078 -201.72128636709439 0 -201.72128636709439 -53.811446339237719 0 0 0 0 -188.54520446462379 -134.58622364379315 0 -134.58622364379315 -63.2081563641824 0 0 0 0 -282.15841225076292 -240.61223984264126 0 -240.61223984264126 63.28956584859975 0 0 0 0 -342.9849798768264 -132.98196294195816 0 -132.98196294195816 -52.03763098469733 0 0 0 0 -246.62623935377997 -154.73276557908719 0 -154.73276557908719 222.222704487089 0 0 0 0 -537.76405140401585 -100.19399849858675 0 -100.19399849858675 -193.867934829349 0 0 0 0 -548.4802596171503 -154.18526077166979 0 -154.18526077166979 34.694546845116349 0 0 0 0 -471.89446946011776 -67.57007604589198 0 -67.57007604589198 -9.9831612493360282 0 0 0 0 -471.27942972311575 -162.53683156991957 0 -162.53683156991957 96.338518810749605 0 0 0 0 -891.28158359037479 32.846463644635719 0 32.846463644635719 213.60924436486187 0 0 0 0 -1427.3095703134604 21.117585546610364 0 21.117585546610364 207.05205961406011 0 0 0 0 -895.69691409478401 23.754849385706251 0 23.754849385706251 203.16717082126229 0 0 0 0 -921.71107857865809 162.31612398514432 0 162.31612398514432 170.47854996127739 0 0 0 0 -913.65789541785489 25.269281637720638 0 25.269281637720638 220.63113208682273 0 0 0 0 -544.38885470322566 167.43457626410077 0 167.43457626410077 47.248605120308056 0 0 0 0 -494.5826120760612 203.44191153960233 0 203.44191153960233 38.082866656049191 0 0 0 0 -1049.5684627271694 432.56852692626239 0 432.56852692626239 -59.228230110011367 0 0 0 0 -881.39574096424985 -273.70945760552627 0 -273.70945760552627 -451.53587070694925 0 0 0 0 -825.54262078141619 -59.730314669880784 0 -59.730314669880784 56.114021780465265 0 0 0 0 -1058.70720070077 -361.3160391564241 0 -361.3160391564241 -2.3843774458889584 0 0 0 0 -100.59133455653914 -3.3342687755284302 0 -3.3342687755284302 0.58633596052462011 0 0 0 0 -1069.5624150309886 133.36035964820724 0 133.36035964820724 290.98871734505553 0 0 0 0 -1404.1147604606449 513.66868580828418 0 513.66868580828418 -92.351192022826353 0 0 0 0 -804.62977353498718 -361.20490206796308 0 -361.20490206796308 40.452622162483749 0 0 0 0 -1056.4446917175583 -465.80806854450788 0 -465.80806854450788 -137.54690699459965 0 0 0 0 -1075.0161939151653 456.35274420927158 0 456.35274420927158 94.559496798190537 0 0 0 0 -873.85241565138494 -318.51940018047139 0 -318.51940018047139 -397.75239856945939 0 0 0 0 -1364.9557267398413 -229.40878005002855 0 -229.40878005002855 15.100806081268146 0 0 0 0 -665.11531460384867 -3.5597940923179276 0 -3.5597940923179276 27.470172748379255 0 0 0 0 -617.33976098507992 -11.426873339180247 0 -11.426873339180247 -36.893657100237533 0 0 0 0 -0.13758516965639878 1.9303928419293399 0 1.9303928419293399 5.6573142054479595 0 0 0 0 -319.62999563262201 -13.04153639338108 0 -13.04153639338108 -78.001906792138016 0 0 0 0 138.78448179776024 315.53380307362318 0 315.53380307362318 -301.20266211852174 0 0 0 0 -427.89148443561498 86.487795272082735 0 86.487795272082735 58.938548943352316 0 0 0 0 -580.79137843153876 2.8072149347003688 0 2.8072149347003688 13.783090090565679 0 0 0 0 -444.87008051086741 -104.00210572992052 0 -104.00210572992052 -136.38057611666363 0 0 0 0 -640.14041312090558 18.013893732838937 0 18.013893732838937 47.667768797727945 0 0 0 0 -20.659304392001275 18.892582523806375 0 18.892582523806375 15.273769410027322 0 0 0 0 -79.273664175801457 7.9312184913453088 0 7.9312184913453088 157.48259892669853 0 0 0 0 -81.017112757035648 -400.46088639469269 0 -400.46088639469269 142.14986727816313 0 0 0 0 -446.48017741997319 12.371760914865149 0 12.371760914865149 -21.702956417754422 0 0 0 0 -495.87502898818639 -78.433979905964009 0 -78.433979905964009 168.913830121817 0 0 0 0 -659.80688098646351 -12.907524049750691 0 -12.907524049750691 57.052225169609414 0 0 0 0 -100.52323875063146 -2.6236563915596203 0 -2.6236563915596203 1.9521599993026977 0 0 0 0 454.6051334294898 77.87840640217928 0 77.87840640217928 -213.43918807335297 0 0 0 0 -933.53370510485547 231.27538335035979 0 231.27538335035979 -109.92524031103383 0 0 0 0 -1156.2002992984712 872.74139547483753 0 872.74139547483753 -28.963541698800782 0 0 0 0 -215.19163960928563 83.822536351207646 0 83.822536351207646 112.59913647094368 0 0 0 0 -18.998801818481297 -1.7627555969160085 0 -1.7627555969160085 -28.158498033704291 0 0 0 0 -23.42457840400516 1.2615769173704861 0 1.2615769173704861 -0.061166416326507739 0 0 0 0 -211.31506651556265 177.14004552279889 0 177.14004552279889 16.483838641672122 0 0 0 0 -32.4460380403616 1.174005115310365 0 1.174005115310365 -16.306030764061688 0 0 0 0 -21.250669877181281 -8.224798296966668 0 -8.224798296966668 -27.087985719198969 0 0 0 0 -23.797085741680348 -19.658374369776766 0 -19.658374369776766 -3.2052000160560965 0 0 0 0 -30.364335565871443 -4.9125747255202441 0 -4.9125747255202441 1.2697919002816889 0 0 0 0 -33.409152539912611 -21.88176181028598 0 -21.88176181028598 27.133808482788595 0 0 0 0 -22.300710878472273 -13.876753992842467 0 -13.876753992842467 -6.0850293814510223 0 0 0 0 -31.86348583155268 -10.934314428771188 0 -10.934314428771188 4.608539226629091 0 0 0 0 -37.023945212669787 -2.4619273201662963 0 -2.4619273201662963 -4.6987847862010312 0 0 0 0 17.604397884424543 -98.254911463345991 0 -98.254911463345991 72.133795479191306 0 0 0 0 -37.593123080683853 1.728149984840508 0 1.728149984840508 2.4089474817177252 0 0 0 0 -32.233046230297532 -6.433412921736652 0 -6.433412921736652 -5.7734232871853237 0 0 0 0 58.556816786978743 -46.508082677588391 0 -46.508082677588391 -133.49444671072104 0 0 0 0 -54.993928720010445 -6.4336245762564204 0 -6.4336245762564204 -0.10646151812306925 0 0 0 0 -42.18061371082149 -1.1470580846541907 0 -1.1470580846541907 -8.2490401178587973 0 0 0 0 -34.019085396558239 -3.6227674161269521 0 -3.6227674161269521 3.7380633314407987 0 0 0 0 -20.009895615370652 5.4592703646103615 0 5.4592703646103615 4.7129872546702369 0 0 0 0 -54.315093652636278 -3.0948730410821099 0 -3.0948730410821099 -0.35187019320960644 0 0 0 0 -47.002494458407455 -9.3131354717720001 0 -9.3131354717720001 3.7246330651150856 0 0 0 0 -5.5232169699706866 5.2720068533648714 0 5.2720068533648714 3.5747496196413042 0 0 0 0 -209.00715233893061 152.23044159774645 0 152.23044159774645 -38.209025307871684 0 0 0 0 -67.067473486720701 -7.9350763472889412 0 -7.9350763472889412 9.7567344543322179 0 0 0 0 -517.90512325931923 210.78201320669777 0 210.78201320669777 89.120507441604445 0 0 0 0 -503.85481653233001 238.30874598858202 0 238.30874598858202 81.625152647796995 0 0 0 0 -12.302616185274417 -1.9907456167359865 0 -1.9907456167359865 -0.95699833063647199 0 0 0 0 -182.07963395486877 -225.70476031753856 0 -225.70476031753856 -294.28808436806236 0 0 0 0 -380.07411349949689 324.50182976767678 0 324.50182976767678 -424.83412671811425 0 0 0 0 -11.580290525143582 -6.1092922955620992 0 -6.1092922955620992 -0.41878113497856484 0 0 0 0 -22.559203820972471 -5.4167723924941242 0 -5.4167723924941242 0.2362851742947214 0 0 0 0 213.61054819224228 -2.8622566315144695 0 -2.8622566315144695 -251.28831338164156 0 0 0 0 -566.31179272751615 1.1351793222816582 0 1.1351793222816582 458.36858057675693 0 0 0 0 -288.15872741921339 -57.279993305122389 0 -57.279993305122389 218.98297026934665 0 0 0 0 95.937969875583804 31.050098134513405 0 31.050098134513405 -96.314126714455597 0 0 0 0 -100.48431690927666 -2.2331748923480754 0 -2.2331748923480754 2.1175263120013295 0 0 0 0 -8.233543608813676 -4.1972627563600895 0 -4.1972627563600895 -1.924130899592289 0 0 0 0 -435.87266405374248 -469.91802607161821 0 -469.91802607161821 -35.485966163168655 0 0 0 0 -941.78784054785501 267.82368311669092 0 267.82368311669092 328.42627243012413 0 0 0 0 -501.63883744745908 362.57682062509002 0 362.57682062509002 -461.25050717207284 0 0 0 0 -16.405405201741814 -158.78034351276418 0 -158.78034351276418 -3.289670645813203 0 0 0 0 -48.785970145800093 -58.537217101955491 0 -58.537217101955491 -239.4794004473093 0 0 0 0 228.5541278159435 -146.90982407058954 0 -146.90982407058954 -13.983488327519012 0 0 0 0 -27.91358116941916 0.73237076689316982 0 0.73237076689316982 4.9710578067648514 0 0 0 0 384.42425522222038 131.44151028779078 0 131.44151028779078 -4.4724652064000736 0 0 0 0 -115.33357804172101 58.95080518346623 0 58.95080518346623 365.71786819581683 0 0 0 0 96.459632316531497 102.71924948342129 0 102.71924948342129 -60.475776540484048 0 0 0 0 291.71016223842162 193.71285783348532 0 193.71285783348532 -16.956592982264795 0 0 0 0 176.0799604423446 169.93286914507195 0 169.93286914507195 -5.0785614369359564 0 0 0 0 25.118712263374618 51.914930998745263 0 51.914930998745263 -21.760052341757273 0 0 0 0 -32.808162766477835 225.81466628160797 0 225.81466628160797 215.03449780849337 0 0 0 0 -33.508810826702891 5.4033687482483757 0 5.4033687482483757 -1.1593168196078696 0 0 0 0 -23.324350902842042 -7.9505758382874632 0 -7.9505758382874632 -2.3298759917552849 0 0 0 0 65.194667941192165 139.11700975325903 0 139.11700975325903 133.42890029588341 0 0 0 0 -62.10452927775259 -9.478647781810281 0 -9.478647781810281 -6.1656427151515345 0 0 0 0 -62.198726897666347 -9.741576911220136 0 -9.741576911220136 -5.0663638571371763 0 0 0 0 -71.367185023299271 -3.6861540330069733 0 -3.6861540330069733 -2.5257577431874583 0 0 0 0 4.5926521869696444 55.331117749891746 0 55.331117749891746 -78.59489976511145 0 0 0 0 -313.80371981309145 -145.58170327708774 0 -145.58170327708774 -157.22688552007452 0 0 0 0 108.41311641948414 429.37868670050261 0 429.37868670050261 -866.34638126665686 0 0 0 0 -59.609468030238745 21.00689037275329 0 21.00689037275329 -0.82336366756502755 0 0 0 0 -11.063656206402811 154.12266922236813 0 154.12266922236813 215.19088015026864 0 0 0 0 -165.1918353847359 -36.116094988872845 0 -36.116094988872845 15.737222556348343 0 0 0 0 -33.42588943999251 15.53438664771034 0 15.53438664771034 14.492303308876018 0 0 0 0 22.545354203351735 103.87759221330225 0 103.87759221330225 -49.612659664069724 0 0 0 0 -66.156260601278262 3.9234552415395569 0 3.9234552415395569 11.249501730031946 0 0 0 0 73.842825752712542 12.737051661004955 0 12.737051661004955 -150.6598939391497 0 0 0 0 -35.232192398189 -21.430730445970767 0 -21.430730445970767 196.63122956211078 0 0 0 0 -54.95773209156323 14.062200710744833 0 14.062200710744833 47.191203157138261 0 0 0 0 -40.862016871700732 15.405751068497811 0 15.405751068497811 3.264207631635446 0 0 0 0 -47.951081228246039 12.617026133043964 0 12.617026133043964 43.601405945467377 0 0 0 0 -49.332436465037972 23.247062677033455 0 23.247062677033455 19.397968562604547 0 0 0 0 -49.639821964445176 1.9359675941305801 0 1.9359675941305801 5.1277858664984723 0 0 0 0 -7.9306309253001359 0.48924288892261636 0 0.48924288892261636 0.15513512492827064 0 0 0 0 -118.4365337387062 194.03034345777974 0 194.03034345777974 -206.2593999629978 0 0 0 0 107.56439706735546 -1.055525304162984 0 -1.055525304162984 -129.41685988832245 0 0 0 0 -442.62403725290278 -510.48037484755849 0 -510.48037484755849 562.19731788891363 0 0 0 0 -449.22043692967236 150.18310639216563 0 150.18310639216563 13.430184535734199 0 0 0 0 -65.8254385407472 12.670894819918885 0 12.670894819918885 11.625418630894274 0 0 0 0 -5.6225838235632182 40.605603859779876 0 40.605603859779876 14.404498953603252 0 0 0 0 -33.295695060788127 25.218835746386382 0 25.218835746386382 3.597009390628676 0 0 0 0 11.374568365250752 9.5598234960848458 0 9.5598234960848458 7.9046213083270231 0 0 0 0 -14.554908229902704 33.652857930929827 0 33.652857930929827 -2.4682740828531209 0 0 0 0 -60.026747782465463 11.798129951022474 0 11.798129951022474 11.736553320464225 0 0 0 0 0.19156640568910888 2.2511227855108906 0 2.2511227855108906 -1.6441982038226985 0 0 0 0 43.268971788611452 57.827439001463063 0 57.827439001463063 31.716314866375342 0 0 0 0 -118.27546224067919 132.3686399139126 0 132.3686399139126 55.358297448896792 0 0 0 0 -68.283929296748283 65.356146138826716 0 65.356146138826716 -184.0386402287786 0 0 0 0 -2.3017755333094847 -0.6296054078046005 0 -0.6296054078046005 1.2500655703112233 0 0 0 0 -14.236866693946757 2.5259232634538327 0 2.5259232634538327 2.7715822599074116 0 0 0 0 -13.709696643736976 -2.7632107834955377 0 -2.7632107834955377 5.8310231722289245 0 0 0 0 -6.3609122722553968 -3.4780674711222836 0 -3.4780674711222836 -1.0340889847383146 0 0 0 0 488.26410289485466 -46.67722325329396 0 -46.67722325329396 -322.46745910542086 0 0 0 0 33.357666901050834 177.22940387823382 0 177.22940387823382 -149.55356198817844 0 0 0 0 -223.87264873577163 21.101787639918953 0 21.101787639918953 79.316981244225644 0 0 0 0 -209.81070526313306 203.72906040801126 0 203.72906040801126 245.84849395312358 0 0 0 0 132.39633394947668 374.04526316240299 0 374.04526316240299 218.69583499353553 0 0 0 0 -189.96780565940389 142.32293549935252 0 142.32293549935252 52.796872111915036 0 0 0 0 -6.8799837732640299 133.45443696444272 0 133.45443696444272 46.759615705984743 0 0 0 0 -37.393336506109335 160.29992980033785 0 160.29992980033785 96.926591562038993 0 0 0 0 -139.50503056152411 89.216947274690938 0 89.216947274690938 102.72236731359499 0 0 0 0 -631.81093703173065 -265.26747326756754 0 -265.26747326756754 22.04088027323678 0 0 0 0 154.55992137094472 -71.242996053663035 0 -71.242996053663035 24.202018864391903 0 0 0 0 -547.31812765058021 -384.35586434512777 0 -384.35586434512777 106.80341769254028 0 0 0 0 -657.29246038664678 -515.78766083586697 0 -515.78766083586697 153.44462984386769 0 0 0 0 -813.30780640950434 -486.78001660294854 0 -486.78001660294854 326.91900827280824 0 0 0 0 -1138.7136280686882 244.1928318365226 0 244.1928318365226 81.883203512561522 0 0 0 0 -2045.328799134805 -348.6106491024895 0 -348.6106491024895 340.59445966867042 0 0 0 0 -24.944474974706178 -2.7351613919076154 0 -2.7351613919076154 -0.30070351009474106 0 0 0 0 -715.22132771723227 -850.41706026170914 0 -850.41706026170914 359.21363123499759 0 0 0 0 -1627.5656854452941 1395.8669046307677 0 1395.8669046307677 -947.51695622282568 0 0 0 0 -1593.8947946870351 1420.1956783059059 0 1420.1956783059059 -923.45863940407617 0 0 0 0 -2751.3906853180206 -265.71751644621918 0 -265.71751644621918 817.40254541439208 0 0 0 0 -635.51921597106912 -252.3829980681719 0 -252.3829980681719 180.71687935600445 0 0 0 0 -698.21800135903095 490.40038694285795 0 490.40038694285795 -521.37226419970193 0 0 0 0 -1682.2515723459683 47.533896345368476 0 47.533896345368476 226.9923475577616 0 0 0 0 -44.527214461832266 -26.104007027608581 0 -26.104007027608581 23.04036562704033 0 0 0 0 -112.15697414198416 9.9915351251604534 0 9.9915351251604534 -46.963098499370972 0 0 0 0 72.607954400752533 -248.43275702705745 0 -248.43275702705745 -104.90461291352983 0 0 0 0 -103.56359637468267 -788.16994587455019 0 -788.16994587455019 383.82181932150706 0 0 0 0 -135.49912412716549 -2.8182926029335249 0 -2.8182926029335249 26.657692049127945 0 0 0 0 199.88835886932247 403.27993657881825 0 403.27993657881825 -740.55925619713162 0 0 0 0 13.379807053068859 -9.1962334334769071 0 -9.1962334334769071 -3.2713137766129288 0 0 0 0 407.7537707121046 -10.219744453323983 0 -10.219744453323983 -14.687414011408691 0 0 0 0 528.10649919510251 352.86380830860071 0 352.86380830860071 -1842.5995103343539 0 0 0 0 902.55970959161823 -1027.2827116804447 0 -1027.2827116804447 859.14571795903203 0 0 0 0 -35.289979932753482 1.8479656539351907 0 1.8479656539351907 7.3683904760640875 0 0 0 0 -81.028751241609825 22.053081563339219 0 22.053081563339219 16.668426180436654 0 0 0 0 -115.83828442918161 57.217498536221967 0 57.217498536221967 -15.767820320405008 0 0 0 0 -57.73158763497122 16.169667611237855 0 16.169667611237855 -6.0904840019893527 0 0 0 0 -71.4137649890381 30.271912418446846 0 30.271912418446846 -26.452665880851782 0 0 0 0 -41.03466169203989 6.4323803006369147 0 6.4323803006369147 5.6468377392817004 0 0 0 0 -75.067670550842195 18.745506473904697 0 18.745506473904697 -59.312478066425683 0 0 0 0 -26.533259425837926 5.0332157506538415 0 5.0332157506538415 7.986343502007422 0 0 0 0 -56.009346549727525 25.533536453778652 0 25.533536453778652 -12.238925104054942 0 0 0 0 -40.71925780406044 9.7785387460890298 0 9.7785387460890298 4.0548712611169115 0 0 0 0 -70.233434743178805 36.900196773509379 0 36.900196773509379 -19.656375751553242 0 0 0 0 -41.096101132345893 28.85050076788184 0 28.85050076788184 -14.207095870297053 0 0 0 0 -43.495559113416675 21.66258667027796 0 21.66258667027796 -24.337346213634191 0 0 0 0 -20.81031226515006 31.335927422784152 0 31.335927422784152 9.3171806238478894 0 0 0 0 -33.281229610153488 22.448699746197644 0 22.448699746197644 -8.5957008316859778 0 0 0 0 -544.45703198463548 218.68935445650766 0 218.68935445650766 19.008689621940448 0 0 0 0 -324.01963734420497 201.93590252879312 0 201.93590252879312 -27.794732410154666 0 0 0 0 2.3821681223958322 4.049027115063911 0 4.049027115063911 19.481644220197921 0 0 0 0 -468.08860069878938 25.649524095432525 0 25.649524095432525 25.521582325793474 0 0 0 0 -381.61170199893922 41.30695190131344 0 41.30695190131344 -40.473477297383852 0 0 0 0 -460.21989582041897 105.2158549320701 0 105.2158549320701 48.224628135656531 0 0 0 0 -661.0148650058909 203.27467970587736 0 203.27467970587736 72.668516138274526 0 0 0 0 -583.05252221539376 90.310991610098426 0 90.310991610098426 -359.19112902947938 0 0 0 0 -1191.3267393685815 -98.911885564251577 0 -98.911885564251577 164.58165699821302 0 0 0 0 -963.22270320420648 -523.15607736903121 0 -523.15607736903121 124.0590020441482 0 0 0 0 -769.94895972602626 -182.41612820952048 0 -182.41612820952048 86.936991329261673 0 0 0 0 80.875426893244367 -208.57720746530913 0 -208.57720746530913 -23.968025046052844 0 0 0 0 -497.1922713941749 210.45127407481596 0 210.45127407481596 428.28094756303835 0 0 0 0 -345.99970980573926 -211.75469268353845 0 -211.75469268353845 726.55232300660009 0 0 0 0 -66.661983488255871 -9.1653825498702979 0 -9.1653825498702979 -0.40307845037080092 0 0 0 0 -334.30560217121047 147.51906643072351 0 147.51906643072351 -249.30533099846753 0 0 0 0 -365.99077108101642 54.652736648796179 0 54.652736648796179 -288.99671953393494 0 0 0 0 -370.1874266728546 72.653184618051625 0 72.653184618051625 -321.58007391172919 0 0 0 0 -454.66749352676743 -17.628228547254366 0 -17.628228547254366 -193.12299756120456 0 0 0 0 -99.061033756918192 -14.938853895866501 0 -14.938853895866501 2.3139333040291241 0 0 0 0 -373.04020023347402 101.71406352184113 0 101.71406352184113 168.24989302523136 0 0 0 0 -705.0553298678351 110.69038018536457 0 110.69038018536457 310.24657672316789 0 0 0 0 -638.45974108551127 -32.7307030741581 0 -32.7307030741581 112.48093771650292 0 0 0 0 -556.01028315616895 -31.950593172012304 0 -31.950593172012304 22.287544131470895 0 0 0 0 -26.764530806584311 8.7865252377386405 0 8.7865252377386405 33.492054877459367 0 0 0 0 -831.79586313572509 38.790731709875672 0 38.790731709875672 306.17570617999718 0 0 0 0 -485.4478029564234 11.466775544712391 0 11.466775544712391 21.465786792902236 0 0 0 0 -496.01984617322887 -96.12754376863586 0 -96.12754376863586 -12.959896495036446 0 0 0 0 -611.65817742043873 -164.6935120975395 0 -164.6935120975395 -51.753795316788455 0 0 0 0 -919.79324842090136 -212.31974201380808 0 -212.31974201380808 -57.748702393952044 0 0 0 0 -495.21866190916001 -74.169464891142923 0 -74.169464891142923 -32.695119773637998 0 0 0 0 -35.916565727234961 -3.1630424591574702 0 -3.1630424591574702 -18.022572023930465 0 0 0 0 -403.17075058165938 -124.49959139558177 0 -124.49959139558177 -44.099207713590658 0 0 0 0 -687.72173543494137 59.680032191203452 0 59.680032191203452 -181.5684766679442 0 0 0 0 -852.17221306828651 198.05590225791525 0 198.05590225791525 203.65412189144922 0 0 0 0 -108.37073182726229 -0.44386171774768179 0 -0.44386171774768179 30.993269103942158 0 0 0 0 -513.54204565914551 -69.49453800953188 0 -69.49453800953188 -32.070063398155071 0 0 0 0 -8.0814907289747069 0.9138260182013056 0 0.9138260182013056 1.4716806438655414 0 0 0 0 4.7634147193219363 -10.372866910877008 0 -10.372866910877008 3.7237971084997539 0 0 0 0 -240.9767347816196 6.1909509094775785 0 6.1909509094775785 5.2694947677559867 0 0 0 0 -241.21119962997182 -25.428819784649022 0 -25.428819784649022 -33.242612199564974 0 0 0 0 -226.90031853720575 9.3351715846729348 0 9.3351715846729348 -103.45099741010381 0 0 0 0 -271.2517676096395 -57.341965527532921 0 -57.341965527532921 -122.17691707366066 0 0 0 0 -312.79868612984137 -62.278423794228729 0 -62.278423794228729 -89.553689491936893 0 0 0 0 -151.09528859792499 9.6523054169998659 0 9.6523054169998659 -88.889247589850129 0 0 0 0 5.1501782415289199 67.882401973720334 0 67.882401973720334 -109.23939378402429 0 0 0 0 -255.62198127426382 -374.89545628567248 0 -374.89545628567248 -246.38135155324926 0 0 0 0 789.71301351851434 -380.04912739906649 0 -380.04912739906649 -364.84048323746902 0 0 0 0 -172.29085361539137 -4.9669081021241936 0 -4.9669081021241936 -130.64021464195866 0 0 0 0 -190.50344834987391 91.937268720241008 0 91.937268720241008 -47.686974457246833 0 0 0 0 -400.15446298118331 58.060813686107622 0 58.060813686107622 -77.777376349945825 0 0 0 0 -283.54909623787535 79.037028840622042 0 79.037028840622042 -145.79098566541234 0 0 0 0 -296.52002750205065 22.181405107936826 0 22.181405107936826 -72.061763125690049 0 0 0 0 -405.65480618839683 -19.550627666177888 0 -19.550627666177888 -30.497096288950161 0 0 0 0 -308.75759051623027 -43.065070516289325 0 -43.065070516289325 -85.233998579358285 0 0 0 0 -316.85131139239093 3.4016024149223085 0 3.4016024149223085 -103.73622727199771 0 0 0 0 -256.20268550608307 39.116044088506669 0 39.116044088506669 -102.64354616690161 0 0 0 0 -275.28025148288725 76.525732218483427 0 76.525732218483427 -101.60147064211452 0 0 0 0 -364.89883491838191 71.356430989702062 0 71.356430989702062 5.0796726479675272 0 0 0 0 -443.58274173048267 -12.73462643116909 0 -12.73462643116909 -31.674927343310173 0 0 0 0 -482.51240191483703 64.098311617834497 0 64.098311617834497 5.7510488395114407 0 0 0 0 -305.63045187258103 221.25863464504619 0 221.25863464504619 81.23140818346792 0 0 0 0 -209.85711158468621 -17.188365970612494 0 -17.188365970612494 -13.674626700531462 0 0 0 0 -261.11618662033652 41.843783622839283 0 41.843783622839283 -64.418938890707523 0 0 0 0 -63.120583541065571 16.815779370581367 0 16.815779370581367 143.46773736477445 0 0 0 0 -143.05260700944382 -65.24314504303959 0 -65.24314504303959 106.47265601062281 0 0 0 0 38.522863696805871 24.715428931823453 0 24.715428931823453 -7.3685208692273818 0 0 0 0 -14.210163372170669 -8.0383172181955622 0 -8.0383172181955622 0.30262668120521496 0 0 0 0 -547.89918491694516 -75.392277012647639 0 -75.392277012647639 -5.7251269941311875 0 0 0 0 -85.013751634469372 254.74697994401242 0 254.74697994401242 85.787414226986527 0 0 0 0 0.85600913291880687 1.609088588296494 0 1.609088588296494 -2.166055261295087 0 0 0 0 -60.707410368072765 -10.218138609040334 0 -10.218138609040334 1.1591228801767901 0 0 0 0 -93.822424770372891 -60.010002350457853 0 -60.010002350457853 61.024853823996523 0 0 0 0 -59.446141686646065 -13.790981609063181 0 -13.790981609063181 -0.87777216775946454 0 0 0 0 -63.801957446798042 -39.636636967891718 0 -39.636636967891718 38.32679992534247 0 0 0 0 -122.77035282142606 -135.61156564037253 0 -135.61156564037253 -125.5380437111935 0 0 0 0 -56.718583444633623 -55.67729621126432 0 -55.67729621126432 -63.138061680340797 0 0 0 0 -92.171687737798493 11.812839422449429 0 11.812839422449429 164.82915752443398 0 0 0 0 -8.8763473209014236 -3.4005167189578707 0 -3.4005167189578707 0.37669607294234453 0 0 0 0 -44.799837915055377 -71.565104888273709 0 -71.565104888273709 -13.684967419503437 0 0 0 0 -78.641920642812693 -126.58320140570459 0 -126.58320140570459 -20.498402238672043 0 0 0 0 0.21765276382485155 1.4463875263157213 0 1.4463875263157213 -0.8549701863064918 0 0 0 0 4.3545843751753637 75.895367278964386 0 75.895367278964386 -60.194546627186355 0 0 0 0 -302.43055657054674 -135.21807789844104 0 -135.21807789844104 -119.2942455913103 0 0 0 0 -125.54867988519618 211.45899633755266 0 211.45899633755266 76.632649637610939 0 0 0 0 -313.40406091455225 38.526144018851483 0 38.526144018851483 -35.847065687290296 0 0 0 0 -67.198965660475551 -111.94995933656321 0 -111.94995933656321 -89.493592951696883 0 0 0 0 -311.02665759595402 -182.48333249510779 0 -182.48333249510779 -93.267034967181615 0 0 0 0 -205.7167405080163 -58.453326473133075 0 -58.453326473133075 -124.13101148330225 0 0 0 0 -251.83688555372464 -299.57945200249242 0 -299.57945200249242 -141.94207729958256 0 0 0 0 -111.84732357856774 -284.92812439279714 0 -284.92812439279714 -143.4749364533788 0 0 0 0 -290.9947982200174 -283.41825616909478 0 -283.41825616909478 54.641844644294451 0 0 0 0 -51.300560280362333 0.45866552541997407 0 0.45866552541997407 -50.127942841632375 0 0 0 0 52.067890022002757 -54.310613703443551 0 -54.310613703443551 -515.89412289530947 0 0 0 0 -194.40863472263027 -472.56298776508066 0 -472.56298776508066 -485.66027009688878 0 0 0 0 -138.75683815813136 -124.72388859835803 0 -124.72388859835803 13.684774178928365 0 0 0 0 -86.814372822773294 -204.94508036558841 0 -204.94508036558841 -308.79176759823167 0 0 0 0 -5935.1242955121579 -1482.1957064419141 0 -1482.1957064419141 -379.10030812050718 0 0 0 0 -321.27696842757723 98.345208783077396 0 98.345208783077396 728.46897688581464 0 0 0 0 -447.14346413749809 -367.20439495188793 0 -367.20439495188793 733.69366556685236 0 0 0 0 276.06708838892519 -450.23546975501085 0 -450.23546975501085 95.676607884160603 0 0 0 0 -757.44503666891615 -568.8799678958726 0 -568.8799678958726 158.14635787593096 0 0 0 0 -373.79129337692757 -280.76048139123236 0 -280.76048139123236 181.22957150901857 0 0 0 0 -362.27936737292475 -377.76301868423366 0 -377.76301868423366 -68.784853000551266 0 0 0 0 -521.63365066927872 -306.12252477625952 0 -306.12252477625952 377.19009902641483 0 0 0 0 -434.37922993997927 -491.06596692118251 0 -491.06596692118251 -69.927342500649161 0 0 0 0 -1660.5834928053446 -487.7476825311237 0 -487.7476825311237 -393.18184187193617 0 0 0 0 -407.5184985930855 -498.20872015828718 0 -498.20872015828718 -530.71621497710476 0 0 0 0 -5506.2637342157432 2438.9987770806702 0 2438.9987770806702 -3376.3403998328699 0 0 0 0 819.81192250852837 1015.5841324531629 0 1015.5841324531629 -1217.8542001664421 0 0 0 0 -9.5098643660418496 9.6818272866762172 0 9.6818272866762172 -7.2562980033678501 0 0 0 0 -537.81985799719496 343.36192004901335 0 343.36192004901335 -519.4686800848649 0 0 0 0 -122.89857514313917 273.32848469828491 0 273.32848469828491 -607.20476984885931 0 0 0 0 -2735.5300917245486 2015.6731130124474 0 2015.6731130124474 -1766.4729289860666 0 0 0 0 -7159.2498350027963 4167.1175484264731 0 4167.1175484264731 -2498.7122963664574 0 0 0 0 -1947.7900339865664 2218.7361896706448 0 2218.7361896706448 -2178.2369904270317 0 0 0 0 -1061.3322911316236 2413.3240603230438 0 2413.3240603230438 -2013.3824813074657 0 0 0 0 -5497.994536272462 1527.0785002394721 0 1527.0785002394721 -218.24464796549839 0 0 0 0 -3101.7325939514194 1617.187467066653 0 1617.187467066653 -2166.6584720128185 0 0 0 0 -16.274892288059462 -1.9296406930183707 0 -1.9296406930183707 -0.78643246096715957 0 0 0 0 -3012.7276744284372 1923.3916153807647 0 1923.3916153807647 -1223.5976184413164 0 0 0 0 -286.76134709115104 -526.98173522404363 0 -526.98173522404363 -834.38458411723605 0 0 0 0 -993.18395584938844 1568.5898160749562 0 1568.5898160749562 -1348.6217399629882 0 0 0 0 -2598.7083881563249 1180.6767307120758 0 1180.6767307120758 -1081.839094488023 0 0 0 0 -2397.2910466753019 -191.66203478266783 0 -191.66203478266783 695.13226939974913 0 0 0 0 -33.561812694651962 -11.088045812097562 0 -11.088045812097562 -77.17698705404473 0 0 0 0 -66.754752274480779 -77.544650548468098 0 -77.544650548468098 64.144849904882221 0 0 0 0 -35.678702897409615 -6.484685618337477 0 -6.484685618337477 -0.58319320696041332 0 0 0 0 -1335.2506478832061 109.30884016204513 0 109.30884016204513 -13.928065365366592 0 0 0 0 -15.990781634308064 0.69401073128157265 0 0.69401073128157265 -2.7332280078492865 0 0 0 0 -1004.7735561094414 -1607.652037609749 0 -1607.652037609749 936.60356017837648 0 0 0 0 -696.38305865203802 2017.2508276256635 0 2017.2508276256635 -127.52896034143737 0 0 0 0 -1356.4394859908648 1413.0219721500148 0 1413.0219721500148 586.1218834312217 0 0 0 0 -32.185729397253453 12.850620105585513 0 12.850620105585513 -2.7088920256691433 0 0 0 0 -3481.0128330570333 -414.13555187468614 0 -414.13555187468614 2003.038460948841 0 0 0 0 -1365.0423233701586 2587.5008515242516 0 2587.5008515242516 293.56321489659274 0 0 0 0 -254.65579681874078 -1856.8619054621388 0 -1856.8619054621388 -1375.0122952847516 0 0 0 0 -4612.1200316126415 -595.59320930037086 0 -595.59320930037086 1976.9513352140539 0 0 0 0 -5484.8423417668673 1751.4808907568131 0 1751.4808907568131 1755.0006274631869 0 0 0 0 -4653.6021090657014 -1447.3756927298789 0 -1447.3756927298789 -123.86224586883009 0 0 0 0 -1417.3426397460935 -1233.6691605175993 0 -1233.6691605175993 746.15093537053781 0 0 0 0 -24.731109978489343 2.9158378527592514 0 2.9158378527592514 2.4047103457789429 0 0 0 0 -788.87732927953766 995.53588597516318 0 995.53588597516318 -1409.3799751439437 0 0 0 0 -3.2242493509227756 -7.9643744905900604 0 -7.9643744905900604 5.3107791595205516 0 0 0 0 -3329.9147919359966 -2218.9937583646579 0 -2218.9937583646579 293.41800762852017 0 0 0 0 -5490.0182628189687 -185.18785325193781 0 -185.18785325193781 1305.3570690505453 0 0 0 0 1771.857772663232 25.892782067661983 0 25.892782067661983 -778.912006039689 0 0 0 0 1318.3019530590973 854.63327663045959 0 854.63327663045959 -1736.4502577609737 0 0 0 0 -3607.6317644432656 -1447.6875752094845 0 -1447.6875752094845 1382.5151612560005 0 0 0 0 -31.558464833955554 13.30685722177361 0 13.30685722177361 -4.944909793614185 0 0 0 0 -1170.6623247481475 3096.4455701050433 0 3096.4455701050433 -1582.8836545207253 0 0 0 0 -3206.079904269915 2042.0889455792699 0 2042.0889455792699 161.31114619873048 0 0 0 0 -5486.1153295831136 3336.0991264239319 0 3336.0991264239319 -196.07155402483332 0 0 0 0 -3234.7367891789181 1881.9136650488101 0 1881.9136650488101 -558.34756115727828 0 0 0 0 -2021.6222361759792 1388.4879756420016 0 1388.4879756420016 -1810.1903006358862 0 0 0 0 -3106.7038203124393 907.84019449769255 0 907.84019449769255 284.72044077348193 0 0 0 0 -3750.9710129114319 1388.7111625997234 0 1388.7111625997234 216.75946651223342 0 0 0 0 -2728.7732591584863 1294.5860864468857 0 1294.5860864468857 83.130393985060437 0 0 0 0 -3685.4777905040346 1899.241240968199 0 1899.241240968199 203.71671440968501 0 0 0 0 -1891.3761472765182 769.08404322987803 0 769.08404322987803 309.38551246211085 0 0 0 0 109.52369536999322 1062.6944311555847 0 1062.6944311555847 604.53208868912679 0 0 0 0 -1212.4171070617522 339.94214615181306 0 339.94214615181306 331.23159584171071 0 0 0 0 -3097.75018314505 523.39019721377906 0 523.39019721377906 275.96465530801117 0 0 0 0 -1374.0991166779895 1458.139199037149 0 1458.139199037149 359.69787207452191 0 0 0 0 -1317.1002317292005 342.47683077394214 0 342.47683077394214 -434.78385272344349 0 0 0 0 -2195.9066001148312 -314.00039242295327 0 -314.00039242295327 191.06937762337191 0 0 0 0 -2740.8388297645288 1189.133896254833 0 1189.133896254833 -522.71729980356224 0 0 0 0 -1909.6251447311224 881.62615784177376 0 881.62615784177376 96.991683049075604 0 0 0 0 -2809.4260697717 1079.8635534505013 0 1079.8635534505013 73.167041769062905 0 0 0 0 -2279.4466314916644 646.64041163274987 0 646.64041163274987 73.348540253312308 0 0 0 0 -2016.2346236539524 582.88859652512122 0 582.88859652512122 132.18446049903298 0 0 0 0 -2082.9879487511917 431.51974849754203 0 431.51974849754203 71.06997981180939 0 0 0 0 -933.04177200729464 532.07800572942006 0 532.07800572942006 -107.68288908116438 0 0 0 0 -1022.1719682121675 40.332889592201326 0 40.332889592201326 244.35753653994092 0 0 0 0 -407.89055655452103 -4.5141415336407693 0 -4.5141415336407693 -137.30499350397392 0 0 0 0 -42.577671847640886 319.02404471485193 0 319.02404471485193 322.19044675269708 0 0 0 0 -89.283592228530324 -395.97001219566232 0 -395.97001219566232 409.76729986568608 0 0 0 0 -329.54943579956307 3.8120658649149561 0 3.8120658649149561 149.56208558395451 0 0 0 0 -380.05260125759833 -305.95543442131043 0 -305.95543442131043 -263.32167025261322 0 0 0 0 -122.7238872759699 -507.00687412000394 0 -507.00687412000394 -82.042000719048318 0 0 0 0 194.71462128387066 -142.63725495768097 0 -142.63725495768097 -80.052906296361357 0 0 0 0 185.6563793705136 -322.40643293858307 0 -322.40643293858307 -213.83772141433178 0 0 0 0 -34.101196183238244 -261.50080654197103 0 -261.50080654197103 205.0203109908733 0 0 0 0 -28.462237202671531 -294.28210960795582 0 -294.28210960795582 -3.658169649772617 0 0 0 0 39.957929756012163 -310.95982955718489 0 -310.95982955718489 230.71379464474558 0 0 0 0 -15.258935312147514 -34.93481639188235 0 -34.93481639188235 -3.3231686349056417 0 0 0 0 -243.85732839235425 -29.55965147388082 0 -29.55965147388082 1025.3997716735425 0 0 0 0 -163.70279624753312 -153.85747793494033 0 -153.85747793494033 517.47171292524047 0 0 0 0 -77.477805000737135 16.93553020847321 0 16.93553020847321 51.414469801021298 0 0 0 0 -55.330897005939931 -9.8516819747359747 0 -9.8516819747359747 0.94739858720158454 0 0 0 0 -55.688197921595915 -1.8081297541324464 0 -1.8081297541324464 2.6609197036292898 0 0 0 0 -515.48040531957304 126.0496478860513 0 126.0496478860513 -0.37906836046215631 0 0 0 0 -70.408621147533268 22.380658269533797 0 22.380658269533797 -25.560401259066111 0 0 0 0 -57.010365524776546 -14.863858335505039 0 -14.863858335505039 -1.3697022105330023 0 0 0 0 -116.09652231890323 -61.511050124261232 0 -61.511050124261232 14.920129449225897 0 0 0 0 -55.679988373398373 17.23322977236262 0 17.23322977236262 -18.945228998157418 0 0 0 0 775.23596599561279 -93.867293828844254 0 -93.867293828844254 1.3530348675321875 0 0 0 0 -21.649376232274605 -3.0319843971278289 0 -3.0319843971278289 0.044617677378298692 0 0 0 0 -69.403914077729496 -35.351859191762131 0 -35.351859191762131 -10.863137051293961 0 0 0 0 777.43929907950951 -71.21859961886878 0 -71.21859961886878 -1483.4433323526719 0 0 0 0 -658.76463858152783 18.141865862022684 0 18.141865862022684 1213.5282836193962 0 0 0 0 -20.724699174754619 1.880884027252165 0 1.880884027252165 1.920352670982421 0 0 0 0 -31.812747702287936 0.50229128744685703 0 0.50229128744685703 1.6348444611393709 0 0 0 0 -50.180110449997301 -13.015254973241326 0 -13.015254973241326 22.086088807396663 0 0 0 0 -5.126620393974008 4.8623494158264293 0 4.8623494158264293 -6.5721067673677567 0 0 0 0 -47.401552270420737 -2.7880328265567984 0 -2.7880328265567984 1.4769295651423318 0 0 0 0 -83.283314496991807 -3.7743846439420849 0 -3.7743846439420849 51.02586339028926 0 0 0 0 -1673.3049864355453 508.53917673005208 0 508.53917673005208 -898.17971085209138 0 0 0 0 -2675.9033404620495 30.232533279335712 0 30.232533279335712 373.57264283995482 0 0 0 0 -3670.6054999793901 -1098.4437782277118 0 -1098.4437782277118 45.066323991779427 0 0 0 0 -3514.7934681699335 750.80454315352563 0 750.80454315352563 -216.29096489360199 0 0 0 0 -3299.9910745038651 -90.776085400743455 0 -90.776085400743455 283.6446120999135 0 0 0 0 -2369.6751755889563 -74.268570164040284 0 -74.268570164040284 206.25867702297325 0 0 0 0 -2895.3183112135011 -104.55359268967823 0 -104.55359268967823 435.1562567734195 0 0 0 0 -3211.1786381440143 110.35814208873126 0 110.35814208873126 709.33307834602965 0 0 0 0 -2823.1294199305848 90.454992058570497 0 90.454992058570497 398.78540401191094 0 0 0 0 -2081.0472227021819 525.89651870901605 0 525.89651870901605 -121.45804058944123 0 0 0 0 -2406.0301698712938 -280.37243172380749 0 -280.37243172380749 728.45059223699172 0 0 0 0 -2303.0950664380362 384.30138752428024 0 384.30138752428024 388.87379986014923 0 0 0 0 -2713.8289150939781 232.81447781446832 0 232.81447781446832 973.54734413311598 0 0 0 0 41.451685395331879 77.740428132245597 0 77.740428132245597 -387.9716509403388 0 0 0 0 -245.40883397694415 234.79272744334548 0 234.79272744334548 -418.82123168132239 0 0 0 0 -192.52388043273095 -115.94131999310048 0 -115.94131999310048 90.979504312337667 0 0 0 0 -333.04916491760559 110.43006288170091 0 110.43006288170091 -16.413281352502963 0 0 0 0 44.187671547399304 -21.158541771108119 0 -21.158541771108119 -78.599862612275501 0 0 0 0 -3.6155504468188155 23.767646066583893 0 23.767646066583893 -113.28756947470674 0 0 0 0 -14.058545978972688 -17.189988369067123 0 -17.189988369067123 -46.655793719556641 0 0 0 0 -5.1097723976872373 -3.6743119946471658 0 -3.6743119946471658 -7.0319078256851322 0 0 0 0 81.000460051916889 261.94966530147542 0 261.94966530147542 152.2867926189756 0 0 0 0 -3.7790142162393181 -0.14952755604099011 0 -0.14952755604099011 1.311902887420727 0 0 0 0 -1459.536250422334 -62.02651984080785 0 -62.02651984080785 403.42555506377084 0 0 0 0 111.62592393327941 -13.747903827084883 0 -13.747903827084883 -623.26695682409354 0 0 0 0 -1261.2334567076541 -728.62775554785094 0 -728.62775554785094 -401.45870002713468 0 0 0 0 366.33255192599245 -163.54218548081576 0 -163.54218548081576 -338.64388564506316 0 0 0 0 -1543.2915119097124 -664.51169964168685 0 -664.51169964168685 -56.69292251858883 0 0 0 0 -202.55118727452282 232.2473729710714 0 232.2473729710714 107.45321841593977 0 0 0 0 -1522.2489206029295 -432.71088052169102 0 -432.71088052169102 -234.27430312333672 0 0 0 0 -1902.2061061440945 -1126.9419018624187 0 -1126.9419018624187 -1403.659758456407 0 0 0 0 -2317.162082052153 946.87340390194186 0 946.87340390194186 -1195.1756593001746 0 0 0 0 -3109.0284344480169 -200.9602635070919 0 -200.9602635070919 -123.2381990812064 0 0 0 0 -2410.7175451318744 1234.7795970621974 0 1234.7795970621974 -208.54814901062309 0 0 0 0 -588.50660739219529 881.47320991983315 0 881.47320991983315 -500.12349995934164 0 0 0 0 -273.84142548174714 687.6170486961023 0 687.6170486961023 -508.40162256912026 0 0 0 0 -524.53798029811151 975.75855883741042 0 975.75855883741042 -540.34315838669499 0 0 0 0 88.113116573190382 375.00914144409353 0 375.00914144409353 -327.15260239285635 0 0 0 0 26.586324589050491 769.30087395132887 0 769.30087395132887 -801.36640999247811 0 0 0 0 133.82259484331371 164.92809540406597 0 164.92809540406597 -141.21444165185221 0 0 0 0 -180.70854141141172 216.27222823181091 0 216.27222823181091 861.99511251202239 0 0 0 0 -292.42726169674643 1286.2582544094639 0 1286.2582544094639 -924.44964008428815 0 0 0 0 -107.75637516333154 262.94507650570722 0 262.94507650570722 -520.56558555717311 0 0 0 0 -229.2770275020157 279.99669761999303 0 279.99669761999303 -263.10853355534528 0 0 0 0 -4.791371700259333 370.26646115631047 0 370.26646115631047 -237.82703551906889 0 0 0 0 -93.77621432964952 472.46631863318271 0 472.46631863318271 -472.10379401196042 0 0 0 0 -67.722372668249591 669.43432659707287 0 669.43432659707287 -604.39511348359883 0 0 0 0 -145.90458170326019 417.79805221632978 0 417.79805221632978 -270.58146910247342 0 0 0 0 -81.384096022658923 467.03889172992331 0 467.03889172992331 11.816210923721883 0 0 0 0 86.806663581170142 321.20696951392529 0 321.20696951392529 58.959716314651359 0 0 0 0 -80.224525941528555 395.75613821749175 0 395.75613821749175 626.7684453428883 0 0 0 0 -88.12580259824972 299.04731116034873 0 299.04731116034873 114.43825416835898 0 0 0 0 69.241071946169541 407.29540756331517 0 407.29540756331517 -275.5498361570169 0 0 0 0 135.2146690302252 354.83660347532532 0 354.83660347532532 117.99083577690033 0 0 0 0 29.869503654339496 258.66335347052427 0 258.66335347052427 183.28273225697558 0 0 0 0 -109.66572142209043 348.44691267538838 0 348.44691267538838 141.80421714007753 0 0 0 0 -123.57250764386117 173.11110044154748 0 173.11110044154748 -36.482253581809346 0 0 0 0 -87.86497024801065 389.016812489328 0 389.016812489328 1047.3432734619528 0 0 0 0 61.486206157569541 347.22896663987922 0 347.22896663987922 574.52550103956537 0 0 0 0 -64.781322961749538 328.08972843883384 0 328.08972843883384 575.37301663528342 0 0 0 0 80.755255355208647 188.65172786087351 0 188.65172786087351 1033.4332915710729 0 0 0 0 308.19634335977753 447.51525347392817 0 447.51525347392817 594.77571219886931 0 0 0 0 -363.1661833010894 -524.05556084642467 0 -524.05556084642467 621.12268040058643 0 0 0 0 -307.55539136347943 422.60039246818747 0 422.60039246818747 -634.21421450232458 0 0 0 0 329.22917747593601 -977.5060616214414 0 -977.5060616214414 -1334.2727133393973 0 0 0 0 -132.88844346786209 549.29139504124578 0 549.29139504124578 1311.3101576739246 0 0 0 0 19.181347015764914 663.11005136281074 0 663.11005136281074 1007.4628314497401 0 0 0 0 -212.24714885723188 476.85735557740759 0 476.85735557740759 539.90813018025074 0 0 0 0 -7.7276050927188784 3.7547112106304628 0 3.7547112106304628 -1.8390070984687741 0 0 0 0 476.4344773612986 899.57956419357049 0 899.57956419357049 -1248.7960102653133 0 0 0 0 -88.980057369441454 32.082505478835984 0 32.082505478835984 -8.8784085811518452 0 0 0 0 -1828.6207932061789 -823.74204097045094 0 -823.74204097045094 44.57777742504959 0 0 0 0 -33.259305336207476 9.9282902663453285 0 9.9282902663453285 -3.2989066450377571 0 0 0 0 -687.85562277695499 205.73099670873944 0 205.73099670873944 941.17827014503496 0 0 0 0 -98.529870035497879 665.27887516457577 0 665.27887516457577 1053.8935389230774 0 0 0 0 -79.297707504596062 27.285963037636609 0 27.285963037636609 -6.8709694801210262 0 0 0 0 -455.71744041928832 -215.51127008313711 0 -215.51127008313711 -559.74155383104915 0 0 0 0 -363.57803711652923 262.50581404911662 0 262.50581404911662 51.85316462115361 0 0 0 0 -313.75283506855703 77.932375515021704 0 77.932375515021704 -492.96809583908521 0 0 0 0 -688.47391002301811 -421.33339574133652 0 -421.33339574133652 -381.32446421093118 0 0 0 0 -1259.3406656343077 -266.43683542462389 0 -266.43683542462389 -627.00978520962451 0 0 0 0 -2300.1090062257172 -76.355558797531415 0 -76.355558797531415 -243.60739280140058 0 0 0 0 -1641.3075613961119 -395.28740524495589 0 -395.28740524495589 -531.32298777096526 0 0 0 0 -866.09535814237097 -292.33272608942252 0 -292.33272608942252 -597.31994306714671 0 0 0 0 -1226.3769226205459 -178.76647704219221 0 -178.76647704219221 -445.96764622105752 0 0 0 0 -205.53725103048782 110.85551934684975 0 110.85551934684975 -509.1017935142512 0 0 0 0 -575.33757606852487 -136.66553301516512 0 -136.66553301516512 -484.68410866938416 0 0 0 0 -699.05686623037036 -72.346685428809224 0 -72.346685428809224 -428.75231199872496 0 0 0 0 -977.81258634564074 -235.39641010066862 0 -235.39641010066862 -414.08009967268458 0 0 0 0 -621.58011877263834 -264.30336917254095 0 -264.30336917254095 -582.19246805172588 0 0 0 0 -1597.2587026849815 -221.46071529171104 0 -221.46071529171104 -391.73102628099969 0 0 0 0 -1106.7665392407016 -416.24749644594249 0 -416.24749644594249 -644.91599436016213 0 0 0 0 -1322.7127949513524 -114.94799475613593 0 -114.94799475613593 -556.57307232614039 0 0 0 0 -427.59426024294953 141.51643196513419 0 141.51643196513419 46.018335097214731 0 0 0 0 65.733339234368373 -99.983145600547829 0 -99.983145600547829 -54.55872484150359 0 0 0 0 -291.93606981668199 16.370950207137753 0 16.370950207137753 -2.1897256910823444 0 0 0 0 -298.36756464328755 -26.832646653957568 0 -26.832646653957568 -246.65444021825573 0 0 0 0 -557.83479289155366 346.21483250782211 0 346.21483250782211 -159.39138367218015 0 0 0 0 -352.62718574444079 49.860077009763529 0 49.860077009763529 -354.96241516821408 0 0 0 0 -603.45499982996216 -176.88877212829689 0 -176.88877212829689 -234.5319294660751 0 0 0 0 -354.74488911896697 -250.37280109946505 0 -250.37280109946505 -396.78864969704659 0 0 0 0 -342.51998361345977 -161.80718218415586 0 -161.80718218415586 -93.450325023483856 0 0 0 0 -161.90454412370673 -235.88806865057586 0 -235.88806865057586 -81.135541313789759 0 0 0 0 1.5612336181855184 -2.6246405813263189 0 -2.6246405813263189 -1.3840743774807109 0 0 0 0 -205.97603820969744 -169.47716862229572 0 -169.47716862229572 -84.442329186252664 0 0 0 0 60.627202566381129 -35.073663235448407 0 -35.073663235448407 -98.12862464312002 0 0 0 0 -362.90625563530375 -340.83082505785887 0 -340.83082505785887 -208.66422258867419 0 0 0 0 -230.44314581112667 -223.752908949431 0 -223.752908949431 -234.53679865068352 0 0 0 0 -157.36485751927285 -215.92789018645544 0 -215.92789018645544 -278.11706367654506 0 0 0 0 -605.09663559699402 -403.33545083739637 0 -403.33545083739637 -256.80615706916046 0 0 0 0 -379.47591818061665 -292.59880093876745 0 -292.59880093876745 -343.09354395834634 0 0 0 0 -572.28229087701584 -374.57191428869123 0 -374.57191428869123 -270.74844414475047 0 0 0 0 -496.55156379558321 -446.74060208188212 0 -446.74060208188212 -262.11366689145848 0 0 0 0 -399.46625711499109 -341.41617495586752 0 -341.41617495586752 -234.24808573380051 0 0 0 0 -404.06674484781797 -350.15338196183711 0 -350.15338196183711 -199.71959511333978 0 0 0 0 -1221.5976758864581 -268.89084517623075 0 -268.89084517623075 -320.81585632716997 0 0 0 0 -1225.0755778451685 -299.5145125368374 0 -299.5145125368374 -469.25566111231456 0 0 0 0 -672.00808148672513 -273.31389038827183 0 -273.31389038827183 -411.21128475992191 0 0 0 0 -839.19992684152385 -429.09923276730024 0 -429.09923276730024 -484.81902352711199 0 0 0 0 -584.01082538267838 -406.95736278857476 0 -406.95736278857476 -346.13496558497764 0 0 0 0 -847.4304164260393 -307.452733128006 0 -307.452733128006 -263.39904930152534 0 0 0 0 -859.84374472335185 -413.79610161630535 0 -413.79610161630535 -287.91091083581978 0 0 0 0 -936.63149310132394 -371.73378387504135 0 -371.73378387504135 -286.66591571369872 0 0 0 0 -1056.5932649134284 -83.862034396989202 0 -83.862034396989202 -278.12820880725576 0 0 0 0 -859.98908630058577 -280.24797026024135 0 -280.24797026024135 -384.93354633033186 0 0 0 0 -1053.1972839551745 147.06094341105472 0 147.06094341105472 -251.50899028681238 0 0 0 0 -1375.6627409336425 89.026414827200853 0 89.026414827200853 -250.12701898701744 0 0 0 0 -1583.9588055687018 187.43478760115522 0 187.43478760115522 -233.91636404004066 0 0 0 0 -1395.7625087865817 -194.28870539189484 0 -194.28870539189484 -222.06552622713207 0 0 0 0 -1304.0034050238137 393.40918555073176 0 393.40918555073176 -241.88814541154215 0 0 0 0 -1453.2300634906805 339.3779132702407 0 339.3779132702407 -205.99118306310083 0 0 0 0 -1633.602387574465 508.91657799955647 0 508.91657799955647 -273.08378141418711 0 0 0 0 -1483.5368828957362 638.56644048479484 0 638.56644048479484 -269.12975281630679 0 0 0 0 -1697.0752195130262 627.70424263078485 0 627.70424263078485 -207.38380212269931 0 0 0 0 -1718.3026537659734 665.16634361038768 0 665.16634361038768 -270.17015232608719 0 0 0 0 -2050.8577914501438 361.54705956690077 0 361.54705956690077 -203.8507493085508 0 0 0 0 -2070.8027426498666 652.10295905829935 0 652.10295905829935 -204.2786976764105 0 0 0 0 -1972.7101078645428 667.61755105975226 0 667.61755105975226 -224.92954900362292 0 0 0 0 -1667.4451148921908 -157.53393485089737 0 -157.53393485089737 -226.31705426007989 0 0 0 0 -1690.4705850538739 105.68155215757861 0 105.68155215757861 -246.89380261151945 0 0 0 0 -1666.173132738315 132.23087242962538 0 132.23087242962538 -219.2356904507692 0 0 0 0 -2349.9536332178905 13.68911061052404 0 13.68911061052404 -230.32817170969429 0 0 0 0 -1822.0695070738402 -486.86686583493974 0 -486.86686583493974 -625.50183322751127 0 0 0 0 -2150.5930741097691 2.8458086996835164 0 2.8458086996835164 -555.81914580326043 0 0 0 0 -2116.6660603799064 117.5675345492084 0 117.5675345492084 -988.44504284329355 0 0 0 0 -2057.3029061200959 115.76516073163793 0 115.76516073163793 -346.44694463635733 0 0 0 0 -2898.3095342217457 -396.02704088356313 0 -396.02704088356313 -588.61173683267589 0 0 0 0 -2735.9566759809313 617.48408038255911 0 617.48408038255911 -442.83630684539003 0 0 0 0 -3044.4628415876505 685.36745031361352 0 685.36745031361352 -204.54680485428571 0 0 0 0 -1700.7180687823275 1078.4200278942117 0 1078.4200278942117 -484.02638796916926 0 0 0 0 -4028.4176228652177 1780.412862859876 0 1780.412862859876 -802.68509491288296 0 0 0 0 -1442.8988809819057 1817.2944148660981 0 1817.2944148660981 -2077.6770109641038 0 0 0 0 -3961.0339710886619 1493.2585035676711 0 1493.2585035676711 -551.61085235489554 0 0 0 0 -3.0506318922942768 -4.4416904225563467 0 -4.4416904225563467 -0.63225874969364648 0 0 0 0 -3146.7183337626557 324.97966054246717 0 324.97966054246717 -644.15378666888864 0 0 0 0 -4774.4389479852398 973.89104224430571 0 973.89104224430571 -676.91252857198378 0 0 0 0 -3292.1844509442853 -544.81012746820272 0 -544.81012746820272 -1060.7634859938648 0 0 0 0 -2137.7822854847809 -548.21746115710312 0 -548.21746115710312 -250.80850345552699 0 0 0 0 -9.2820336979696805 -3.1730827411385505 0 -3.1730827411385505 -4.5001274954121291 0 0 0 0 -2114.9189453988802 -1291.5680101409234 0 -1291.5680101409234 -22.603826014765218 0 0 0 0 -2397.5822086398475 243.78758640275927 0 243.78758640275927 245.26719944165936 0 0 0 0 -4217.3976500393437 -398.17281680812584 0 -398.17281680812584 260.62763547492244 0 0 0 0 -2942.4681048634811 676.21239541322348 0 676.21239541322348 -736.53671604377405 0 0 0 0 -71.983277040202665 45.12112142732903 0 45.12112142732903 39.831908327217718 0 0 0 0 -18.435399774738471 58.293875535381318 0 58.293875535381318 -90.586268593094914 0 0 0 0 -2.4447864035355451 39.255510034105804 0 39.255510034105804 7.1281318315388376 0 0 0 0 -43.524521632945834 60.155712013536871 0 60.155712013536871 47.747820482060263 0 0 0 0 -4.134388592283976 6.3282508578647025 0 6.3282508578647025 2.9930129525536011 0 0 0 0 -24.728531374930753 -122.86952835136196 0 -122.86952835136196 4.8494487154406585 0 0 0 0 -29.402297241154884 16.005076529854477 0 16.005076529854477 -9.6779256831360811 0 0 0 0 -316.66405165616743 556.12018513507473 0 556.12018513507473 -54.061759282387357 0 0 0 0 -16.386050856785005 21.953941313604219 0 21.953941313604219 -8.8876582806024089 0 0 0 0 -148.34264872029598 103.48638951326438 0 103.48638951326438 -625.02251786306351 0 0 0 0 -16.956152161623905 -8.5454312301537367 0 -8.5454312301537367 -1.2796670077714452 0 0 0 0 -13.003031560467477 -4.2978455937304787 0 -4.2978455937304787 -5.6639979879858853 0 0 0 0 -14.910629237060245 2.9017264755532892 0 2.9017264755532892 -13.659798577046118 0 0 0 0 -7.1108161502488656 -3.0966973855674951 0 -3.0966973855674951 -0.39833535145999122 0 0 0 0 -1690.8005223647215 1039.491504563231 0 1039.491504563231 -379.79144927008019 0 0 0 0 -1344.6470844225114 1064.1970283020892 0 1064.1970283020892 -477.55753499781713 0 0 0 0 -14.002553877093305 63.547668584749772 0 63.547668584749772 -45.909230291354561 0 0 0 0 -29.055785993312014 14.50650627274589 0 14.50650627274589 -2.8352911091360387 0 0 0 0 -5.4183291864872771 -2.4825586891736933 0 -2.4825586891736933 -4.1253458548636317 0 0 0 0 38.804355364027288 -34.458351157167272 0 -34.458351157167272 -86.724085590678442 0 0 0 0 0.12159341331425821 -2.905496215920266 0 -2.905496215920266 -19.402730943133975 0 0 0 0 -12.479906306063278 -3.5095870858019254 0 -3.5095870858019254 -4.1390045585988915 0 0 0 0 -1091.5794996497723 502.53335287602999 0 502.53335287602999 -383.49492463648676 0 0 0 0 -1090.1879756488925 897.50520313920561 0 897.50520313920561 -581.26050659601606 0 0 0 0 -1500.3015396516093 773.0265191058279 0 773.0265191058279 -326.89212428070823 0 0 0 0 -1959.8977632191588 1008.9314862145384 0 1008.9314862145384 -309.31194620878341 0 0 0 0 -1947.0359963735682 383.14363379768656 0 383.14363379768656 392.54073837131 0 0 0 0 -1347.3006080401137 615.03256103774265 0 615.03256103774265 -315.37086054485189 0 0 0 0 -1543.5380494706624 786.32905439448496 0 786.32905439448496 -325.37488476212013 0 0 0 0 -1590.9943963858605 671.1139902263958 0 671.1139902263958 -338.95393777542722 0 0 0 0 -1536.6024337414856 705.88624884096907 0 705.88624884096907 -347.57826575125 0 0 0 0 -1621.2256432405702 647.12322796457192 0 647.12322796457192 -316.29286402951755 0 0 0 0 -1878.7997725286878 973.07198535019324 0 973.07198535019324 -617.03054638024696 0 0 0 0 -1341.2883749511202 605.73784172445494 0 605.73784172445494 -358.81753638065601 0 0 0 0 -21.46145356924535 -43.510562191784857 0 -43.510562191784857 37.370898017860327 0 0 0 0 -80.511749188557587 26.31536497333218 0 26.31536497333218 -1.16206640913515 0 0 0 0 -32.792176522297247 -2.8484416767611336 0 -2.8484416767611336 7.2473848736910842 0 0 0 0 -2.2117509199729781 1.7026494265203276 0 1.7026494265203276 -0.75709688278321963 0 0 0 0 -141.22931391935708 -22.001527772717964 0 -22.001527772717964 19.922289259846366 0 0 0 0 -3.022071752046287 -1.1135703725567154 0 -1.1135703725567154 0.60966116080211741 0 0 0 0 46.767408119104402 50.138700543735354 0 50.138700543735354 0.48613542561815848 0 0 0 0 -106.01894939002523 80.14085358156899 0 80.14085358156899 18.041035235288291 0 0 0 0 -123.02510603691189 -11.865840197422585 0 -11.865840197422585 24.656461382473822 0 0 0 0 -72.230560146570497 97.328537939964008 0 97.328537939964008 -86.198160779271348 0 0 0 0 -71.435882316880452 61.343708910866553 0 61.343708910866553 -32.764703001717862 0 0 0 0 -93.865938431081304 101.59939414918335 0 101.59939414918335 -14.107356419002826 0 0 0 0 -250.9488412399005 151.60746506654232 0 151.60746506654232 -198.66355647619821 0 0 0 0 -95.80106247503727 37.687403787736457 0 37.687403787736457 -115.02180305166985 0 0 0 0 -72.986350250001124 37.310289983576695 0 37.310289983576695 -157.60230474583659 0 0 0 0 -102.11621883323824 89.907773038055893 0 89.907773038055893 -87.582402548548998 0 0 0 0 -152.09713027912221 -73.247474846811201 0 -73.247474846811201 -91.82137478644745 0 0 0 0 -62.979425402591005 -25.376438570670871 0 -25.376438570670871 -76.200956575361488 0 0 0 0 -182.08654857853981 -149.61364003629842 0 -149.61364003629842 183.29783377451349 0 0 0 0 -35.646519417732634 -5.9288334126508744 0 -5.9288334126508744 -457.84333321933082 0 0 0 0 -50.891199657373363 -322.99804161987049 0 -322.99804161987049 -180.75003960416598 0 0 0 0 -143.41820529071447 -35.441864105814489 0 -35.441864105814489 -33.103454933439934 0 0 0 0 -121.69586539130978 61.02428494205833 0 61.02428494205833 101.72704002764931 0 0 0 0 -75.563320642890176 11.245653141341791 0 11.245653141341791 -103.63180781973642 0 0 0 0 1.7232328590186512 2.5042857398687453 0 2.5042857398687453 2.147398310571293 0 0 0 0 -27.184596182587484 100.51106343605625 0 100.51106343605625 -133.92653288717702 0 0 0 0 -138.86358618045779 -44.271245133166303 0 -44.271245133166303 325.30687019640482 0 0 0 0 -22.348767842828238 47.706162672503524 0 47.706162672503524 -87.041797093804234 0 0 0 0 88.999095083953762 -72.240880037878469 0 -72.240880037878469 24.283696371196129 0 0 0 0 -116.17625396111498 26.313056764686394 0 26.313056764686394 -64.783531592533109 0 0 0 0 -13.662366091775766 -65.017311434554358 0 -65.017311434554358 156.58768052416644 0 0 0 0 3.9653801213686819 11.576269697387907 0 11.576269697387907 -0.71107428345993728 0 0 0 0 -7.5066314582400082 65.656353002808373 0 65.656353002808373 -38.623124836585703 0 0 0 0 39.801989595414852 52.864112609005588 0 52.864112609005588 47.081024413755586 0 0 0 0 -13.9347709881622 -26.32136983487635 0 -26.32136983487635 -26.547670858845777 0 0 0 0 113.97077694968903 -9.9170214947675959 0 -9.9170214947675959 -35.500076290321886 0 0 0 0 42.837029286456527 10.352351387226008 0 10.352351387226008 -37.283437125696992 0 0 0 0 39.432536918324331 -11.188119727358753 0 -11.188119727358753 -89.296798482944723 0 0 0 0 37.0196042461248 -32.253271426126958 0 -32.253271426126958 -85.74538080027196 0 0 0 0 15.435753155645216 13.87252812427505 0 13.87252812427505 -106.57843724322629 0 0 0 0 -71.889315932232421 54.228402686563641 0 54.228402686563641 -84.046378497429032 0 0 0 0 11.057767947706452 52.015978577978103 0 52.015978577978103 -116.43492435621374 0 0 0 0 41.628044765297091 31.018385288016361 0 31.018385288016361 -313.31485264528783 0 0 0 0 -302.81544643446159 391.70774929587333 0 391.70774929587333 51.489657411257213 0 0 0 0 31.194472262613999 9.4093895295500261 0 9.4093895295500261 7.1772681544011903 0 0 0 0 75.12429635909939 -12.728959309898528 0 -12.728959309898528 -115.24450206319671 0 0 0 0 46.494471849746333 57.729352763972656 0 57.729352763972656 -183.9972197223251 0 0 0 0 9.7180542853020597 -63.970215459656174 0 -63.970215459656174 -127.39599789701151 0 0 0 0 43.9945265535207 -34.551086150024275 0 -34.551086150024275 -104.74903411274772 0 0 0 0 54.079963148025854 -50.068495975649057 0 -50.068495975649057 -135.94382700743336 0 0 0 0 1.4355366047008182 -0.68040564281670868 0 -0.68040564281670868 -5.809286443970251 0 0 0 0 -44.240258200770768 -116.92929429539072 0 -116.92929429539072 -159.58992913483598 0 0 0 0 -292.56212393582246 -18.371084791933754 0 -18.371084791933754 -63.388047916378127 0 0 0 0 12.594913772045402 -63.784236209665323 0 -63.784236209665323 -279.09319907772351 0 0 0 0 -142.2912517986988 -72.949669658190032 0 -72.949669658190032 -54.763583345935331 0 0 0 0 -52.2356954929528 -3.5242341815237523 0 -3.5242341815237523 -37.232671434449003 0 0 0 0 14.907765489857411 10.113385438220575 0 10.113385438220575 21.61710248342024 0 0 0 0 -37.716643676134481 -76.580859601709562 0 -76.580859601709562 -64.847585468767647 0 0 0 0 123.56644054311255 51.450426661815072 0 51.450426661815072 -61.484960569723626 0 0 0 0 -92.462636113521512 -34.2349998487025 0 -34.2349998487025 64.08363851723152 0 0 0 0 -14.001437143799276 3.5117856464207868 0 3.5117856464207868 -7.7865125403293405 0 0 0 0 -152.01996033902833 -6.5247011618175748 0 -6.5247011618175748 93.310007969259459 0 0 0 0 -15.996793109687133 -55.812620723784676 0 -55.812620723784676 94.443446823072009 0 0 0 0 -15.159613628416864 3.7980446875813314 0 3.7980446875813314 0.88726900691630206 0 0 0 0 -124.28587071234506 63.376423647274351 0 63.376423647274351 -64.474538144819235 0 0 0 0 -36.180724241698044 48.025701000178742 0 48.025701000178742 -95.701039540927013 0 0 0 0 20.612049607717836 -33.523274048886151 0 -33.523274048886151 -76.398793813023076 0 0 0 0 -96.85061521649186 4.2622448464244371 0 4.2622448464244371 -45.791477885140921 0 0 0 0 -5.1375100201330497 -5.476987072306656 0 -5.476987072306656 -76.748042194380105 0 0 0 0 -44.597304080385584 10.416727305850372 0 10.416727305850372 -78.348565859821974 0 0 0 0 -7.5278820778694353 -12.102260039780958 0 -12.102260039780958 -87.212073405823503 0 0 0 0 110.38534902419633 -40.595961991428339 0 -40.595961991428339 -72.113156504918152 0 0 0 0 -18.776956820722262 -0.19495919357905223 0 -0.19495919357905223 -23.673431770886964 0 0 0 0 -181.44970436717267 -44.671636683697216 0 -44.671636683697216 16.144460204846837 0 0 0 0 -18.939019945689267 -24.62665207964713 0 -24.62665207964713 -59.237496539477434 0 0 0 0 -237.51389748874499 56.394901438901798 0 56.394901438901798 -0.74238798163241881 0 0 0 0 -187.83169714894575 122.80649023905426 0 122.80649023905426 -56.679324389893736 0 0 0 0 -82.206521384734515 36.828520952448343 0 36.828520952448343 -55.509805058631173 0 0 0 0 -45.657784621347673 7.9829288207554328 0 7.9829288207554328 -5.3251540065102745 0 0 0 0 -47.830643926132325 7.4290862031807592 0 7.4290862031807592 8.782774067983496 0 0 0 0 -27.223146663262078 17.066738150839797 0 17.066738150839797 -0.30682643332686865 0 0 0 0 -534.46184941643151 188.05001651134444 0 188.05001651134444 102.42818713992165 0 0 0 0 -38.73263048747387 15.851482375763577 0 15.851482375763577 -5.8422616401214489 0 0 0 0 -26.406867765181232 -79.552245770411901 0 -79.552245770411901 1.1832877716951771 0 0 0 0 -78.021532141756325 3.1865041096751838 0 3.1865041096751838 -11.263142643877927 0 0 0 0 -63.185462686567917 16.212303852670175 0 16.212303852670175 -18.633359942905599 0 0 0 0 -81.571742098454706 3.6618185776860628 0 3.6618185776860628 -13.027915836044485 0 0 0 0 -52.767734564376113 9.7387804510468232 0 9.7387804510468232 -3.6002524597597612 0 0 0 0 -54.58611072612257 8.634472361450662 0 8.634472361450662 -15.154558388868281 0 0 0 0 -33.466961063491908 11.646352943094023 0 11.646352943094023 -9.7226639547080396 0 0 0 0 -89.56780666904524 15.929174408887775 0 15.929174408887775 82.968869390409054 0 0 0 0 -39.333097470866051 8.1486524902011297 0 8.1486524902011297 1.6283985692743954 0 0 0 0 -37.250427481654413 7.7493537282782237 0 7.7493537282782237 -4.2522463608086225 0 0 0 0 -35.607579090588381 11.535008066135539 0 11.535008066135539 -13.884872204179731 0 0 0 0 -53.37280358506905 16.20736062631363 0 16.20736062631363 -37.688394093740499 0 0 0 0 -36.738896707465756 37.735961148312072 0 37.735961148312072 -19.525943454498872 0 0 0 0 -45.396327029802478 18.848644315087377 0 18.848644315087377 -5.9897041724563476 0 0 0 0 -16.972371867094807 51.454817158238257 0 51.454817158238257 -64.212813763352642 0 0 0 0 -136.76257829477618 -1.3830291964195567 0 -1.3830291964195567 49.94002204770095 0 0 0 0 -29.073300841519085 97.539684914353529 0 97.539684914353529 -87.174152747664266 0 0 0 0 -10.497305050521128 -0.95067161003957068 0 -0.95067161003957068 3.3373810986578754 0 0 0 0 -16.15216589868669 46.504045846512781 0 46.504045846512781 -67.228164024167199 0 0 0 0 -73.628204457032552 12.185439027009124 0 12.185439027009124 -27.337049143357945 0 0 0 0 -191.80059544381947 73.267498600485851 0 73.267498600485851 -57.958976249157786 0 0 0 0 -83.830438664404937 1.0960007659241455 0 1.0960007659241455 63.730896284265327 0 0 0 0 -60.72656177798126 31.683251835266674 0 31.683251835266674 14.864199553006074 0 0 0 0 -71.241394198557828 15.077672620280282 0 15.077672620280282 3.0841788721172634 0 0 0 0 -11.770171850178979 0.97927954536648532 0 0.97927954536648532 5.8186902395855746 0 0 0 0 -54.067014053072853 24.05776018328288 0 24.05776018328288 7.463049413468525 0 0 0 0 -74.82958820553813 30.430435989298985 0 30.430435989298985 -8.8052624010488216 0 0 0 0 -72.020747042366565 24.932306100296046 0 24.932306100296046 -6.1723053914593038 0 0 0 0 -50.625267485155256 32.787271932352972 0 32.787271932352972 -19.435777131461663 0 0 0 0 7.7674662320514472 99.379501161992266 0 99.379501161992266 16.224222025672134 0 0 0 0 -46.749334881721552 58.725063592602964 0 58.725063592602964 42.133765337031718 0 0 0 0 -157.14526792814104 31.02452038009551 0 31.02452038009551 45.080636878757105 0 0 0 0 -356.4807645825349 -490.41024975234905 0 -490.41024975234905 -437.40686665115936 0 0 0 0 -23.492823121712313 10.401472170820039 0 10.401472170820039 1.0737686434039801 0 0 0 0 -193.79438674832636 96.147636658913143 0 96.147636658913143 22.902104501959457 0 0 0 0 -51.05098250239007 23.810102642768925 0 23.810102642768925 -1.7163699298052961 0 0 0 0 1141.130002373342 734.65688270585679 0 734.65688270585679 -1072.6852436751196 0 0 0 0 -65.858508550936676 -56.84543085414316 0 -56.84543085414316 -53.793469892843859 0 0 0 0 198.89660372733488 238.82888504611583 0 238.82888504611583 64.473316043319528 0 0 0 0 38.176028352330832 -7.1451162005259903 0 -7.1451162005259903 -273.49192982772001 0 0 0 0 217.02800744601154 73.139407450399631 0 73.139407450399631 -309.41943499159242 0 0 0 0 -1.0555402985494347 3.9724012703992133 0 3.9724012703992133 -6.3664357067966435 0 0 0 0 -125.54914347892441 -69.397749749734658 0 -69.397749749734658 -15.917071837273397 0 0 0 0 280.11783807741085 40.277135033456943 0 40.277135033456943 -381.3360336507285 0 0 0 0 -63.150043660137271 -18.678842321254706 0 -18.678842321254706 -21.037104017941601 0 0 0 0 -29.710912259731231 13.481911294049269 0 13.481911294049269 1.8329956326970205 0 0 0 0 -55.079355421501532 14.608690821281016 0 14.608690821281016 2.2778132059083873 0 0 0 0 -8.4699396743569437 11.423839216697997 0 11.423839216697997 -7.8051748754031891 0 0 0 0 -77.734172787950229 238.67550751970157 0 238.67550751970157 203.60950790673246 0 0 0 0 77.66265152669439 28.550636063656384 0 28.550636063656384 31.526675324459575 0 0 0 0 -2.8475936679175051 -3.0894465833522098 0 -3.0894465833522098 -3.5523441853566524 0 0 0 0 -13.63834514827613 51.350824305409333 0 51.350824305409333 -230.51558793927416 0 0 0 0 -226.16669767347048 129.96092399186091 0 129.96092399186091 -78.872393545649174 0 0 0 0 -411.99481268216914 130.00795741000366 0 130.00795741000366 255.65740244787776 0 0 0 0 -151.55389744574859 -109.10967462331428 0 -109.10967462331428 -26.051188526054375 0 0 0 0 -148.12726060469504 156.8501356237457 0 156.8501356237457 -155.28977065065737 0 0 0 0 -57.795751784924505 88.592689559125574 0 88.592689559125574 -117.35907342927112 0 0 0 0 -160.24578032702084 122.32268917132933 0 122.32268917132933 -94.0592756694532 0 0 0 0 -4.0709206747441442 0.4012229472203046 0 0.4012229472203046 1.3880997307981069 0 0 0 0 -103.96705165640378 88.282364739235163 0 88.282364739235163 -85.182214290922275 0 0 0 0 -156.87894907511509 115.93049837103172 0 115.93049837103172 -88.494310913843947 0 0 0 0 -170.61528111306507 95.502981913362873 0 95.502981913362873 -81.071440880703449 0 0 0 0 -18.558053904405398 -2.1496163629622309 0 -2.1496163629622309 3.1632256223525559 0 0 0 0 -54.928266463740954 12.08256896725362 0 12.08256896725362 6.6067241785081183 0 0 0 0 205.26493638907777 -4.0291791582280894 0 -4.0291791582280894 -68.929724542917029 0 0 0 0 -56.972793226996146 19.911405236100109 0 19.911405236100109 12.85423191541156 0 0 0 0 -51.319540771426546 -30.792017709369247 0 -30.792017709369247 65.695718201226555 0 0 0 0 -31.930886256694915 -5.0772568269994025 0 -5.0772568269994025 27.992784482107865 0 0 0 0 -67.336836367241631 14.455122898980335 0 14.455122898980335 86.146436606934913 0 0 0 0 -53.183441634317205 11.127935315451396 0 11.127935315451396 22.079434416576987 0 0 0 0 -38.650392967116204 20.150287140031196 0 20.150287140031196 -2.0682694889035815 0 0 0 0 -45.845211742496758 11.171360928560716 0 11.171360928560716 6.4972813965382556 0 0 0 0 -2.5553274696503081 -3.4235383324206232 0 -3.4235383324206232 17.240544267688165 0 0 0 0 -0.21651735674103634 -0.76975265666040382 0 -0.76975265666040382 2.4930919348806402 0 0 0 0 -31.375471824145905 6.3736992422857028 0 6.3736992422857028 10.39902790930185 0 0 0 0 -18.590430521224832 1.3143562791271073 0 1.3143562791271073 7.4207262856621092 0 0 0 0 -22.092837662385136 19.601953091949326 0 19.601953091949326 75.973238734798997 0 0 0 0 -23.277765980379737 10.838065823773597 0 10.838065823773597 -8.5024718956237848 0 0 0 0 -26.626044200684191 1.0156385400096042 0 1.0156385400096042 -7.3819659522641814 0 0 0 0 -39.307490795228659 22.11881683214142 0 22.11881683214142 -1.4803815469936126 0 0 0 0 -41.687991596483528 11.148631880540748 0 11.148631880540748 6.0138721284538406 0 0 0 0 -41.532472563565534 7.1876701913065517 0 7.1876701913065517 8.146281437536345 0 0 0 0 -60.187459881492032 12.339361587632311 0 12.339361587632311 10.828620449669415 0 0 0 0 -58.924137440310005 19.883350212997811 0 19.883350212997811 1.621296918292046 0 0 0 0 -52.798433616067996 17.41839059549784 0 17.41839059549784 1.9893443977161951 0 0 0 0 -48.056933223635816 5.4737921848024769 0 5.4737921848024769 7.6896538962440868 0 0 0 0 -44.394282551705828 9.8114185177133546 0 9.8114185177133546 0.23072054745953952 0 0 0 0 -79.138452955532557 -80.25003336535184 0 -80.25003336535184 112.6420070884451 0 0 0 0 -44.276625999423288 1.6930708690726703 0 1.6930708690726703 2.546340539433094 0 0 0 0 -46.37340075035172 5.0753918228915609 0 5.0753918228915609 13.187594921408163 0 0 0 0 -45.321613332273046 11.622867818852967 0 11.622867818852967 6.8712480596932437 0 0 0 0 -40.3992172794824 3.0872873001908374 0 3.0872873001908374 44.161395561296104 0 0 0 0 -200.3701015835104 142.55751980598927 0 142.55751980598927 310.76284451734949 0 0 0 0 -5.5129231003520545 13.287220661019091 0 13.287220661019091 40.497408581163313 0 0 0 0 -22.575898666170758 -1.6653409196155291 0 -1.6653409196155291 0.15369183371676387 0 0 0 0 -39.661215226609784 7.9864941878845457 0 7.9864941878845457 14.573654839353139 0 0 0 0 -33.366521028563511 -25.89316396733912 0 -25.89316396733912 40.609760289577025 0 0 0 0 -32.198223269421135 -6.893526615049173 0 -6.893526615049173 0.89157612346182225 0 0 0 0 -30.414387746277498 -7.0201510267575031 0 -7.0201510267575031 32.499113583390567 0 0 0 0 -38.668053813468433 2.4002153496575822 0 2.4002153496575822 4.2441080188338454 0 0 0 0 -46.118049266637172 11.730784779249916 0 11.730784779249916 7.5492956268271882 0 0 0 0 -46.40828195989161 11.45902682367273 0 11.45902682367273 7.3203339878873521 0 0 0 0 -40.403102829032804 3.5731798871775604 0 3.5731798871775604 17.263358545106712 0 0 0 0 -39.778553838114618 9.3987770586340407 0 9.3987770586340407 0.47292358155081038 0 0 0 0 -69.348507564066551 7.6142327257259765 0 7.6142327257259765 1.9032216484702076 0 0 0 0 -67.911929353918822 10.530375129020513 0 10.530375129020513 4.9314637199659046 0 0 0 0 -12.233685497200705 14.303460721054094 0 14.303460721054094 0.66858331511422975 0 0 0 0 -64.375700433185557 9.1492582968030547 0 9.1492582968030547 -7.8584437640507758 0 0 0 0 -62.105488006214728 8.1695084615312226 0 8.1695084615312226 -7.801533618698727 0 0 0 0 -55.469841961283237 10.511515851471358 0 10.511515851471358 -4.5509949921306543 0 0 0 0 -62.580678532032834 6.1667796092220897 0 6.1667796092220897 -6.8008445944014966 0 0 0 0 -64.0635162689141 6.9783004216733389 0 6.9783004216733389 -6.7216208207240697 0 0 0 0 -59.668719016182877 5.4981304381142309 0 5.4981304381142309 -6.9011353583287018 0 0 0 0 -65.844899995499873 3.5406744445610911 0 3.5406744445610911 -1.9993771745189406 0 0 0 0 -26.330516373336966 0.8976963533535951 0 0.8976963533535951 2.1492442965582335 0 0 0 0 -71.898730969616736 8.3179675471565133 0 8.3179675471565133 -3.3890539810959126 0 0 0 0 -37.016674479469657 -1.4785681635275978 0 -1.4785681635275978 6.0129127216564484 0 0 0 0 -47.865454628630076 -0.304734373507074 0 -0.304734373507074 10.920688520364891 0 0 0 0 -43.094949906389203 -3.4903969125919065 0 -3.4903969125919065 4.6895155069286494 0 0 0 0 -37.946538563264767 -0.27729615479006497 0 -0.27729615479006497 8.999597937533963 0 0 0 0 -25.010468410677277 -11.574569886266431 0 -11.574569886266431 -26.747657958161653 0 0 0 0 -39.273972036187985 -7.2166184734099517 0 -7.2166184734099517 3.1742503928886663 0 0 0 0 -48.348879505778314 -2.4489949614122395 0 -2.4489949614122395 -2.2101270867747189 0 0 0 0 -41.710496732629366 -5.2951120243329228 0 -5.2951120243329228 -0.54420178943175523 0 0 0 0 -44.480505951651139 -1.7839231998184459 0 -1.7839231998184459 2.3622293317812364 0 0 0 0 -38.371319219906582 -0.87662055585792586 0 -0.87662055585792586 -1.1101871130340442 0 0 0 0 -32.33260711748926 -3.0709652759630419 0 -3.0709652759630419 0.25694912015002469 0 0 0 0 -42.88761755664018 -2.5183746721777425 0 -2.5183746721777425 2.618502717158691 0 0 0 0 419.95975466847062 -78.421010861272279 0 -78.421010861272279 -47.703229852711047 0 0 0 0 -21.530451480713079 -4.2599643976894299 0 -4.2599643976894299 -4.5641598178660114 0 0 0 0 -42.385021745372796 3.6452620916286378 0 3.6452620916286378 -4.5546887282725947 0 0 0 0 -21.626386901186038 11.178609075450423 0 11.178609075450423 1.0165570683839913 0 0 0 0 22.233155541980523 9.4533224902679649 0 9.4533224902679649 -0.97713531559202238 0 0 0 0 -42.824141554563539 7.4187379702489125 0 7.4187379702489125 283.81298814697311 0 0 0 0 4.5539880629148684 -4.4751854584353623 0 -4.4751854584353623 58.829576728992834 0 0 0 0 -8.1941889466459941 5.5915975728851066 0 5.5915975728851066 1.2599175337913202 0 0 0 0 -18.976429110561867 5.8418613955538934 0 5.8418613955538934 0.36015309531194362 0 0 0 0 -12.172637075360399 17.697854567664763 0 17.697854567664763 14.753819794319497 0 0 0 0 -36.274779537101807 9.1189043463775619 0 9.1189043463775619 8.1658847153835783 0 0 0 0 35.279955586302094 15.126516002254675 0 15.126516002254675 13.636343021662469 0 0 0 0 -29.269944718241575 10.26940821590324 0 10.26940821590324 6.2473453978538771 0 0 0 0 -40.884663612424106 0.01474673427027362 0 0.01474673427027362 -1.1249569723004242 0 0 0 0 -29.548803544414113 -1.6254638341213195 0 -1.6254638341213195 -2.5476009297509563 0 0 0 0 -31.070332788446574 5.3904640703250379 0 5.3904640703250379 1.8531272548571436 0 0 0 0 26.935023985832231 49.124010778635125 0 49.124010778635125 -143.19575860959412 0 0 0 0 -0.4665564187562552 1.7541867715874098 0 1.7541867715874098 -1.52171794397071 0 0 0 0 -60.151432893042511 131.20150397707175 0 131.20150397707175 97.62376639642639 0 0 0 0 -19.311758409450704 -13.21882516299911 0 -13.21882516299911 -30.590269872353019 0 0 0 0 3.2686401977607602 16.225148750932107 0 16.225148750932107 -40.541939887339595 0 0 0 0 8.890568962728139 40.52412352844317 0 40.52412352844317 -3.5292661996431178 0 0 0 0 -28.042161334388751 14.925446448923566 0 14.925446448923566 1.8287363652306663 0 0 0 0 -17.950929371287998 22.393467880580605 0 22.393467880580605 1.6844314365206734 0 0 0 0 -272.26475158996618 56.626808317499808 0 56.626808317499808 19.879315517196915 0 0 0 0 -215.62412121155648 -278.21262102176274 0 -278.21262102176274 413.8630457069774 0 0 0 0 -17.730269143441546 -316.76667162965487 0 -316.76667162965487 -266.93536452422268 0 0 0 0 364.56196580544929 -150.06178159373599 0 -150.06178159373599 -138.45725608082455 0 0 0 0 -25.170258879225003 -251.84992308372625 0 -251.84992308372625 52.598917679848682 0 0 0 0 284.85546556183544 -46.739395404181892 0 -46.739395404181892 144.23123162063348 0 0 0 0 -436.25106039826642 -527.42904971364965 0 -527.42904971364965 155.8040231387447 0 0 0 0 116.466969913512 268.85229908618612 0 268.85229908618612 -476.9250948829748 0 0 0 0 -587.88646418058488 342.61254398579194 0 342.61254398579194 -211.18646614890199 0 0 0 0 -7.8768179417893691 1.8307255309101933 0 1.8307255309101933 -0.17236002462190719 0 0 0 0 -17.50354636067641 -17.41465999240063 0 -17.41465999240063 -92.91770981974571 0 0 0 0 -180.5927524798899 514.99896055790191 0 514.99896055790191 -65.133655657081249 0 0 0 0 -16.863739856737084 -30.727876704016467 0 -30.727876704016467 -82.252679623072254 0 0 0 0 -49.408000398558215 173.57821013775174 0 173.57821013775174 -67.917947980385634 0 0 0 0 -249.68543682437303 -34.427066486828039 0 -34.427066486828039 176.54986499487768 0 0 0 0 -27.153259512851946 -33.562407321169303 0 -33.562407321169303 -82.185541189800688 0 0 0 0 -142.43154826386308 -101.37535120785833 0 -101.37535120785833 -8.6754549972290533 0 0 0 0 -43.812098534748657 2.965489835030894 0 2.965489835030894 94.304540849635032 0 0 0 0 -33.984853208276036 -39.828104515256427 0 -39.828104515256427 -45.297258010720725 0 0 0 0 -27.945620369995595 -20.575586840083133 0 -20.575586840083133 -3.3608819252357307 0 0 0 0 -18.565261167212157 -4.5436800774702988 0 -4.5436800774702988 -25.232013695603428 0 0 0 0 -15.562767782874289 -0.42354206818777129 0 -0.42354206818777129 -56.441000083204415 0 0 0 0 47.506905390036991 -34.171235397711143 0 -34.171235397711143 -155.17005885605909 0 0 0 0 9.751661877548031 78.398535093251894 0 78.398535093251894 -123.09018655613272 0 0 0 0 -74.508255959903181 -6.6660949724727345 0 -6.6660949724727345 -5.5591004491112699 0 0 0 0 -43.486971257152618 -16.125492018170007 0 -16.125492018170007 -22.299935331797769 0 0 0 0 -59.457869124154968 -14.446109164043207 0 -14.446109164043207 -10.878383516862868 0 0 0 0 -62.390585637564072 -16.258078592633183 0 -16.258078592633183 -9.5745919901564776 0 0 0 0 -9.1274124135759855 -3.8150244023592421 0 -3.8150244023592421 -0.84033242611332559 0 0 0 0 -3.5841883872967628 -39.200347792792108 0 -39.200347792792108 -23.617334060324556 0 0 0 0 -22.691454833031457 -8.9954662027880659 0 -8.9954662027880659 -43.681875636783843 0 0 0 0 -34.423021398970377 -31.230183524147094 0 -31.230183524147094 -21.726232154549962 0 0 0 0 -45.807768463811954 -29.214741924740792 0 -29.214741924740792 -19.707100322386054 0 0 0 0 -12.8299328942324 -21.607040496526828 0 -21.607040496526828 -24.522546623826543 0 0 0 0 -26.754677233977418 0.9215303167188722 0 0.9215303167188722 -45.349772777739418 0 0 0 0 0.21501032238302287 9.8899414239526777 0 9.8899414239526777 -63.110802432822325 0 0 0 0 -67.946832723773696 -1.5769878292176713 0 -1.5769878292176713 -22.655751914308894 0 0 0 0 -71.494588538314929 -17.646512134908292 0 -17.646512134908292 -25.185956603364502 0 0 0 0 -24.022179322118589 -15.940234669607236 0 -15.940234669607236 -24.608966084235249 0 0 0 0 -36.266484708998178 9.2359009186252479 0 9.2359009186252479 -39.429160277020969 0 0 0 0 -54.966476152083487 -2.2115709443487503 0 -2.2115709443487503 -12.782618122557324 0 0 0 0 -37.763926396931012 19.611819611886794 0 19.611819611886794 -1.9808068246620483 0 0 0 0 -57.95119073161186 13.430082008329691 0 13.430082008329691 -16.724889893201748 0 0 0 0 -55.316388660333985 3.387232972577003 0 3.387232972577003 -7.4839679204524145 0 0 0 0 -66.832456316164553 -1.2389687184090192 0 -1.2389687184090192 -6.8256644214284279 0 0 0 0 -21.591670608234388 16.889034765097954 0 16.889034765097954 -4.0290527731766108 0 0 0 0 -60.002855925944459 4.1069224549453338 0 4.1069224549453338 -7.1222489663259694 0 0 0 0 -75.741767191386316 -13.853706372598669 0 -13.853706372598669 -11.1498692042085 0 0 0 0 -33.93783966830793 20.400878691087996 0 20.400878691087996 1.2858876840473479 0 0 0 0 -56.8403753252569 8.3269913833703129 0 8.3269913833703129 -17.346346103013303 0 0 0 0 -66.655743602430448 2.4885025048336047 0 2.4885025048336047 -9.8055078148181565 0 0 0 0 -80.240536464960314 9.5899818800012326 0 9.5899818800012326 -13.488517552436406 0 0 0 0 -52.133916744962335 -1.3071214334323997 0 -1.3071214334323997 -51.192351481185028 0 0 0 0 -1.1910161405160409 3.0317848784423571 0 3.0317848784423571 -2.6010053680267333 0 0 0 0 -70.229284180793911 -3.9155750554655242 0 -3.9155750554655242 -20.715725869046594 0 0 0 0 -79.170708425866906 -2.1780877332274571 0 -2.1780877332274571 -9.8494414402190387 0 0 0 0 -51.69348969226121 256.48761814556428 0 256.48761814556428 -108.08584857370533 0 0 0 0 -337.27112499181021 -224.99191982689126 0 -224.99191982689126 84.076355933239029 0 0 0 0 -69.049155821790919 6.3914754193878025 0 6.3914754193878025 -5.9067681063150985 0 0 0 0 -66.023642899629664 2.5021518913810432 0 2.5021518913810432 7.4166517790428417 0 0 0 0 -103.78776270805974 165.40568149331193 0 165.40568149331193 147.78198903460225 0 0 0 0 -63.431898474285845 -0.73740896276763124 0 -0.73740896276763124 1.104259657392447 0 0 0 0 -71.005352733060136 -34.437718641251365 0 -34.437718641251365 19.609114593675201 0 0 0 0 -48.265358688974715 -6.282547390603531 0 -6.282547390603531 1.5175572783945792 0 0 0 0 -8.9669315204909594 -0.29485246149985755 0 -0.29485246149985755 5.1933646484047564 0 0 0 0 -76.608814358303789 12.917537962086953 0 12.917537962086953 -6.5008866876303841 0 0 0 0 -147.52210691470827 -173.57225622310216 0 -173.57225622310216 -11.333204738968561 0 0 0 0 -4.0165604538776734 -0.071008471235042947 0 -0.071008471235042947 0.1180042228060767 0 0 0 0 1.6933397121283633 44.026456823432909 0 44.026456823432909 -224.4213848155714 0 0 0 0 -30.690028830053052 33.716727363589598 0 33.716727363589598 34.487900519491632 0 0 0 0 -217.31013726211677 67.774396678095854 0 67.774396678095854 -45.730310332789486 0 0 0 0 -51.834203052363591 -162.43333777057205 0 -162.43333777057205 -217.83543857929908 0 0 0 0 29.241015576080827 -19.265628988871924 0 -19.265628988871924 58.417754908861298 0 0 0 0 8.4452373503267246 -44.546975909368456 0 -44.546975909368456 -17.976558790586356 0 0 0 0 -79.496895008924128 -3.0462284174093242 0 -3.0462284174093242 5.6320802262784584 0 0 0 0 3.0318176151340595 -60.491266566879233 0 -60.491266566879233 -36.565935964130404 0 0 0 0 -206.15194172188058 -64.332730289661413 0 -64.332730289661413 219.27044206276491 0 0 0 0 31.020832460555539 -37.758265420065129 0 -37.758265420065129 60.003560638697536 0 0 0 0 30.677165652865369 -51.260121684329818 0 -51.260121684329818 -60.868674653545185 0 0 0 0 -7.1278622057417635 -15.716345770849117 0 -15.716345770849117 -28.586816665123855 0 0 0 0 -135.62760758553486 36.242484552986753 0 36.242484552986753 68.092695197430203 0 0 0 0 14.607590953964973 -21.920217421359098 0 -21.920217421359098 86.204459273049537 0 0 0 0 -630.20438625738097 -583.04128090122731 0 -583.04128090122731 -196.26114106486511 0 0 0 0 -158.03706564113236 -186.66812501194909 0 -186.66812501194909 -73.996674682102821 0 0 0 0 12.210080844973547 -42.911882507260287 0 -42.911882507260287 -28.605786309747298 0 0 0 0 157.49247835597635 -81.845657366814521 0 -81.845657366814521 -354.17613152705599 0 0 0 0 -69.865880585250125 10.926105036294814 0 10.926105036294814 -52.545952440159454 0 0 0 0 -296.05812173811864 -124.66278610054104 0 -124.66278610054104 64.39473694832941 0 0 0 0 -325.93929393082362 -26.67383700863661 0 -26.67383700863661 19.895112848763347 0 0 0 0 -143.61960294238088 -71.192477444358815 0 -71.192477444358815 18.241364170904944 0 0 0 0 -175.83372214162955 -115.55020045217134 0 -115.55020045217134 69.403424088262909 0 0 0 0 -6.2724285054500797 8.5314372333484698 0 8.5314372333484698 48.8077419421179 0 0 0 0 -154.66639393003425 -127.29511511531496 0 -127.29511511531496 19.028330738703517 0 0 0 0 -201.85282934465795 -88.096056906821559 0 -88.096056906821559 -10.137733210608758 0 0 0 0 -158.59059726108717 -79.904442029905439 0 -79.904442029905439 -10.115404869963641 0 0 0 0 -192.01602373895003 -92.061854131419864 0 -92.061854131419864 -5.7566147742631983 0 0 0 0 -171.79864594673563 -80.967285624748115 0 -80.967285624748115 -35.915483163609679 0 0 0 0 -236.47675984038506 -29.835836670342815 0 -29.835836670342815 31.750953357160597 0 0 0 0 -184.52004877425497 -105.82009142770289 0 -105.82009142770289 -10.650813909855287 0 0 0 0 -86.148614924088179 -78.893365941051883 0 -78.893365941051883 -21.266654911723684 0 0 0 0 -177.60910144356967 -140.65627053069545 0 -140.65627053069545 -26.206155302448451 0 0 0 0 -294.14314971698332 -87.710884253002178 0 -87.710884253002178 31.559539071933386 0 0 0 0 -283.41202166737639 -74.16566971822192 0 -74.16566971822192 47.761711700542946 0 0 0 0 -261.42651210314762 -83.496895556770141 0 -83.496895556770141 29.536078338889524 0 0 0 0 -286.38944484682816 -189.59800282840663 0 -189.59800282840663 -48.19323818205109 0 0 0 0 -38.440865266966284 -1.2165722330507833 0 -1.2165722330507833 -97.200126222237799 0 0 0 0 -778.94698509125737 -187.8337127732193 0 -187.8337127732193 -55.514680033300351 0 0 0 0 -917.50320328513044 -484.97150430897727 0 -484.97150430897727 -105.19136410117267 0 0 0 0 -942.32550739459839 -472.58407817818897 0 -472.58407817818897 -87.538263739206741 0 0 0 0 -1084.1522517777521 -733.95760207830153 0 -733.95760207830153 -524.55905708729551 0 0 0 0 -1377.5772055059206 -256.24166467010855 0 -256.24166467010855 -233.3840703722899 0 0 0 0 -1046.1791404378382 -548.51034252952604 0 -548.51034252952604 6.6815875268493983 0 0 0 0 -918.32182477888455 -573.28671336205844 0 -573.28671336205844 -22.707881964926855 0 0 0 0 13.214251423341498 -42.701336025077225 0 -42.701336025077225 -33.378917166352906 0 0 0 0 -97.05950795352237 -288.25183893772498 0 -288.25183893772498 -269.62052367584874 0 0 0 0 -65.295878156463004 28.925657004059417 0 28.925657004059417 8.6753318948567539 0 0 0 0 16.657093300571432 7.368902991089044 0 7.368902991089044 0.68570305791990904 0 0 0 0 -52.53808881308214 -42.967598874643045 0 -42.967598874643045 3.4694739271528761 0 0 0 0 -8.0913473542314023 -4.8454771406086365 0 -4.8454771406086365 52.779603996907099 0 0 0 0 -8.0913473542896099 -4.8454771406359214 0 -4.8454771406359214 52.77960399689573 0 0 0 0 -58.001107926145778 -35.578870525965385 0 -35.578870525965385 61.323979253090783 0 0 0 0 -8.0913473543041619 -4.8454771406584314 0 -4.8454771406584314 52.779603996877995 0 0 0 0 -20.878771540126763 28.673214889387964 0 28.673214889387964 84.214881049643736 0 0 0 0 -35.461152361167478 8.2093522346474401 0 8.2093522346474401 -46.009331464992215 0 0 0 0 -171.13176280314656 55.382772435305696 0 55.382772435305696 226.90008036286781 0 0 0 0 -66.936355273031609 9.0079079913392981 0 9.0079079913392981 0.96556080271161715 0 0 0 0 -65.236516837539966 37.638762634304157 0 37.638762634304157 16.261992634462786 0 0 0 0 -28.15743890691374 82.156068315770653 0 82.156068315770653 63.312121753752763 0 0 0 0 -50.76340955858177 31.70921276833883 0 31.70921276833883 18.689404937151721 0 0 0 0 364.80922939488664 -74.976632465779403 0 -74.976632465779403 48.332582234055735 0 0 0 0 -4.3137748371491966 2.3544054716571097 0 2.3544054716571097 -1.0114161714706045 0 0 0 0 -53.657210705486705 76.901165619170541 0 76.901165619170541 50.797737692992541 0 0 0 0 -60.137436209290172 28.497403146323563 0 28.497403146323563 -5.985376721926059 0 0 0 0 -70.030934988812078 19.579189127283826 0 19.579189127283826 -3.9201133365481837 0 0 0 0 -65.948736141291448 12.796369063394049 0 12.796369063394049 1.5616841751236985 0 0 0 0 -102.18228248736705 5.7260206705568635 0 5.7260206705568635 -3.2374317910384889 0 0 0 0 -53.615997466898989 4.0355871768533689 0 4.0355871768533689 -31.71837854074829 0 0 0 0 -12.957947837353601 2.4077206097222614 0 2.4077206097222614 5.2729544255341443 0 0 0 0 -93.951217638212256 43.674719703474238 0 43.674719703474238 24.478390968377425 0 0 0 0 -111.30136753858824 41.237493286883591 0 41.237493286883591 33.190400139674239 0 0 0 0 -28.552412283199374 823.17649222879811 0 823.17649222879811 -276.5706893754932 0 0 0 0 -125.60212179939845 25.854294694874852 0 25.854294694874852 28.991817785276908 0 0 0 0 477.49241847507074 289.80164963768698 0 289.80164963768698 -235.76926636973076 0 0 0 0 -7.6451658973718732 1.290422863025384 0 1.290422863025384 3.528293210982083 0 0 0 0 192.64492358028656 -19.778803122556383 0 -19.778803122556383 91.682030513724385 0 0 0 0 -113.34867668818333 80.037125786841898 0 80.037125786841898 211.77659049407521 0 0 0 0 -124.94449770866777 -64.810231324064716 0 -64.810231324064716 155.48065724759135 0 0 0 0 47.290703020684305 208.70963150641114 0 208.70963150641114 57.026335582679167 0 0 0 0 -137.37414090549282 -7.8888049831181206 0 -7.8888049831181206 36.55753686971002 0 0 0 0 -508.22270497182035 165.8633761217402 0 165.8633761217402 56.307376516921636 0 0 0 0 -396.8876799478312 -105.37429998724747 0 -105.37429998724747 2.3289267062743875 0 0 0 0 -264.90896175541275 74.997460952119468 0 74.997460952119468 252.07356984537353 0 0 0 0 -199.08893529629677 -80.100447529430596 0 -80.100447529430596 -151.88682192013221 0 0 0 0 -245.19309217689442 11.025100471401629 0 11.025100471401629 -81.234802882838267 0 0 0 0 -237.40789520549151 64.750711988426531 0 64.750711988426531 88.190483174562814 0 0 0 0 -342.23414321005112 -55.898802116355341 0 -55.898802116355341 139.68229468656651 0 0 0 0 -248.25897804426495 10.053822218909119 0 10.053822218909119 100.65360833556934 0 0 0 0 -493.19578995421762 -20.057404822379553 0 -20.057404822379553 101.71057934988664 0 0 0 0 -937.97759197800769 -163.29017131967237 0 -163.29017131967237 -34.951694801449591 0 0 0 0 -312.69491838080285 -142.26851193967201 0 -142.26851193967201 -34.645178605725221 0 0 0 0 -153.40771622295142 57.647824402233482 0 57.647824402233482 -153.92922139192268 0 0 0 0 -109.41201194599853 191.83737933100159 0 191.83737933100159 -167.97718729975946 0 0 0 0 -182.6482490657072 -64.17732897940698 0 -64.17732897940698 184.26589174954643 0 0 0 0 86.309942978783511 217.72412629559608 0 217.72412629559608 92.370592095812469 0 0 0 0 -10.903772273185552 6.6302582611809626 0 6.6302582611809626 -3.5124765258824855 0 0 0 0 -40.569846290003625 60.473931978095564 0 60.473931978095564 58.036848458395696 0 0 0 0 97.410514063347364 45.547201395612348 0 45.547201395612348 -112.40966162812109 0 0 0 0 106.14597281503666 -0.97271245763283787 0 -0.97271245763283787 -85.218555150944439 0 0 0 0 29.602069536587805 6.6305148940121512 0 6.6305148940121512 -45.694090913433058 0 0 0 0 91.758624301859527 85.59875002388145 0 85.59875002388145 23.73842747192711 0 0 0 0 -15.287853831259127 9.4482221609767123 0 9.4482221609767123 -5.7078722752400282 0 0 0 0 -34.067247157057864 36.981554157270239 0 36.981554157270239 90.64010275676992 0 0 0 0 0.41751748573733494 -8.9527044066287544 0 -8.9527044066287544 0.28772623159602517 0 0 0 0 -0.31227392863365822 -16.593072252059983 0 -16.593072252059983 19.969282568894585 0 0 0 0 81.734177500591613 -34.29915456429876 0 -34.29915456429876 -14.322292341101615 0 0 0 0 78.530255646473961 -53.933070107614469 0 -53.933070107614469 -131.3858039872195 0 0 0 0 150.5751915731671 -176.2385249010502 0 -176.2385249010502 45.566285466978115 0 0 0 0 -35.787872078610235 -36.130057612697669 0 -36.130057612697669 106.14825188759477 0 0 0 0 0.51565605793638269 -1.0633156357215938 0 -1.0633156357215938 1.7863940859971246 0 0 0 0 228.93477265630645 -68.239377348116136 0 -68.239377348116136 -37.787194387693376 0 0 0 0 -86.840018633854925 -279.2971390191305 0 -279.2971390191305 47.225719514406435 0 0 0 0 -450.13016234929819 -26.961317063201932 0 -26.961317063201932 94.244634832887527 0 0 0 0 -164.08441007417423 30.332290516767955 0 30.332290516767955 35.239323610044835 0 0 0 0 192.28713483952924 -57.602255294528248 0 -57.602255294528248 -268.44105966082509 0 0 0 0 35.433535878131806 131.01326014725947 0 131.01326014725947 -273.10443090710771 0 0 0 0 -1000.5484297732692 -70.470164737224167 0 -70.470164737224167 117.34716970284796 0 0 0 0 -322.35184092387499 298.60682695252672 0 298.60682695252672 -497.59386169227491 0 0 0 0 -361.24963069308433 -308.16777990632556 0 -308.16777990632556 -507.80230040460793 0 0 0 0 -434.18326400565275 -3.2051856059625266 0 -3.2051856059625266 125.07681298476587 0 0 0 0 -405.06866666621499 148.31981820169869 0 148.31981820169869 57.993604612434694 0 0 0 0 -21.719553786846518 51.984218893218426 0 51.984218893218426 49.598607562809633 0 0 0 0 -165.827856527525 2.9089652139786324 0 2.9089652139786324 149.73650489114968 0 0 0 0 -30.006372745188344 -6.864447859803855 0 -6.864447859803855 -1.7503945512971224 0 0 0 0 0.14400850796664599 -43.243891179802745 0 -43.243891179802745 34.076699416354955 0 0 0 0 -80.6002942270934 -60.541676944833696 0 -60.541676944833696 34.120963301891891 0 0 0 0 -129.12809761251992 -84.838319604307458 0 -84.838319604307458 98.746578505496529 0 0 0 0 -18.50586948619457 -86.872497092756404 0 -86.872497092756404 -27.137795321263631 0 0 0 0 -3.3898211674677441 -60.955714755461884 0 -60.955714755461884 17.248608859675187 0 0 0 0 -3.5924043856664412 -3.6016805809893384 0 -3.6016805809893384 5.5538378709276897 0 0 0 0 -50.748589317759411 -9.9926324934853259 0 -9.9926324934853259 4.6101267282442295 0 0 0 0 -205.44870123951114 -266.62155938481533 0 -266.62155938481533 -361.42684794264107 0 0 0 0 -30.657213408812822 -73.890851776479082 0 -73.890851776479082 44.625673715706512 0 0 0 0 -72.198130159435095 -19.471546365932113 0 -19.471546365932113 81.308897854296902 0 0 0 0 11.489725297316909 -22.108622095614805 0 -22.108622095614805 2.0550454691094728 0 0 0 0 -22.650553882225637 -17.357920474982976 0 -17.357920474982976 6.6488702633521779 0 0 0 0 -65.316330334520899 -29.700663477343824 0 -29.700663477343824 2.279616788910289 0 0 0 0 3.0853824009511754 -0.94903861619098961 0 -0.94903861619098961 -0.63887611154548174 0 0 0 0 -20.432401076046517 0.41367066675366004 0 0.41367066675366004 9.0571163572583373 0 0 0 0 -51.229229174699867 -9.5628375568443289 0 -9.5628375568443289 33.54319619380523 0 0 0 0 -21.64311212375469 -2.8048488341751181 0 -2.8048488341751181 4.7987267087223699 0 0 0 0 -22.802129872707667 0.95878565539212968 0 0.95878565539212968 2.0558648147519243 0 0 0 0 -9.150423608521578 -6.429285307214343 0 -6.429285307214343 2.9663170124533078 0 0 0 0 -19.61682675841439 0.75688306243546322 0 0.75688306243546322 6.1268569757153273 0 0 0 0 -13.970123002382024 -12.25340500351578 0 -12.25340500351578 -0.13718688630956422 0 0 0 0 -83.732650807881953 -38.169660712196119 0 -38.169660712196119 -14.174248471213149 0 0 0 0 -1294.9514950307348 -246.59156606944816 0 -246.59156606944816 132.54265457135921 0 0 0 0 -982.79204782259103 -395.12736625597171 0 -395.12736625597171 -92.168315712655385 0 0 0 0 -738.08082192928123 -409.29058092015021 0 -409.29058092015021 -18.159905167062789 0 0 0 0 -90.974613138028133 -29.205724053218617 0 -29.205724053218617 -7.0115152504491896 0 0 0 0 -983.62650468415086 -394.69120931802377 0 -394.69120931802377 55.36079439144487 0 0 0 0 -1066.4936116356039 -482.52777535684709 0 -482.52777535684709 23.031287448899093 0 0 0 0 -975.12119348175474 -494.77840222126179 0 -494.77840222126179 -91.477808978923349 0 0 0 0 -852.24720190001972 -452.75180906952619 0 -452.75180906952619 -113.96508831418487 0 0 0 0 -0.83795230816443933 -44.181836067174359 0 -44.181836067174359 -31.686629210436813 0 0 0 0 -921.4945803394985 -437.45588662006048 0 -437.45588662006048 -76.585916679738148 0 0 0 0 5.492672778047563 -40.140620871811279 0 -40.140620871811279 -63.434755145225154 0 0 0 0 -12.319154982073059 -12.879138420238071 0 -12.879138420238071 -9.3693313303548482 0 0 0 0 -7.8582870261187168 -0.70085830177456643 0 -0.70085830177456643 0.12511269991546525 0 0 0 0 -593.51782869207091 375.18342912038156 0 375.18342912038156 -184.3738822692435 0 0 0 0 -130.695763390293 -289.69178289814761 0 -289.69178289814761 -423.18906779594636 0 0 0 0 -582.46621333352959 39.822720177639439 0 39.822720177639439 219.28922720657741 0 0 0 0 -156.49794082526932 115.62926743237108 0 115.62926743237108 -46.430429784801035 0 0 0 0 -136.38758636790863 -29.497139963403622 0 -29.497139963403622 -1.248838298709984 0 0 0 0 34.565431591952802 -126.23018545094115 0 -126.23018545094115 51.403926217902665 0 0 0 0 -11.371803127293823 -9.6396690902021476 0 -9.6396690902021476 -12.936914181499525 0 0 0 0 -396.27652776487957 -139.93458208102487 0 -139.93458208102487 408.0756654785435 0 0 0 0 -598.91668996568478 104.11154216262196 0 104.11154216262196 216.82863456386343 0 0 0 0 -9.7789127359264967 -2.7270054206279619 0 -2.7270054206279619 -1.5047150478206843 0 0 0 0 -390.56128751084907 409.22400514202576 0 409.22400514202576 -287.76698486461123 0 0 0 0 -1217.8264184001746 159.22417914367395 0 159.22417914367395 415.57375291338491 0 0 0 0 -1664.4733922690793 -522.70234999232594 0 -522.70234999232594 -1939.0236445590751 0 0 0 0 120.59618830520776 618.57343578151097 0 618.57343578151097 -1504.9302741673246 0 0 0 0 1.0288805036699245 -0.81597868679750718 0 -0.81597868679750718 -8.9116804924445301 0 0 0 0 -665.15357946230506 -959.86624816751964 0 -959.86624816751964 -835.83432199875324 0 0 0 0 -1335.9313917914333 -983.74527812152712 0 -983.74527812152712 -93.298797712620399 0 0 0 0 -1959.0696649050806 -1285.1382850827542 0 -1285.1382850827542 -217.53969274092105 0 0 0 0 -2611.5462398965901 -649.78168233802694 0 -649.78168233802694 416.22439588119232 0 0 0 0 -1330.4888763267863 -202.5897327451604 0 -202.5897327451604 373.28252637916012 0 0 0 0 -1826.0769777437526 -292.35472987417597 0 -292.35472987417597 558.39227283736136 0 0 0 0 -952.38619284734159 -581.93971405853131 0 -581.93971405853131 -16.977227763853989 0 0 0 0 -928.10443075226794 -532.8123523465606 0 -532.8123523465606 94.273790726761149 0 0 0 0 -945.0353566219128 -540.66900276964691 0 -540.66900276964691 93.413585622582104 0 0 0 0 -557.27591327649316 -646.14331973524008 0 -646.14331973524008 -292.14626827308075 0 0 0 0 -142.69014302916185 -338.87084520349526 0 -338.87084520349526 -422.23122479010976 0 0 0 0 -254.59428589683375 -250.36078195986693 0 -250.36078195986693 -259.31765199503752 0 0 0 0 -19.837188644254638 -105.8825937085644 0 -105.8825937085644 -216.45441560334984 0 0 0 0 -59.720794957145699 -75.631120819252601 0 -75.631120819252601 -178.5232075984477 0 0 0 0 -10.177343540854054 -63.373863323170553 0 -63.373863323170553 -30.198032348607967 0 0 0 0 7.0545408353355015 -39.866979621286646 0 -39.866979621286646 -71.138363986073273 0 0 0 0 -2.7712553288984054 -73.923018802002275 0 -73.923018802002275 15.822443993385605 0 0 0 0 11.311059153067617 -55.674946199769579 0 -55.674946199769579 -27.517784344665415 0 0 0 0 -47.775989501285949 -13.31179045899853 0 -13.31179045899853 4.6249201873258698 0 0 0 0 -50.751952277623644 -10.947040402732402 0 -10.947040402732402 -1.9319289827092536 0 0 0 0 -138.64341822815186 -140.17410784280037 0 -140.17410784280037 128.04311383936033 0 0 0 0 -20.063916880798672 -14.477628821499167 0 -14.477628821499167 0.87331536391830689 0 0 0 0 -99.616151003036066 32.756088359444675 0 32.756088359444675 318.38934763691395 0 0 0 0 -501.65513236770857 -318.52566200799237 0 -318.52566200799237 48.897648678468613 0 0 0 0 170.6985656936231 -130.46060999667156 0 -130.46060999667156 -338.2617033728875 0 0 0 0 -4.6627801924467178 2.4908333735241541 0 2.4908333735241541 2.009566859760195 0 0 0 0 323.15587335100281 -243.45603545705762 0 -243.45603545705762 -332.03149399327594 0 0 0 0 -49.877438163697235 -12.499898060571155 0 -12.499898060571155 2.7307340336766792 0 0 0 0 367.22118432008574 192.56993655930046 0 192.56993655930046 56.767759061913239 0 0 0 0 -5.4732185764334247 -2.9443706037848756 0 -2.9443706037848756 1.4240768809075544 0 0 0 0 7.5453099754522555 -44.985152321575697 0 -44.985152321575697 -23.637082359650435 0 0 0 0 -32.740905174287036 -36.250043214507969 0 -36.250043214507969 -22.219962143187217 0 0 0 0 -39.378787855916556 -10.753032085502142 0 -10.753032085502142 -3.4282538887579772 0 0 0 0 -30.804671331614372 -12.05853499010982 0 -12.05853499010982 10.151044165806525 0 0 0 0 -71.255393149629526 -23.72523180209464 0 -23.72523180209464 10.745783087720156 0 0 0 0 -33.201946194550359 -17.740059241761848 0 -17.740059241761848 -3.7985743063939346 0 0 0 0 -38.225064932879889 -21.284058500479471 0 -21.284058500479471 -8.6200593908788115 0 0 0 0 -25.798615747248263 0.4533525152971194 0 0.4533525152971194 -3.5492289005215945 0 0 0 0 -68.436279988054594 -30.542383828819084 0 -30.542383828819084 33.959918453047976 0 0 0 0 -69.053269567358257 -9.0034951661497757 0 -9.0034951661497757 31.871497986393479 0 0 0 0 -67.98885267622245 -7.1436336503502389 0 -7.1436336503502389 -9.3884985740251068 0 0 0 0 -47.645070302905623 -14.145210578026392 0 -14.145210578026392 -1.5161292814758998 0 0 0 0 -75.676789178694889 -37.110323335121393 0 -37.110323335121393 0.20056218757508759 0 0 0 0 -69.377326240240109 -40.95792095914976 0 -40.95792095914976 41.963451931103918 0 0 0 0 -72.041005945869983 -22.537276827431469 0 -22.537276827431469 16.699778596628676 0 0 0 0 -69.846703637636892 -44.884634210187642 0 -44.884634210187642 9.4513657528677868 0 0 0 0 -66.583795562439263 -30.763726994054309 0 -30.763726994054309 -2.4504092449205928 0 0 0 0 -74.31414042140932 -48.791592107191917 0 -48.791592107191917 -11.971329167038675 0 0 0 0 -1.6151198011977073 -3.7701996693141098 0 -3.7701996693141098 2.1301412362123173 0 0 0 0 52.501624653450563 -166.40084842357192 0 -166.40084842357192 123.17848510675685 0 0 0 0 65.69908747466252 -78.413993567579382 0 -78.413993567579382 132.94379812932129 0 0 0 0 24.234205564076547 -139.23007516709094 0 -139.23007516709094 -90.296466112706185 0 0 0 0 -40.071191523500602 -43.461163403005685 0 -43.461163403005685 -73.417284608782211 0 0 0 0 -6.8690597521344898 -102.65515315870925 0 -102.65515315870925 11.638661749251696 0 0 0 0 -476.88039520480925 -22.834857323829056 0 -22.834857323829056 23.268976874223881 0 0 0 0 -44.940447763940028 -26.616626443944824 0 -26.616626443944824 -0.60995529488241118 0 0 0 0 -49.86837517891334 -6.6030333690885996 0 -6.6030333690885996 6.5617451256887307 0 0 0 0 -52.365422796747225 -16.49105634880766 0 -16.49105634880766 295.30213055570312 0 0 0 0 -3.8113642916731862 1.1187969067764456 0 1.1187969067764456 4.5459074972348859 0 0 0 0 -505.85055435863615 -0.92446320569433738 0 -0.92446320569433738 1.6704731853023986 0 0 0 0 -821.86174980354554 -126.62480347773544 0 -126.62480347773544 -2.1296272832178147 0 0 0 0 -808.47060580489051 -179.24356521498066 0 -179.24356521498066 204.42888515636514 0 0 0 0 -1830.1425992529985 -555.83968650821953 0 -555.83968650821953 170.69043875208672 0 0 0 0 -555.9392501974653 -49.034234869826832 0 -49.034234869826832 585.19335086788305 0 0 0 0 -823.03293065631442 -950.58737599424421 0 -950.58737599424421 -83.888520872116715 0 0 0 0 -1502.4933996140971 319.66774721334241 0 319.66774721334241 812.31036984152161 0 0 0 0 -11.065538802782555 -1.44620910077305 0 -1.44620910077305 0.73032955812556732 0 0 0 0 -1476.9201335434191 -807.63941522098685 0 -807.63941522098685 159.77498421472228 0 0 0 0 -1031.7098809919335 -821.25011966568718 0 -821.25011966568718 55.14122258687712 0 0 0 0 -898.97805589844211 -859.29863723684502 0 -859.29863723684502 -107.26490219650623 0 0 0 0 -957.31246052619827 -874.09525574294548 0 -874.09525574294548 89.400544407099005 0 0 0 0 -757.7052567106366 -96.655767035103963 0 -96.655767035103963 -58.699622201892453 0 0 0 0 -943.3986284139246 -935.88441944290207 0 -935.88441944290207 77.339478294209584 0 0 0 0 -948.32669952148262 -776.30829287614267 0 -776.30829287614267 180.90729533776903 0 0 0 0 58.706708328699278 282.85024542713307 0 282.85024542713307 508.18356700617187 0 0 0 0 168.07519262026472 185.88504878228832 0 185.88504878228832 441.83563580233204 0 0 0 0 -66.287371759550297 -700.15658967511445 0 -700.15658967511445 -75.848897961809598 0 0 0 0 -97.379976453834388 113.30335108754207 0 113.30335108754207 500.8885037046075 0 0 0 0 -24.019227425105811 0.47631615200543109 0 0.47631615200543109 1.7672609973266908 0 0 0 0 -483.26911705176462 60.354575653240317 0 60.354575653240317 1366.1249550377077 0 0 0 0 -66.352406269434141 53.226491511631593 0 53.226491511631593 574.85881271706239 0 0 0 0 1.0271109346163882 -0.69211811332421291 0 -0.69211811332421291 1.0531557005829413 0 0 0 0 150.45980023357515 474.4585539304145 0 474.4585539304145 439.28076328683346 0 0 0 0 -142.28866668585397 151.31727747208606 0 151.31727747208606 250.71341545987343 0 0 0 0 94.300039646706637 -269.25394840759611 0 -269.25394840759611 625.40992741180526 0 0 0 0 -355.32130377459544 501.95200812107851 0 501.95200812107851 5.1626808248693123 0 0 0 0 -362.00334152358846 -411.58566421620162 0 -411.58566421620162 188.38252108915594 0 0 0 0 -362.91967016438139 193.72613498129431 0 193.72613498129431 298.4311734264802 0 0 0 0 -359.67243239065283 -132.11581280326845 0 -132.11581280326845 -43.07768440428481 0 0 0 0 -860.97219185037466 85.219963668797163 0 85.219963668797163 -126.91840566579958 0 0 0 0 -661.89810593896254 -487.95369017171492 0 -487.95369017171492 -373.58362915697762 0 0 0 0 -127.0814032854687 418.00211389895048 0 418.00211389895048 -258.75553282697456 0 0 0 0 -967.93723056069211 529.21403288755528 0 529.21403288755528 -273.15751192478092 0 0 0 0 -414.15844728403317 232.99944173630684 0 232.99944173630684 -422.43291327331826 0 0 0 0 -1280.6114256810106 112.58597784383755 0 112.58597784383755 -391.81678491696948 0 0 0 0 -1244.019637897356 -25.308691823558547 0 -25.308691823558547 -120.11732470701872 0 0 0 0 -1321.3282278832189 -856.71148325968511 0 -856.71148325968511 -861.46757190823519 0 0 0 0 -1399.9348069252919 -987.36146922705211 0 -987.36146922705211 -606.52048233096525 0 0 0 0 -3.941376200671435 -6.3094727668773061 0 -6.3094727668773061 -12.127080351651525 0 0 0 0 115.16183386028933 -103.46476505637497 0 -103.46476505637497 -643.74346033779329 0 0 0 0 -606.48426663851569 -955.52158134210822 0 -955.52158134210822 -973.99621748252548 0 0 0 0 -1779.9168345251201 -944.03743932296811 0 -944.03743932296811 -106.66798251271393 0 0 0 0 -886.92682250656799 -131.28933185156984 0 -131.28933185156984 -776.55002101193099 0 0 0 0 -636.97052844436621 587.46191077310914 0 587.46191077310914 -297.3749632773588 0 0 0 0 -894.0812274222626 231.74744721532898 0 231.74744721532898 -519.89849358601214 0 0 0 0 -631.50089925899374 23.188639210753081 0 23.188639210753081 -602.65619502828304 0 0 0 0 -330.99280856121186 374.33893452267694 0 374.33893452267694 -494.67797414896495 0 0 0 0 -504.27042993602299 160.0654650626816 0 160.0654650626816 -513.3045398227714 0 0 0 0 -431.14485848784534 424.18390878577111 0 424.18390878577111 -473.5574101471484 0 0 0 0 -327.45450927503771 721.49372124962372 0 721.49372124962372 -528.09149127550882 0 0 0 0 -348.64740958024049 735.3473107431173 0 735.3473107431173 -452.71482981901499 0 0 0 0 -1052.1615442086404 835.77605167485262 0 835.77605167485262 -443.39555201742223 0 0 0 0 -667.26876646769233 696.03189656764243 0 696.03189656764243 -494.99472378727887 0 0 0 0 -247.81199473487504 815.21963408538431 0 815.21963408538431 -464.57906229400442 0 0 0 0 -519.57862050082622 879.60692500497635 0 879.60692500497635 -420.06371785416559 0 0 0 0 -1002.4832946070637 927.551931405613 0 927.551931405613 -279.46985549557485 0 0 0 0 -142.94195780789505 789.98348427216979 0 789.98348427216979 -704.46942093038342 0 0 0 0 -490.70931231758732 569.79828920982345 0 569.79828920982345 -104.23447056062651 0 0 0 0 -54.534058003380778 512.32218370010742 0 512.32218370010742 -135.48744306229491 0 0 0 0 -22.694177824436338 -29.9867077818908 0 -29.9867077818908 368.66587380234705 0 0 0 0 -22.579421961779303 3.089592908210264 0 3.089592908210264 1.0643410715315222 0 0 0 0 128.08066461712588 -27.068328007590026 0 -27.068328007590026 550.13172444098518 0 0 0 0 -352.9153154568412 346.17952375525874 0 346.17952375525874 1022.1450463815054 0 0 0 0 5.8532078892312711 55.550972277285382 0 55.550972277285382 501.29165064332847 0 0 0 0 -9.4404814821152172 2.4354463613508273 0 2.4354463613508273 -0.48941516692937004 0 0 0 0 -521.02122946584859 -207.67064786003266 0 -207.67064786003266 19.721018707698931 0 0 0 0 36.897256921019562 -145.89457421103447 0 -145.89457421103447 -106.59887415625781 0 0 0 0 -1943.342804770662 151.68414826357775 0 151.68414826357775 378.06487401785671 0 0 0 0 -1862.9721177169995 146.92420212335401 0 146.92420212335401 -509.28188778373419 0 0 0 0 -1509.2799451957653 307.2421647986821 0 307.2421647986821 -387.04831499802276 0 0 0 0 -1023.2361322250617 3.3275591033880119 0 3.3275591033880119 -595.64732573523452 0 0 0 0 -1046.3373300966923 -14.122834177024288 0 -14.122834177024288 -592.03715046724813 0 0 0 0 -1348.5850273727447 -175.78090255227198 0 -175.78090255227198 -484.32329552806641 0 0 0 0 -512.5634701569943 513.21546869788835 0 513.21546869788835 82.595485442734571 0 0 0 0 -93.159255816724908 493.75837798929206 0 493.75837798929206 79.374649523968628 0 0 0 0 -8.3465563132753857 2.2594997534445938 0 2.2594997534445938 -0.1779742001978768 0 0 0 0 -2306.0416074388122 -887.32225780819135 0 -887.32225780819135 -105.66136592346083 0 0 0 0 -2128.0724457928591 -33.00531545676813 0 -33.00531545676813 -169.74058423894985 0 0 0 0 -1595.293553143194 -380.9089492668586 0 -380.9089492668586 23.918686346599316 0 0 0 0 45.713304127064475 -207.69725806230508 0 -207.69725806230508 51.253646087951893 0 0 0 0 -15.338983400601137 -143.99996288445527 0 -143.99996288445527 -11.514771455560549 0 0 0 0 -15.839198681220296 -117.07370714115132 0 -117.07370714115132 -5.4758583636883031 0 0 0 0 -232.55265512700134 -379.38543889067569 0 -379.38543889067569 -5.3899657880906489 0 0 0 0 -738.78938600431138 -34.311950599929332 0 -34.311950599929332 122.75444173722644 0 0 0 0 52.434579988926998 -52.680135170241556 0 -52.680135170241556 119.18348834178948 0 0 0 0 -114.26877616687125 -156.89775544784607 0 -156.89775544784607 167.45530271908592 0 0 0 0 -15.312095535079322 6.8091867287895482 0 6.8091867287895482 -1.2661337298780886 0 0 0 0 -57.099043803624227 -32.075532275003752 0 -32.075532275003752 28.477644983779101 0 0 0 0 -39.81593520133174 38.009155510645542 0 38.009155510645542 230.43549733062741 0 0 0 0 47.450774213983095 11.368667038388594 0 11.368667038388594 -0.29645622878888389 0 0 0 0 46.919606523669245 21.937030811047862 0 21.937030811047862 -204.02133539177157 0 0 0 0 -748.92551034363714 331.39592329468769 0 331.39592329468769 -108.83482103429742 0 0 0 0 -454.50563235349546 -78.624543471698416 0 -78.624543471698416 -2.5153391976609782 0 0 0 0 -16.128931382509052 -8.9563454937643527 0 -8.9563454937643527 -4.9732995305394443 0 0 0 0 -124.86127420963749 46.312360178431391 0 46.312360178431391 -161.47616798629315 0 0 0 0 -1776.4196132405923 411.86392661182981 0 411.86392661182981 6.0942728969562268 0 0 0 0 -1166.4028972619562 -156.46930092227922 0 -156.46930092227922 262.72841042434811 0 0 0 0 -47.364396892217485 -15.603902810357473 0 -15.603902810357473 -6.2111979552639607 0 0 0 0 12.259675901543233 -110.3843605268321 0 -110.3843605268321 29.901974647263614 0 0 0 0 17.980978780207806 -154.65769724404345 0 -154.65769724404345 -137.79717849575809 0 0 0 0 610.15911262399459 142.80450510102401 0 142.80450510102401 5.9682770400668232 0 0 0 0 -1952.7269205006833 -490.12328582421696 0 -490.12328582421696 3.8850277343390189 0 0 0 0 -1935.7259591436887 -423.53159889538574 0 -423.53159889538574 253.47795869394031 0 0 0 0 -1232.2244314485142 -589.96614004659023 0 -589.96614004659023 -53.085413555174455 0 0 0 0 -2416.2976515101109 -818.25126833010199 0 -818.25126833010199 5.2502682697277123 0 0 0 0 -1353.1057375744058 -548.24350013198546 0 -548.24350013198546 -451.83319757693698 0 0 0 0 -1693.1258291964157 -386.19806086313292 0 -386.19806086313292 -58.097923685169008 0 0 0 0 -1691.9951966789572 -343.08457209383511 0 -343.08457209383511 -1276.0213665963111 0 0 0 0 -2894.9909765658886 53.439694132785917 0 53.439694132785917 368.15760636786581 0 0 0 0 -2300.5064323242623 -399.42018491673571 0 -399.42018491673571 539.14660780896338 0 0 0 0 -2081.6580089295567 -566.40494017128867 0 -566.40494017128867 429.2160155019028 0 0 0 0 -1420.6770285997118 -170.23502067262416 0 -170.23502067262416 -108.89927682744565 0 0 0 0 -2665.9041308460874 -856.72424066570602 0 -856.72424066570602 447.96067966378541 0 0 0 0 -952.10369971364707 -1099.3265322078796 0 -1099.3265322078796 -771.3172421821273 0 0 0 0 -2810.2130141688067 186.97638771078618 0 186.97638771078618 704.2955637531868 0 0 0 0 -2279.0521906306312 -541.12166684865497 0 -541.12166684865497 414.48175914653621 0 0 0 0 -7150.5654921268724 -3881.4085162984566 0 -3881.4085162984566 864.06870332513063 0 0 0 0 -6395.8405265055335 -1159.9539606528288 0 -1159.9539606528288 433.36768254866257 0 0 0 0 -3673.6492005816981 1493.0313120269393 0 1493.0313120269393 -272.98199492340427 0 0 0 0 -54.028961432299269 -12.550822663556851 0 -12.550822663556851 -39.546381078448334 0 0 0 0 -709.77722354340949 1167.422521387949 0 1167.422521387949 -561.9414496825575 0 0 0 0 21.267189895181218 1400.6197755591784 0 1400.6197755591784 -2436.9537207028188 0 0 0 0 -178.61533097572828 -437.46860492233463 0 -437.46860492233463 -353.60121951142173 0 0 0 0 -812.49362135631964 -315.21859033412693 0 -315.21859033412693 -219.6632380906558 0 0 0 0 -2264.5630305681698 -2775.7949359788872 0 -2775.7949359788872 -3506.0536057449572 0 0 0 0 -87.185981508571615 -43.115286169333537 0 -43.115286169333537 -7.0828546414031228 0 0 0 0 -326.30707764602266 -37.887466803184452 0 -37.887466803184452 161.48892056752084 0 0 0 0 286.06568179145688 -130.78556876739822 0 -130.78556876739822 -960.78301666674452 0 0 0 0 -38.972904962533825 -20.727763661169575 0 -20.727763661169575 0.14283718401405565 0 0 0 0 -876.35974578378227 -415.4269475212086 0 -415.4269475212086 102.70081995200053 0 0 0 0 -173.74515588048234 -18.556560947133221 0 -18.556560947133221 -8.5449949906615075 0 0 0 0 -399.69325467836461 58.36442615012038 0 58.36442615012038 -11.327518863121441 0 0 0 0 -541.42696209480346 94.631131545662356 0 94.631131545662356 -202.80902969685849 0 0 0 0 -629.18430425890256 -25.819471163666094 0 -25.819471163666094 -2.3887441658989701 0 0 0 0 -1323.2548780940633 235.72326821804381 0 235.72326821804381 487.6448928708196 0 0 0 0 -0.10288593686197345 -5.9377112914550452 0 -5.9377112914550452 -15.476801840576655 0 0 0 0 -269.74561261444251 -729.91136897688421 0 -729.91136897688421 125.0517807403794 0 0 0 0 298.45889614638872 -452.29661424667756 0 -452.29661424667756 -1128.8964535675705 0 0 0 0 -52.824002764173201 114.86418742423484 0 114.86418742423484 202.26300924571149 0 0 0 0 -1652.4614703428961 -1276.849474828231 0 -1276.849474828231 -650.96629425030369 0 0 0 0 -1.6371989542384142 -2.7177907323420385 0 -2.7177907323420385 -6.5662419635518248 0 0 0 0 -1664.0739739901983 49.15167435589683 0 49.15167435589683 264.93609818673031 0 0 0 0 1046.2147418158456 -393.5427604102415 0 -393.5427604102415 -910.61732741206833 0 0 0 0 -741.4707374440186 -786.73144686429987 0 -786.73144686429987 -317.01893366945461 0 0 0 0 -276.4412716092047 11.995294795995051 0 11.995294795995051 320.76939131776089 0 0 0 0 -23.302820689488726 -27.109319708632029 0 -27.109319708632029 0.9015119167524972 0 0 0 0 -45.110342218598817 -324.22812943040844 0 -324.22812943040844 -305.26795045627568 0 0 0 0 -15.380115394524182 8.953074867246869 0 8.953074867246869 -73.648064672441251 0 0 0 0 -39.318986179758213 9.6258401288924915 0 9.6258401288924915 12.323803308185234 0 0 0 0 -78.303563684865367 -97.775698429244585 0 -97.775698429244585 41.216238813693508 0 0 0 0 -76.547183563263388 -84.918586391717781 0 -84.918586391717781 -52.495075699594963 0 0 0 0 -604.69333336268028 -227.93306779828083 0 -227.93306779828083 -26.972429645371449 0 0 0 0 -244.19666040383163 -84.232894207797472 0 -84.232894207797472 -99.21108622545853 0 0 0 0 -170.30782515188912 -194.47390841415245 0 -194.47390841415245 -139.34324214970366 0 0 0 0 -22.756717191048665 32.303756552831146 0 32.303756552831146 -39.641908547849198 0 0 0 0 -85.772118012202554 76.546499512300215 0 76.546499512300215 347.13104325898348 0 0 0 0 3.2266595125074673 64.992400059443526 0 64.992400059443526 -89.364457077239422 0 0 0 0 3.7619036380256148 -11.570650112143426 0 -11.570650112143426 95.616433647250233 0 0 0 0 -22.661838276690105 30.209241011134964 0 30.209241011134964 -26.131515900777686 0 0 0 0 -1.4146169647455338 -0.20537593258387687 0 -0.20537593258387687 1.5674151300524564 0 0 0 0 8.6432694877730682 -14.327426151102827 0 -14.327426151102827 -40.434720014136474 0 0 0 0 -1.122917523207434 -48.155868980655669 0 -48.155868980655669 48.961024080164862 0 0 0 0 56.177135556834401 -97.855914630071311 0 -97.855914630071311 63.657854790184956 0 0 0 0 -48.700478055419808 -167.60563976402136 0 -167.60563976402136 287.24394399570338 0 0 0 0 -647.65231873629091 695.57581864785925 0 695.57581864785925 -140.8779825471866 0 0 0 0 -40.824844750015302 -27.678452103600492 0 -27.678452103600492 -17.690899727744931 0 0 0 0 -349.59993039849724 35.943967618010156 0 35.943967618010156 -219.35433852403634 0 0 0 0 -369.78967373183696 34.973963476876065 0 34.973963476876065 8.6494107990761222 0 0 0 0 -101.55215613167093 -141.9190274145385 0 -141.9190274145385 61.743420237551732 0 0 0 0 -78.520935343665371 -41.087685461134797 0 -41.087685461134797 -21.731040397527366 0 0 0 0 -317.75410178228049 -22.077662970844358 0 -22.077662970844358 118.98987200964802 0 0 0 0 -97.518274084702171 -15.613012394521263 0 -15.613012394521263 -1.8396626520369312 0 0 0 0 -464.05424650718487 39.459778531514075 0 39.459778531514075 93.110861274839408 0 0 0 0 -596.22735040503903 -32.663312193889851 0 -32.663312193889851 167.01361044165424 0 0 0 0 -328.81902591967082 -199.08353644062299 0 -199.08353644062299 -29.882812080057647 0 0 0 0 -200.04868553198912 -111.0057488227136 0 -111.0057488227136 22.150509088140097 0 0 0 0 -192.6692645184371 -197.21818922750975 0 -197.21818922750975 20.218545136169269 0 0 0 0 -102.84540424276202 -148.86883429056161 0 -148.86883429056161 44.776191411940999 0 0 0 0 -180.39848976428038 -167.56002433468757 0 -167.56002433468757 110.93345193524874 0 0 0 0 -115.89366239301063 -24.610403005690586 0 -24.610403005690586 24.677316500673655 0 0 0 0 -218.33790553833387 -172.66154711573017 0 -172.66154711573017 168.26675989038267 0 0 0 0 -265.8641851885186 -112.96400726197317 0 -112.96400726197317 135.40577699448158 0 0 0 0 -203.79858970669738 -211.49152860853883 0 -211.49152860853883 68.501689934242677 0 0 0 0 -82.568024894419352 -60.162673320204028 0 -60.162673320204028 -17.517452448631637 0 0 0 0 -107.99421803575024 -44.600332785376096 0 -44.600332785376096 14.469670010365714 0 0 0 0 -128.31909995041678 -333.3046246006154 0 -333.3046246006154 -127.48737210786931 0 0 0 0 -180.18709739849146 38.62347060564116 0 38.62347060564116 -50.33944938359673 0 0 0 0 -334.85830792048364 -156.30228720161222 0 -156.30228720161222 112.58930603359659 0 0 0 0 -158.8894371020142 -126.05011876448134 0 -126.05011876448134 -178.7595660252864 0 0 0 0 -313.53385296255146 -631.6207984545108 0 -631.6207984545108 -532.99834398976964 0 0 0 0 7.5765682951438862 -2.7228752788825972 0 -2.7228752788825972 2.4053131583219347 0 0 0 0 -269.75916091713589 1916.4978006510228 0 1916.4978006510228 2616.9690042587172 0 0 0 0 125.22952588726184 -277.71850880832972 0 -277.71850880832972 1586.2977389008884 0 0 0 0 -118.77933771417156 371.04918251579193 0 371.04918251579193 786.52613321045646 0 0 0 0 3.2828634980858169 -31.163911599898128 0 -31.163911599898128 19.319077226893238 0 0 0 0 -190.62740146956639 863.2424041519298 0 863.2424041519298 2277.238515347648 0 0 0 0 -559.73186671882286 28.378695805296957 0 28.378695805296957 169.14732520701912 0 0 0 0 -659.0328362598375 -71.083806663832092 0 -71.083806663832092 429.19883461236532 0 0 0 0 -689.23909373335482 56.59218950677996 0 56.59218950677996 425.99381082333639 0 0 0 0 -523.04097823184566 -94.154255055173053 0 -94.154255055173053 281.77384035402838 0 0 0 0 -544.52554850041633 -8.3206128735623679 0 -8.3206128735623679 246.01847410446499 0 0 0 0 -401.46196119496017 -168.0587880948201 0 -168.0587880948201 206.82259964185141 0 0 0 0 -720.39420378850264 -9.6379813409275812 0 -9.6379813409275812 166.9652333260201 0 0 0 0 -354.19650911958161 -696.15932963179148 0 -696.15932963179148 501.12926767468161 0 0 0 0 -766.28826317025232 -69.588474265272453 0 -69.588474265272453 1213.6877452891385 0 0 0 0 -689.09226007550023 -185.75684943606393 0 -185.75684943606393 443.61697658772482 0 0 0 0 -646.40010400899337 -91.163951444056693 0 -91.163951444056693 460.17410732499229 0 0 0 0 -461.2772990497906 -17.230389293616099 0 -17.230389293616099 188.86176659310149 0 0 0 0 -643.3365014258452 -96.995834403921435 0 -96.995834403921435 879.16450728981317 0 0 0 0 -538.44983728104853 514.591855122384 0 514.591855122384 -38.121700788583439 0 0 0 0 -58.130764802426313 -12.017099940603373 0 -12.017099940603373 -2.3083986455862231 0 0 0 0 -714.87315710712573 664.95458210395554 0 664.95458210395554 818.37330383285371 0 0 0 0 71.026865237930906 -131.32336311302697 0 -131.32336311302697 -28.245291186733084 0 0 0 0 -566.20020545096486 -36.131373561733199 0 -36.131373561733199 205.98770161682478 0 0 0 0 -817.65144643303938 26.488662385542739 0 26.488662385542739 197.57658166224223 0 0 0 0 -655.5255072065338 -1446.091378176804 0 -1446.091378176804 -1622.6311606665513 0 0 0 0 -1982.4028164688498 -1221.5858962564816 0 -1221.5858962564816 244.81889128749935 0 0 0 0 -18.685722449464095 -4.8045411271349536 0 -4.8045411271349536 -1.9111434826717826 0 0 0 0 -282.13891331868945 1220.2369915593054 0 1220.2369915593054 -948.17361587443247 0 0 0 0 475.25332364252972 -701.75426624774491 0 -701.75426624774491 592.64913723321297 0 0 0 0 -638.97105171344447 -1180.5252999654031 0 -1180.5252999654031 -186.29200739904809 0 0 0 0 -1629.1613840360224 -820.77231486845994 0 -820.77231486845994 -112.49391580765223 0 0 0 0 -1366.5598147297569 -590.74829415254953 0 -590.74829415254953 -1490.6578657079654 0 0 0 0 -1361.2698864676058 -955.49399971518233 0 -955.49399971518233 -365.16133424617692 0 0 0 0 -1491.7719388762343 -1242.7621714883044 0 -1242.7621714883044 -925.0914260045538 0 0 0 0 -1020.2510210733526 -1845.6729035457629 0 -1845.6729035457629 -964.03490618861179 0 0 0 0 -1484.6325879389187 -1469.3426675184564 0 -1469.3426675184564 -917.57272575920933 0 0 0 0 -369.07956666327664 -915.78579207611983 0 -915.78579207611983 -817.69527000198696 0 0 0 0 -1328.6798426116075 1181.6131799576515 0 1181.6131799576515 170.75914065399047 0 0 0 0 -27.290569009564933 -6.1495330676549429 0 -6.1495330676549429 0.71437952107629243 0 0 0 0 -5443.6112628129777 -2164.4586918567456 0 -2164.4586918567456 -746.76015630030088 0 0 0 0 -2949.7926581444044 -882.40542047363488 0 -882.40542047363488 -1042.7111521911493 0 0 0 0 -3064.2289300254197 -1382.9264431016682 0 -1382.9264431016682 -195.22898504007026 0 0 0 0 -1749.212090451525 -1929.6786301022462 0 -1929.6786301022462 -1341.2040297583444 0 0 0 0 -1001.2219168266602 -681.2561663044894 0 -681.2561663044894 -180.72330484933264 0 0 0 0 -1804.6605498118952 -637.18570648806758 0 -637.18570648806758 103.14344333351983 0 0 0 0 -503.65646925779583 361.17644821308431 0 361.17644821308431 74.209393053587519 0 0 0 0 -268.84654505146318 -48.709580210721469 0 -48.709580210721469 -43.766645438212436 0 0 0 0 -19.43211388294003 26.457588987967029 0 26.457588987967029 -37.392500732288681 0 0 0 0 -83.000659401402118 51.183222471372574 0 51.183222471372574 -11.864243000939652 0 0 0 0 -175.38014163632761 68.875530274850462 0 68.875530274850462 -2.5471717960572278 0 0 0 0 -73.541245000815252 69.019414221264924 0 69.019414221264924 -49.46321342855299 0 0 0 0 -163.16922979510309 -33.298587068876088 0 -33.298587068876088 -14.44392200956645 0 0 0 0 -473.09726378766936 -344.63079647604081 0 -344.63079647604081 -283.16418421320759 0 0 0 0 -42.166559067821254 -19.252276632286964 0 -19.252276632286964 -5.5633986642942617 0 0 0 0 -41.398262016142269 3.9937123231250666 0 3.9937123231250666 1.7182725842462396 0 0 0 0 -245.42275060815155 -56.292178097604847 0 -56.292178097604847 -20.191363109675422 0 0 0 0 -733.47197156365655 683.61136585901431 0 683.61136585901431 -91.092737508726714 0 0 0 0 -2563.036633637792 -1020.0056021589262 0 -1020.0056021589262 93.498374159831201 0 0 0 0 -4591.8146807020821 -3476.6905706901453 0 -3476.6905706901453 -1544.8840634463777 0 0 0 0 761.9918243985594 -1657.1362645143172 0 -1657.1362645143172 -2494.017601437743 0 0 0 0 -260.16689412866253 -27.785849241122378 0 -27.785849241122378 -151.92895038657207 0 0 0 0 -259.582251379014 121.35200158095935 0 121.35200158095935 -63.487340641802803 0 0 0 0 -1321.6235552152939 593.81985036727565 0 593.81985036727565 2332.1242112264827 0 0 0 0 -69.063744029803729 -93.500360017368948 0 -93.500360017368948 -29.371955159091218 0 0 0 0 -86.628433157890157 29.900494038157319 0 29.900494038157319 -43.222849698088666 0 0 0 0 -183.19376370909049 544.21022764482541 0 544.21022764482541 -634.6164583100508 0 0 0 0 -71.284269657033889 -112.61953923524734 0 -112.61953923524734 -22.925775182088984 0 0 0 0 -4587.3597326941963 -678.61672160731541 0 -678.61672160731541 -301.29891643057636 0 0 0 0 -1785.1383952426113 -1432.1134012278289 0 -1432.1134012278289 -501.99801263077097 0 0 0 0 -4349.8409171544772 -2170.3586756215009 0 -2170.3586756215009 -536.51122496122844 0 0 0 0 -815.20107237556658 -1259.1690818585848 0 -1259.1690818585848 -745.93561318905995 0 0 0 0 -1841.8783069264027 -433.82027899655805 0 -433.82027899655805 -970.60697838997294 0 0 0 0 -53.345593744331993 -39.084852931843045 0 -39.084852931843045 25.671392258062184 0 0 0 0 -7447.8991155030672 -1254.1216733546171 0 -1254.1216733546171 366.00766950628167 0 0 0 0 -5911.2734303060861 -1976.0593710572102 0 -1976.0593710572102 282.49643220918369 0 0 0 0 1235.3672906519569 -2886.0753689995527 0 -2886.0753689995527 396.98241146988585 0 0 0 0 -275.39148154336726 602.73137564970966 0 602.73137564970966 475.77432483393932 0 0 0 0 -921.34726429329021 698.64114350679665 0 698.64114350679665 1075.6659767948549 0 0 0 0 -179.48058839193254 -166.15395150034692 0 -166.15395150034692 -67.019409856333596 0 0 0 0 -100.55506330460219 -31.792459677564526 0 -31.792459677564526 18.819757553350303 0 0 0 0 2053.8004749208922 778.15547880087252 0 778.15547880087252 1077.6166866505832 0 0 0 0 -18.640649553868855 7.2936532391941 0 7.2936532391941 22.211532775713209 0 0 0 0 317.191352654394 -1842.6659372728245 0 -1842.6659372728245 395.04882702138821 0 0 0 0 -1736.147808321155 -162.0327045044487 0 -162.0327045044487 2147.4653192509941 0 0 0 0 -1699.0795899672812 174.50627552321839 0 174.50627552321839 -349.09025105655746 0 0 0 0 1402.7472993169795 727.78188946740192 0 727.78188946740192 894.77136783234164 0 0 0 0 79.077262732549571 303.41809655503857 0 303.41809655503857 2899.2620674808859 0 0 0 0 -487.99628483390552 -1190.9722957248441 0 -1190.9722957248441 -66.974631086151931 0 0 0 0 -1538.3671792654204 -2262.1678771426123 0 -2262.1678771426123 -664.29115683726559 0 0 0 0 -1147.3010051460587 -628.04152987977977 0 -628.04152987977977 -505.8122506732725 0 0 0 0 -5297.2089979597658 -2766.7749469631071 0 -2766.7749469631071 -726.43853567384213 0 0 0 0 -3079.5359253819333 -1204.2666020876204 0 -1204.2666020876204 -687.93369745187613 0 0 0 0 -2.0750493979068096 -6.2702520147431926 0 -6.2702520147431926 -20.040308906209894 0 0 0 0 -7502.8955073773395 -2006.4594026223785 0 -2006.4594026223785 -427.67324415265284 0 0 0 0 -2854.3877447542618 204.22619982364267 0 204.22619982364267 -2173.8507304737795 0 0 0 0 -5172.0999250447785 -3444.4479004572113 0 -3444.4479004572113 -2343.1215509345056 0 0 0 0 -3084.4301293460303 -438.14912090199505 0 -438.14912090199505 531.02096822557223 0 0 0 0 -2457.050038277579 -1882.5741963859964 0 -1882.5741963859964 -360.84920886329201 0 0 0 0 -88.901489430791116 14.106817451067968 0 14.106817451067968 -6.7563425556681977 0 0 0 0 -7.9531843085955103 -9.5244224407728666 0 -9.5244224407728666 1.0299977838959702 0 0 0 0 -90.225736515669269 16.862380581525031 0 16.862380581525031 -1.2739794382569016 0 0 0 0 -87.118171124049695 10.558237644462451 0 10.558237644462451 -11.955821617956644 0 0 0 0 -81.771463738579769 14.259802992220102 0 14.259802992220102 -12.399907500603149 0 0 0 0 -89.410644625022542 22.09075192758246 0 22.09075192758246 -9.7338801564201276 0 0 0 0 -1806.8397045138408 207.05792993661771 0 207.05792993661771 295.0549269314306 0 0 0 0 -600.10078720417368 -63.898859238214754 0 -63.898859238214754 -223.49215672790615 0 0 0 0 -356.82441992206441 528.78956683928379 0 528.78956683928379 303.50817754945604 0 0 0 0 -1063.8156117804429 176.17102487246552 0 176.17102487246552 904.25207237473001 0 0 0 0 -19.748989785244163 -11.897442455848307 0 -11.897442455848307 -6.5632288255838525 0 0 0 0 -97.93183881866571 7.6832063555590935 0 7.6832063555590935 -11.055072018194437 0 0 0 0 -1616.7065764796862 -1406.1347841241625 0 -1406.1347841241625 -2310.7433043428136 0 0 0 0 -78.816697915128316 8.9562448085962387 0 8.9562448085962387 -12.995115887310931 0 0 0 0 -4127.2270333092747 -1012.8685440644501 0 -1012.8685440644501 2661.6273478046869 0 0 0 0 11.067169150250265 513.70213401936303 0 513.70213401936303 771.52050081170228 0 0 0 0 -14.644532074534567 12.189016949251624 0 12.189016949251624 -7.4760792226315047 0 0 0 0 -64.202376122644637 24.843652587695203 0 24.843652587695203 -9.8594212342563878 0 0 0 0 -755.95068017473386 -438.52169191073489 0 -438.52169191073489 25.939962406896939 0 0 0 0 -20.167316796973594 2.4034738357636911 0 2.4034738357636911 10.65056976579454 0 0 0 0 -17.40682758789626 3.3652899482690941 0 3.3652899482690941 7.5785377798747504 0 0 0 0 -30.474300335743465 -17.355766621749353 0 -17.355766621749353 -24.762152146046219 0 0 0 0 -181.61047661018529 -147.14389664792776 0 -147.14389664792776 -89.662977548880917 0 0 0 0 -219.27721570897847 -611.50747159224011 0 -611.50747159224011 -431.03808288464984 0 0 0 0 -396.06271345973073 -1307.5594378255721 0 -1307.5594378255721 -1371.3674556448293 0 0 0 0 -15.837319660276989 -534.63273440444436 0 -534.63273440444436 -448.59173940240635 0 0 0 0 -25.286205121525427 -6.771485449690978 0 -6.771485449690978 -1.4351149212691219 0 0 0 0 -112.44183526665438 -536.28411871981143 0 -536.28411871981143 723.83908661823716 0 0 0 0 65.173388306851848 -381.40988673397487 0 -381.40988673397487 -430.52629171350429 0 0 0 0 -111.54926316340061 -437.92012168788665 0 -437.92012168788665 -383.59238063482729 0 0 0 0 142.29802324716002 -281.42827375737352 0 -281.42827375737352 -1044.1820006330156 0 0 0 0 -26.67785636811459 -374.27781098279843 0 -374.27781098279843 -344.11048636883135 0 0 0 0 -159.30457841516909 -242.44057194611514 0 -242.44057194611514 -499.6978550512527 0 0 0 0 333.09635682401859 -628.77537011309425 0 -628.77537011309425 -477.41610320309127 0 0 0 0 -149.36663421023695 -349.628282784249 0 -349.628282784249 764.5049238861958 0 0 0 0 -66.358485323821071 -16.71207036479332 0 -16.71207036479332 -2.0584776125526099 0 0 0 0 -146.12738233924665 -605.7552878810036 0 -605.7552878810036 142.57904407389196 0 0 0 0 -985.40073310097796 -253.40943699396439 0 -253.40943699396439 236.52022818702551 0 0 0 0 -7.3209568057864089 -437.3027263096177 0 -437.3027263096177 43.702852846386122 0 0 0 0 -383.98445470254228 61.231178194642666 0 61.231178194642666 195.28636924597504 0 0 0 0 -90.266746992257879 -16.488873136025678 0 -16.488873136025678 -0.84855399889834326 0 0 0 0 60.845447937455901 -436.21567477434712 0 -436.21567477434712 -91.67543500269062 0 0 0 0 -993.66419136832701 -791.11563753998735 0 -791.11563753998735 1955.640843549349 0 0 0 0 -68.64916012858157 -704.87420319266857 0 -704.87420319266857 -1009.4022207422569 0 0 0 0 -122.82790928127361 15.86804583483115 0 15.86804583483115 672.87898272906773 0 0 0 0 72.99756252480438 -363.37938757527377 0 -363.37938757527377 -1796.6408239416182 0 0 0 0 -697.88546377961029 73.591635032799729 0 73.591635032799729 -1137.7038891412058 0 0 0 0 -1762.3484525001477 204.77698977116353 0 204.77698977116353 415.49459304554989 0 0 0 0 228.13187965097677 -57.506969187378274 0 -57.506969187378274 402.08726384336774 0 0 0 0 -1059.3615220645065 1207.6684998778001 0 1207.6684998778001 -799.88716256463749 0 0 0 0 -1023.9428091139125 -137.82528598580666 0 -137.82528598580666 -1011.6101846260153 0 0 0 0 -16.240745720672294 -8.5531469173335921 0 -8.5531469173335921 -5.8330574521002294 0 0 0 0 -1958.6379257973822 934.49461809713898 0 934.49461809713898 -869.67591977794154 0 0 0 0 -2513.8921359622909 -426.57478022419127 0 -426.57478022419127 -1055.4165529414022 0 0 0 0 95.189621518045897 176.61912465606383 0 176.61912465606383 -105.87880820074497 0 0 0 0 3.06442973355297 -400.20597533704859 0 -400.20597533704859 -686.46568106551626 0 0 0 0 46.664576048733579 -82.020474470787804 0 -82.020474470787804 -425.60418350964937 0 0 0 0 -800.14730189464171 306.65620280616747 0 306.65620280616747 96.036190079289199 0 0 0 0 -486.26447994568298 372.52809739879484 0 372.52809739879484 104.43341403977587 0 0 0 0 -771.26116047306277 206.82599819498708 0 206.82599819498708 667.93624395487188 0 0 0 0 -1461.0297558872844 -81.512515259478732 0 -81.512515259478732 1826.3403883317569 0 0 0 0 -99.253403798048794 -10.484540363090574 0 -10.484540363090574 0.49584073770188875 0 0 0 0 -900.86609674459032 -159.6249766329579 0 -159.6249766329579 191.1725956832488 0 0 0 0 -255.26220179352094 -126.76858424195234 0 -126.76858424195234 -573.61689390800063 0 0 0 0 -768.4383256866131 243.25564052553364 0 243.25564052553364 115.86447890878389 0 0 0 0 -511.97388287977083 123.77398492293594 0 123.77398492293594 -337.4408440143493 0 0 0 0 -102.38095258596962 -1.0671638040564062 0 -1.0671638040564062 2.5781581001880181 0 0 0 0 -480.33636183023918 -121.9892994932743 0 -121.9892994932743 556.93551170710202 0 0 0 0 -595.52785126402159 17.067540211251071 0 17.067540211251071 154.64260358604884 0 0 0 0 -665.17720106244087 131.38195202766201 0 131.38195202766201 570.15650416465724 0 0 0 0 -280.29199533511201 174.55252144269451 0 174.55252144269451 617.04166269406051 0 0 0 0 -458.31432480784133 -115.81058056567417 0 -115.81058056567417 190.4626328198724 0 0 0 0 -623.08868790848646 -254.27544973121076 0 -254.27544973121076 797.3661815962264 0 0 0 0 100.8340363430907 235.04090004022601 0 235.04090004022601 1113.4498823596368 0 0 0 0 -104.11263145649718 199.02325742420362 0 199.02325742420362 -57.496028390241918 0 0 0 0 6.1748181385709131 20.327898177035074 0 20.327898177035074 8.7099509116371809 0 0 0 0 -454.16308991852566 -242.46757046145513 0 -242.46757046145513 1070.7320421439081 0 0 0 0 -100.63719345979888 -13.811232281771865 0 -13.811232281771865 5.7042905322558575 0 0 0 0 -678.18041132071812 -4.9012747148271956 0 -4.9012747148271956 602.3808706603686 0 0 0 0 -689.11797838637358 -179.47102214953691 0 -179.47102214953691 626.0564919521421 0 0 0 0 -934.57710284058703 -520.55030520492073 0 -520.55030520492073 237.85201927031358 0 0 0 0 -18.02836821057565 -5.144895873727819 0 -5.144895873727819 8.3452411327358327 0 0 0 0 -555.74231762255658 70.043444869386803 0 70.043444869386803 244.39602515316074 0 0 0 0 -678.36498440013384 -14.861001327418307 0 -14.861001327418307 357.68953027756197 0 0 0 0 -616.13491613765655 97.482585952837326 0 97.482585952837326 133.19790496164023 0 0 0 0 -685.06196538984659 70.793288343154018 0 70.793288343154018 251.39572041804013 0 0 0 0 -460.72614399061422 -24.680303299312982 0 -24.680303299312982 124.45432726708714 0 0 0 0 -265.42225336305273 118.80141979840982 0 118.80141979840982 17.886775168635722 0 0 0 0 -615.46750798152061 89.503556312903129 0 89.503556312903129 132.41875945284858 0 0 0 0 -722.74489523340162 -160.88188774699915 0 -160.88188774699915 99.443847393738906 0 0 0 0 -111.78444807447903 35.460913576402277 0 35.460913576402277 24.602228304233765 0 0 0 0 -112.67786439867632 2.199825306242019 0 2.199825306242019 69.066122197129971 0 0 0 0 -211.38057412893977 125.68117147939392 0 125.68117147939392 152.89655854807916 0 0 0 0 -274.53796453334508 154.06936721279453 0 154.06936721279453 88.098589530418394 0 0 0 0 -103.73212353708732 57.72312472590049 0 57.72312472590049 19.188441648534784 0 0 0 0 309.92138996173162 195.53501955644055 0 195.53501955644055 56.246445526353838 0 0 0 0 751.22367940544791 3.7780381591624064 0 3.7780381591624064 -4.9442775343889025 0 0 0 0 -107.55822794167943 -36.106314167008804 0 -36.106314167008804 174.18924913686715 0 0 0 0 -22.479647333732146 11.242203070245722 0 11.242203070245722 9.8580136074557529 0 0 0 0 -198.29350792952755 80.658670558468202 0 80.658670558468202 262.67572473914015 0 0 0 0 809.57294039445696 266.36647044172059 0 266.36647044172059 -481.46764282542654 0 0 0 0 5.0307726183019668 1.7271842464433718 0 1.7271842464433718 1.5037440776184541 0 0 0 0 189.03088243202365 -7.390880968446254 0 -7.390880968446254 612.27609619253872 0 0 0 0 -341.4151240412757 -405.72648496909005 0 -405.72648496909005 327.16807195846377 0 0 0 0 -112.04934981106999 -405.25841931572529 0 -405.25841931572529 985.50567932402373 0 0 0 0 163.07847305494943 -623.65735071026143 0 -623.65735071026143 -72.248291331081418 0 0 0 0 456.5295012278948 -155.3641196144772 0 -155.3641196144772 153.6509241396293 0 0 0 0 -703.5438021577138 -406.77621097847623 0 -406.77621097847623 270.22007218446652 0 0 0 0 -678.86851081460918 -461.83367918243948 0 -461.83367918243948 -333.75023556901397 0 0 0 0 -1292.0605581162381 -28.711485392862414 0 -28.711485392862414 -187.16132134840177 0 0 0 0 -1681.0843210050371 -510.39536762633816 0 -510.39536762633816 -458.78815886727534 0 0 0 0 -1334.6780918041477 71.531069005478457 0 71.531069005478457 -819.29709740156613 0 0 0 0 -2007.4213217769866 -580.04394871137265 0 -580.04394871137265 -459.70232945232874 0 0 0 0 -577.17453447415028 -371.45196869265465 0 -371.45196869265465 -450.28338659614019 0 0 0 0 -773.7745271945314 239.33406957190618 0 239.33406957190618 -242.9503510371519 0 0 0 0 466.82141758947546 -260.69544698638583 0 -260.69544698638583 -124.25113800280542 0 0 0 0 -158.01391844233149 127.54198812089999 0 127.54198812089999 -34.656923455933338 0 0 0 0 328.92175889824284 672.6413550428224 0 672.6413550428224 -98.669887374191603 0 0 0 0 -182.1875744688441 286.37766185033024 0 286.37766185033024 320.73515863537614 0 0 0 0 745.78363134796336 330.5340485253991 0 330.5340485253991 -177.49767615454311 0 0 0 0 -227.57531307957834 285.26760947814387 0 285.26760947814387 51.72367668786228 0 0 0 0 -172.6924593510048 516.46905887960747 0 516.46905887960747 34.25237989746438 0 0 0 0 89.261473917322292 333.78617612465155 0 333.78617612465155 83.768175129438077 0 0 0 0 118.49028403963894 418.01590381212213 0 418.01590381212213 41.981162899137871 0 0 0 0 -459.9403898762539 239.34650574554053 0 239.34650574554053 182.07718278593336 0 0 0 0 -525.89958006308007 307.8602080760711 0 307.8602080760711 118.89307347013801 0 0 0 0 -1024.9348105344397 239.35743214638842 0 239.35743214638842 128.93553012802749 0 0 0 0 -1439.1936088350485 53.849807765602236 0 53.849807765602236 -216.9467091687784 0 0 0 0 -349.33943375309173 470.80771541205127 0 470.80771541205127 -195.90057353552947 0 0 0 0 -824.75084744038759 288.6223239449364 0 288.6223239449364 -64.456732053590258 0 0 0 0 -175.11386239669628 177.62097085406214 0 177.62097085406214 -558.68343242010087 0 0 0 0 -1068.9963004359888 -209.30987631981316 0 -209.30987631981316 -697.60106646851091 0 0 0 0 -951.21927295357455 550.00880585266032 0 550.00880585266032 -604.45422921908903 0 0 0 0 -1852.7337764314143 -695.08998089487068 0 -695.08998089487068 -1766.5565763184386 0 0 0 0 -1814.2171997700352 614.28180055895518 0 614.28180055895518 -1053.654645803374 0 0 0 0 -2559.6085487779637 -327.82189299495167 0 -327.82189299495167 -55.358883180757402 0 0 0 0 -1313.4101205031475 -1074.3441249617963 0 -1074.3441249617963 -605.61340851362002 0 0 0 0 -1091.8792945333698 -370.92030105328968 0 -370.92030105328968 -65.419448278676896 0 0 0 0 -1199.2172764205097 -658.45621028799087 0 -658.45621028799087 -115.60807177668539 0 0 0 0 -1087.9317371293146 349.86379945367162 0 349.86379945367162 -64.195320247923519 0 0 0 0 -792.97872744733468 -90.032564538907991 0 -90.032564538907991 178.06946992166297 0 0 0 0 -1441.7059801294599 -208.64606579881774 0 -208.64606579881774 156.38215837294047 0 0 0 0 -952.37426143381163 -240.96638228293682 0 -240.96638228293682 221.87774023714883 0 0 0 0 -741.31524639326381 -451.08118825487895 0 -451.08118825487895 13.627204324240665 0 0 0 0 -959.0038761090982 33.559791145465397 0 33.559791145465397 253.86823054608294 0 0 0 0 -432.07098082237644 -321.79685449747831 0 -321.79685449747831 -0.8593323504526893 0 0 0 0 -511.19857355524437 -420.81926862288742 0 -420.81926862288742 -49.916402678110899 0 0 0 0 -667.27886536362348 -361.52306437197967 0 -361.52306437197967 108.2885490307587 0 0 0 0 -646.3250850737677 -417.87530593283464 0 -417.87530593283464 -18.899845501667187 0 0 0 0 -647.95519057704951 -472.07783145819394 0 -472.07783145819394 -66.782866532870685 0 0 0 0 -298.87013107502207 -405.85233062326017 0 -405.85233062326017 -290.7501685698553 0 0 0 0 -370.92407485831063 -551.42199337069633 0 -551.42199337069633 -486.42137660641401 0 0 0 0 -412.31055581354303 -378.26178029411585 0 -378.26178029411585 -228.58307300831621 0 0 0 0 -104.27411735558417 -280.75908318987149 0 -280.75908318987149 -442.53863886077579 0 0 0 0 -13.760282598697813 -14.323067088645075 0 -14.323067088645075 3.6317793772423101 0 0 0 0 -16.23661064529955 -12.111519376048214 0 -12.111519376048214 -5.470480225151495 0 0 0 0 -174.3041858291399 -74.29876979613482 0 -74.29876979613482 316.28822597948965 0 0 0 0 -53.54663048236398 147.34397544716376 0 147.34397544716376 -84.701503572916408 0 0 0 0 -2440.7279706858099 580.06698108197634 0 580.06698108197634 -160.46753670094404 0 0 0 0 -8.2607623093437041 -6.9039802271992414 0 -6.9039802271992414 -5.814173049338681 0 0 0 0 -2.2970586098381318 -505.72708591843184 0 -505.72708591843184 -797.72025859455607 0 0 0 0 -381.58531764721556 -512.51468361918251 0 -512.51468361918251 52.152667312717767 0 0 0 0 -3138.2997991213997 -711.59991386544777 0 -711.59991386544777 568.7494973425928 0 0 0 0 -3133.3401069279935 -611.43409130082091 0 -611.43409130082091 -461.56614398279089 0 0 0 0 -2324.7466850333149 -160.20100590111178 0 -160.20100590111178 -322.04592408985263 0 0 0 0 -1829.086715782294 -161.92699034503312 0 -161.92699034503312 -323.33959765674808 0 0 0 0 1.8755361138033209 -4.5490674960519044 0 -4.5490674960519044 -3.1968344405442672 0 0 0 0 -1909.1321223871128 395.82521849678096 0 395.82521849678096 -104.0956080981141 0 0 0 0 -4.6391086841788081 -3.2421097624284414 0 -3.2421097624284414 1.83040367773906 0 0 0 0 -2942.7365143072311 124.58911197926273 0 124.58911197926273 252.25488960582197 0 0 0 0 -68.501562968143844 89.778370433279633 0 89.778370433279633 -130.70131946258743 0 0 0 0 -75.175284128948988 94.465774060902049 0 94.465774060902049 -48.428106477530491 0 0 0 0 -97.226965669222409 33.076486664882395 0 33.076486664882395 3.8392142362120012 0 0 0 0 -13.71715258459858 -7.0962816356050098 0 -7.0962816356050098 -2.3333242025255601 0 0 0 0 -17.989670175648598 4.3771387238217301 0 4.3771387238217301 -0.46025811680415307 0 0 0 0 -604.34017284045694 1059.1276263643206 0 1059.1276263643206 -134.85365680529799 0 0 0 0 -2199.8766722416767 967.64088950341704 0 967.64088950341704 797.54675231262433 0 0 0 0 -111.59557486014091 687.9121840737655 0 687.9121840737655 28.478605615440983 0 0 0 0 58.843697785923723 84.038048786962804 0 84.038048786962804 160.1225244632858 0 0 0 0 -122.91772738976579 91.896325309266786 0 91.896325309266786 775.00397085990539 0 0 0 0 -144.66046486822597 -99.487410910013296 0 -99.487410910013296 -13.126752766275786 0 0 0 0 -732.62500722383265 -499.93622501918571 0 -499.93622501918571 -282.39766800537154 0 0 0 0 -598.5503741283319 30.294104108809051 0 30.294104108809051 68.738101549396106 0 0 0 0 -604.30423180853177 30.596745861826832 0 30.596745861826832 333.02216277697971 0 0 0 0 -584.82351910271973 -180.43829100565199 0 -180.43829100565199 149.54540500619908 0 0 0 0 -582.22626895227586 -218.44986987175616 0 -218.44986987175616 269.6581210660961 0 0 0 0 -575.82882356480695 -306.78219937740482 0 -306.78219937740482 111.5732961530334 0 0 0 0 -525.41267320790212 -286.78766446913198 0 -286.78766446913198 -2.7818244574456514 0 0 0 0 -567.20355083860341 -293.71518863477939 0 -293.71518863477939 130.02121456004227 0 0 0 0 -670.07798754511168 -53.739921296260043 0 -53.739921296260043 320.48842219814702 0 0 0 0 -467.90966647412279 101.35768008736828 0 101.35768008736828 248.93754200696506 0 0 0 0 -665.11270178927225 -254.32335877155529 0 -254.32335877155529 239.38774849165907 0 0 0 0 -572.05003921772004 -174.20249823110265 0 -174.20249823110265 206.91018054977386 0 0 0 0 -487.71037843590602 -129.14669221086842 0 -129.14669221086842 265.35711341579042 0 0 0 0 -296.86721059688716 7.2585046495460332 0 7.2585046495460332 286.81667816135666 0 0 0 0 -148.52440535675851 -70.804076259782505 0 -70.804076259782505 324.59047428415079 0 0 0 0 -517.35435258205689 -93.749756815930823 0 -93.749756815930823 510.83568299534636 0 0 0 0 -111.07223495377247 -12.652525302134009 0 -12.652525302134009 11.10914452160425 0 0 0 0 -71.423630140998284 223.81220179753865 0 223.81220179753865 394.24063780868801 0 0 0 0 -512.90252584005066 -125.30091957198761 0 -125.30091957198761 363.77086619773308 0 0 0 0 -104.60767733971988 -6.354625424253399 0 -6.354625424253399 16.685220653542874 0 0 0 0 -214.29858509144105 235.76821563997987 0 235.76821563997987 612.58997418568606 0 0 0 0 -125.48240528139286 17.050948359814356 0 17.050948359814356 -187.99746234628765 0 0 0 0 304.6487564498093 142.14998695947816 0 142.14998695947816 -911.53645985239928 0 0 0 0 -22.756529765476273 -7.1365082128343147 0 -7.1365082128343147 4.5312591395445221 0 0 0 0 -0.97843203163938597 125.23353569032543 0 125.23353569032543 435.65276897139097 0 0 0 0 -210.51214173538028 191.94103820991683 0 191.94103820991683 302.86610381701848 0 0 0 0 -382.41165519953938 77.623183176638364 0 77.623183176638364 399.50573411465376 0 0 0 0 26.020710020762635 304.11997154323672 0 304.11997154323672 233.94717722557849 0 0 0 0 -237.64098310883855 211.42629462880527 0 211.42629462880527 405.98842923097618 0 0 0 0 -262.14290469980915 338.01594017204155 0 338.01594017204155 187.12825054602263 0 0 0 0 -201.61015532104648 274.2642486374242 0 274.2642486374242 238.73408553914726 0 0 0 0 -507.22193782511749 129.1321017253793 0 129.1321017253793 316.47737400087419 0 0 0 0 304.37492987899168 330.88396121365622 0 330.88396121365622 62.708272361306342 0 0 0 0 -29.085069611726794 366.631227400044 0 366.631227400044 292.96607816654557 0 0 0 0 117.06299749654136 275.45932949483614 0 275.45932949483614 246.17923603123003 0 0 0 0 -55.306906604761025 432.19353832670834 0 432.19353832670834 115.03070224781283 0 0 0 0 54.304946594784269 88.523990720394067 0 88.523990720394067 7.3591443549894393 0 0 0 0 -16.995169303612784 -161.0112716041258 0 -161.0112716041258 -317.23427725511192 0 0 0 0 -8.448742367415548 10.704860257133319 0 10.704860257133319 2.9093479778837033 0 0 0 0 137.43467516086457 347.66662646797261 0 347.66662646797261 288.79363729504712 0 0 0 0 -61.279840944603905 17.61018269382042 0 17.61018269382042 -3.6491024091211361 0 0 0 0 -225.4947477504611 182.01741335287443 0 182.01741335287443 279.9622702962879 0 0 0 0 -76.840274454043367 15.164472798310385 0 15.164472798310385 20.623158586102353 0 0 0 0 -12.286356457247166 315.01806141945917 0 315.01806141945917 -26.976529650034081 0 0 0 0 -28.124029102851637 307.06046165182488 0 307.06046165182488 517.75798456704069 0 0 0 0 -96.231767895806115 240.61848306194088 0 240.61848306194088 572.46898705981857 0 0 0 0 -88.567674585501663 250.98222086960914 0 250.98222086960914 640.57729199008281 0 0 0 0 -84.510704327956773 179.82251149502031 0 179.82251149502031 491.53058459905424 0 0 0 0 -97.124442685017129 115.2137500236588 0 115.2137500236588 365.88042268084973 0 0 0 0 -124.21175197983393 82.504002013017725 0 82.504002013017725 536.86136097543181 0 0 0 0 -47.702432835591026 23.839569045145026 0 23.839569045145026 371.30358027574061 0 0 0 0 -69.314268340938725 150.74541668307916 0 150.74541668307916 539.17002611498583 0 0 0 0 -96.124281646756572 148.76823938844859 0 148.76823938844859 542.91403266204998 0 0 0 0 33.936919286119519 61.280128359081914 0 61.280128359081914 632.03815376966304 0 0 0 0 -44.543920354393777 119.93928362787074 0 119.93928362787074 669.61388318299169 0 0 0 0 -103.41761931439396 171.38413044770436 0 171.38413044770436 630.50234885993177 0 0 0 0 8.9657369735650718 105.38817120701333 0 105.38817120701333 560.14223541939009 0 0 0 0 -227.66884730411402 -18.172255049597538 0 -18.172255049597538 112.56956800684566 0 0 0 0 -111.07411976461299 390.2502552603994 0 390.2502552603994 818.71024454322207 0 0 0 0 -0.53516015445347875 -476.48899874771632 0 -476.48899874771632 -280.34904410102604 0 0 0 0 -46.014075483309455 13.399261359295423 0 13.399261359295423 -1.9560256754405037 0 0 0 0 244.00815673160832 313.58392979752171 0 313.58392979752171 491.8959605104701 0 0 0 0 79.091783855750691 280.18985443248062 0 280.18985443248062 529.69421110620613 0 0 0 0 247.85066803084919 139.64557610156749 0 139.64557610156749 490.36246321396857 0 0 0 0 -156.32797541264154 55.09758424191142 0 55.09758424191142 404.77207333511433 0 0 0 0 -45.039752242591931 146.62069543912605 0 146.62069543912605 158.23316911683946 0 0 0 0 -170.65517172252294 -18.583601518013666 0 -18.583601518013666 249.62359590025153 0 0 0 0 -26.3975796061859 47.110220575311814 0 47.110220575311814 76.021145764718767 0 0 0 0 -139.12970740749734 -112.90705557239903 0 -112.90705557239903 58.07892909973782 0 0 0 0 -149.65041948127327 -11.760386162060172 0 -11.760386162060172 342.46543386206849 0 0 0 0 -78.170351949578617 94.618234215800271 0 94.618234215800271 292.6647435155237 0 0 0 0 -158.34875749889761 25.562435412315153 0 25.562435412315153 9.0641062007019855 0 0 0 0 -142.06724103639135 42.965631079018067 0 42.965631079018067 205.51903972935702 0 0 0 0 -185.55892946428503 -25.345364277164322 0 -25.345364277164322 268.70524885300301 0 0 0 0 -138.74841955250304 -44.773540137254486 0 -44.773540137254486 -45.054947068612819 0 0 0 0 -240.5583625031868 -103.73846188261376 0 -103.73846188261376 73.710098666569536 0 0 0 0 -172.75445600651437 -155.01795801571097 0 -155.01795801571097 -195.92484980874815 0 0 0 0 -233.00221158305067 39.367242889929003 0 39.367242889929003 -1.8206560589753735 0 0 0 0 -155.05461938609881 -160.09752165639915 0 -160.09752165639915 304.28401755393861 0 0 0 0 -387.16246506286552 -114.99769482240157 0 -114.99769482240157 297.52285748301892 0 0 0 0 -157.39609013267909 44.163506993656028 0 44.163506993656028 352.32907096848794 0 0 0 0 -138.0047449467238 26.380307113549861 0 26.380307113549861 297.0377964636491 0 0 0 0 -129.80891263255035 90.394115612154508 0 90.394115612154508 363.2725983847622 0 0 0 0 -171.77926918672165 -25.134103283312015 0 -25.134103283312015 278.81818337927757 0 0 0 0 -239.06515526850126 -11.24250927560422 0 -11.24250927560422 282.82162376729138 0 0 0 0 -198.05963804596104 27.112475429171013 0 27.112475429171013 344.70141885216708 0 0 0 0 -106.43904666224262 69.930383767105923 0 69.930383767105923 248.97756922487702 0 0 0 0 -130.09839367191307 51.244506371109992 0 51.244506371109992 390.24239581713391 0 0 0 0 -49.012130888993852 182.83952420637888 0 182.83952420637888 424.00908511682337 0 0 0 0 -113.07541534939082 73.304711185894575 0 73.304711185894575 380.69339751988082 0 0 0 0 -60.905478891101666 189.45711421151191 0 189.45711421151191 420.90331914821581 0 0 0 0 30.84248900267994 28.715523383250002 0 28.715523383250002 -194.21627340315536 0 0 0 0 -261.77510664152214 -629.38489910093267 0 -629.38489910093267 396.36880481449657 0 0 0 0 39.380002430814784 282.46921503937665 0 282.46921503937665 463.1272666148584 0 0 0 0 -3.0558171909423777 -0.5238984257456849 0 -0.5238984257456849 0.22417828693361308 0 0 0 0 377.56459692896897 361.04583136520773 0 361.04583136520773 -403.13506835495718 0 0 0 0 62.164096741005778 155.76042402263465 0 155.76042402263465 358.22249748933314 0 0 0 0 -78.95423738801037 65.686021841189358 0 65.686021841189358 317.69226005792643 0 0 0 0 -56.592224035892286 176.38096678328134 0 176.38096678328134 -32.679558059769988 0 0 0 0 -69.25085985037731 175.6456642258845 0 175.6456642258845 114.74321657903965 0 0 0 0 9.4483120684890309 -29.925879749311662 0 -29.925879749311662 -23.612042430400834 0 0 0 0 -65.71367350524315 36.434706926398079 0 36.434706926398079 17.395619420483293 0 0 0 0 -154.3591466503276 70.076853707568262 0 70.076853707568262 -51.702458226034651 0 0 0 0 -270.80350396170979 -351.82219642311657 0 -351.82219642311657 204.93830548901678 0 0 0 0 1.3261537487490216 40.367095566259025 0 40.367095566259025 8.8999952272148093 0 0 0 0 -151.80773315276338 319.49684808087545 0 319.49684808087545 -161.88277906101212 0 0 0 0 3.8567799386442516 4.4152178350951914 0 4.4152178350951914 -3.6652403013348671 0 0 0 0 -90.532948635227513 -1.2359892501972354 0 -1.2359892501972354 294.08308036199878 0 0 0 0 -623.58588136848994 248.32060528705915 0 248.32060528705915 75.13528894168121 0 0 0 0 -57.122488506560444 24.395536884686194 0 24.395536884686194 -1.0608707821159644 0 0 0 0 77.429522490027011 -127.27769193165489 0 -127.27769193165489 281.98409819017479 0 0 0 0 -526.02558924083132 150.28560570933701 0 150.28560570933701 -76.748463323486249 0 0 0 0 -563.62515788050951 260.77689952449919 0 260.77689952449919 -26.119220556089431 0 0 0 0 -2.4861697009915815 6.5683395865296177 0 6.5683395865296177 0.6272030908505144 0 0 0 0 -589.785208398127 192.47291964598116 0 192.47291964598116 -24.268474320006135 0 0 0 0 -561.50045732702711 189.96246941505706 0 189.96246941505706 -66.003269211892984 0 0 0 0 -457.17117716016946 119.40225674637441 0 119.40225674637441 -20.26280147657053 0 0 0 0 -478.05855094926665 158.95712187666686 0 158.95712187666686 2.0401336321447161 0 0 0 0 -455.01068333594594 109.2541582130616 0 109.2541582130616 24.171380497587961 0 0 0 0 -475.98913993797032 148.98145264971754 0 148.98145264971754 47.931117775344319 0 0 0 0 -594.20774273079587 126.36261346883566 0 126.36261346883566 34.106027703672225 0 0 0 0 -770.40464806593081 79.519622584976787 0 79.519622584976787 31.862620840769523 0 0 0 0 -882.44134543823384 -58.947638597896685 0 -58.947638597896685 -123.46795317488613 0 0 0 0 -552.40180545766634 168.38364423033499 0 168.38364423033499 -72.276267579974956 0 0 0 0 -810.48649873494287 184.71829292259599 0 184.71829292259599 -28.783791187048791 0 0 0 0 -1089.1786883781715 -325.34135948964871 0 -325.34135948964871 -347.76359623809867 0 0 0 0 -1023.8398805583129 -58.624896590977073 0 -58.624896590977073 311.99685439791779 0 0 0 0 -363.76964716336806 13.012066919397867 0 13.012066919397867 -169.8416778845272 0 0 0 0 -626.10986491695803 -558.39429905928318 0 -558.39429905928318 -369.1292138483692 0 0 0 0 -1122.4911676838674 -363.77117260979253 0 -363.77117260979253 -215.72257476387247 0 0 0 0 -1387.802115328639 -777.17205330246713 0 -777.17205330246713 -423.07606869321364 0 0 0 0 -918.05954212743382 -181.80445476289199 0 -181.80445476289199 -201.10460466831461 0 0 0 0 -574.31882661371492 -393.7890245667262 0 -393.7890245667262 -306.44913535428651 0 0 0 0 -1715.8324560974143 -490.02110309902895 0 -490.02110309902895 -234.42908761114901 0 0 0 0 -839.75796412565978 31.581353775862766 0 31.581353775862766 -247.03602558077193 0 0 0 0 -1659.5807279882301 -795.96599899498813 0 -795.96599899498813 -362.88545479477807 0 0 0 0 -1950.9038895702543 -562.90745860123411 0 -562.90745860123411 -598.71133462851378 0 0 0 0 -3173.5458638637501 -511.95181835336729 0 -511.95181835336729 -2.0391344011409438 0 0 0 0 -1618.6399582510057 -1087.6083404315521 0 -1087.6083404315521 -428.444371279069 0 0 0 0 -5.6184100140542341 -0.183248586445103 0 -0.183248586445103 0.083887236541836496 0 0 0 0 -72.316431322717108 101.11366989002889 0 101.11366989002889 -251.5546786087765 0 0 0 0 -358.54049745565862 -389.6695436447319 0 -389.6695436447319 -258.88494847556473 0 0 0 0 -278.88399768105592 -198.18689936627419 0 -198.18689936627419 -157.53235425473019 0 0 0 0 -280.05717036948045 -341.63359812040153 0 -341.63359812040153 -357.75010397817232 0 0 0 0 -9.068761295685988 0.41465168028476285 0 0.41465168028476285 0.57744717896402753 0 0 0 0 -501.41143874582485 -9.5849925626538521 0 -9.5849925626538521 -0.42580383388984522 0 0 0 0 -215.25542113589472 -160.91526030875542 0 -160.91526030875542 -72.186771812732829 0 0 0 0 -4.4672518146685434 -0.57362953165950614 0 -0.57362953165950614 0.17845906960133667 0 0 0 0 -4.2013620707512018 40.20575812077147 0 40.20575812077147 0.052359306084818945 0 0 0 0 -236.87263608859212 -327.47456606944115 0 -327.47456606944115 -400.09230460831782 0 0 0 0 -278.18534215376712 -331.15974066552178 0 -331.15974066552178 -321.11117034730285 0 0 0 0 -508.99685703511932 -425.03050779366828 0 -425.03050779366828 -335.29042637967541 0 0 0 0 -303.27715355227701 -291.36642208329283 0 -291.36642208329283 -290.52178917939659 0 0 0 0 -393.28868778701872 -341.82419600337755 0 -341.82419600337755 -313.58393709240352 0 0 0 0 -274.7620500598423 -374.43918599815447 0 -374.43918599815447 -426.4821604936227 0 0 0 0 -242.19304945034673 -325.95004350132405 0 -325.95004350132405 -355.30399407401535 0 0 0 0 -298.99789869911911 -133.95104683616336 0 -133.95104683616336 -439.43038984564134 0 0 0 0 -293.18457567416772 -202.84474769626354 0 -202.84474769626354 -139.95084243123927 0 0 0 0 -178.90993307942699 -188.54712647843996 0 -188.54712647843996 -318.98798174510438 0 0 0 0 -280.41407137928763 -191.00603574118111 0 -191.00603574118111 -92.748329341774863 0 0 0 0 -185.60416995540436 -41.683085819349998 0 -41.683085819349998 -157.05374165484665 0 0 0 0 -266.49671807131381 -47.830091109589546 0 -47.830091109589546 52.383782693997318 0 0 0 0 -268.77251450714539 68.287995727846464 0 68.287995727846464 136.78526400089063 0 0 0 0 -148.64117023834842 15.341581237707288 0 15.341581237707288 -173.03953326964574 0 0 0 0 -352.8243360700726 100.01084629182657 0 100.01084629182657 -197.71503707810012 0 0 0 0 -454.78840291278902 46.787770708148514 0 46.787770708148514 -212.19006954376289 0 0 0 0 -390.83690811769338 -146.7919372361977 0 -146.7919372361977 -210.0477850533025 0 0 0 0 -346.32195930011221 -144.79823203962451 0 -144.79823203962451 -257.22322157731821 0 0 0 0 -558.55669883755036 -88.786574053141464 0 -88.786574053141464 -225.81696902586151 0 0 0 0 -634.44629557387088 -147.48986053363029 0 -147.48986053363029 -257.24277511027418 0 0 0 0 -1222.6358576888379 -118.6033456594449 0 -118.6033456594449 -178.51646846359571 0 0 0 0 -725.64547617692733 -679.75968258851697 0 -679.75968258851697 -644.66116561998501 0 0 0 0 -898.02864638325991 141.25891245364656 0 141.25891245364656 -2.4677234846548624 0 0 0 0 -814.07048002412193 111.49190215987551 0 111.49190215987551 -222.5859076865645 0 0 0 0 -775.23924966785125 302.29927067133315 0 302.29927067133315 -230.89310359935007 0 0 0 0 -679.70367896171228 269.54861548883355 0 269.54861548883355 -222.36828147378651 0 0 0 0 -213.40142272427329 -84.930661659930976 0 -84.930661659930976 -66.853550228319094 0 0 0 0 -1003.9091794135456 284.32414164016819 0 284.32414164016819 -189.84145022820661 0 0 0 0 -1.8229915682990168 -0.13840307960157361 0 -0.13840307960157361 1.2145554141898782 0 0 0 0 -115.93347843330412 179.38705657491556 0 179.38705657491556 -40.13311910052721 0 0 0 0 -46.382019875745755 10.381723554970181 0 10.381723554970181 -4.7010146322385165 0 0 0 0 -22.731371131521882 1.4515218530338281 0 1.4515218530338281 -17.943644600876564 0 0 0 0 -0.8793391155393806 -0.42640270021618676 0 -0.42640270021618676 -0.17586432710403804 0 0 0 0 -214.3385456551332 1.4261757932818193 0 1.4261757932818193 0.11467174596341755 0 0 0 0 -23.155749225552427 31.610344257377793 0 31.610344257377793 -26.889122271016106 0 0 0 0 -85.908313810301479 -22.618155144178104 0 -22.618155144178104 -53.031568625577179 0 0 0 0 -580.72206476973952 421.40069762718684 0 421.40069762718684 -338.79715754866515 0 0 0 0 -3.9258938437633901 -1.4188245981937371 0 -1.4188245981937371 4.8657088874874326 0 0 0 0 -100.63943141476193 86.685241617734789 0 86.685241617734789 -26.428010700278151 0 0 0 0 -922.954237932674 516.83243441607601 0 516.83243441607601 -201.84084551722208 0 0 0 0 -490.89753628867948 334.31363689472948 0 334.31363689472948 -286.7459433850388 0 0 0 0 -614.90695921229781 271.14840437262546 0 271.14840437262546 -119.06631644769891 0 0 0 0 -127.79931640778523 379.61108361536503 0 379.61108361536503 -196.19079569351356 0 0 0 0 -3.9209339683938822 -3.0453212073803115 0 -3.0453212073803115 6.2669564445967154 0 0 0 0 -1045.4541013303387 437.51333569317967 0 437.51333569317967 621.88199312655479 0 0 0 0 -1043.7751332000371 465.86159567006814 0 465.86159567006814 91.905756474491 0 0 0 0 -146.64357266979641 -16.463469274955969 0 -16.463469274955969 105.41525844761145 0 0 0 0 -165.1941634905379 -84.130140029467839 0 -84.130140029467839 38.466038832574668 0 0 0 0 -36.315810021601806 7.3663565920200256 0 7.3663565920200256 37.820154601329342 0 0 0 0 -451.05239785686717 -435.27258513298784 0 -435.27258513298784 -355.65594486219788 0 0 0 0 -99.809899867803324 9.5892618576972382 0 9.5892618576972382 85.218018103370468 0 0 0 0 -105.01535174665332 0.59267840438405983 0 0.59267840438405983 70.030363662559466 0 0 0 0 -127.66746076423442 61.908471419058515 0 61.908471419058515 190.34408573293877 0 0 0 0 -126.23300797087722 36.250249094582614 0 36.250249094582614 346.18112109847198 0 0 0 0 -44.634998694527894 167.54486187177645 0 167.54486187177645 298.58564121538302 0 0 0 0 -95.587936488038395 -30.77847477611158 0 -30.77847477611158 106.71951503283162 0 0 0 0 -79.401752966572531 -105.64709887769897 0 -105.64709887769897 189.63162728693169 0 0 0 0 -109.38267470910796 -58.210178831594021 0 -58.210178831594021 160.1872350861986 0 0 0 0 -66.482902352021483 -86.516453225987107 0 -86.516453225987107 -40.301208740262155 0 0 0 0 -51.482223118277034 -18.972184268104229 0 -18.972184268104229 -51.968769576305931 0 0 0 0 -147.76374437508639 -76.270935467158779 0 -76.270935467158779 -41.592535470781513 0 0 0 0 -57.297822441250901 44.840022289128683 0 44.840022289128683 -231.24676725382051 0 0 0 0 -86.953475138405338 -251.57552660331203 0 -251.57552660331203 -183.16882183548114 0 0 0 0 -1.1548377461910491 -2.2831077185671518 0 -2.2831077185671518 -5.3607305237142242 0 0 0 0 -35.931685566294306 -2.8453156443162015 0 -2.8453156443162015 -9.9766125499752647 0 0 0 0 -126.93008480977005 -24.411683998809167 0 -24.411683998809167 -49.938375620367879 0 0 0 0 -60.781653725867983 22.315393515500176 0 22.315393515500176 13.701770062142806 0 0 0 0 -1377.5989979205915 -652.3555984656698 0 -652.3555984656698 20.599750471152674 0 0 0 0 -46.145397744032266 18.166800531205524 0 18.166800531205524 26.716804186101264 0 0 0 0 -627.78717375927954 -352.71184732115967 0 -352.71184732115967 -88.259245829108295 0 0 0 0 -1202.6888398917363 -745.47736135439482 0 -745.47736135439482 -304.82934931084174 0 0 0 0 -1159.3564549121002 -806.28669776940569 0 -806.28669776940569 -393.10813153968411 0 0 0 0 -1452.3658669151773 -984.01152541610509 0 -984.01152541610509 -165.36982049014296 0 0 0 0 -1275.423896080727 -1148.1117562326885 0 -1148.1117562326885 -166.4225777564522 0 0 0 0 -935.28724756742304 -804.36088478787406 0 -804.36088478787406 -129.28588762800791 0 0 0 0 -1579.5633708707173 -1011.1315058486939 0 -1011.1315058486939 -195.64477054501492 0 0 0 0 -1087.4493136921956 -943.21396346767472 0 -943.21396346767472 -185.27270547387809 0 0 0 0 -1382.2097813947394 -1151.3107344289981 0 -1151.3107344289981 -329.27331904268067 0 0 0 0 -698.2896995942574 106.19830415386514 0 106.19830415386514 -110.05159892964912 0 0 0 0 -868.32235153355577 105.82806139152217 0 105.82806139152217 95.549258101857959 0 0 0 0 -1113.5271892457386 -629.2777364622998 0 -629.2777364622998 -166.03171395195932 0 0 0 0 -706.66668988508172 -325.33148955286265 0 -325.33148955286265 -135.94679087818531 0 0 0 0 -1633.4346710793616 -326.644815229801 0 -326.644815229801 -67.44562765433318 0 0 0 0 -1173.4955540439587 -298.68439284367071 0 -298.68439284367071 -457.05045895473268 0 0 0 0 -1257.6925721302396 11.581627251018745 0 11.581627251018745 -0.360664462733439 0 0 0 0 -1748.3087441655807 -554.24326569542598 0 -554.24326569542598 -326.98248405659888 0 0 0 0 -2117.8213002654084 -1685.0514034878552 0 -1685.0514034878552 -1475.6469843756761 0 0 0 0 -2048.4140910395072 54.184603298608181 0 54.184603298608181 -1499.7768461408616 0 0 0 0 -1375.8313655621896 -913.99149936075491 0 -913.99149936075491 -959.49508757809951 0 0 0 0 -1404.8164755734906 -116.11669081418255 0 -116.11669081418255 -465.26788385227769 0 0 0 0 -727.08865953615168 -1026.2637999608185 0 -1026.2637999608185 -900.23863455016431 0 0 0 0 -2821.2423881901777 -1392.0058738956759 0 -1392.0058738956759 -369.0452147381161 0 0 0 0 -1369.8695940162434 -1016.678588091339 0 -1016.678588091339 -304.64079965753456 0 0 0 0 -560.30849415890407 -1143.499690810434 0 -1143.499690810434 -1949.1215693655233 0 0 0 0 -21.393127864555481 -9.9930746303764977 0 -9.9930746303764977 0.52033880452972348 0 0 0 0 -37.082690899935528 -7.6273848068352095 0 -7.6273848068352095 53.017551865678264 0 0 0 0 -282.54735097737284 -200.02279716291105 0 -200.02279716291105 -418.34739438541396 0 0 0 0 -69.663429888503742 24.57137576383812 0 24.57137576383812 19.363970800653732 0 0 0 0 -51.932204233391019 5.0607580786787594 0 5.0607580786787594 31.092660489848551 0 0 0 0 -1177.7051441347867 468.55726369124716 0 468.55726369124716 -93.904077698243611 0 0 0 0 -2519.2300154222467 140.75021258809335 0 140.75021258809335 72.470334752360372 0 0 0 0 -33.614951083590881 12.328613190247296 0 12.328613190247296 6.0849184570689987 0 0 0 0 -48.641656663239701 3.3327462644997858 0 3.3327462644997858 7.0676366462897757 0 0 0 0 -70.104604442283744 21.627686170187076 0 21.627686170187076 7.3363278160494048 0 0 0 0 -2047.4041334435751 -1129.0469070232616 0 -1129.0469070232616 -353.50718576679259 0 0 0 0 -1736.6228948634962 -995.62814188574316 0 -995.62814188574316 -314.4346141425811 0 0 0 0 -1299.101454077967 -861.13465384795518 0 -861.13465384795518 -233.65457974090907 0 0 0 0 -3118.8922226028371 -1187.1124975509224 0 -1187.1124975509224 -89.250823054958687 0 0 0 0 -2066.0090367478551 -993.86900988880404 0 -993.86900988880404 -235.90070849570074 0 0 0 0 -2015.3129856959858 -1208.9396370248503 0 -1208.9396370248503 -206.3991241729268 0 0 0 0 -1775.365369448089 -692.16658704524878 0 -692.16658704524878 -233.82927918751727 0 0 0 0 -2181.3659365617495 -1302.3701533333658 0 -1302.3701533333658 -889.79781143871742 0 0 0 0 -2614.8725442633731 -613.36516333265376 0 -613.36516333265376 -327.51719710468899 0 0 0 0 -20.043251002718534 9.2836235841610346 0 9.2836235841610346 3.7417110408062304 0 0 0 0 -9.805553930462338 13.639352869592827 0 13.639352869592827 0.00094100993925661479 0 0 0 0 -3490.9145346985024 -1942.5106344587384 0 -1942.5106344587384 -733.76998671497734 0 0 0 0 -10.792933276473946 1.5541230337231866 0 1.5541230337231866 2.2656386869668363 0 0 0 0 -53.07610792669584 16.347296355264142 0 16.347296355264142 -24.648055974087413 0 0 0 0 -90.015466912591364 4.9171433030880642 0 4.9171433030880642 5.3509771982757641 0 0 0 0 -28.411397809933987 18.114317390039652 0 18.114317390039652 2.5089839062556685 0 0 0 0 -28.248153131775325 0.88678455140213475 0 0.88678455140213475 1.7454172004012694 0 0 0 0 -49.000271727723884 14.913522870212969 0 14.913522870212969 0.0041788023418982169 0 0 0 0 -57.538002408866305 11.892280879385305 0 11.892280879385305 6.8030772833239084 0 0 0 0 -62.686083973610948 19.094437827809074 0 19.094437827809074 0.030677758250304485 0 0 0 0 -35.766672565980116 27.402602747334385 0 27.402602747334385 -1.1533474692423056 0 0 0 0 -35.028183824717416 8.4601220358358891 0 8.4601220358358891 20.549017339600304 0 0 0 0 -27.695434598746942 38.210071868555168 0 38.210071868555168 1.8415804100845818 0 0 0 0 -84.68580318702152 39.270851137871873 0 39.270851137871873 5.3355966944890625 0 0 0 0 -74.170712227380136 37.800306584076928 0 37.800306584076928 0.39555760222640401 0 0 0 0 -29.530420139606576 26.167570947576948 0 26.167570947576948 -26.902247659898151 0 0 0 0 -93.333939181466121 -27.306526659836308 0 -27.306526659836308 26.91861980599559 0 0 0 0 -49.907059449997973 6.0857254855031613 0 6.0857254855031613 15.311972231854925 0 0 0 0 -9.7394018672219431 -3.7237256454986323 0 -3.7237256454986323 7.0975928415059331 0 0 0 0 -37.060256697324803 48.129681557695555 0 48.129681557695555 -28.298192946157844 0 0 0 0 -49.499259905413282 35.138870529858252 0 35.138870529858252 -18.178151042511928 0 0 0 0 -5.9811950546119874 5.4741269151530503 0 5.4741269151530503 -3.0913755731481456 0 0 0 0 -41.192527907813201 61.800538297377187 0 61.800538297377187 -28.533705781514143 0 0 0 0 -95.6236148106982 87.140044919225147 0 87.140044919225147 -19.358191656669078 0 0 0 0 -73.237494217028143 43.886607153363457 0 43.886607153363457 63.775219684408512 0 0 0 0 -132.17629589856369 38.357647785488552 0 38.357647785488552 67.350499198280886 0 0 0 0 -6.956749141394539 17.582541205768045 0 17.582541205768045 -7.7704190637482355 0 0 0 0 -54.471294956892962 -8.734039922384909 0 -8.734039922384909 70.509409458323717 0 0 0 0 -85.807340650200786 19.696421427380301 0 19.696421427380301 45.795889683922724 0 0 0 0 29.9588033060827 122.70979515446476 0 122.70979515446476 -58.643193248740545 0 0 0 0 2.4429396383154653 12.29091609389895 0 12.29091609389895 -6.567417575185666 0 0 0 0 -55.500994094140594 33.557340595580911 0 33.557340595580911 -18.610764848981468 0 0 0 0 -30.793232618889306 33.859727237317202 0 33.859727237317202 145.27060645551319 0 0 0 0 -25.298142143787118 27.548263078561973 0 27.548263078561973 -9.1785066039140304 0 0 0 0 -58.343589342577616 48.544855873895102 0 48.544855873895102 -6.3300570976062609 0 0 0 0 14.744507475988939 38.861605235065667 0 38.861605235065667 -17.182047667458008 0 0 0 0 -47.603086352930404 25.73252424622433 0 25.73252424622433 16.43665589728846 0 0 0 0 -45.413315330712066 70.839557667096102 0 70.839557667096102 29.393125815609693 0 0 0 0 -25.67571990104625 74.329697967482161 0 74.329697967482161 -97.042525573000972 0 0 0 0 0.6363324767839913 -0.48204032160231236 0 -0.48204032160231236 -0.077711449146930622 0 0 0 0 -21.371030400609015 17.53474271302116 0 17.53474271302116 63.599346125098243 0 0 0 0 -3.6061890017590486 58.229515319048552 0 58.229515319048552 0.024546174956942175 0 0 0 0 -0.26253153215657221 67.866263181666923 0 67.866263181666923 20.072517843521439 0 0 0 0 11.830294124782085 68.776751888658225 0 68.776751888658225 0.015993788193403288 0 0 0 0 10.127936456621683 84.272944241820255 0 84.272944241820255 66.723168382416702 0 0 0 0 12.315674880839651 79.79376412628298 0 79.79376412628298 16.243771206731367 0 0 0 0 16.822920161823276 39.039112893072129 0 39.039112893072129 61.805374389741949 0 0 0 0 -2.0931313878390938 55.602494418516031 0 55.602494418516031 51.669277197453653 0 0 0 0 -0.98362684660241939 54.174602335977895 0 54.174602335977895 13.425594331946222 0 0 0 0 10.751940628964803 53.025976890218736 0 53.025976890218736 43.81675509465569 0 0 0 0 -166.07376778396429 38.932862656395059 0 38.932862656395059 84.844408843202785 0 0 0 0 5.7639793451235164 110.04599863026208 0 110.04599863026208 0.040364339874830443 0 0 0 0 49.845987665321445 53.070849000134899 0 53.070849000134899 85.708936913015236 0 0 0 0 -257.16737128297245 -141.84283024654189 0 -141.84283024654189 402.42280834082749 0 0 0 0 -558.36180977064214 441.71812371346897 0 441.71812371346897 -342.3502995140575 0 0 0 0 -30.614761875789554 57.704589560974682 0 57.704589560974682 245.46185042599953 0 0 0 0 -2.7855882762742112 2.2026618655814403 0 2.2026618655814403 0.92445206942288805 0 0 0 0 -93.964658414959558 -18.250508113335286 0 -18.250508113335286 -103.40293912564152 0 0 0 0 -96.493089853480342 -14.882554070037258 0 -14.882554070037258 -121.67381936243191 0 0 0 0 -9.5070164757635212 -0.69994695008028884 0 -0.69994695008028884 -245.52616519084495 0 0 0 0 -248.04887309539481 190.85081499180501 0 190.85081499180501 -260.55714167343604 0 0 0 0 1.866153276295563 2.1316352158065044 0 2.1316352158065044 2.0594590461296614 0 0 0 0 -5.0004893110963167 21.735080663450688 0 21.735080663450688 87.871247765318344 0 0 0 0 55.005413637176389 -3.0978588338452937 0 -3.0978588338452937 -189.89574502677351 0 0 0 0 59.675219849610585 64.082774940146692 0 64.082774940146692 -156.39587525029458 0 0 0 0 6.1276405654407426 2.1585648547223286 0 2.1585648547223286 -44.073852171251474 0 0 0 0 118.66704384106561 218.09492554838312 0 218.09492554838312 29.985611887181676 0 0 0 0 -782.54910440189997 193.19979475752189 0 193.19979475752189 597.107111403614 0 0 0 0 4.6117660773106763 575.96042119161211 0 575.96042119161211 599.69602194669096 0 0 0 0 -51.69946182495346 33.380597514851772 0 33.380597514851772 -19.447294317330936 0 0 0 0 48.936098610069166 10.339049240036843 0 10.339049240036843 97.488475600853235 0 0 0 0 -37.679542514000786 181.98767104321951 0 181.98767104321951 -199.34158815452713 0 0 0 0 -608.7375456696609 21.848141990764816 0 21.848141990764816 -177.73635488977015 0 0 0 0 -643.43366085378511 257.99228987670494 0 257.99228987670494 -148.37010279472224 0 0 0 0 -331.72757971081592 -17.791585564921661 0 -17.791585564921661 -11.283532558695697 0 0 0 0 14.450421445159009 208.43197178282071 0 208.43197178282071 -78.860054559736795 0 0 0 0 -91.080689815978985 384.56782039563632 0 384.56782039563632 210.45311699789625 0 0 0 0 -39.562785435863532 27.296778925347979 0 27.296778925347979 -16.615688691679541 0 0 0 0 -1412.6465123082162 52.092111640468829 0 52.092111640468829 280.72419121966095 0 0 0 0 -764.05516945272393 -61.506605303424976 0 -61.506605303424976 274.42907549062784 0 0 0 0 -15.302102218877849 10.915645812210101 0 10.915645812210101 -7.4108944555553649 0 0 0 0 242.53826837254019 752.35083323478761 0 752.35083323478761 -658.29234853072194 0 0 0 0 -364.22668107791105 1417.0333525195692 0 1417.0333525195692 -603.3936834348857 0 0 0 0 2.4052453856784268 -0.82845613259360107 0 -0.82845613259360107 367.23219341118966 0 0 0 0 447.31010778848577 346.70328194956573 0 346.70328194956573 -220.24399205026748 0 0 0 0 -177.46612417986034 -232.77384844385779 0 -232.77384844385779 0.39455016604915727 0 0 0 0 -82.388271806106786 162.85529785996869 0 162.85529785996869 110.3498342139319 0 0 0 0 -832.5110590889235 128.37700638812839 0 128.37700638812839 44.651006528294374 0 0 0 0 -395.94746032483818 -153.96665410311107 0 -153.96665410311107 69.924942571866268 0 0 0 0 -313.01144798999303 -45.538400290290156 0 -45.538400290290156 61.382490888165876 0 0 0 0 -569.80593741780467 -254.50942336955131 0 -254.50942336955131 142.04851715346376 0 0 0 0 340.52117154264124 25.468496274162135 0 25.468496274162135 -230.31599045385792 0 0 0 0 256.661403524864 675.21814997049569 0 675.21814997049569 573.67512597923087 0 0 0 0 -1115.8713682304951 306.0350771690064 0 306.0350771690064 -34.693512186116095 0 0 0 0 -812.2323054880253 816.4477168237463 0 816.4477168237463 370.69581910487614 0 0 0 0 -946.65635932917939 -345.70125917067799 0 -345.70125917067799 -178.65427935375891 0 0 0 0 -5.1269495181542197 -0.59001878762452975 0 -0.59001878762452975 3.150693979881229 0 0 0 0 245.65939568304748 -79.858167472113109 0 -79.858167472113109 234.68379781708427 0 0 0 0 -136.54733293753816 -110.5261057981952 0 -110.5261057981952 7.2965114521457508 0 0 0 0 -276.04598177748267 -272.70786713097777 0 -272.70786713097777 -172.50020143282381 0 0 0 0 -739.96856598439626 -106.46066801770985 0 -106.46066801770985 105.41666142226313 0 0 0 0 -1056.755061696691 349.72450962438597 0 349.72450962438597 -28.726070785691263 0 0 0 0 -684.02421275904635 116.00365952923903 0 116.00365952923903 45.716798411855052 0 0 0 0 -636.28136209154036 287.98094240442242 0 287.98094240442242 -282.01121171427258 0 0 0 0 -599.27233770721068 175.35029265286016 0 175.35029265286016 -137.35911514207692 0 0 0 0 -0.18168606747393312 4.9893242239207893 0 4.9893242239207893 -8.9309291130759192 0 0 0 0 -1116.4023677232544 480.9410011679704 0 480.9410011679704 -99.849712769515463 0 0 0 0 -627.88048982832697 442.62954436782729 0 442.62954436782729 -2046.3794696456571 0 0 0 0 -592.05676446577127 136.97363887307915 0 136.97363887307915 -168.31574025818395 0 0 0 0 -901.1802767002664 234.01331089107953 0 234.01331089107953 -76.923736048508999 0 0 0 0 -891.73809325916227 287.57914268592685 0 287.57914268592685 -81.11428985170005 0 0 0 0 -788.63129131763708 174.11098038197497 0 174.11098038197497 58.40288306317666 0 0 0 0 -701.42230777804798 306.80048984982204 0 306.80048984982204 -248.02163339328763 0 0 0 0 -0.28723730106020184 5.3040934175958796 0 5.3040934175958796 -5.4926901086324946 0 0 0 0 -1455.6309348161594 333.72033276335105 0 333.72033276335105 186.20735068569729 0 0 0 0 -1607.9591911124589 249.07822107412994 0 249.07822107412994 31.803508182885821 0 0 0 0 -782.80589852260164 68.615771019700105 0 68.615771019700105 -165.34864525866033 0 0 0 0 -351.01395847433014 254.97851320104894 0 254.97851320104894 -11.97210375988027 0 0 0 0 -745.08908576099202 216.36090304745312 0 216.36090304745312 42.374520257619224 0 0 0 0 -0.7970983457806966 2.4924092076554984 0 2.4924092076554984 -1.4080789778050828 0 0 0 0 -736.69267677557491 330.50800468246973 0 330.50800468246973 140.11265771145463 0 0 0 0 -1021.2454220497457 312.03221253433389 0 312.03221253433389 153.51676848047555 0 0 0 0 -814.97905292938231 164.22487139004056 0 164.22487139004056 238.45343140302793 0 0 0 0 -857.4676690938868 559.73024449958382 0 559.73024449958382 69.849410516509124 0 0 0 0 -5.641987049075567 -2.5098257845111078 0 -2.5098257845111078 -1.059992596371762 0 0 0 0 132.31995173162431 -152.61286423773799 0 -152.61286423773799 280.3751246718607 0 0 0 0 -619.43272518445883 531.09512797810748 0 531.09512797810748 71.501493343878792 0 0 0 0 -789.12337436224334 365.72620249770989 0 365.72620249770989 116.51807312616802 0 0 0 0 -728.19929308323481 471.43771816360885 0 471.43771816360885 -138.16692109706207 0 0 0 0 -748.57391268509673 340.42888444230891 0 340.42888444230891 105.64193807934339 0 0 0 0 -711.62169896525302 437.45050366272903 0 437.45050366272903 -64.915948859402079 0 0 0 0 -753.78699235702516 364.50834227465668 0 364.50834227465668 -101.0936151521791 0 0 0 0 -738.06764662725618 271.72437579061153 0 271.72437579061153 -230.69423031107863 0 0 0 0 -889.85635802113393 449.71140269125266 0 449.71140269125266 -152.555766602939 0 0 0 0 -793.51357089477824 371.08948575211434 0 371.08948575211434 -89.917662227571554 0 0 0 0 -785.68984886349062 346.82953942967458 0 346.82953942967458 -89.85645966498771 0 0 0 0 -824.02490889412002 347.75465685920517 0 347.75465685920517 -80.385624705122495 0 0 0 0 -2.2329005273380744 0.46840893429671127 0 0.46840893429671127 0.25553527837472545 0 0 0 0 -801.13664126367075 327.43735457241979 0 327.43735457241979 -154.1284197331961 0 0 0 0 -712.82570905578905 131.34751201245075 0 131.34751201245075 263.66351220101814 0 0 0 0 -664.320528280281 187.78441868900137 0 187.78441868900137 -177.97135676476211 0 0 0 0 -235.14850122799544 158.16679083788807 0 158.16679083788807 -0.074932432153141729 0 0 0 0 -801.76729088203865 377.45317406407014 0 377.45317406407014 -365.1747078731496 0 0 0 0 -793.22767249145545 205.29784012881481 0 205.29784012881481 0.19097815556796904 0 0 0 0 -918.97054454834142 -43.114678204839109 0 -43.114678204839109 -458.67729830365539 0 0 0 0 -1203.5886887932575 -97.766549957919153 0 -97.766549957919153 -1.2310346019429153 0 0 0 0 -1281.6031504081475 267.96766395898271 0 267.96766395898271 -845.99196433997827 0 0 0 0 -1583.8729357225529 -779.58449331992824 0 -779.58449331992824 -1105.7311808333673 0 0 0 0 -2271.1288714944239 -755.73316403299339 0 -755.73316403299339 1.1426696281765949 0 0 0 0 -993.71231467288453 286.76617311074642 0 286.76617311074642 593.11590481914573 0 0 0 0 27.419279890120379 -333.87920699577313 0 -333.87920699577313 -0.74321502650964866 0 0 0 0 -859.04555486640311 -1420.1212874778903 0 -1420.1212874778903 -2076.3703058898727 0 0 0 0 -19.963439178229919 -5.0287542252690365 0 -5.0287542252690365 -0.70568348409716541 0 0 0 0 -2069.7312848158181 -1149.3213208927559 0 -1149.3213208927559 -622.47743127205672 0 0 0 0 -222.89277608056 -493.73215993592771 0 -493.73215993592771 -731.15317132920063 0 0 0 0 -1210.1392485344841 -838.1148105778575 0 -838.1148105778575 -578.30216626714116 0 0 0 0 -186.15981530150748 -539.82816748160462 0 -539.82816748160462 -459.72416590954055 0 0 0 0 -889.66938476754149 -1263.3713282636068 0 -1263.3713282636068 -263.27653706844239 0 0 0 0 -755.52886512818077 228.30705490608932 0 228.30705490608932 272.08034499483529 0 0 0 0 -779.89368859877504 306.29589459820841 0 306.29589459820841 60.339308494964371 0 0 0 0 -445.45431964173622 273.55244734159385 0 273.55244734159385 -381.7523223881866 0 0 0 0 -1086.2319729090304 -37.133651970102392 0 -37.133651970102392 -377.08139162860709 0 0 0 0 -230.78397746174596 52.368505588704323 0 52.368505588704323 0.13017991228396722 0 0 0 0 -303.41439498914406 15.10755693749536 0 15.10755693749536 78.905509778316969 0 0 0 0 -151.58428662782535 20.610079352840771 0 20.610079352840771 -5.1590188324531709 0 0 0 0 -140.89190745276937 -22.260297505852929 0 -22.260297505852929 37.840053214524474 0 0 0 0 0.83781672082500336 5.0868465433861552 0 5.0868465433861552 1.1863208819589928 0 0 0 0 -5.0762756936231881 -2.3642079280365067 0 -2.3642079280365067 0.813570729111327 0 0 0 0 -26.346859134355327 37.911700320287444 0 37.911700320287444 -0.057603719070598955 0 0 0 0 162.2766548893851 -188.0777193461638 0 -188.0777193461638 147.28119047403348 0 0 0 0 -50.465149848720046 -3.2273804717735715 0 -3.2273804717735715 3.9548020932588286 0 0 0 0 -520.72339732850378 -379.91816105837029 0 -379.91816105837029 -335.26917355639119 0 0 0 0 -513.52301288106537 -586.23227488581335 0 -586.23227488581335 -675.35003181125899 0 0 0 0 -630.30296580928552 -539.00679854995269 0 -539.00679854995269 -322.56304491203809 0 0 0 0 -188.36807886400493 -139.4716517497742 0 -139.4716517497742 -405.3868138108831 0 0 0 0 -37.737702787405283 24.827825348031752 0 24.827825348031752 9.6626988897598309 0 0 0 0 -228.57001498649333 -139.04743009694491 0 -139.04743009694491 83.966728469656005 0 0 0 0 -34.918898396848817 67.593884211525847 0 67.593884211525847 -27.29011835227292 0 0 0 0 220.0369454062311 -111.83385688485259 0 -111.83385688485259 -610.84563826243539 0 0 0 0 -34.821360535637297 33.473662347716669 0 33.473662347716669 3.1155462474443905 0 0 0 0 -546.19426539485721 -457.15451891196273 0 -457.15451891196273 -269.6853537297925 0 0 0 0 -679.72486219438724 162.10226826738756 0 162.10226826738756 20.142667677274744 0 0 0 0 -4.5699436465451981 -3.2300883285226405 0 -3.2300883285226405 -2.2739731204438671 0 0 0 0 -638.97818012200696 481.9632287382293 0 481.9632287382293 -232.24302088823146 0 0 0 0 -318.85412168091716 183.92184177982213 0 183.92184177982213 -193.44305549421045 0 0 0 0 -398.00768982256704 108.87691872120465 0 108.87691872120465 1.6858192746408349 0 0 0 0 -1053.8320216004422 9.9468203270753577 0 9.9468203270753577 -9.8369306129943652 0 0 0 0 -46.88454128715901 32.625294776272085 0 32.625294776272085 2.248716551946881 0 0 0 0 -487.13695468180231 170.20686881055281 0 170.20686881055281 401.84974956518136 0 0 0 0 -865.23743464524887 -627.30079161595017 0 -627.30079161595017 -250.90893619796725 0 0 0 0 -996.80270175573241 -750.54644028833809 0 -750.54644028833809 -328.59065585770804 0 0 0 0 -668.10228962763904 -654.02078948050189 0 -654.02078948050189 -173.16655731040646 0 0 0 0 -672.80768872052431 -722.56709853303414 0 -722.56709853303414 -350.55611626397013 0 0 0 0 -842.0908624468284 -885.27886766676943 0 -885.27886766676943 -456.36258291118179 0 0 0 0 -579.46661871706601 -567.22365277813833 0 -567.22365277813833 -279.22059151646317 0 0 0 0 -718.91355882508651 -397.49501772748476 0 -397.49501772748476 25.966109808894544 0 0 0 0 -342.81567348749377 -198.55515316443098 0 -198.55515316443098 24.429845624070367 0 0 0 0 -373.62248957704287 -153.7306050726329 0 -153.7306050726329 265.82481680685851 0 0 0 0 -185.4119134171633 -238.12712227405882 0 -238.12712227405882 -6.0207917216243914 0 0 0 0 -510.12813794972317 -448.66120027867873 0 -448.66120027867873 -67.36822937154102 0 0 0 0 -453.96028737544839 -507.26494317336346 0 -507.26494317336346 94.265080146085893 0 0 0 0 -880.75192681167391 -489.999368969231 0 -489.999368969231 -17.808017393701448 0 0 0 0 -413.94282502905116 -522.38811091102207 0 -522.38811091102207 -54.328731243969742 0 0 0 0 -562.5485909388226 -436.47592815351072 0 -436.47592815351072 -45.699924234370883 0 0 0 0 -570.38654770376979 -587.35986518400648 0 -587.35986518400648 -290.8591727112962 0 0 0 0 -776.79064790668781 -535.33811995270389 0 -535.33811995270389 -243.18797387362065 0 0 0 0 -830.18150989319838 -679.65315360240857 0 -679.65315360240857 -315.94792965590932 0 0 0 0 -1045.794388516937 -382.08709542255247 0 -382.08709542255247 -681.58031267286424 0 0 0 0 -1383.193407674582 -332.05809724580558 0 -332.05809724580558 -222.33546480475707 0 0 0 0 -869.75556386690732 -621.01610616682501 0 -621.01610616682501 -59.785846573446179 0 0 0 0 -861.7667090781033 -570.71826569363657 0 -570.71826569363657 70.2666627747858 0 0 0 0 -836.34800610589446 -694.57308161647597 0 -694.57308161647597 99.511121237337647 0 0 0 0 -1308.5802693465666 -569.3733718244448 0 -569.3733718244448 88.840223967850761 0 0 0 0 -1307.6768498832062 -563.22025235241381 0 -563.22025235241381 123.39025691146162 0 0 0 0 -1186.9859286483843 -517.18328938559262 0 -517.18328938559262 49.539562053982991 0 0 0 0 -1388.8885899099114 -492.35989215519567 0 -492.35989215519567 240.04098148700587 0 0 0 0 -1321.1566852944052 -195.67742801384315 0 -195.67742801384315 -111.83893082983195 0 0 0 0 -1190.0075585004888 -497.68639438147216 0 -497.68639438147216 -59.045313018456 0 0 0 0 -429.76473114352848 -337.97845994643603 0 -337.97845994643603 -362.15236676177847 0 0 0 0 -1166.4493893206818 -623.64272948646294 0 -623.64272948646294 -113.72732671222184 0 0 0 0 -1909.0177364365663 -519.13723132535051 0 -519.13723132535051 -124.36381510032243 0 0 0 0 -959.27324003855756 -973.6613061020048 0 -973.6613061020048 -938.13022295898099 0 0 0 0 -6.4576348368722734 8.4584830315085036 0 8.4584830315085036 -1.0438648542357583 0 0 0 0 -71.770483297339524 -202.13716296661141 0 -202.13716296661141 333.07864738811941 0 0 0 0 76.0532659139717 -211.36392465733525 0 -211.36392465733525 242.84918809231385 0 0 0 0 -185.47846123322961 237.37544638973691 0 237.37544638973691 20.992755539469044 0 0 0 0 -12.971282943067479 -6.2579191846262887 0 -6.2579191846262887 -1.8575028128401812 0 0 0 0 -433.36126878861978 -280.28836746010148 0 -280.28836746010148 706.87805815764796 0 0 0 0 -6.2307838118582026 -4.6313665606193268 0 -4.6313665606193268 -2.2576822371385239 0 0 0 0 -888.27444912516512 189.81353618037656 0 189.81353618037656 364.21983384133046 0 0 0 0 -1290.6877047460439 -564.28359319007859 0 -564.28359319007859 100.65595950931356 0 0 0 0 -525.53887415755889 -160.45012740366928 0 -160.45012740366928 157.05699297063336 0 0 0 0 -47.896879574662307 -25.36772269638368 0 -25.36772269638368 -43.382871358565353 0 0 0 0 -419.45454374604196 23.132466378928939 0 23.132466378928939 217.75935654832574 0 0 0 0 -454.78749125388276 -169.69038378575851 0 -169.69038378575851 46.737041344425052 0 0 0 0 -311.59687337376818 -240.88196744123388 0 -240.88196744123388 80.622423011076535 0 0 0 0 -271.54810192106015 -14.608972472150015 0 -14.608972472150015 157.22782123475008 0 0 0 0 -236.87717104035255 35.422734344383116 0 35.422734344383116 123.03189410268169 0 0 0 0 -309.16719296609517 -2.2952270556161238 0 -2.2952270556161238 179.87142808393935 0 0 0 0 -177.74397770555515 -59.415474051789261 0 -59.415474051789261 -4.8898207272086438 0 0 0 0 -127.48945535384701 34.901921367040813 0 34.901921367040813 166.39123919082505 0 0 0 0 57.816552500647958 -142.03441277520415 0 -142.03441277520415 141.16498732010041 0 0 0 0 200.52883741888218 -152.11348510264543 0 -152.11348510264543 168.49618709343213 0 0 0 0 -7.8932969098449917 -1.3541147530711726 0 -1.3541147530711726 5.6603877764771795 0 0 0 0 -42.821133816396468 -124.26238308139818 0 -124.26238308139818 262.23949014070513 0 0 0 0 -138.48236409842502 -118.97665485107791 0 -118.97665485107791 313.27878234285663 0 0 0 0 -124.39592353127955 25.806753092130748 0 25.806753092130748 399.63433230749615 0 0 0 0 -320.00444486032939 -240.07645528938883 0 -240.07645528938883 683.04999320054139 0 0 0 0 -402.82072554488332 -110.84557088883292 0 -110.84557088883292 139.96960730929186 0 0 0 0 -343.51780389902706 -137.19211048245438 0 -137.19211048245438 806.67233777227375 0 0 0 0 -389.88595609683398 -37.595434943884584 0 -37.595434943884584 896.7251152592471 0 0 0 0 -58.257498432416469 -3.4365750498072885 0 -3.4365750498072885 271.26822417503286 0 0 0 0 -95.231965301537628 -14.894555872283497 0 -14.894555872283497 -0.17949038698801534 0 0 0 0 -111.0501838017226 145.19136762346716 0 145.19136762346716 995.59931838111243 0 0 0 0 -363.00094357685884 -7.090025044369213 0 -7.090025044369213 272.86926669668435 0 0 0 0 22.829311008186778 270.62404841729131 0 270.62404841729131 806.49655661720453 0 0 0 0 -4.2401767705567295 -1.2593114654118409 0 -1.2593114654118409 4.2810897723241368 0 0 0 0 -68.018140093990951 342.55071243441853 0 342.55071243441853 1096.3250121728925 0 0 0 0 -353.31862204711069 -320.87768457791117 0 -320.87768457791117 -42.478636122367448 0 0 0 0 -451.88032315252349 -248.86983545350176 0 -248.86983545350176 466.17103696389677 0 0 0 0 -205.34396571153775 -142.36099965048197 0 -142.36099965048197 175.96388922031201 0 0 0 0 -268.01944295849535 -133.92314778388663 0 -133.92314778388663 649.78810479914864 0 0 0 0 -208.63667838138645 -19.591537596161288 0 -19.591537596161288 398.0483297705232 0 0 0 0 -413.35083030778333 -91.468383052165336 0 -91.468383052165336 858.64713088668759 0 0 0 0 -90.782626679908333 5.2279271435360499 0 5.2279271435360499 6.6925089730151122 0 0 0 0 -24.683112054030062 46.131406768250145 0 46.131406768250145 502.77883035756395 0 0 0 0 -89.345582787623471 -30.464902089677814 0 -30.464902089677814 -0.50670777829913538 0 0 0 0 -354.3808463888563 -111.51114263187355 0 -111.51114263187355 1216.7831394016594 0 0 0 0 -106.72322780628747 -94.48760792089206 0 -94.48760792089206 424.03577367255139 0 0 0 0 -15.488836831966182 59.229287081445364 0 59.229287081445364 1067.1823628218722 0 0 0 0 -127.53276999454829 -243.83173352861195 0 -243.83173352861195 817.82686496684937 0 0 0 0 -60.098586971595068 -223.68333733301552 0 -223.68333733301552 798.80428689279688 0 0 0 0 200.1192218955257 -111.2431186756985 0 -111.2431186756985 519.91736589393986 0 0 0 0 115.72588759013888 27.847128309881555 0 27.847128309881555 484.09508238236776 0 0 0 0 -14.802539718071785 83.194367666693097 0 83.194367666693097 508.10091897981147 0 0 0 0 27.081852853531018 -52.792844616331422 0 -52.792844616331422 539.11080321059217 0 0 0 0 -22.240812698757509 42.74179543689479 0 42.74179543689479 422.37340597431921 0 0 0 0 -26.097923116089078 22.067087416648519 0 22.067087416648519 413.94135720086933 0 0 0 0 -68.509611502871849 34.51795358549407 0 34.51795358549407 502.93752626787409 0 0 0 0 3.4406154439056991 62.888911492017542 0 62.888911492017542 429.20784725564044 0 0 0 0 -19.762887144577689 -297.17016210207385 0 -297.17016210207385 463.37621581782139 0 0 0 0 -22.055941303714803 -1.1687057698275076 0 -1.1687057698275076 0.81265087709869666 0 0 0 0 -0.89824007201241329 81.294940179446257 0 81.294940179446257 331.17830224790123 0 0 0 0 -74.485832388156268 -22.042285556696243 0 -22.042285556696243 416.0460361899477 0 0 0 0 -7.827744085077768 -1.0052191198060463 0 -1.0052191198060463 0.033725037706177519 0 0 0 0 -245.55257934743713 299.52601473368577 0 299.52601473368577 -78.150163887732333 0 0 0 0 -877.94421562210027 191.93603505022503 0 191.93603505022503 639.12346815806723 0 0 0 0 -345.32843070829404 44.231307526014007 0 44.231307526014007 -218.62129784780109 0 0 0 0 -786.27815319255114 -553.07531046982399 0 -553.07531046982399 265.02406830152449 0 0 0 0 -466.24489361653104 -156.01662929981649 0 -156.01662929981649 550.51543127068749 0 0 0 0 -569.98935275766416 189.71727275853254 0 189.71727275853254 897.33000743467346 0 0 0 0 -89.470916438935092 -449.00023510782398 0 -449.00023510782398 636.5766979796208 0 0 0 0 -97.319741310994516 -6.9051332267643701 0 -6.9051332267643701 1.4275714823128856 0 0 0 0 -625.41188968822826 119.45781197572978 0 119.45781197572978 1006.6159014711911 0 0 0 0 -492.62647348019527 -97.817039986011878 0 -97.817039986011878 1080.1575654348735 0 0 0 0 -463.06470450680354 35.136197130823348 0 35.136197130823348 786.00434796911941 0 0 0 0 -448.63045401210911 -44.661440051584577 0 -44.661440051584577 832.52531127683142 0 0 0 0 -471.31209143064916 140.42085600787868 0 140.42085600787868 615.89495632678972 0 0 0 0 -1294.327776061531 119.84182419785225 0 119.84182419785225 122.06312299411366 0 0 0 0 -1258.223049249922 -23.93851145195822 0 -23.93851145195822 485.0783591927302 0 0 0 0 2118.0747734612087 -492.63672682925244 0 -492.63672682925244 -2557.8295632235913 0 0 0 0 -474.39346951115294 -109.93630741856032 0 -109.93630741856032 -285.76840845259176 0 0 0 0 -2597.6497812750749 1443.4905640842353 0 1443.4905640842353 -1377.5244668535624 0 0 0 0 -1437.8559028832315 138.83527508600127 0 138.83527508600127 -261.63806102831768 0 0 0 0 -1836.3274389020808 -379.04268035859968 0 -379.04268035859968 211.68064786360719 0 0 0 0 -1492.9742052383954 -671.74755596461637 0 -671.74755596461637 289.18240532869459 0 0 0 0 -2299.6164687769488 -442.22943484371353 0 -442.22943484371353 231.74992245227259 0 0 0 0 -2745.0947126989486 -752.1682226846151 0 -752.1682226846151 349.37514340934285 0 0 0 0 -3241.2718162046804 -387.55701398409656 0 -387.55701398409656 542.06372062592345 0 0 0 0 -1974.2847213456407 -1001.9746141410069 0 -1001.9746141410069 292.14312890743531 0 0 0 0 -1367.5359148264124 -900.49949276682958 0 -900.49949276682958 199.83992441989903 0 0 0 0 -1377.0215595398331 -993.10771296295206 0 -993.10771296295206 230.63205186821233 0 0 0 0 -1499.6738964885517 -694.70581990089067 0 -694.70581990089067 212.10312535215417 0 0 0 0 -694.82946135534439 -883.21564278510959 0 -883.21564278510959 130.7620827767787 0 0 0 0 -711.73906782775157 -661.38643760177433 0 -661.38643760177433 154.16707094797675 0 0 0 0 -574.83744307584129 -866.29445904211389 0 -866.29445904211389 72.585000688177388 0 0 0 0 -621.68933355415356 -840.21664340002644 0 -840.21664340002644 207.32724573048472 0 0 0 0 -794.66244587877009 -581.62088514136121 0 -581.62088514136121 171.01412000787968 0 0 0 0 -859.47843219671631 -935.43066256013117 0 -935.43066256013117 257.83527869826003 0 0 0 0 217.45201903686393 -765.74619805503789 0 -765.74619805503789 122.88320628555084 0 0 0 0 -32.106408239091081 -6.9133025121289435 0 -6.9133025121289435 -0.88070750571340906 0 0 0 0 -1293.1709123775217 45.92569139058287 0 45.92569139058287 617.90244646931205 0 0 0 0 -1239.2260831047606 102.21158448863571 0 102.21158448863571 572.80274405588261 0 0 0 0 -100.11158767653967 -1.6828204390300385 0 -1.6828204390300385 1.4630969898113504 0 0 0 0 -504.53859826433472 97.192886435885157 0 97.192886435885157 384.54028332657253 0 0 0 0 -4005.4313594170235 1082.5271378796356 0 1082.5271378796356 1273.4970053966945 0 0 0 0 -1176.8206626736792 -1080.5052365099473 0 -1080.5052365099473 278.5672591621078 0 0 0 0 -70.984416234191542 -14.487898795291638 0 -14.487898795291638 0.7643484140792145 0 0 0 0 -240.85239913451369 -26.249687480399189 0 -26.249687480399189 1443.5094175961876 0 0 0 0 290.25139536830829 -183.14230538645552 0 -183.14230538645552 52.547712048101857 0 0 0 0 -92.266943597621378 -2.2661955361518125 0 -2.2661955361518125 5.6855913517039767 0 0 0 0 -189.97659970357199 -103.62967039220712 0 -103.62967039220712 415.88742131813729 0 0 0 0 -368.31720858349581 -205.54289257337769 0 -205.54289257337769 358.04930691292975 0 0 0 0 -468.0470512121683 -324.07248323152635 0 -324.07248323152635 309.00231653048832 0 0 0 0 691.23154009990685 212.16160628326543 0 212.16160628326543 431.99022418496679 0 0 0 0 71.848530792136444 -614.99552807197142 0 -614.99552807197142 56.422635759055993 0 0 0 0 -229.31342692859471 -283.63874325970892 0 -283.63874325970892 438.90002042536798 0 0 0 0 -236.74879415624309 -608.17177609797182 0 -608.17177609797182 -0.22203279390669195 0 0 0 0 -397.2685766187933 -309.09537094086545 0 -309.09537094086545 225.1234576968709 0 0 0 0 58.468923166044988 -337.38001056597295 0 -337.38001056597295 173.91356642015307 0 0 0 0 -22.189065621962072 -129.50388356366238 0 -129.50388356366238 251.31586079145654 0 0 0 0 -234.42328484407335 -32.590769634321077 0 -32.590769634321077 691.46125992255293 0 0 0 0 -3.5531860334158409 44.177389557335118 0 44.177389557335118 731.95162817194068 0 0 0 0 7.6261047724983655 -288.97872256240953 0 -288.97872256240953 795.12836457011235 0 0 0 0 -92.531597315566614 4.3532665079210346 0 4.3532665079210346 466.35925797183882 0 0 0 0 -61.114373050168069 -55.34208221355243 0 -55.34208221355243 338.54866187004154 0 0 0 0 -76.514597425673855 -43.212956169993049 0 -43.212956169993049 396.24409125524801 0 0 0 0 -28.054203973231779 20.312155908805607 0 20.312155908805607 457.91046603892573 0 0 0 0 -78.40070555836428 50.861951844886789 0 50.861951844886789 588.36836643495826 0 0 0 0 -1525.4788221335912 -498.99900513657667 0 -498.99900513657667 1084.4480600650609 0 0 0 0 -28.733091518239348 0.51862950004735353 0 0.51862950004735353 1.6022074203940906 0 0 0 0 -4.839024533459451 958.40433418181783 0 958.40433418181783 -560.87801285765181 0 0 0 0 540.2038407835571 298.84114811076552 0 298.84114811076552 -983.17043518119863 0 0 0 0 -137.11248791776597 -243.29598748190801 0 -243.29598748190801 228.86198686007629 0 0 0 0 -226.86279636103427 -227.65796026244971 0 -227.65796026244971 213.15492967427508 0 0 0 0 31.117117996909656 108.66833984688583 0 108.66833984688583 417.19005854705392 0 0 0 0 70.074928560905391 -13.704881581198606 0 -13.704881581198606 314.52802725016591 0 0 0 0 -62.19467690966485 -89.993972787963003 0 -89.993972787963003 274.45730114616526 0 0 0 0 -250.47442589401908 -196.56013834820897 0 -196.56013834820897 289.62379348125978 0 0 0 0 -1731.3509325105115 -4.6962680870014992 0 -4.6962680870014992 717.94042378278846 0 0 0 0 -1260.7677757538622 30.002521421596612 0 30.002521421596612 395.2718525983048 0 0 0 0 -599.22914274904178 -414.21814952936984 0 -414.21814952936984 242.71664489098839 0 0 0 0 -602.97746152275067 -73.354529295456132 0 -73.354529295456132 407.84445531904203 0 0 0 0 -997.83174328689347 -525.466532448826 0 -525.466532448826 325.87561999788431 0 0 0 0 -14.760289213188116 2.4311068220081289 0 2.4311068220081289 0.50834592850901128 0 0 0 0 -1054.2693547358358 1229.9394120101679 0 1229.9394120101679 -484.78287959438433 0 0 0 0 -1764.8142406537518 292.75887579391792 0 292.75887579391792 -123.46034683811104 0 0 0 0 -797.17243503219652 -189.52465060810937 0 -189.52465060810937 -699.61841509634905 0 0 0 0 -1754.874556039048 502.98355652324119 0 502.98355652324119 270.00045252317977 0 0 0 0 -1074.5802761916857 459.23199779919423 0 459.23199779919423 -582.85873251462272 0 0 0 0 -1223.9875678167155 50.585843322470282 0 50.585843322470282 373.16406628311233 0 0 0 0 -440.57163185179161 404.1431900819137 0 404.1431900819137 -128.02203203236422 0 0 0 0 -649.54837854993821 288.37861838132017 0 288.37861838132017 209.27536603104755 0 0 0 0 -1094.9135256935988 627.46920985577412 0 627.46920985577412 -144.30988235509585 0 0 0 0 -754.03730834566522 214.02396305532147 0 214.02396305532147 -133.74884900725192 0 0 0 0 -846.35827357706148 853.43033347595679 0 853.43033347595679 -573.95330637569441 0 0 0 0 -839.08207746405969 416.03740556139223 0 416.03740556139223 -4.6726548903446314 0 0 0 0 -613.3049667236919 425.69907069464716 0 425.69907069464716 -96.29519904818784 0 0 0 0 -905.44542347791139 361.35651893072873 0 361.35651893072873 -105.53967258632022 0 0 0 0 -814.95178673238297 494.57944206186073 0 494.57944206186073 -360.22877709388968 0 0 0 0 -856.22594152447709 364.21875970050905 0 364.21875970050905 -105.3845242750678 0 0 0 0 -347.5482296654809 503.00563575599108 0 503.00563575599108 -364.53961007724229 0 0 0 0 -676.30119495521649 70.791604165713125 0 70.791604165713125 -824.23884886526776 0 0 0 0 -397.41626879599789 475.97508393686803 0 475.97508393686803 -207.38804941178387 0 0 0 0 -6.5117794834088727 -6.8386523668693968 0 -6.8386523668693968 -9.5804499044256364 0 0 0 0 501.41640512816957 237.77977918594797 0 237.77977918594797 -374.37417176413919 0 0 0 0 -948.99971372201617 213.24653526268582 0 213.24653526268582 -239.40395438174301 0 0 0 0 -811.31380048851133 366.36202094686428 0 366.36202094686428 -126.38272463597986 0 0 0 0 -855.46276269286682 365.26980147554497 0 365.26980147554497 -124.03068505199576 0 0 0 0 -844.40662298101051 172.16547391831955 0 172.16547391831955 -184.88436356277589 0 0 0 0 -789.60466386926782 288.89815842652274 0 288.89815842652274 -188.51255859544835 0 0 0 0 -803.94229855158483 186.52611178171537 0 186.52611178171537 -420.21301209172816 0 0 0 0 -1306.6587043662439 144.14867171601691 0 144.14867171601691 -223.58367113487202 0 0 0 0 -1016.7144672833092 636.82254425553629 0 636.82254425553629 -357.72782627018569 0 0 0 0 -745.46265418357507 427.86636135023991 0 427.86636135023991 -235.86571691931113 0 0 0 0 -905.46630539421312 472.33412100933992 0 472.33412100933992 -192.55464050715455 0 0 0 0 -997.47119369509164 369.70241248611694 0 369.70241248611694 -115.3693829391998 0 0 0 0 -854.76864673270029 335.66608725258914 0 335.66608725258914 -122.45182754029656 0 0 0 0 -847.77566355139425 372.90655066399609 0 372.90655066399609 -187.88197813198531 0 0 0 0 -837.48868595853855 318.85282145556744 0 318.85282145556744 79.416500450591684 0 0 0 0 -88.837869074210175 487.54135577908801 0 487.54135577908801 -378.1660684161734 0 0 0 0 -3.4035226137611403 -0.17355158477806754 0 -0.17355158477806754 -0.41304396938627796 0 0 0 0 -859.84426156134577 442.93062460644842 0 442.93062460644842 -217.62212505754405 0 0 0 0 -1025.0640173089923 374.889242605032 0 374.889242605032 -118.43011786601528 0 0 0 0 -16.429492992688722 -6.3384042564585457 0 -6.3384042564585457 4.4715663434224702 0 0 0 0 -777.69529145539855 255.77238378424363 0 255.77238378424363 -101.42654742809646 0 0 0 0 -1.9060593657723075 95.634749008991434 0 95.634749008991434 92.255792072592158 0 0 0 0 -11.085657234230894 -37.693478096148283 0 -37.693478096148283 317.1905767299595 0 0 0 0 -3.5174091595025629 4.0014385618119093 0 4.0014385618119093 -2.9896137490861907 0 0 0 0 -144.4102314003394 13.357314214629696 0 13.357314214629696 -0.12987745917149596 0 0 0 0 -230.37822664053238 -6.1121791423454397 0 -6.1121791423454397 2.1552256271520491 0 0 0 0 -9.0638592495692194 0.64029311039885783 0 0.64029311039885783 4.2890692184736547 0 0 0 0 -220.22327871232119 -48.36055832908869 0 -48.36055832908869 62.295433021524673 0 0 0 0 -436.11784988566069 -54.286639834766902 0 -54.286639834766902 -51.885718072963755 0 0 0 0 -477.38554032901811 5.1826051056182223 0 5.1826051056182223 11.365747077434207 0 0 0 0 -511.43563529302628 3.0519776842411375 0 3.0519776842411375 65.962222067701987 0 0 0 0 -464.45784156670561 38.744074029284093 0 38.744074029284093 69.677040904379282 0 0 0 0 -663.60285476399986 142.82051574931873 0 142.82051574931873 39.761006219161573 0 0 0 0 -620.56582819522009 -301.8403027813556 0 -301.8403027813556 147.65968479480057 0 0 0 0 -91.356055844356888 41.051349362453038 0 41.051349362453038 32.567272509964823 0 0 0 0 -67.066495732469775 -125.55336574186731 0 -125.55336574186731 -38.130292556180393 0 0 0 0 38.565939610241912 -28.933118790216668 0 -28.933118790216668 -194.0610832691018 0 0 0 0 -169.4464364795931 127.80546156057244 0 127.80546156057244 -230.61637881249931 0 0 0 0 -202.58707996884186 -2.3050244555556674 0 -2.3050244555556674 -100.88972772298985 0 0 0 0 -149.02691288480855 83.781031315579867 0 83.781031315579867 -139.55026728263329 0 0 0 0 -497.92955313060884 180.53975341440457 0 180.53975341440457 -211.97518210952717 0 0 0 0 -14.697228806942292 -20.334090926393813 0 -20.334090926393813 -30.937849102259264 0 0 0 0 -423.93310065319383 327.54947697602802 0 327.54947697602802 -407.71847032002552 0 0 0 0 -389.73361211804877 281.96748977366155 0 281.96748977366155 -432.30928577424856 0 0 0 0 -22.709736830475805 -33.101302919709397 0 -33.101302919709397 -50.647267813376445 0 0 0 0 -154.33484743573354 47.515592024969919 0 47.515592024969919 -143.65077085499036 0 0 0 0 -196.75910961022601 165.01513566155609 0 165.01513566155609 -100.35942295706081 0 0 0 0 -487.14384277252975 152.20723380198388 0 152.20723380198388 -77.029982069099788 0 0 0 0 -613.42961038199428 -6.4033709707846356 0 -6.4033709707846356 14.61081848310755 0 0 0 0 -519.20420019143057 -77.158788837801694 0 -77.158788837801694 -29.217394482458985 0 0 0 0 -744.87174637880526 -57.625077524362496 0 -57.625077524362496 22.61191822733781 0 0 0 0 -905.21178163137665 -131.53642519758296 0 -131.53642519758296 21.764530751273924 0 0 0 0 -588.84196693776175 -320.15439642386536 0 -320.15439642386536 -137.05653891153452 0 0 0 0 -454.00224503755453 -364.23885935837052 0 -364.23885935837052 -339.75484636877263 0 0 0 0 -529.79242404350225 -303.83115613001974 0 -303.83115613001974 -168.13091514333792 0 0 0 0 -452.40086784004234 -265.39975404330835 0 -265.39975404330835 -219.69333828868184 0 0 0 0 -405.597281367096 -208.60118972048713 0 -208.60118972048713 -201.78299159708308 0 0 0 0 -574.37663707117463 -121.3906682564625 0 -121.3906682564625 -49.274104739455652 0 0 0 0 -394.66044550895458 -65.595751852821195 0 -65.595751852821195 -74.969671773478694 0 0 0 0 -376.17218557561864 -13.898285153290544 0 -13.898285153290544 -2.6626859535545009 0 0 0 0 -263.04611224250402 -190.0310653433005 0 -190.0310653433005 -120.27320030994997 0 0 0 0 -329.30637392713106 -125.58017788965572 0 -125.58017788965572 -178.66781366317991 0 0 0 0 -318.37294757235213 -3.5278274934657929 0 -3.5278274934657929 208.50402413405436 0 0 0 0 -236.37208568811184 -99.226832648476375 0 -99.226832648476375 43.166293029341887 0 0 0 0 -410.13006577087799 77.868603444708015 0 77.868603444708015 39.849489604300288 0 0 0 0 -418.32207988252048 -171.54272258148058 0 -171.54272258148058 186.59727830449128 0 0 0 0 -356.76956933662586 -329.88278352168436 0 -329.88278352168436 -202.53553460164676 0 0 0 0 -714.78497134483769 -469.2413190145362 0 -469.2413190145362 -109.48109728998315 0 0 0 0 -150.05442967108684 -179.38896430278783 0 -179.38896430278783 132.71760464546423 0 0 0 0 -321.97690245631384 -94.411410794356925 0 -94.411410794356925 95.339466446330334 0 0 0 0 -178.53458504493756 -118.06357265346031 0 -118.06357265346031 -160.12871642472419 0 0 0 0 -205.39715022791643 -302.3418474449627 0 -302.3418474449627 -178.38599457890814 0 0 0 0 -344.79526410780818 -216.87962424967645 0 -216.87962424967645 -316.76626475056219 0 0 0 0 -364.09219445916824 -263.26345007220971 0 -263.26345007220971 -104.72110690701447 0 0 0 0 -431.87906000919611 -374.63381488310642 0 -374.63381488310642 -379.90331601066646 0 0 0 0 -469.69619812151359 -347.56467439135668 0 -347.56467439135668 -156.5329577743064 0 0 0 0 -583.7146769304818 -362.24471429592541 0 -362.24471429592541 -554.31690999489365 0 0 0 0 -633.24002715129609 -317.62118363785294 0 -317.62118363785294 -359.77707944604481 0 0 0 0 -575.89256476952141 -327.47987770444524 0 -327.47987770444524 -354.51031508306914 0 0 0 0 -671.34545570121554 -610.99294912006144 0 -610.99294912006144 -559.66105011016771 0 0 0 0 -706.9648836212873 -557.30542706464439 0 -557.30542706464439 -371.78790850847298 0 0 0 0 -120.82469172256395 44.605872228118912 0 44.605872228118912 61.969674697712719 0 0 0 0 -415.75421279956936 -271.00194901785108 0 -271.00194901785108 -266.79304331706589 0 0 0 0 -465.9183173434285 -409.1723101718444 0 -409.1723101718444 -348.93333298428695 0 0 0 0 -526.38471552208648 -450.93230783953459 0 -450.93230783953459 -375.73365578255834 0 0 0 0 -511.89470425000763 -391.10875794115236 0 -391.10875794115236 -298.3062361888733 0 0 0 0 -109.16886614351804 42.725533813229703 0 42.725533813229703 64.451543249377039 0 0 0 0 -205.73392004762718 108.75213706838076 0 108.75213706838076 233.25386485695404 0 0 0 0 -73.968608465627767 -82.888939507042778 0 -82.888939507042778 -144.62157090244818 0 0 0 0 -122.89253212225231 153.82385601910801 0 153.82385601910801 23.825507215961807 0 0 0 0 -102.52627365966691 86.297132083703673 0 86.297132083703673 187.23714457828282 0 0 0 0 222.7483887225244 359.64042061585224 0 359.64042061585224 221.70573097019337 0 0 0 0 -583.71467693033628 -362.24471429597907 0 -362.24471429597907 -554.31690999488637 0 0 0 0 -1283.1293994072767 -503.38548758396792 0 -503.38548758396792 -174.81170707388901 0 0 0 0 -990.41464834779617 -184.42381515382567 0 -184.42381515382567 -68.389090668743847 0 0 0 0 -450.50041731340752 -100.83283604326607 0 -100.83283604326607 120.66013918069984 0 0 0 0 -373.71834498764474 -210.01379210606592 0 -210.01379210606592 -257.84764104316309 0 0 0 0 -1020.4931446676201 -482.43308381216048 0 -482.43308381216048 6.9547753118956734 0 0 0 0 -864.67925915942305 -202.11652485929778 0 -202.11652485929778 78.795250113929796 0 0 0 0 -356.57891641509195 -78.173923390491836 0 -78.173923390491836 -88.000020247432531 0 0 0 0 7.4307639721446321 -227.50054705480215 0 -227.50054705480215 -196.84994733912572 0 0 0 0 -24.373176686156057 397.31436806390366 0 397.31436806390366 519.07205986539338 0 0 0 0 -98.960594620141535 11.726710345148163 0 11.726710345148163 37.783429821326365 0 0 0 0 -145.34198135101178 -67.068121771179406 0 -67.068121771179406 24.980771302079965 0 0 0 0 -74.808098414253521 22.164287094292447 0 22.164287094292447 13.216580615940238 0 0 0 0 -99.749360903993306 -6.190746206646125 0 -6.190746206646125 17.272420922699233 0 0 0 0 194.06332426456356 571.22968448834581 0 571.22968448834581 452.4744114658688 0 0 0 0 -348.98260238832154 -374.1268269034008 0 -374.1268269034008 18.776424173371197 0 0 0 0 -66.201149568134213 13.31813409651744 0 13.31813409651744 18.397803827365642 0 0 0 0 -786.9705227016093 -370.29459950340652 0 -370.29459950340652 -240.89865631349949 0 0 0 0 -82.721284022828826 26.528618790990706 0 26.528618790990706 39.508858978404405 0 0 0 0 -751.22832003408985 -757.95458643873371 0 -757.95458643873371 -372.86296125342415 0 0 0 0 -583.7146769305109 -362.24471429600817 0 -362.24471429600817 -554.31690999487182 0 0 0 0 -139.73977225364069 -57.661266825940857 0 -57.661266825940857 24.217234621742364 0 0 0 0 101.69789409430086 79.767031173380929 0 79.767031173380929 -58.980832213444955 0 0 0 0 134.45794840712915 484.8022691502747 0 484.8022691502747 415.59678863807085 0 0 0 0 -112.65352730962331 56.894181859672472 0 56.894181859672472 -42.182804062343394 0 0 0 0 -508.50528721050068 -269.94736502077239 0 -269.94736502077239 -263.40360119828074 0 0 0 0 -558.42949292521007 -172.94267542494441 0 -172.94267542494441 447.74468408753637 0 0 0 0 -99.543124721571019 -9.2382601815716967 0 -9.2382601815716967 -3.8965985801664846 0 0 0 0 -763.86035619103495 -468.67814540403356 0 -468.67814540403356 70.999929383364361 0 0 0 0 -1569.320095152827 -829.79644101018584 0 -829.79644101018584 341.17609082365755 0 0 0 0 -29.937340605519751 -1.7794758251850027 0 -1.7794758251850027 -0.39733459644644087 0 0 0 0 -280.07722368706891 -538.50920058318275 0 -538.50920058318275 -449.72884861845978 0 0 0 0 32.062126957949658 177.27517184455604 0 177.27517184455604 -278.65154808750049 0 0 0 0 -115.79018066071148 58.710275555908439 0 58.710275555908439 -33.561083005699381 0 0 0 0 -75.863628955077729 211.45639095630213 0 211.45639095630213 -263.95485705181636 0 0 0 0 -68.560695587702298 6.4688099812159763 0 6.4688099812159763 -7.4787956446413162 0 0 0 0 -98.264270451637572 52.490697333733777 0 52.490697333733777 -17.260352373175277 0 0 0 0 -492.93981487731071 1512.8718075341262 0 1512.8718075341262 -190.47676105818027 0 0 0 0 -80.947206736355128 59.221201355914388 0 59.221201355914388 -17.555700289141285 0 0 0 0 366.54636370913067 213.72196227692802 0 213.72196227692802 -119.16433972136838 0 0 0 0 -1797.9785321223753 -437.0877962298382 0 -437.0877962298382 142.49223799243191 0 0 0 0 -91.210101257602219 -931.68851951606257 0 -931.68851951606257 -1092.7895228591692 0 0 0 0 -425.39580694024335 -131.40767145576683 0 -131.40767145576683 198.44338496421005 0 0 0 0 -657.13459167192923 48.764171836597143 0 48.764171836597143 93.078494471292288 0 0 0 0 -181.0059581832611 -264.81624144422676 0 -264.81624144422676 -250.08155352942072 0 0 0 0 -459.85521880837041 -214.33279105393012 0 -214.33279105393012 49.958736124703137 0 0 0 0 -222.71339035412529 952.58329205710015 0 952.58329205710015 61.418576570260257 0 0 0 0 -156.93011951931112 477.46979335973583 0 477.46979335973583 441.40240744559287 0 0 0 0 448.99178362922976 -283.18803020229961 0 -283.18803020229961 1014.7697997531113 0 0 0 0 199.91817555677699 477.73235692773778 0 477.73235692773778 -76.697052843366691 0 0 0 0 -1506.3121024900538 772.04584444040051 0 772.04584444040051 236.74394862012559 0 0 0 0 -511.01038018529653 860.20529236675975 0 860.20529236675975 -217.1059018293239 0 0 0 0 -558.79821231536334 599.57785839919416 0 599.57785839919416 73.659647229244911 0 0 0 0 -266.24940553122724 629.23096939341258 0 629.23096939341258 71.767677738846032 0 0 0 0 -104.0074033892015 682.36039086382789 0 682.36039086382789 -181.13419285782049 0 0 0 0 -75.675388067280437 926.23574700789231 0 926.23574700789231 -51.135299408932042 0 0 0 0 53.33540608875046 533.29921005179358 0 533.29921005179358 310.47568987269551 0 0 0 0 -531.11005869880319 946.2870381546436 0 946.2870381546436 129.35885606456668 0 0 0 0 -1660.3622764463362 318.13675761036575 0 318.13675761036575 944.18923812531193 0 0 0 0 -2365.3393311010441 1342.7370996740901 0 1342.7370996740901 1066.6880017540807 0 0 0 0 -1.3425651748913054 -0.11723351916964475 0 -0.11723351916964475 -4.051560251968148 0 0 0 0 -437.27950877891635 269.13423782513917 0 269.13423782513917 908.95822620767649 0 0 0 0 57.960786926094443 248.34002655635686 0 248.34002655635686 452.16646230874903 0 0 0 0 -898.35854423244018 -278.31352601827439 0 -278.31352601827439 -247.1517399815566 0 0 0 0 -791.97408038662979 502.91304772431386 0 502.91304772431386 -471.02747600760995 0 0 0 0 -1042.3287327533471 56.964982805449836 0 56.964982805449836 1568.7561016824684 0 0 0 0 -1085.6974927458068 804.81033449162396 0 804.81033449162396 1179.720475762404 0 0 0 0 -347.64885400730418 942.23115139201855 0 942.23115139201855 1118.4897865672374 0 0 0 0 131.61321056759334 -743.8219405544387 0 -743.8219405544387 1257.4930339877333 0 0 0 0 693.52971463656286 40.440802905053715 0 40.440802905053715 737.80696995718336 0 0 0 0 -504.05383687798167 140.28951087837777 0 140.28951087837777 744.11080194298347 0 0 0 0 35.965368962439243 -239.50571296915041 0 -239.50571296915041 455.3214335825196 0 0 0 0 -738.34586493582174 -138.93093245634918 0 -138.93093245634918 446.78226868157435 0 0 0 0 -394.40583826845977 -342.13735643026121 0 -342.13735643026121 1072.9549297363446 0 0 0 0 -329.86440009280341 -282.56622921592134 0 -282.56622921592134 205.4290865643452 0 0 0 0 -521.37311673068325 188.96177847017407 0 188.96177847017407 331.84325465580764 0 0 0 0 -632.37527868014877 -53.04239702756513 0 -53.04239702756513 448.9500986498532 0 0 0 0 -397.38261989492457 82.954459114619567 0 82.954459114619567 -69.768755755288112 0 0 0 0 -482.2371346320142 -182.27677373940878 0 -182.27677373940878 365.80320047700116 0 0 0 0 -308.49579732416896 -111.44130663375927 0 -111.44130663375927 82.550180810397705 0 0 0 0 -379.6172863063839 -231.64500016954389 0 -231.64500016954389 695.71827237269281 0 0 0 0 -486.0160215330543 -223.64712778126159 0 -223.64712778126159 715.58617473309494 0 0 0 0 -259.49596031862893 -220.55049843249299 0 -220.55049843249299 338.94597429605346 0 0 0 0 -382.6219916904156 -199.72903011499852 0 -199.72903011499852 451.83839688422086 0 0 0 0 -265.21789550001267 -323.65220570920519 0 -323.65220570920519 470.9470522614356 0 0 0 0 -291.1852871789597 -207.37273210433341 0 -207.37273210433341 651.61024360917509 0 0 0 0 -98.535027378792165 -16.322703824379651 0 -16.322703824379651 -0.30699408362806779 0 0 0 0 -365.78877041809028 -196.30125763231354 0 -196.30125763231354 871.21256099414495 0 0 0 0 -335.91921633943275 -236.1197938399946 0 -236.1197938399946 808.08489498102426 0 0 0 0 -203.14851669879863 -90.44827152859807 0 -90.44827152859807 956.63886262846427 0 0 0 0 -288.3175655437517 -221.2166252849529 0 -221.2166252849529 807.31975203447053 0 0 0 0 -525.47032190300524 -427.53217180402953 0 -427.53217180402953 1721.0543794554346 0 0 0 0 -98.937263383498248 -12.607413345172723 0 -12.607413345172723 0.87022729277626509 0 0 0 0 -280.4228927300428 -307.24150734885006 0 -307.24150734885006 712.64676497394305 0 0 0 0 -414.55201113948715 -375.52041051612741 0 -375.52041051612741 1180.5921609538145 0 0 0 0 -250.4917168666143 -247.01209997643127 0 -247.01209997643127 695.34855201249252 0 0 0 0 -357.24281297065318 -307.37236115903488 0 -307.37236115903488 927.64903064109603 0 0 0 0 -427.85247223218903 -23.546281787815133 0 -23.546281787815133 1417.3592245738364 0 0 0 0 -357.41449491531239 -191.30057513401994 0 -191.30057513401994 957.58418246307747 0 0 0 0 -534.14363671369574 -220.98317085314156 0 -220.98317085314156 224.34955824662529 0 0 0 0 -536.84205118307727 -362.87776815834968 0 -362.87776815834968 1065.0969070738872 0 0 0 0 -383.12523645348847 -121.36667389810918 0 -121.36667389810918 929.03685694353908 0 0 0 0 -99.748621011419687 -8.9983976836528399 0 -8.9983976836528399 0.88581299189809659 0 0 0 0 -349.1882320989971 170.61286495495233 0 170.61286495495233 35.272735893369145 0 0 0 0 -165.76196949626319 -55.579965961955622 0 -55.579965961955622 637.38799220116289 0 0 0 0 -331.42391705563932 -51.043014770606987 0 -51.043014770606987 377.15712433005501 0 0 0 0 -185.5911956440832 -246.54855584084817 0 -246.54855584084817 378.42145592016914 0 0 0 0 -453.98754441260462 -403.62697714455072 0 -403.62697714455072 707.48824387506102 0 0 0 0 -265.71033843919577 -154.61800108573516 0 -154.61800108573516 121.88701534803181 0 0 0 0 -161.09176164420933 -220.35307324976634 0 -220.35307324976634 322.09999152411729 0 0 0 0 -252.36403590190457 -56.298333479626308 0 -56.298333479626308 498.6172292728279 0 0 0 0 -138.01624017809809 -287.4300615917432 0 -287.4300615917432 651.74849355470178 0 0 0 0 -218.33142123733705 59.535046382114388 0 59.535046382114388 816.11982702926389 0 0 0 0 -188.37071227451088 12.118828876339649 0 12.118828876339649 332.23177286376813 0 0 0 0 -259.70919615758157 -196.78590461680662 0 -196.78590461680662 536.95337887275309 0 0 0 0 50.34436670874129 -12.462914606430786 0 -12.462914606430786 476.42433607263467 0 0 0 0 -311.43799849567586 -159.59081508070153 0 -159.59081508070153 441.40748785276082 0 0 0 0 -136.0777944542715 -349.19232654499751 0 -349.19232654499751 291.32512138731636 0 0 0 0 -472.01361737554544 -380.95986802597236 0 -380.95986802597236 657.55069801798368 0 0 0 0 35.214236107189208 -242.91908151263988 0 -242.91908151263988 328.03563842006565 0 0 0 0 -95.862789945806298 -20.585154058239603 0 -20.585154058239603 -3.0976525216571398 0 0 0 0 -78.47118968410382 -6.7635083904994531 0 -6.7635083904994531 1.1446894430985175 0 0 0 0 -374.58960378728807 -371.19296218010459 0 -371.19296218010459 291.59550370258432 0 0 0 0 -7.2656039739667904 392.62308704839188 0 392.62308704839188 -207.99166803216849 0 0 0 0 -97.617956661801259 -13.001191013686817 0 -13.001191013686817 -1.0416358462242421 0 0 0 0 -964.87315456914075 -575.32036152467356 0 -575.32036152467356 -575.13231900676942 0 0 0 0 -862.29166034328227 2553.0759770405693 0 2553.0759770405693 -493.15437213575899 0 0 0 0 -5486.4202441430389 886.50883387185741 0 886.50883387185741 332.73511907766544 0 0 0 0 -15.07159892615968 -2.4959452588258841 0 -2.4959452588258841 -5.1828880866828495 0 0 0 0 -2562.0273408062494 -52.304865307344244 0 -52.304865307344244 -731.92504117021599 0 0 0 0 -24.989325894610374 -175.58158627858143 0 -175.58158627858143 -568.94680567571004 0 0 0 0 60.831397120542533 44.249482100128603 0 44.249482100128603 -81.836619714282733 0 0 0 0 -204.13987763268233 -27.850984553675062 0 -27.850984553675062 -61.67495466695118 0 0 0 0 -165.1219381598421 -300.35491870944406 0 -300.35491870944406 -335.17416807062114 0 0 0 0 -231.92745411746364 -472.33449999518859 0 -472.33449999518859 -681.89650679100669 0 0 0 0 -713.30425176343124 -660.34687126696406 0 -660.34687126696406 -182.67872404753922 0 0 0 0 -398.2517582934197 -168.90579650232721 0 -168.90579650232721 -210.15290643669687 0 0 0 0 -497.41678989880893 -118.15751625947848 0 -118.15751625947848 412.41203505940371 0 0 0 0 -864.66324172372697 -772.28013358259966 0 -772.28013358259966 930.62340914950562 0 0 0 0 -98.139396833852516 -12.508662416305818 0 -12.508662416305818 0.80988360682297844 0 0 0 0 -27.848940699943341 -314.7867230031452 0 -314.7867230031452 1118.5350011626988 0 0 0 0 -366.37454062000324 -202.08156387812915 0 -202.08156387812915 466.15527528465321 0 0 0 0 -23.925022795334428 -6.3014612273795763 0 -6.3014612273795763 10.593048543987848 0 0 0 0 -481.87297679038602 -1065.738354500977 0 -1065.738354500977 -1838.9615016687692 0 0 0 0 -36.511423364798247 8.064176103667279 0 8.064176103667279 -2.9436207646733896 0 0 0 0 -145.28996495451429 1112.0974382813511 0 1112.0974382813511 -953.22996774078786 0 0 0 0 -166.41631822069758 -96.179220780435401 0 -96.179220780435401 398.57749591393076 0 0 0 0 -765.68898727953956 15.96978835466583 0 15.96978835466583 548.7669783862093 0 0 0 0 17.933855796920398 522.35289839541883 0 522.35289839541883 635.90346300193653 0 0 0 0 -14.263395454029364 8.2519049994022282 0 8.2519049994022282 -2.6393981760027541 0 0 0 0 -5495.5337772849598 -1339.3356106714286 0 -1339.3356106714286 555.9837626614501 0 0 0 0 -2112.8142716496659 -1108.7367020859779 0 -1108.7367020859779 564.51369085051306 0 0 0 0 -5489.0061679393011 30.454966074417875 0 30.454966074417875 625.49201417157121 0 0 0 0 -29.359876233111947 -3.5124235870184606 0 -3.5124235870184606 -3.2017268217427772 0 0 0 0 -1906.1244519487955 1016.8627635226298 0 1016.8627635226298 -634.69820161765745 0 0 0 0 -5468.1875849201024 -1901.2737837222562 0 -1901.2737837222562 236.24718947716815 0 0 0 0 -1466.0165811205734 -106.42182973457959 0 -106.42182973457959 -1.2156670387274837 0 0 0 0 551.47636764493654 -833.97632879721789 0 -833.97632879721789 -1319.5686660455588 0 0 0 0 106.05734523008869 -1329.0548610092505 0 -1329.0548610092505 -1032.1875937318628 0 0 0 0 -1427.9035368562836 313.23476829183517 0 313.23476829183517 1343.8449894450623 0 0 0 0 -12.787813853479975 -4.9427766598599474 0 -4.9427766598599474 1.3622774256318608 0 0 0 0 -5478.347548212987 -2778.42774260858 0 -2778.42774260858 97.665334335993535 0 0 0 0 -1936.2630689977232 -105.85482767265931 0 -105.85482767265931 97.498194177826448 0 0 0 0 -1567.7416418054199 -499.92386202354214 0 -499.92386202354214 360.59013451474897 0 0 0 0 -1472.3057242856048 225.55921770476181 0 225.55921770476181 -262.84951870361522 0 0 0 0 -1284.7627675308904 -559.67982555921606 0 -559.67982555921606 -846.18823663615251 0 0 0 0 60.562835159158567 -1343.386849534214 0 -1343.386849534214 -1011.7123892256222 0 0 0 0 -12.652489851467408 -4.0481387939826305 0 -4.0481387939826305 -0.15603079427829641 0 0 0 0 127.76300177152734 -287.96691296212094 0 -287.96691296212094 152.68670576154648 0 0 0 0 -177.31523807683698 80.113298088164115 0 80.113298088164115 326.45930404646555 0 0 0 0 -1306.6851012812112 -1300.667769088172 0 -1300.667769088172 -318.33507078003919 0 0 0 0 -1113.1498668521235 -259.66352851083479 0 -259.66352851083479 273.1699989781057 0 0 0 0 -519.33482971179183 173.76445531093535 0 173.76445531093535 -278.26088681431833 0 0 0 0 -994.57721922078053 449.59020070185699 0 449.59020070185699 224.78213984739475 0 0 0 0 -276.22469367299345 78.731215869510351 0 78.731215869510351 317.26018676690131 0 0 0 0 -1117.9161400329358 179.02148184029954 0 179.02148184029954 470.9444795743716 0 0 0 0 -1105.3608313059376 259.06661909915897 0 259.06661909915897 95.454598292417046 0 0 0 0 -984.42903560574632 -159.76382769837554 0 -159.76382769837554 -501.47462919953819 0 0 0 0 -999.04479264638212 -187.66060019147389 0 -187.66060019147389 -466.89776303697641 0 0 0 0 -964.2614414425625 15.248248765724483 0 15.248248765724483 -339.1609640847127 0 0 0 0 -895.59957451107039 -28.649465913974858 0 -28.649465913974858 -338.78210874984421 0 0 0 0 -455.37549677577044 -444.80150560845937 0 -444.80150560845937 -115.48258861888718 0 0 0 0 -4.1314989464943892 -0.055021696062834025 0 -0.055021696062834025 -0.07785926056487863 0 0 0 0 34.370110083109466 -205.07095833836021 0 -205.07095833836021 18.029704429970884 0 0 0 0 -186.53813360366985 57.409300325158497 0 57.409300325158497 118.91461898379711 0 0 0 0 -12.006979170959539 1.304201545298195 0 1.304201545298195 -0.024537659922682503 0 0 0 0 167.42050082065907 222.51098156372038 0 222.51098156372038 -14.993959882400191 0 0 0 0 -3.1705498041410465 150.33445231421888 0 150.33445231421888 -38.451281689080815 0 0 0 0 -73.314271808310878 149.12199209406677 0 149.12199209406677 3.289306418705678 0 0 0 0 -8.2993675450522915 5.6424374652742202 0 5.6424374652742202 0.0025071386352226999 0 0 0 0 -4.1868924186875347 2.6276124984579798 0 2.6276124984579798 -0.24880453788790596 0 0 0 0 -212.14808139452362 437.44285008338244 0 437.44285008338244 -722.22083771085886 0 0 0 0 -78.601744955813047 104.66776651081024 0 104.66776651081024 -86.352815898959079 0 0 0 0 -58.049532184522832 253.17545932581325 0 253.17545932581325 -132.71459655642838 0 0 0 0 -16.260231717809802 172.9342414181547 0 172.9342414181547 -23.790547110435988 0 0 0 0 -68.121948395913932 226.72924348620995 0 226.72924348620995 80.519445581905472 0 0 0 0 -3.9719190769246779 122.11366820259869 0 122.11366820259869 135.38661716154854 0 0 0 0 -26.15248646006512 171.17439019578418 0 171.17439019578418 56.694215563039734 0 0 0 0 -53.507377988677945 13.224980781185845 0 13.224980781185845 -56.734873737177132 0 0 0 0 -163.59486156857747 10.19060287362305 0 10.19060287362305 -34.72197793322924 0 0 0 0 -487.40863144362811 333.436500159258 0 333.436500159258 389.82517912531762 0 0 0 0 -88.488473949537934 -4.8080160840452777 0 -4.8080160840452777 0.62177253091437423 0 0 0 0 -330.92102378363779 47.023331995014928 0 47.023331995014928 681.20216378736063 0 0 0 0 -484.74869844976638 -215.56872803142869 0 -215.56872803142869 143.84679991332672 0 0 0 0 -995.01923179200094 -57.645289391279299 0 -57.645289391279299 1355.264611363539 0 0 0 0 -99.024150320982926 -10.006680732659564 0 -10.006680732659564 0.40560653504708133 0 0 0 0 -389.72725295733835 -226.92625495143565 0 -226.92625495143565 -113.35012306082717 0 0 0 0 30.847616069266223 -113.23689716639285 0 -113.23689716639285 -199.93127898990087 0 0 0 0 -489.53956175041094 140.30057698669998 0 140.30057698669998 -100.39471408230293 0 0 0 0 -360.79961560192169 -241.87618170981887 0 -241.87618170981887 -344.33127090530456 0 0 0 0 -2.092460032758936 -1.8395043683516406 0 -1.8395043683516406 -2.1735914472114306 0 0 0 0 -37.878279269498307 -17.373156105529915 0 -17.373156105529915 19.787391592413542 0 0 0 0 -68.234477379905002 33.535401484439262 0 33.535401484439262 -1.8572218290000819 0 0 0 0 -57.804084759314719 -12.561792556655078 0 -12.561792556655078 -108.22794268395023 0 0 0 0 -117.07656096736901 52.732318735412946 0 52.732318735412946 -24.850874959304349 0 0 0 0 -64.626673633538303 19.184622582840738 0 19.184622582840738 -16.827439710549648 0 0 0 0 -61.578438494223519 9.6246651308613043 0 9.6246651308613043 -41.844802222956204 0 0 0 0 -58.177859765593894 38.225061119178918 0 38.225061119178918 -36.173600868362769 0 0 0 0 -56.771262655300234 29.810122505137201 0 29.810122505137201 -13.938551793250554 0 0 0 0 -41.676088670350225 37.273699267832825 0 37.273699267832825 -13.762117640703206 0 0 0 0 -52.581738916574977 39.804712261638088 0 39.804712261638088 -24.87623001474833 0 0 0 0 -60.314815456185897 501.97742907428687 0 501.97742907428687 315.23379315724742 0 0 0 0 -388.77272695508145 -237.23558306941277 0 -237.23558306941277 -51.826504897245741 0 0 0 0 -327.32473781960107 -87.033000246484164 0 -87.033000246484164 96.610905063825157 0 0 0 0 -396.96563438730664 -10.616529357974969 0 -10.616529357974969 63.9553113631938 0 0 0 0 -55.725079612672516 29.401654316153014 0 29.401654316153014 -9.0949600201750087 0 0 0 0 -57.120790574440434 5.2407057095209666 0 5.2407057095209666 -3.7852147072457814 0 0 0 0 -50.855828874526196 26.446023856105306 0 26.446023856105306 -32.953003354154276 0 0 0 0 -14.462230028446356 31.177505936111743 0 31.177505936111743 -153.10334190452932 0 0 0 0 -588.07670002224768 -100.22051786835107 0 -100.22051786835107 34.031900086867608 0 0 0 0 -100.11611435378677 -5.0644847154245198 0 -5.0644847154245198 -2.4741577122478962 0 0 0 0 -325.30248254621984 4.5041271319532825 0 4.5041271319532825 -11.689859479106417 0 0 0 0 -30.050139911136796 4.3216747785720315 0 4.3216747785720315 -8.7734183979028728 0 0 0 0 -2.4105950859654399 2.2181164347503852 0 2.2181164347503852 -5.4676563302525532 0 0 0 0 -143.65958201431204 -79.535127771813109 0 -79.535127771813109 -168.8493743980199 0 0 0 0 30.62249639237416 16.181743162877027 0 16.181743162877027 -159.28546423705188 0 0 0 0 -32.37420642307552 65.127210113616201 0 65.127210113616201 -30.690362147605327 0 0 0 0 14.366497552575311 11.507941036679853 0 11.507941036679853 -140.29598334124921 0 0 0 0 -75.495687961185467 103.54496119528005 0 103.54496119528005 41.376010108222971 0 0 0 0 -72.380217716561788 -3.0139443697140145 0 -3.0139443697140145 1.030171043476785 0 0 0 0 -38.400055041303858 148.27463803281586 0 148.27463803281586 92.363725984271454 0 0 0 0 -2.4234780061233323 183.20417534692623 0 183.20417534692623 62.696469955407167 0 0 0 0 -18.150531191895425 38.205070282258454 0 38.205070282258454 0.25719710932455297 0 0 0 0 13.576376188073482 144.9185796202336 0 144.9185796202336 10.087285383245671 0 0 0 0 -23.073956757576525 187.71000393725885 0 187.71000393725885 63.606411841864713 0 0 0 0 46.829357047157828 220.4500266660194 0 220.4500266660194 97.092344080889262 0 0 0 0 -7.2491636410221645 5.5359106650188368 0 5.5359106650188368 0.32145999184444984 0 0 0 0 -44.536880203682813 192.50014563340011 0 192.50014563340011 455.7759501511689 0 0 0 0 31.10209001696785 59.584104550275811 0 59.584104550275811 173.70459388633867 0 0 0 0 21.287134870042792 112.41663586473555 0 112.41663586473555 4.9607249882385531 0 0 0 0 -87.606220727553591 30.5415053846163 0 30.5415053846163 311.48880730202313 0 0 0 0 -26.322747837810311 7.6246662452724507 0 7.6246662452724507 34.617554042998044 0 0 0 0 2.2092914744862355 78.967096277739472 0 78.967096277739472 149.82630184234984 0 0 0 0 50.494864957130631 101.56285089059713 0 101.56285089059713 78.011509729839986 0 0 0 0 -20.199419992558887 2.1214176586362861 0 2.1214176586362861 0.013675858324700502 0 0 0 0 -27.95467710754383 23.656876605952355 0 23.656876605952355 -21.915485371083669 0 0 0 0 -34.368671320160502 16.164947410850079 0 16.164947410850079 25.554788529959005 0 0 0 0 -28.018249434372251 2.177213737123914 0 2.177213737123914 0.25504368484677414 0 0 0 0 -174.00549431948457 84.636935873296466 0 84.636935873296466 393.69983895316204 0 0 0 0 191.84049647115171 105.77371155322484 0 105.77371155322484 -220.07913252453744 0 0 0 0 -3.1515955570885126 2.1888250726426062 0 2.1888250726426062 0.47376194679097267 0 0 0 0 65.040427535772324 -93.050609643918108 0 -93.050609643918108 298.70538721031744 0 0 0 0 -726.66067119562649 144.3912820667303 0 144.3912820667303 922.79415743231391 0 0 0 0 190.08962509866979 277.14056972044398 0 277.14056972044398 113.84025364020401 0 0 0 0 80.583342489793722 68.571534835660387 0 68.571534835660387 -44.823748976007124 0 0 0 0 -479.93118244109792 479.74523114184552 0 479.74523114184552 -185.90035042177303 0 0 0 0 -109.48362596424704 -187.95342809814215 0 -187.95342809814215 -455.35380626891146 0 0 0 0 -1063.8611717507301 -225.3683297197035 0 -225.3683297197035 281.66565385139313 0 0 0 0 -149.65944754199882 -4.6780179832139765 0 -4.6780179832139765 -707.15400088195588 0 0 0 0 -136.45149071338528 -165.52512644016508 0 -165.52512644016508 60.22593084080097 0 0 0 0 -143.87981920978928 -333.70924712313183 0 -333.70924712313183 537.44998291010666 0 0 0 0 206.21125122117519 -101.43235018378306 0 -101.43235018378306 7.9386983888504119 0 0 0 0 -138.54648011273821 52.883940032852706 0 52.883940032852706 314.78665870869236 0 0 0 0 -241.93159382558952 -68.568027237022648 0 -68.568027237022648 200.82474639648444 0 0 0 0 -623.6017664646206 165.03979189032265 0 165.03979189032265 659.71598160787164 0 0 0 0 -32.496955206738107 -0.24490842233252508 0 -0.24490842233252508 0.91074754521859558 0 0 0 0 -33.10693805036135 -4.3823368080846592 0 -4.3823368080846592 -13.158684313079533 0 0 0 0 -272.27372841053875 178.29432739473077 0 178.29432739473077 623.63968994160632 0 0 0 0 -94.954387776975636 22.900201922589655 0 22.900201922589655 -0.14334695626893731 0 0 0 0 -5.2670024716462649 1.3929251901971611 0 1.3929251901971611 3.6565377594722475 0 0 0 0 317.2913915028621 -213.21427956942105 0 -213.21427956942105 347.54142374279047 0 0 0 0 -230.26467487531772 -371.40052479689251 0 -371.40052479689251 365.32193005749809 0 0 0 0 -22.985585593817632 -11.216799952640514 0 -11.216799952640514 -2.7696828248250638 0 0 0 0 -167.70245532540139 69.575297528727106 0 69.575297528727106 -41.001569606015053 0 0 0 0 139.78108129862812 -577.63792497887971 0 -577.63792497887971 448.98260059191944 0 0 0 0 -143.71739197926945 73.649724800635667 0 73.649724800635667 -69.659733943272499 0 0 0 0 -23.007367847720161 -1.7724015892492275 0 -1.7724015892492275 -44.706640984605791 0 0 0 0 -1.2132187450163201 -7.8645020006442614 0 -7.8645020006442614 -0.21609699813063638 0 0 0 0 -166.92410985328024 62.390808725291066 0 62.390808725291066 -21.81228286175341 0 0 0 0 -258.41410178662045 61.92868404228706 0 61.92868404228706 22.528476263658888 0 0 0 0 -194.92949513273197 84.962866384428935 0 84.962866384428935 -40.000138684150961 0 0 0 0 -203.15369212802034 103.39518812605917 0 103.39518812605917 -44.44339161204141 0 0 0 0 -177.79320872892276 93.254525965198511 0 93.254525965198511 -55.074380521675913 0 0 0 0 -310.03657091170953 117.44007934494721 0 117.44007934494721 -24.746462844445148 0 0 0 0 -282.28432250086917 109.87214944653869 0 109.87214944653869 -59.804290052019269 0 0 0 0 -280.73604717946728 175.18511313602005 0 175.18511313602005 -116.33173570499102 0 0 0 0 -14.681943255379394 -8.8486321182709844 0 -8.8486321182709844 -3.2630985115246531 0 0 0 0 245.65819368869597 -476.33854691990672 0 -476.33854691990672 430.91977630050803 0 0 0 0 147.93565209797816 -47.529119305989525 0 -47.529119305989525 88.580136655309161 0 0 0 0 308.84013745590346 -476.38725348894275 0 -476.38725348894275 208.26716086600254 0 0 0 0 -252.78484240543912 -177.18660830210843 0 -177.18660830210843 92.377382794761843 0 0 0 0 -95.388687640109424 -6.9840556912712657 0 -6.9840556912712657 0.86434654934198152 0 0 0 0 59.869717559617129 -50.777955607913555 0 -50.777955607913555 -170.0287835506274 0 0 0 0 -107.07058435911313 60.830061301380397 0 60.830061301380397 -108.68294718692596 0 0 0 0 119.75961211766116 -140.00051953123443 0 -140.00051953123443 -52.393469701476079 0 0 0 0 18.016236038529314 93.330635589518266 0 93.330635589518266 -261.85284839501355 0 0 0 0 -391.46368980457191 156.98911125084828 0 156.98911125084828 -104.91095026965922 0 0 0 0 -1245.02875815671 -24.054882240828874 0 -24.054882240828874 -85.368218133780147 0 0 0 0 -312.35024534960394 -50.578314861132185 0 -50.578314861132185 -97.384977524312831 0 0 0 0 -109.38943246261624 60.826363760933987 0 60.826363760933987 -101.35422517427332 0 0 0 0 -97.249708802676707 -10.931285434717473 0 -10.931285434717473 -1.1174099432397373 0 0 0 0 -256.40787512157112 18.506682623554752 0 18.506682623554752 68.835604668282258 0 0 0 0 -103.48023809953884 20.156416628341049 0 20.156416628341049 -63.233227495737992 0 0 0 0 -268.13208861864405 -15.147361064904999 0 -15.147361064904999 -15.283862857578697 0 0 0 0 -199.38296514598187 -32.461038655857919 0 -32.461038655857919 -84.897618765898187 0 0 0 0 -331.54999167730966 -61.895089321377668 0 -61.895089321377668 -46.638336689058633 0 0 0 0 -213.74934922120883 36.262586378063133 0 36.262586378063133 -60.055481658700387 0 0 0 0 -198.93705866489472 -5.2673863319050724 0 -5.2673863319050724 -216.21732985686867 0 0 0 0 -135.47835429926636 -11.437235553164555 0 -11.437235553164555 -153.95790274763021 0 0 0 0 -153.45384283183375 9.8288653315648844 0 9.8288653315648844 -31.341308864257485 0 0 0 0 -1.0738544971563613 0.42898227518361409 0 0.42898227518361409 1.5087592456501717 0 0 0 0 -617.14951813118387 -245.1449142196243 0 -245.1449142196243 -231.22701879106353 0 0 0 0 -735.07831711086328 -447.81223308981225 0 -447.81223308981225 -77.253659159435301 0 0 0 0 -98.445323394538718 -40.150734573499903 0 -40.150734573499903 46.845608286610513 0 0 0 0 -17.487791761503132 -3.7109561094365233 0 -3.7109561094365233 4.9940967894216968 0 0 0 0 -104.04567033847127 -73.793453798492166 0 -73.793453798492166 -20.19692792065689 0 0 0 0 -579.79416189827316 -139.10052532293503 0 -139.10052532293503 207.21384591807839 0 0 0 0 -75.046189029989876 -8.1339222333851602 0 -8.1339222333851602 -0.66673964206262748 0 0 0 0 -540.23249732366821 -1038.3647420235484 0 -1038.3647420235484 401.55636016866083 0 0 0 0 -964.64990528201452 -55.051824705147737 0 -55.051824705147737 182.7418969595775 0 0 0 0 -99.159563166885846 -10.511013571532331 0 -10.511013571532331 -0.087164139775735672 0 0 0 0 -612.74814534642064 8.4477455157656323 0 8.4477455157656323 -17.299794772243331 0 0 0 0 -470.62963953582221 -243.42368465884647 0 -243.42368465884647 -227.94879718608718 0 0 0 0 -686.38876494017313 -238.39264668088435 0 -238.39264668088435 -59.844066899568134 0 0 0 0 -726.01516089352663 -238.40656947296884 0 -238.40656947296884 -129.12824348076265 0 0 0 0 -730.19457391287506 -262.11175378225187 0 -262.11175378225187 -203.09880086367411 0 0 0 0 -531.16742575384342 11.495221607571921 0 11.495221607571921 -155.28669536263078 0 0 0 0 -74.550099209809559 -12.68078002628954 0 -12.68078002628954 -215.7792936181944 0 0 0 0 -205.18764335061132 127.43492459183653 0 127.43492459183653 -305.32993087159957 0 0 0 0 -132.87252560920751 -87.381330002479444 0 -87.381330002479444 -311.08522689124038 0 0 0 0 -49.623460323515189 -5.1935387950989167 0 -5.1935387950989167 -0.56782091660810341 0 0 0 0 -141.23510405072011 33.713608590991726 0 33.713608590991726 276.37188897902888 0 0 0 0 -213.25583638402168 -183.38782834507219 0 -183.38782834507219 -51.165445804259434 0 0 0 0 -58.220534473643056 19.53966108390614 0 19.53966108390614 -79.470234756447098 0 0 0 0 -142.80616456976622 46.244596410020591 0 46.244596410020591 -90.912482174596335 0 0 0 0 -126.71451502255513 -114.60251473880521 0 -114.60251473880521 -191.30691140287149 0 0 0 0 -278.31840768436086 -47.508372541428344 0 -47.508372541428344 -189.11671362972447 0 0 0 0 -305.39456999085087 -147.9913703859736 0 -147.9913703859736 -268.97956914674342 0 0 0 0 -526.31061803401099 -81.77677716292601 0 -81.77677716292601 -66.643265334097123 0 0 0 0 -836.70702137031185 45.905394095022984 0 45.905394095022984 -22.134596732178125 0 0 0 0 -831.37033823916863 71.177110126115167 0 71.177110126115167 35.487258502961595 0 0 0 0 -636.61804540167213 -173.31282399668862 0 -173.31282399668862 -217.30504490316571 0 0 0 0 -528.21080317500673 -19.199141105506897 0 -19.199141105506897 -311.71393664666084 0 0 0 0 -224.3701329166106 -376.45471220541913 0 -376.45471220541913 -160.10224381985472 0 0 0 0 -736.34103424439672 -20.856120026808753 0 -20.856120026808753 -306.01452931290032 0 0 0 0 -519.13341090482572 -41.425101653534512 0 -41.425101653534512 -214.05376707140022 0 0 0 0 -425.36383155104704 -209.12015099097363 0 -209.12015099097363 -324.74824735291622 0 0 0 0 -4.4251760553439965 -1.3509841081004339 0 -1.3509841081004339 2.5906642405361548 0 0 0 0 -868.89387650613935 39.487344592659952 0 39.487344592659952 16.459983135749212 0 0 0 0 -418.92977910520858 64.040200086670211 0 64.040200086670211 17.668993859601557 0 0 0 0 -227.30194125831986 -18.981069008143663 0 -18.981069008143663 26.2455355641182 0 0 0 0 -508.84474610062171 -103.86883523142347 0 -103.86883523142347 94.067912502778654 0 0 0 0 -355.33610538847279 -128.95274388497546 0 -128.95274388497546 92.533626170096596 0 0 0 0 -381.65224656123246 -84.970685460278219 0 -84.970685460278219 21.493283922948649 0 0 0 0 -323.99136430953513 -15.699178597807077 0 -15.699178597807077 27.278054359981013 0 0 0 0 -199.09216844834009 -85.66154113332459 0 -85.66154113332459 -12.649744362243837 0 0 0 0 -361.42949344241788 -128.52218420405143 0 -128.52218420405143 176.90595030678833 0 0 0 0 -307.84802746909554 -152.98160147206289 0 -152.98160147206289 -114.34468907981329 0 0 0 0 -302.29805450821004 -123.77358081895164 0 -123.77358081895164 19.175260771542298 0 0 0 0 -184.51176094169568 -236.8514612954354 0 -236.8514612954354 86.992563853023967 0 0 0 0 -139.2893508085981 -91.110680489252672 0 -91.110680489252672 17.737049784876376 0 0 0 0 -188.16036228709709 -138.75083519685961 0 -138.75083519685961 -136.55212903835798 0 0 0 0 -378.52969426704658 -104.27363299622155 0 -104.27363299622155 -91.577121497708731 0 0 0 0 -236.16862248773396 -146.0140434304854 0 -146.0140434304854 -251.53060492201541 0 0 0 0 -206.19752081376646 -82.705873743243785 0 -82.705873743243785 -128.05331121616064 0 0 0 0 -199.08550990070216 -83.082088439652011 0 -83.082088439652011 -151.79183257611913 0 0 0 0 -255.27133927884643 -93.652565295104921 0 -93.652565295104921 -68.207280837306598 0 0 0 0 -504.85436014877632 -226.21117633865197 0 -226.21117633865197 -46.938051857673145 0 0 0 0 -240.15499927245764 -103.83000212140496 0 -103.83000212140496 -274.51108978180491 0 0 0 0 -456.00181692856131 18.460511225558548 0 18.460511225558548 17.628657184557369 0 0 0 0 -307.64244528878771 -214.74168444123814 0 -214.74168444123814 194.02415976088599 0 0 0 0 -216.72792174021015 -111.35080378086889 0 -111.35080378086889 -68.233949817408629 0 0 0 0 -227.22528655359201 -129.36729212540422 0 -129.36729212540422 40.569405851820648 0 0 0 0 -390.28041712877894 177.0816128256356 0 177.0816128256356 -582.6485732715455 0 0 0 0 -127.43551763682825 -18.555159669691193 0 -18.555159669691193 27.948046142448888 0 0 0 0 -283.76295018549717 27.835090480567033 0 27.835090480567033 -500.6335868034912 0 0 0 0 -131.19621130631987 -16.133821056959732 0 -16.133821056959732 30.789980913341672 0 0 0 0 -487.93048222953803 328.31041025398872 0 328.31041025398872 -531.32722168140481 0 0 0 0 -124.50361270128633 -71.392738364170327 0 -71.392738364170327 -493.01539619020878 0 0 0 0 -108.16259096266003 -97.737346619062919 0 -97.737346619062919 -481.97632556118333 0 0 0 0 -272.76332874080254 -90.310582085810893 0 -90.310582085810893 -429.30536660912549 0 0 0 0 -278.32710821774526 -48.716885406643542 0 -48.716885406643542 -432.44580489318469 0 0 0 0 -318.28542972541618 -80.171645527089822 0 -80.171645527089822 -408.04486011521658 0 0 0 0 -187.80955911627098 -49.536983288702686 0 -49.536983288702686 -440.06811095164903 0 0 0 0 -162.54057969495989 -105.99808372697271 0 -105.99808372697271 -317.27423910882862 0 0 0 0 -192.76528402058466 -7.5111388878067373 0 -7.5111388878067373 -443.60408582755713 0 0 0 0 -181.65011176607732 27.222731289882176 0 27.222731289882176 -335.14491565733624 0 0 0 0 -131.19184387632831 -14.111825544343219 0 -14.111825544343219 23.304495151982934 0 0 0 0 -273.12052696425781 -430.22562655143008 0 -430.22562655143008 -132.71413976728218 0 0 0 0 -218.11387208786618 27.323724585228092 0 27.323724585228092 109.23609630010333 0 0 0 0 -6.454357049934913 -12.752314388287271 0 -12.752314388287271 6.6251744980872642 0 0 0 0 -478.20482429402182 -57.921194010720683 0 -57.921194010720683 102.02970105382747 0 0 0 0 -21.712970592547208 -9.0616949403629405 0 -9.0616949403629405 6.1326603252919085 0 0 0 0 -19.54566832574119 -81.794303794127032 0 -81.794303794127032 42.894620025097538 0 0 0 0 -37.597505944781005 -54.994051554015641 0 -54.994051554015641 -52.998573528851011 0 0 0 0 -159.1534113541129 -16.382600174317304 0 -16.382600174317304 9.9526460552870049 0 0 0 0 52.585118547351158 -20.369161218110321 0 -20.369161218110321 -54.187860911667485 0 0 0 0 1.4246669509848289 2.2245283789573023 0 2.2245283789573023 -23.344351245272264 0 0 0 0 -96.262646432398469 -183.3922070325616 0 -183.3922070325616 -88.892136776585176 0 0 0 0 347.30617732077371 -147.06418553969252 0 -147.06418553969252 -87.078211369411974 0 0 0 0 -235.59912529985013 -510.97751379446709 0 -510.97751379446709 50.968391779455487 0 0 0 0 -663.17047926277155 -125.54000954595631 0 -125.54000954595631 160.29772790214338 0 0 0 0 -296.91321443644119 -59.610883133499556 0 -59.610883133499556 44.207601146052184 0 0 0 0 -181.03061080941552 -50.900664814328252 0 -50.900664814328252 36.594839869506359 0 0 0 0 -407.17934121123108 -141.79810252050402 0 -141.79810252050402 142.69602296213452 0 0 0 0 -321.56947073174524 26.479343233354484 0 26.479343233354484 45.309694068261706 0 0 0 0 -442.08064625736733 -76.817342679680678 0 -76.817342679680678 27.700189569688519 0 0 0 0 -233.5013291601208 -37.270415219730239 0 -37.270415219730239 -162.30397527472132 0 0 0 0 -61.214954851631774 -71.854769253868653 0 -71.854769253868653 -25.936485298123443 0 0 0 0 -582.5210908937006 101.67800352216182 0 101.67800352216182 30.884851886549995 0 0 0 0 -526.13405896118638 -7.2109432254344483 0 -7.2109432254344483 205.99979854513003 0 0 0 0 -1444.8827050514228 19.577238142456736 0 19.577238142456736 205.21919673014804 0 0 0 0 -17.752613379391278 -1.5532101270540331 0 -1.5532101270540331 -0.67665060930120413 0 0 0 0 -638.60960390538094 406.98646981309957 0 406.98646981309957 -63.569477025196647 0 0 0 0 -50.702220049977768 221.95161488021768 0 221.95161488021768 -116.55089196754398 0 0 0 0 -213.42167587240692 -110.37157015655066 0 -110.37157015655066 -190.07183246114346 0 0 0 0 -216.03827203685069 -136.44791387592522 0 -136.44791387592522 -121.97143663381667 0 0 0 0 -543.08327820594423 -645.39575812589919 0 -645.39575812589919 -800.33143301977543 0 0 0 0 -1075.8643565090897 129.89485789360242 0 129.89485789360242 439.17825185748961 0 0 0 0 604.83779965883878 420.32427281732998 0 420.32427281732998 -1097.8661402015805 0 0 0 0 601.11909483214549 560.01981207703557 0 560.01981207703557 -288.39887345593525 0 0 0 0 -58.140962623627274 22.696684715675474 0 22.696684715675474 -12.375885630424591 0 0 0 0 -39.505317749223337 34.065224429804886 0 34.065224429804886 -14.611781859278835 0 0 0 0 51.690239785537415 137.96148579213741 0 137.96148579213741 0.60060911891196156 0 0 0 0 -14.631574964354854 11.606214993319441 0 11.606214993319441 0.91753497753978053 0 0 0 0 653.28427099189139 -458.16357940968919 0 -458.16357940968919 188.28578289117286 0 0 0 0 112.56345577244065 10.888602315075332 0 10.888602315075332 140.60312459169018 0 0 0 0 -697.93909969943343 -824.01140064766923 0 -824.01140064766923 -689.95921995425124 0 0 0 0 -93.411600417632144 23.099618040648238 0 23.099618040648238 -11.952758144249174 0 0 0 0 -71.766495217205375 25.62707163769619 0 25.62707163769619 -11.661398685128859 0 0 0 0 -45.176178490597522 28.326242511590863 0 28.326242511590863 -27.837828133760013 0 0 0 0 -68.063626232527895 37.670425992655055 0 37.670425992655055 -30.719142304172578 0 0 0 0 -16.795781423352025 -1.2997589368904414 0 -1.2997589368904414 -8.1908449279249034 0 0 0 0 -60.474257504169145 11.791824368184479 0 11.791824368184479 8.9368708069478089 0 0 0 0 -5.4211228990141649 -5.5227578291794543 0 -5.5227578291794543 -3.9961988407777715 0 0 0 0 -92.718786050216295 53.134891278999021 0 53.134891278999021 -47.647037659631224 0 0 0 0 -136.65255310793873 87.313606380831061 0 87.313606380831061 -56.190819826852248 0 0 0 0 -118.01383721914681 60.563618824850835 0 60.563618824850835 -87.864292471574572 0 0 0 0 -229.29123199559399 100.43572317983921 0 100.43572317983921 0.26316513162282718 0 0 0 0 -133.42290225101169 17.118800062812625 0 17.118800062812625 35.893510338116357 0 0 0 0 -212.76841037617851 -61.203465097980256 0 -61.203465097980256 144.13692271576701 0 0 0 0 -111.70968217989139 37.060087653297842 0 37.060087653297842 50.373129349634837 0 0 0 0 -148.45836047152989 58.624215268302578 0 58.624215268302578 38.814455629110853 0 0 0 0 -138.19060638546944 -5.7486639574181027 0 -5.7486639574181027 113.09301553895057 0 0 0 0 -120.32110425963765 11.193065260257754 0 11.193065260257754 29.042285799979027 0 0 0 0 -107.71233328747621 5.4773520403728071 0 5.4773520403728071 26.531039003530168 0 0 0 0 -78.648719122277441 -21.862159372306692 0 -21.862159372306692 2.6523496334560814 0 0 0 0 -92.903137490997324 -23.278013136151912 0 -23.278013136151912 12.875241571468905 0 0 0 0 -89.914270240125916 -15.266308644208038 0 -15.266308644208038 13.454234413094127 0 0 0 0 -49.324988852822571 -29.098205302003407 0 -29.098205302003407 -13.766455003561077 0 0 0 0 -123.78581130296243 -56.920624143226405 0 -56.920624143226405 143.17986137633807 0 0 0 0 -32.967692047357403 0.97552234484794553 0 0.97552234484794553 0.33286589795191368 0 0 0 0 -79.02878231939394 -62.839958931636374 0 -62.839958931636374 43.485168336709194 0 0 0 0 -26.104416706693797 -7.3351476581612189 0 -7.3351476581612189 -18.8962536462248 0 0 0 0 -37.355803493537678 -24.595392589931123 0 -24.595392589931123 -48.468917041277564 0 0 0 0 -41.647258657409111 -8.7197909557374942 0 -8.7197909557374942 -14.47310607625036 0 0 0 0 -97.675296179979341 -6.8883337016059158 0 -6.8883337016059158 -8.8091207293209663 0 0 0 0 -98.119097478091135 0.94478377041195927 0 0.94478377041195927 -26.570444006923935 0 0 0 0 -121.75143826173371 3.6496834065966368 0 3.6496834065966368 -16.619581201053734 0 0 0 0 -85.21756045082293 -6.4985347526881014 0 -6.4985347526881014 -6.1339393869830019 0 0 0 0 -79.669625376963666 -24.797761297895775 0 -24.797761297895775 8.6491939814641334 0 0 0 0 -63.016315729677444 2.2140999171740532 0 2.2140999171740532 -4.2276851846772843 0 0 0 0 -83.692956750444864 -1.8791337268780808 0 -1.8791337268780808 -4.8433255466579794 0 0 0 0 -23.163272887677834 20.477905869829897 0 20.477905869829897 -16.295240922470899 0 0 0 0 -7.3879307927854825 18.577185429583551 0 18.577185429583551 -25.702866201601296 0 0 0 0 -22.091515688342042 -18.765787352879215 0 -18.765787352879215 -2.9797883545420518 0 0 0 0 -27.707052042622934 10.377816580957159 0 10.377816580957159 -5.4846390487940759 0 0 0 0 -40.069588156533428 -8.1321719720185683 0 -8.1321719720185683 -7.3932763413340581 0 0 0 0 -19.561213041903102 -22.052831724779935 0 -22.052831724779935 -1.1490049167064171 0 0 0 0 -74.15053977741627 -4.0935838198643069 0 -4.0935838198643069 39.560976922291047 0 0 0 0 -94.929807887824978 4.3543148029270675 0 4.3543148029270675 6.7149772647962687 0 0 0 0 -64.949084871283787 -4.746834341464151 0 -4.746834341464151 4.3163783081423777 0 0 0 0 -62.387299614946642 1.800019156028597 0 1.800019156028597 9.8245693399236096 0 0 0 0 -108.95908517128555 -4.5453613115914777 0 -4.5453613115914777 19.885744846605121 0 0 0 0 -89.580406802913785 -13.182616730438554 0 -13.182616730438554 2.7145900016457745 0 0 0 0 -85.43566297563666 15.905467217764908 0 15.905467217764908 13.317254099623824 0 0 0 0 -94.055084495790652 -5.2212174283658896 0 -5.2212174283658896 -11.366937639148091 0 0 0 0 -52.620230659915251 -65.307942774998537 0 -65.307942774998537 -272.27432120943377 0 0 0 0 -176.46659254058613 -59.58262835727146 0 -59.58262835727146 -100.73322476932935 0 0 0 0 -89.973669486789731 -155.9857362797643 0 -155.9857362797643 -447.90679755473502 0 0 0 0 -185.92723982248572 -285.40654182892695 0 -285.40654182892695 -457.70538344745819 0 0 0 0 -125.54927305607998 -154.79354565816357 0 -154.79354565816357 -238.46806325674515 0 0 0 0 -27.933385515090777 -220.41021903773935 0 -220.41021903773935 -482.85763260005729 0 0 0 0 20.172761325979081 -154.57992562104391 0 -154.57992562104391 -504.59008414651771 0 0 0 0 -88.573469299924909 -130.43354340529322 0 -130.43354340529322 -469.35256902309811 0 0 0 0 39.630323817793396 -7.9521764486746633 0 -7.9521764486746633 -504.98365866038876 0 0 0 0 0.92563878233297814 -3.7684970978092451 0 -3.7684970978092451 -4.7262451690748115 0 0 0 0 -142.83071924869728 -453.44939029092529 0 -453.44939029092529 -941.58611986410233 0 0 0 0 -654.88354419806274 -451.71819232046983 0 -451.71819232046983 -326.95976289640021 0 0 0 0 -297.7262352572543 -87.887607446337825 0 -87.887607446337825 -4.345380076123547 0 0 0 0 -76.870429699010856 -5.6412556105406111 0 -5.6412556105406111 -117.92959057320513 0 0 0 0 -325.91797497446532 -32.838661495951783 0 -32.838661495951783 106.31884002740753 0 0 0 0 -104.47358313640871 -2.133828935128804 0 -2.133828935128804 108.22631822692711 0 0 0 0 -67.139290112711024 -9.266133055993123 0 -9.266133055993123 -17.586330256610381 0 0 0 0 -58.06935411680405 18.016542185314496 0 18.016542185314496 -11.248322570285222 0 0 0 0 -89.212269702496997 -15.956329224904948 0 -15.956329224904948 50.776736147037809 0 0 0 0 -16.046343806585305 -1.2085435696677962 0 -1.2085435696677962 -12.240510095676449 0 0 0 0 -80.941140031511168 23.87469460737293 0 23.87469460737293 -23.355900409645983 0 0 0 0 -76.581728378806872 -7.609513416526319 0 -7.609513416526319 -8.0822505826519659 0 0 0 0 -111.65484019974247 29.301872955475119 0 29.301872955475119 17.74263025171058 0 0 0 0 -162.48849406898444 10.779026982875621 0 10.779026982875621 -7.7408581674899324 0 0 0 0 -80.228185242578689 18.447920905327077 0 18.447920905327077 -5.5058984050330242 0 0 0 0 -6.8927823184317276 -15.76239272741131 0 -15.76239272741131 5.7234763610833221 0 0 0 0 -112.96127751747554 12.713067289511173 0 12.713067289511173 -10.962047724038712 0 0 0 0 -114.54920232965378 3.0998140351557595 0 3.0998140351557595 12.172938008636265 0 0 0 0 -120.22990606958047 24.398138893666328 0 24.398138893666328 -29.730343314469337 0 0 0 0 -124.099297506109 -10.397716677058042 0 -10.397716677058042 -8.4741235504916403 0 0 0 0 -43.146348298687371 19.075752039839372 0 19.075752039839372 -49.10085269433057 0 0 0 0 -54.241371326294029 29.215828168083135 0 29.215828168083135 -25.930252919767099 0 0 0 0 -17.378204759816541 -4.0267675860249881 0 -4.0267675860249881 -20.881217856129688 0 0 0 0 -52.326267972384812 -10.576313475447705 0 -10.576313475447705 -95.349599059037246 0 0 0 0 -77.913587200688198 52.209733240530568 0 52.209733240530568 -60.446304227144765 0 0 0 0 -48.782704992641811 15.233011152139852 0 15.233011152139852 -26.744057485448138 0 0 0 0 -78.186572272737976 88.180307195733235 0 88.180307195733235 -168.09773792121882 0 0 0 0 -1.1286248478173491 -1.0552019779088653 0 -1.0552019779088653 -2.2281139438860595 0 0 0 0 -93.878064894746785 10.039196933940048 0 10.039196933940048 -7.2172573103021023 0 0 0 0 -39.197600192183074 11.057936730588757 0 11.057936730588757 -6.9598484251936252 0 0 0 0 253.76246558431012 121.5751835515772 0 121.5751835515772 -252.15581219372893 0 0 0 0 -15.226894802130801 3.71538407790365 0 3.71538407790365 -7.280293636996281 0 0 0 0 -52.991923411012976 7.861118864160062 0 7.861118864160062 -13.687469231185332 0 0 0 0 -52.280362114454135 18.153683675452733 0 18.153683675452733 -8.4117237918977565 0 0 0 0 -75.590936640335713 43.633652704255837 0 43.633652704255837 -6.8671325756083661 0 0 0 0 -78.292137059885135 25.176120950623499 0 25.176120950623499 -0.72993632590896596 0 0 0 0 -79.493374961253721 18.846760104323948 0 18.846760104323948 41.897980525793173 0 0 0 0 36.891793755989056 92.362763853319848 0 92.362763853319848 8.1037009935407696 0 0 0 0 -8.9398569118878726 1.5508971025293761 0 1.5508971025293761 -18.244938905084449 0 0 0 0 -462.84507707096782 383.90260460392813 0 383.90260460392813 152.5224024474619 0 0 0 0 -57.628249394121667 -44.202854539975476 0 -44.202854539975476 -787.26506772751736 0 0 0 0 -1057.8041457224754 634.27982486673648 0 634.27982486673648 236.67842820752776 0 0 0 0 -769.5098732804654 701.25959647695345 0 701.25959647695345 -1220.9982150861833 0 0 0 0 91.959383204011829 -256.24720696672443 0 -256.24720696672443 -512.069413215228 0 0 0 0 0.31007841267674507 -1.0135632821461229 0 -1.0135632821461229 -8.1805653956109499 0 0 0 0 -1231.8915732236928 1148.9514151930521 0 1148.9514151930521 -1279.48163332071 0 0 0 0 -225.91611543176623 185.50838974351586 0 185.50838974351586 107.3604910867798 0 0 0 0 -3228.6585892716394 903.82151138842403 0 903.82151138842403 -200.60315692157593 0 0 0 0 -2609.7931767694026 46.668402241964948 0 46.668402241964948 -1151.438747220745 0 0 0 0 -1033.1888398148803 1301.6033381632437 0 1301.6033381632437 -1437.7987670055536 0 0 0 0 -466.94516028420185 5.2688235188250019 0 5.2688235188250019 -767.865771733408 0 0 0 0 -2159.6850117940267 2630.8758951087243 0 2630.8758951087243 -2068.9794158244372 0 0 0 0 -5637.6003750411764 851.54477138321352 0 851.54477138321352 -125.24540315852374 0 0 0 0 -5500.5642012486787 1117.8287003431246 0 1117.8287003431246 -1975.2599387120133 0 0 0 0 -5789.4574311062752 1646.1204209391954 0 1646.1204209391954 -221.85492691930199 0 0 0 0 -5097.0787901066069 547.57346280379409 0 547.57346280379409 363.05577201071344 0 0 0 0 49.247794419017737 -32.901529802622434 0 -32.901529802622434 -1159.5114411819254 0 0 0 0 -2945.5011066860025 -1195.645620498198 0 -1195.645620498198 133.60916043103828 0 0 0 0 3.6603256354428595 207.56033854603282 0 207.56033854603282 85.968788306690783 0 0 0 0 -17.933173416743671 5.0931265890527548 0 5.0931265890527548 -2.0611724851642101 0 0 0 0 -303.82819793085218 -429.49642907603834 0 -429.49642907603834 -67.984305642368554 0 0 0 0 -372.00248748109152 -326.18548240309184 0 -326.18548240309184 -85.823750189710154 0 0 0 0 -854.84564420892275 -642.26880239034926 0 -642.26880239034926 -164.2745045322232 0 0 0 0 -5503.052203037194 1299.4696546614282 0 1299.4696546614282 -958.84854856519894 0 0 0 0 493.7271556059859 434.54312302989752 0 434.54312302989752 -245.20906582313796 0 0 0 0 -10.287642350133524 8.5888642341458876 0 8.5888642341458876 -3.8170564114946255 0 0 0 0 -1661.5257813145799 1085.4781426567445 0 1085.4781426567445 -264.64558657816059 0 0 0 0 -7027.4997305039724 -1237.0491997677575 0 -1237.0491997677575 -518.69926367643086 0 0 0 0 -5200.6808485223155 -1615.0633911089105 0 -1615.0633911089105 -542.26714448471307 0 0 0 0 -20.546722769361224 25.319760667654435 0 25.319760667654435 -7.9976904921862246 0 0 0 0 -5001.1884583037754 -1255.0088754705341 0 -1255.0088754705341 -318.54808547036123 0 0 0 0 -5257.2602317200217 -1225.3990430073688 0 -1225.3990430073688 -115.76425778365426 0 0 0 0 -5499.1750415789575 -1411.2752561922177 0 -1411.2752561922177 -182.66581886387331 0 0 0 0 53.28703164315084 220.99371881277386 0 220.99371881277386 70.056539646408055 0 0 0 0 -138.69521401321981 12.022840435363378 0 12.022840435363378 42.855313821456093 0 0 0 0 -241.87065755753429 71.507040276541147 0 71.507040276541147 -85.295089082195318 0 0 0 0 -305.10595607763389 109.6626711041024 0 109.6626711041024 328.88766228283293 0 0 0 0 -287.11601121589774 -211.94359699515428 0 -211.94359699515428 109.72707519124288 0 0 0 0 -229.00867062412726 -270.9714319493317 0 -270.9714319493317 -212.82539125731637 0 0 0 0 -234.92286360327853 -201.450217689174 0 -201.450217689174 -155.48492717845443 0 0 0 0 -408.45746105635044 -46.893860140411789 0 -46.893860140411789 98.870236671967177 0 0 0 0 -77.435668171674479 -79.983795183413349 0 -79.983795183413349 -317.47491146115044 0 0 0 0 -42.815008463054255 1.4178945828783185 0 1.4178945828783185 -83.188180280176311 0 0 0 0 -59.142669289674814 -3.2720923089844973 0 -3.2720923089844973 -103.05622024176091 0 0 0 0 -62.305011095479131 -63.869766795789246 0 -63.869766795789246 -144.42682159791002 0 0 0 0 -61.452634304994717 -51.774240854893378 0 -51.774240854893378 -37.264835430859648 0 0 0 0 -78.30176029643917 -63.476847683541564 0 -63.476847683541564 -10.000436817493551 0 0 0 0 -90.1124740629607 -31.532380987336694 0 -31.532380987336694 -4.4291417074618877 0 0 0 0 -93.99063799555006 -91.728947549105669 0 -91.728947549105669 13.5511991236109 0 0 0 0 -174.31730308211991 -107.70988096745805 0 -107.70988096745805 -23.133057664297667 0 0 0 0 -176.63353168476169 -11.070102554788605 0 -11.070102554788605 49.53791953244081 0 0 0 0 -144.41945520503214 18.18598894807792 0 18.18598894807792 45.501134002034291 0 0 0 0 -86.654057525294775 -26.020405036255866 0 -26.020405036255866 -2.1626198267634349 0 0 0 0 -133.80807062571694 -6.4734091798302416 0 -6.4734091798302416 45.829060825922738 0 0 0 0 -243.0280734677217 -116.37448413703689 0 -116.37448413703689 -24.744740538985297 0 0 0 0 -61.126424388130545 -5.9048819829240529 0 -5.9048819829240529 41.970085043113613 0 0 0 0 -100.24033527209212 -213.7341214216714 0 -213.7341214216714 49.008938319874687 0 0 0 0 -2061.4767693364411 -775.24080468253612 0 -775.24080468253612 -317.25117311381109 0 0 0 0 -3341.3279977483617 -682.95145713870772 0 -682.95145713870772 252.81378200834638 0 0 0 0 -6.7375936912928864 4.7213056731235241 0 4.7213056731235241 2.7306384463458366 0 0 0 0 -4176.3592198408151 -642.49013025060106 0 -642.49013025060106 348.03954711809587 0 0 0 0 -3252.9400840257294 -659.10953723917032 0 -659.10953723917032 -481.60885135775806 0 0 0 0 -3678.3375122305879 54.027366110859177 0 54.027366110859177 439.07724355933914 0 0 0 0 -4614.8381627455237 27.813445644223606 0 27.813445644223606 453.24169136478395 0 0 0 0 -4262.3726362555317 -806.56824813082085 0 -806.56824813082085 44.488489679134375 0 0 0 0 -4080.9101178656801 -635.95837577130533 0 -635.95837577130533 -94.353658044539145 0 0 0 0 -5502.2213805778883 -588.36913966712268 0 -588.36913966712268 508.09550263921665 0 0 0 0 -4562.3828034090984 -1019.0172321926991 0 -1019.0172321926991 -103.9558183550747 0 0 0 0 -4087.0673557652335 -718.41543481320014 0 -718.41543481320014 -71.871199599575675 0 0 0 0 -116.06464390526526 18.241972214863608 0 18.241972214863608 39.551112742254873 0 0 0 0 -33.755026680457519 35.090354726099889 0 35.090354726099889 -11.095789905300068 0 0 0 0 -144.3856877047001 -358.7318720147714 0 -358.7318720147714 507.50956156141456 0 0 0 0 -185.81429942716932 147.01033517493261 0 147.01033517493261 115.38337705584945 0 0 0 0 -36.718303738321481 -28.517035470132946 0 -28.517035470132946 -14.098219830657234 0 0 0 0 -1798.6271906894399 987.7903429013827 0 987.7903429013827 -617.10491243511933 0 0 0 0 0.53057292154915103 -18.445986080422035 0 -18.445986080422035 -1.5028963273016649 0 0 0 0 -5498.4053007096591 2632.6889955521806 0 2632.6889955521806 -815.80381557815281 0 0 0 0 -2917.0918090985506 931.46198535929318 0 931.46198535929318 147.99602282936308 0 0 0 0 -2755.346818715705 442.37093735326658 0 442.37093735326658 233.57319385210587 0 0 0 0 -5486.9108375758842 144.04207317654769 0 144.04207317654769 1023.7372767810281 0 0 0 0 -3333.310230359195 -864.95796110229753 0 -864.95796110229753 -60.017937881779098 0 0 0 0 -946.79589944580948 -81.034235609303238 0 -81.034235609303238 -574.90938674630149 0 0 0 0 -3394.5248626430839 622.46400249783949 0 622.46400249783949 279.87127484877601 0 0 0 0 -3506.4431088427082 1127.3578708480118 0 1127.3578708480118 173.29821121846413 0 0 0 0 -760.70512504770159 742.02352262036891 0 742.02352262036891 -290.02068811753657 0 0 0 0 -656.35437164620089 171.12806942656013 0 171.12806942656013 -202.37493747462094 0 0 0 0 -22.31395125684503 -40.157232121474294 0 -40.157232121474294 17.988914908520062 0 0 0 0 -36.22628005831379 -14.262566442882751 0 -14.262566442882751 6.0051199861111932 0 0 0 0 -22.393628094840096 -6.7707622064824591 0 -6.7707622064824591 9.8721698442484467 0 0 0 0 -37.11030320527243 -21.429292612454077 0 -21.429292612454077 -4.7277144648429612 0 0 0 0 991.5038150868204 -548.7424635390089 0 -548.7424635390089 302.55515781450595 0 0 0 0 1632.8796655719925 -55.459801312053514 0 -55.459801312053514 -159.20281924552728 0 0 0 0 426.60320922924438 -715.28753174931535 0 -715.28753174931535 396.29982909953742 0 0 0 0 -69.189642915996956 30.187627992828311 0 30.187627992828311 97.570497900329428 0 0 0 0 -6.9317272979629081 3.2536640279747076 0 3.2536640279747076 3.6193436090097109 0 0 0 0 -58.007852005801396 57.023413089886162 0 57.023413089886162 128.67643681415666 0 0 0 0 -13.506290288590392 7.0808473391305284 0 7.0808473391305284 27.349239053029748 0 0 0 0 -48.228032355683553 -13.126316797292461 0 -13.126316797292461 7.2535673473839832 0 0 0 0 -32.777353392957593 1.3513061353369267 0 1.3513061353369267 0.57196569459074453 0 0 0 0 -26.812214679810182 -22.509137331969622 0 -22.509137331969622 -3.9698530494510527 0 0 0 0 -189.01967932950356 31.2425416740125 0 31.2425416740125 343.04114886298589 0 0 0 0 20.73661024615285 65.293899026867621 0 65.293899026867621 66.461951914257952 0 0 0 0 34.519440845371719 8.212268095962429 0 8.212268095962429 60.342704352438886 0 0 0 0 -109.08329225212219 63.811029654186996 0 63.811029654186996 39.835855607146073 0 0 0 0 48.890066344349179 103.00339295768163 0 103.00339295768163 -28.272771181158078 0 0 0 0 -191.40646543275398 10.250229672808898 0 10.250229672808898 -142.96895142965354 0 0 0 0 -164.44847327983007 -103.49746838201914 0 -103.49746838201914 74.587002905477775 0 0 0 0 3.3361622609987762 3.3607204123820509 0 3.3607204123820509 7.2739954117296746 0 0 0 0 522.64315297512803 -1740.9688585415802 0 -1740.9688585415802 1233.1841541844888 0 0 0 0 61.360302389410208 96.739671660447925 0 96.739671660447925 42.236066582068929 0 0 0 0 -183.95032904486288 -724.69024229286651 0 -724.69024229286651 780.25764731745141 0 0 0 0 48.004210395460291 29.325341972753407 0 29.325341972753407 -29.149410824650658 0 0 0 0 -530.4364142978302 -414.84318325043341 0 -414.84318325043341 810.48222553626556 0 0 0 0 -755.99931850534631 -787.21754142299005 0 -787.21754142299005 903.56929979022493 0 0 0 0 1189.1981385127146 -1177.3514095436299 0 -1177.3514095436299 667.02757066283652 0 0 0 0 -248.63713571883727 -767.60435200874122 0 -767.60435200874122 -226.39537075718053 0 0 0 0 -253.18432503027725 -759.98613206703874 0 -759.98613206703874 795.20276328765533 0 0 0 0 -72.232516874137218 137.53586149121978 0 137.53586149121978 503.58293458375954 0 0 0 0 -1939.9512068780314 -1390.9307364258398 0 -1390.9307364258398 -81.601600491427803 0 0 0 0 -1530.3769592837707 -395.31804246747527 0 -395.31804246747527 535.32736047924777 0 0 0 0 -1673.2946858212817 -823.23586966633775 0 -823.23586966633775 107.77069926941334 0 0 0 0 -429.17263029075184 -606.42434250786948 0 -606.42434250786948 -1286.8612601320488 0 0 0 0 -542.35430677701515 -115.05419907664827 0 -115.05419907664827 8.0335365842652209 0 0 0 0 -73.907377041792643 -16.34804621324804 0 -16.34804621324804 -168.93409259991222 0 0 0 0 -15.652405940337829 -8.2263472613614326 0 -8.2263472613614326 -9.8310311164437447 0 0 0 0 -436.63766646839213 139.98341746082008 0 139.98341746082008 52.746268634440185 0 0 0 0 300.97098039693083 -1339.2379793285481 0 -1339.2379793285481 -2512.6584518197656 0 0 0 0 -2472.8123416413873 -3039.0649059872067 0 -3039.0649059872067 -1725.6421217225002 0 0 0 0 -5490.4892469105762 -2143.0308914155689 0 -2143.0308914155689 664.82602686371251 0 0 0 0 -2864.18604634433 -682.63460052623395 0 -682.63460052623395 1204.444907198842 0 0 0 0 -5501.7587562359258 -481.47529952644692 0 -481.47529952644692 1447.6939047535325 0 0 0 0 -1305.0666220573157 -998.35691089053103 0 -998.35691089053103 959.9612119638424 0 0 0 0 -1664.3910888766113 675.2404317679941 0 675.2404317679941 658.26978719521821 0 0 0 0 -5489.5163946755711 1817.5958486019167 0 1817.5958486019167 329.17728399111814 0 0 0 0 -1845.4308380435905 -1622.0457560088548 0 -1622.0457560088548 -505.33504467619463 0 0 0 0 -20.916878385341391 -6.3916322847532854 0 -6.3916322847532854 -2.005759467453422 0 0 0 0 -336.14387193092625 481.66815341064108 0 481.66815341064108 -1088.9754085599538 0 0 0 0 -5488.9570513253275 -293.13893381516351 0 -293.13893381516351 237.31802722306421 0 0 0 0 -645.77797926777566 902.30327308787309 0 902.30327308787309 -2030.2605904761901 0 0 0 0 -668.45822731673252 812.29016948366234 0 812.29016948366234 -1275.3744985127514 0 0 0 0 -696.50605600508425 1054.0872255518593 0 1054.0872255518593 -701.71397489874107 0 0 0 0 -1447.3969589419576 610.36496108921358 0 610.36496108921358 -641.33655479533263 0 0 0 0 -1475.5518658688816 372.50202012262127 0 372.50202012262127 -666.81893145130414 0 0 0 0 -1427.298282787553 380.16171594491107 0 380.16171594491107 -1695.3071897026575 0 0 0 0 -836.29013928112545 829.79027301434098 0 829.79027301434098 -425.98254990552522 0 0 0 0 -727.77520438617648 -67.85610869662915 0 -67.85610869662915 109.16308846111522 0 0 0 0 -33.955968742280533 -14.725746464621622 0 -14.725746464621622 -2.6406621526256373 0 0 0 0 -89.808176311715215 -241.51674857257262 0 -241.51674857257262 333.64327837790358 0 0 0 0 757.38906034207321 -848.92445800849805 0 -848.92445800849805 21.089698248643344 0 0 0 0 814.16331796865052 -651.07478646429729 0 -651.07478646429729 236.44837596071034 0 0 0 0 -1713.9117036433672 940.48627752500215 0 940.48627752500215 -351.00524721161662 0 0 0 0 -15.29724652771813 -6.4440362538333034 0 -6.4440362538333034 -1.6898468196084537 0 0 0 0 -1882.9240545766734 546.52376023790782 0 546.52376023790782 -133.55562246347699 0 0 0 0 -1219.4936696181685 355.0129036182044 0 355.0129036182044 -708.13081245778881 0 0 0 0 -851.28927231057605 737.16323456600935 0 737.16323456600935 -311.99039439131371 0 0 0 0 -1063.9237788987302 238.63054653659765 0 238.63054653659765 -125.90720705208531 0 0 0 0 19.595016335137188 -148.79610573353852 0 -148.79610573353852 39.445899278847719 0 0 0 0 -11.994310460438271 -8.8630356065030753 0 -8.8630356065030753 -3.8429377786558785 0 0 0 0 -1198.5961335293105 691.39995289324588 0 691.39995289324588 -244.85403735110924 0 0 0 0 -1800.6485384351836 430.71571565676504 0 430.71571565676504 -508.38710264124074 0 0 0 0 -1519.9096988093024 796.92876220340543 0 796.92876220340543 -269.43364824575519 0 0 0 0 55.90249316325378 -141.41007393454055 0 -141.41007393454055 -910.12818192642681 0 0 0 0 -6.4973100455929966 -3.66662707180366 0 -3.66662707180366 -1.466444915087834 0 0 0 0 -104.49280483390612 27.705120285511384 0 27.705120285511384 103.58058653471517 0 0 0 0 54.477400101066451 295.68419389299925 0 295.68419389299925 -503.98141375938576 0 0 0 0 36.239256243032287 -20.995574174245121 0 -20.995574174245121 -879.62064594125604 0 0 0 0 -292.47597736383614 -111.68369135054763 0 -111.68369135054763 -652.29398723804093 0 0 0 0 -685.96404374332633 -595.11513787945887 0 -595.11513787945887 -921.87629602622246 0 0 0 0 -279.2910284310492 412.35617736231143 0 412.35617736231143 -1711.0255638687804 0 0 0 0 -336.30575394228345 -582.44558775511734 0 -582.44558775511734 -1131.4022790321333 0 0 0 0 -7.7359760050567274 -209.75698732032902 0 -209.75698732032902 -583.48733418313077 0 0 0 0 9.7872207048640121 -39.730462723019627 0 -39.730462723019627 -513.82110720387641 0 0 0 0 -29.85762820058153 -76.614290412107039 0 -76.614290412107039 -436.01027330654415 0 0 0 0 -58.633369699076866 136.9256166730238 0 136.9256166730238 -286.34076411350497 0 0 0 0 -59.64232300632284 -97.947763961316468 0 -97.947763961316468 -247.29253774288691 0 0 0 0 -49.710913587079631 -27.099807677333615 0 -27.099807677333615 -40.800346380242445 0 0 0 0 -50.046062087356404 12.447836565350258 0 12.447836565350258 21.768209824239648 0 0 0 0 -64.813994140000432 49.015154543491235 0 49.015154543491235 -55.094078818715388 0 0 0 0 -101.4685272472816 -31.155678574709327 0 -31.155678574709327 -17.612456085324084 0 0 0 0 -28.671406857713009 25.513060325684819 0 25.513060325684819 26.456865165322483 0 0 0 0 -30.637373175064567 -32.985553505166571 0 -32.985553505166571 40.156237531967733 0 0 0 0 -15.658461692767759 -8.2429800818799208 0 -8.2429800818799208 -2.5177591054555299 0 0 0 0 -427.18533086271418 -123.99704162529081 0 -123.99704162529081 -39.324886847840389 0 0 0 0 -50.217861973338586 0.79821618117733095 0 0.79821618117733095 24.006345785262596 0 0 0 0 -33.660330238191818 15.024864986709531 0 15.024864986709531 22.027336112860439 0 0 0 0 -29.559107160046551 -0.2648046301011675 0 -0.2648046301011675 19.837496240955801 0 0 0 0 -34.22324364382257 9.3505698752249771 0 9.3505698752249771 -0.58263659490387454 0 0 0 0 -55.087375227187295 -6.6126585882190057 0 -6.6126585882190057 3.3211591543281429 0 0 0 0 -25.294741298333975 5.1871411723119039 0 5.1871411723119039 5.6017385671739817 0 0 0 0 -20.502848612199159 13.389910681406086 0 13.389910681406086 -1.8316718915672254 0 0 0 0 -10.29209678836196 -3.744014976667458 0 -3.744014976667458 1.6368667032105799 0 0 0 0 -29.573385510517255 -10.529524260756517 0 -10.529524260756517 10.550579405101303 0 0 0 0 -19.880102294001432 -1.1630518292753997 0 -1.1630518292753997 -0.08743020931253663 0 0 0 0 0.0011142639101535678 -2.4634398687535111 0 -2.4634398687535111 -0.25014654949891024 0 0 0 0 -76.907191163743846 -3.2107148333993791 0 -3.2107148333993791 13.819957327817406 0 0 0 0 -402.56709174181742 293.02756427454779 0 293.02756427454779 49.197018605969006 0 0 0 0 -505.64471661004791 185.84135428675847 0 185.84135428675847 51.784115643279399 0 0 0 0 -32.310689320947859 3.26071774333127 0 3.26071774333127 -28.755206659958276 0 0 0 0 -906.6950086988727 427.1325405579264 0 427.1325405579264 143.39015671137304 0 0 0 0 -4.4196502779973912 -0.43543665945902887 0 -0.43543665945902887 -0.67336527490197351 0 0 0 0 -772.19869810328237 895.63812248415275 0 895.63812248415275 -771.3443298585828 0 0 0 0 -593.68861298949196 602.91819671266433 0 602.91819671266433 -381.76083960589438 0 0 0 0 -1150.7549893762698 761.91826804334914 0 761.91826804334914 -197.26619440238119 0 0 0 0 -1032.5419972403761 337.0247805782185 0 337.0247805782185 18.799381717448341 0 0 0 0 -881.82868806640909 678.52233187673914 0 678.52233187673914 -762.22556451211813 0 0 0 0 -1729.012331359947 419.05820717997835 0 419.05820717997835 627.62275479199161 0 0 0 0 -432.23182887872099 -359.66682485075717 0 -359.66682485075717 689.50619410906916 0 0 0 0 -913.8717753206729 -111.07140263961969 0 -111.07140263961969 683.67612322468858 0 0 0 0 35.240331270135357 -205.31326673674403 0 -205.31326673674403 359.09338586746389 0 0 0 0 -733.75499939890869 537.18229766527929 0 537.18229766527929 207.06684390983673 0 0 0 0 -761.90685597912852 424.02908136285691 0 424.02908136285691 46.193870508714554 0 0 0 0 -858.08067400654545 279.96458813426057 0 279.96458813426057 421.63044491851542 0 0 0 0 -515.32983253726707 691.91579871225076 0 691.91579871225076 -6.4937343545534532 0 0 0 0 -90.015541361572105 65.23670272867048 0 65.23670272867048 165.57692882613128 0 0 0 0 -21.048181174229654 -0.043526828136386086 0 -0.043526828136386086 5.1550123443142892 0 0 0 0 -426.98528070747852 -193.05334050157171 0 -193.05334050157171 592.18440212013138 0 0 0 0 106.32862268511963 -41.033627208969847 0 -41.033627208969847 513.09004571295372 0 0 0 0 -53.743747578267886 -8.996714567378767 0 -8.996714567378767 42.328773399428385 0 0 0 0 -211.4770769243114 81.636162194415306 0 81.636162194415306 -35.072418864251048 0 0 0 0 -11.997059496625937 -0.76844419937702924 0 -0.76844419937702924 -0.023083813551276755 0 0 0 0 -19.640585100167954 -7.0493495858435722 0 -7.0493495858435722 17.078791997617703 0 0 0 0 95.317658404215763 59.742423767629589 0 59.742423767629589 53.001648936017951 0 0 0 0 -237.37544510714361 83.610049790876019 0 83.610049790876019 55.989423649920354 0 0 0 0 -49.895924166565237 -0.3261829126939233 0 -0.3261829126939233 20.25719919232597 0 0 0 0 66.521373228424636 162.86553817341201 0 162.86553817341201 -249.36943247725958 0 0 0 0 -709.82633196340248 -396.67103744639803 0 -396.67103744639803 129.80897211580395 0 0 0 0 -1645.5910135771264 185.24514854845938 0 185.24514854845938 73.215197930593604 0 0 0 0 -4.3715578257514665 3.8692499535107743 0 3.8692499535107743 -2.8369518799645377 0 0 0 0 -1662.7119093773363 29.225660992072335 0 29.225660992072335 279.04865138840523 0 0 0 0 -194.96416959147609 -117.96062976452879 0 -117.96062976452879 -388.3050043845933 0 0 0 0 -1192.6932694461429 577.60772886557197 0 577.60772886557197 343.30938170479658 0 0 0 0 -1355.6247188831767 -188.49828448774997 0 -188.49828448774997 46.334808447772957 0 0 0 0 -8.8439070657134948 2.0571533382467422 0 2.0571533382467422 -0.12220175515927767 0 0 0 0 -28.585292478197516 -4.1461325647080685 0 -4.1461325647080685 -12.265573062650219 0 0 0 0 -21.254511601702632 10.161581985294518 0 10.161581985294518 -2.9669237779242748 0 0 0 0 153.34137519972865 398.45959636045882 0 398.45959636045882 450.95553133731585 0 0 0 0 326.2161780456554 362.87720799178294 0 362.87720799178294 348.2103602139116 0 0 0 0 -10.603726441673956 -3.2195199274155044 0 -3.2195199274155044 0.91620985975480984 0 0 0 0 -64.910449927765512 202.93113987001118 0 202.93113987001118 78.859018424799615 0 0 0 0 -22.820869474729989 26.187614856999062 0 26.187614856999062 1.9796007867407752 0 0 0 0 -139.62228149730799 -227.78964963582166 0 -227.78964963582166 -206.23506785004884 0 0 0 0 -39.599788677602191 10.711031581564384 0 10.711031581564384 0.11559987177588482 0 0 0 0 34.286500715039438 261.24645958670408 0 261.24645958670408 725.63924598381618 0 0 0 0 -21.796384477485844 162.15707945173381 0 162.15707945173381 356.20466630657347 0 0 0 0 -7.9314466016813441 1.8994276119271234 0 1.8994276119271234 2.7087557662909205 0 0 0 0 -12.810283527652587 6.9719402797918235 0 6.9719402797918235 -4.4737386805618673 0 0 0 0 52.708722472205409 281.67248248670876 0 281.67248248670876 424.64216464910169 0 0 0 0 402.11514108607662 256.5809758565847 0 256.5809758565847 238.23330750510104 0 0 0 0 229.09697055572178 262.74672549187198 0 262.74672549187198 243.12401319693936 0 0 0 0 171.72950509915245 89.10477565031124 0 89.10477565031124 290.00636425506491 0 0 0 0 185.45642573974328 180.21758178536493 0 180.21758178536493 25.130449297559608 0 0 0 0 290.87770000893943 83.022064938771564 0 83.022064938771564 280.04118669825129 0 0 0 0 -75.816072555172468 284.33178529458121 0 284.33178529458121 -27.589451859670589 0 0 0 0 48.93886057221971 111.0389781566787 0 111.0389781566787 212.16541466204831 0 0 0 0 -53.086639874891262 368.16016716308377 0 368.16016716308377 -289.11360081598468 0 0 0 0 -1166.7860969218455 318.25455042784597 0 318.25455042784597 305.60397398588748 0 0 0 0 -119.77749955111904 207.90040469647818 0 207.90040469647818 307.29180954283629 0 0 0 0 207.79181740172498 330.70070127961458 0 330.70070127961458 105.69780878511665 0 0 0 0 -167.44182442979218 272.93229031721432 0 272.93229031721432 548.80305189023647 0 0 0 0 -28.569670781405875 5.1577837812883445 0 5.1577837812883445 15.231642307536276 0 0 0 0 19.748274763696827 -16.194914584188155 0 -16.194914584188155 -15.503006187450865 0 0 0 0 -19.199386993853523 7.2398685643426717 0 7.2398685643426717 -0.40902082826489305 0 0 0 0 -24.575428719770571 1.0008083314733085 0 1.0008083314733085 18.35056165446349 0 0 0 0 -21.446547686879057 -2.0144391718686165 0 -2.0144391718686165 10.832743618979364 0 0 0 0 -11.2371418656694 -11.828107052777113 0 -11.828107052777113 19.32731736020969 0 0 0 0 140.10765177060966 -98.193386934267892 0 -98.193386934267892 24.150329593771829 0 0 0 0 62.091245746643835 73.971007548345824 0 73.971007548345824 -48.581842053268247 0 0 0 0 -148.23042102576437 -28.012496029980426 0 -28.012496029980426 109.83677922015977 0 0 0 0 -61.647945739940042 -25.299029189219425 0 -25.299029189219425 4.3501956083430287 0 0 0 0 -2.3228728216269303 1.7764388464952656 0 1.7764388464952656 0.63265523173438487 0 0 0 0 12.038225703727221 -6.249529707493366 0 -6.249529707493366 -16.931031649849615 0 0 0 0 -16.2895318764254 4.9246455056340146 0 4.9246455056340146 0.22648054137133672 0 0 0 0 -12.167533372208709 -2.7834182685796804 0 -2.7834182685796804 10.843455175866438 0 0 0 0 -18.733212150611507 4.5019714577765626 0 4.5019714577765626 12.879870526861225 0 0 0 0 9.2292181212978903 30.383348274693418 0 30.383348274693418 -14.578100883124222 0 0 0 0 -7.0201729967886308 2.8997479709371419 0 2.8997479709371419 0.66603936809963371 0 0 0 0 -9.6970306245202664 -57.957621262440398 0 -57.957621262440398 88.562152038607451 0 0 0 0 -15.752911114460346 3.0226712464208574 0 3.0226712464208574 0.386446026160084 0 0 0 0 -17.730113972706022 5.4961293897163159 0 5.4961293897163159 11.261938893389015 0 0 0 0 -23.320608908950817 3.2830842493954151 0 3.2830842493954151 7.7317130564333638 0 0 0 0 -19.012507777792052 4.4826778396836744 0 4.4826778396836744 -12.490069758830629 0 0 0 0 -21.625451124913525 6.2471777138798643 0 6.2471777138798643 11.304190303247907 0 0 0 0 -24.562707534641959 8.2526130403243769 0 8.2526130403243769 9.6810041920207368 0 0 0 0 -14.980981559099746 10.803420071275468 0 10.803420071275468 4.5229507828207716 0 0 0 0 -30.679078972672869 8.9339094585732255 0 8.9339094585732255 4.8366645382830029 0 0 0 0 -22.28364082306507 12.353700115191259 0 12.353700115191259 0.24258702733095561 0 0 0 0 -4.2267261982726581 -2.1390644560056984 0 -2.1390644560056984 -0.23366678824928133 0 0 0 0 -1.9838835899572587 15.267232282388079 0 15.267232282388079 0.53265261290889043 0 0 0 0 -17.72434914574842 17.967454083413941 0 17.967454083413941 2.3269869446105531 0 0 0 0 -13.671569051191909 4.4539255876628943 0 4.4539255876628943 10.873125156548497 0 0 0 0 -8.4114979702790151 5.8713621947499632 0 5.8713621947499632 6.286638076374345 0 0 0 0 -37.610563692745927 0.21822178405534487 0 0.21822178405534487 -3.6758880003593504 0 0 0 0 -20.611752420459794 1.3186260539326287 0 1.3186260539326287 0.96726524089050658 0 0 0 0 -13.973267501860391 13.2844943883116 0 13.2844943883116 11.364081568096935 0 0 0 0 -5.7658095817350805 -3.4019785739037189 0 -3.4019785739037189 1.0768444569748261 0 0 0 0 37.615632826178626 -42.811429334721652 0 -42.811429334721652 29.798978191568494 0 0 0 0 26.834758411183429 -80.707428859119773 0 -80.707428859119773 -32.393989161733543 0 0 0 0 -13.495752550028556 -87.44183975380156 0 -87.44183975380156 36.38454634957975 0 0 0 0 118.47024187607894 -21.004049274200042 0 -21.004049274200042 -61.54294806826249 0 0 0 0 0.99570422072422105 -3.0600021425820501 0 -3.0600021425820501 -1.7495194839086281 0 0 0 0 44.696605719938816 13.506462434824698 0 13.506462434824698 -98.090080220930759 0 0 0 0 -47.074183202137647 3.3138948290829831 0 3.3138948290829831 -271.22962934972566 0 0 0 0 -81.022556916679605 -19.66734590620581 0 -19.66734590620581 38.557507751566391 0 0 0 0 -126.37770542322687 116.26119221828321 0 116.26119221828321 -452.41786835648645 0 0 0 0 -117.9837201651726 -82.479866545112927 0 -82.479866545112927 -504.8216120935067 0 0 0 0 0.46858184247028589 -2.3038659667190728 0 -2.3038659667190728 -1.6130541569017964 0 0 0 0 -44.462180217073183 -227.67996963915994 0 -227.67996963915994 -460.79783982511617 0 0 0 0 174.2807640420433 152.24024920325928 0 152.24024920325928 -317.25676156913778 0 0 0 0 -50.026890140550677 -77.591147019253185 0 -77.591147019253185 -530.24993925441959 0 0 0 0 -275.92091572271602 160.13532125223946 0 160.13532125223946 -470.7683226748718 0 0 0 0 -231.62023594581115 29.066872541948214 0 29.066872541948214 -251.21676921357539 0 0 0 0 -295.70259331853958 207.68449263300761 0 207.68449263300761 -346.53369001260398 0 0 0 0 -144.78481480794653 102.89429906089163 0 102.89429906089163 -169.01350428959631 0 0 0 0 -269.03733013155943 169.45163686677347 0 169.45163686677347 -229.05627941667854 0 0 0 0 -121.02308738864667 68.34968199074774 0 68.34968199074774 -309.52205904699849 0 0 0 0 -83.850521986754302 105.98198075694395 0 105.98198075694395 -250.70329517138816 0 0 0 0 -178.91683441551868 18.27698417936881 0 18.27698417936881 -36.03101470821025 0 0 0 0 -103.35556170682685 -52.325745382859964 0 -52.325745382859964 -19.38287730592765 0 0 0 0 -25.210388107671406 -1.7064671377639442 0 -1.7064671377639442 6.7069892571507808 0 0 0 0 -60.750555944425287 -91.217810972886696 0 -91.217810972886696 194.69511750961348 0 0 0 0 -9.2061618253756023 91.146536037321823 0 91.146536037321823 -10.72817032943874 0 0 0 0 50.366145038366085 224.93272522749044 0 224.93272522749044 71.086012279096622 0 0 0 0 -186.53056282804027 -22.982487938050099 0 -22.982487938050099 287.69461725182236 0 0 0 0 -366.23342867658357 20.110367763711338 0 20.110367763711338 -21.702042157904316 0 0 0 0 -287.69943916572265 559.25594927724262 0 559.25594927724262 -158.07684869509103 0 0 0 0 -93.242389437000384 200.30914005427076 0 200.30914005427076 -392.82151396990002 0 0 0 0 -444.41193295333505 294.49849547511258 0 294.49849547511258 -288.74065670048094 0 0 0 0 -198.43325449151234 208.19032962529741 0 208.19032962529741 -393.28918404406613 0 0 0 0 -430.40612610189783 295.11338542628118 0 295.11338542628118 -383.13298427373775 0 0 0 0 -635.25928207234392 316.90046462687587 0 316.90046462687587 -337.81081706765508 0 0 0 0 -133.60021201430465 -15.280985201165038 0 -15.280985201165038 33.077555386705328 0 0 0 0 -443.72238477308747 332.57618898599208 0 332.57618898599208 -462.6098297206463 0 0 0 0 -478.57231502894138 275.18080782118022 0 275.18080782118022 -358.90794401739822 0 0 0 0 -328.94229704861937 -67.63339738321929 0 -67.63339738321929 0.57841089281282621 0 0 0 0 -35.230234296397583 -1.2595611516556176 0 -1.2595611516556176 12.26823751928897 0 0 0 0 -333.4334799950575 -85.090883309221169 0 -85.090883309221169 -9.370212110704415 0 0 0 0 -136.20483163712947 -13.991715378804109 0 -13.991715378804109 35.543314693284614 0 0 0 0 -692.38725216958301 -28.115951510442699 0 -28.115951510442699 -81.964354912703129 0 0 0 0 -1344.4203945316622 96.019109426529212 0 96.019109426529212 -105.56930363146216 0 0 0 0 -187.92435341206692 -103.39428287842946 0 -103.39428287842946 -447.83505427424552 0 0 0 0 -36.731852446568709 0.19852808642970388 0 0.19852808642970388 5.5646269649828284 0 0 0 0 -409.54440009885002 339.5973463183077 0 339.5973463183077 -634.67761336743888 0 0 0 0 -230.73011791910176 -8.9972287720727309 0 -8.9972287720727309 33.886436126678745 0 0 0 0 -751.88872357760556 570.28696653441352 0 570.28696653441352 -482.32554435875409 0 0 0 0 -1204.378838833858 -55.188153555443023 0 -55.188153555443023 -495.38403028038186 0 0 0 0 -1677.8608034394565 -113.1095185027059 0 -113.1095185027059 -51.530287065504126 0 0 0 0 -1493.5372723830969 471.65997824733387 0 471.65997824733387 -84.780919530114261 0 0 0 0 -1466.8310934293404 415.62762191857064 0 415.62762191857064 131.27109868484035 0 0 0 0 -578.58630720237852 155.30877532577705 0 155.30877532577705 2.150588040142452 0 0 0 0 -322.37427746899448 545.43404761146735 0 545.43404761146735 -124.89827467565055 0 0 0 0 -177.32713762044841 103.50884819331375 0 103.50884819331375 26.735727490267436 0 0 0 0 -242.36039476049154 343.34591835776882 0 343.34591835776882 -798.30142632123216 0 0 0 0 -355.56125799631263 135.82677881627751 0 135.82677881627751 268.36912451200919 0 0 0 0 -559.32274344510006 182.01569560520011 0 182.01569560520011 260.19411555968964 0 0 0 0 -1063.4257417047813 -397.51245360677746 0 -397.51245360677746 156.64041085563895 0 0 0 0 -1078.2002110861285 654.76766313729172 0 654.76766313729172 -116.7050304139434 0 0 0 0 -186.49163210466213 250.36241923859257 0 250.36241923859257 -427.28917231976402 0 0 0 0 -326.03245533772861 -353.81835776692242 0 -353.81835776692242 -423.27974830754425 0 0 0 0 -15.8014623943956 3.2490924529052698 0 3.2490924529052698 1.6208314994875996 0 0 0 0 0.64196398934899435 -3.1197440036737945 0 -3.1197440036737945 0.018362389407806656 0 0 0 0 -13.990849360982622 6.4017627537551345 0 6.4017627537551345 1.6074108103313569 0 0 0 0 -16.875408940647105 0.91726963612478585 0 0.91726963612478585 2.8453560331335312 0 0 0 0 -144.55117091529246 109.32059654241402 0 109.32059654241402 -25.822068810589485 0 0 0 0 -560.50765785699332 -132.37158184004807 0 -132.37158184004807 440.54158547105817 0 0 0 0 -22.994959311268758 -170.01107730754393 0 -170.01107730754393 358.44646763517449 0 0 0 0 29.42965356377681 -84.422891119173983 0 -84.422891119173983 -219.1658498930683 0 0 0 0 -679.11868285657692 -74.332265847873032 0 -74.332265847873032 427.63948157831237 0 0 0 0 196.62876076865359 -477.94672411089232 0 -477.94672411089232 398.64590414737711 0 0 0 0 0.65713781045801767 -0.29860995754083319 0 -0.29860995754083319 4.2168291906303388 0 0 0 0 -477.89707646592797 -161.22142748627562 0 -161.22142748627562 295.96300142666496 0 0 0 0 -960.96110202860291 -710.33054449389806 0 -710.33054449389806 -57.73015394473623 0 0 0 0 -200.44115293733921 -61.010914904043148 0 -61.010914904043148 317.92802005723638 0 0 0 0 -15.172795839651236 4.7633652823429316 0 4.7633652823429316 14.545536059799351 0 0 0 0 348.39080511310021 -489.18644718911332 0 -489.18644718911332 -672.90747439433926 0 0 0 0 -29.798064816262922 -131.97603416341281 0 -131.97603416341281 123.88261180896734 0 0 0 0 -223.82218874523824 -106.66866846433004 0 -106.66866846433004 270.43797901642802 0 0 0 0 -273.72159570473377 42.082514374006678 0 42.082514374006678 181.23851995489531 0 0 0 0 -274.93004833714804 73.200877014826801 0 73.200877014826801 200.82253930238039 0 0 0 0 -293.31918987080644 13.581254159415494 0 13.581254159415494 145.29853748786445 0 0 0 0 -271.71235001734021 64.383426278644947 0 64.383426278644947 139.3023738884458 0 0 0 0 -360.24948384570598 93.966191391729126 0 93.966191391729126 213.01391405890172 0 0 0 0 -441.28931164286769 -55.769029316965316 0 -55.769029316965316 284.20389779815287 0 0 0 0 -221.99675111731631 19.719137394279642 0 19.719137394279642 8.1062246365736428 0 0 0 0 -51.26275710100964 -33.116662374819967 0 -33.116662374819967 11.283418735134035 0 0 0 0 -103.00955913942806 9.3467459112312454 0 9.3467459112312454 11.627534832579443 0 0 0 0 -12.218489839585828 -7.5054661526825726 0 -7.5054661526825726 -2.5958350054440515 0 0 0 0 -85.104167791580039 -138.64477692828018 0 -138.64477692828018 -128.82396068768685 0 0 0 0 -94.104176668348373 -15.052455977085629 0 -15.052455977085629 8.3069626928736398 0 0 0 0 -132.57071846451359 -23.070155210753558 0 -23.070155210753558 -4.1786123687297092 0 0 0 0 -22.74522781037701 -0.72259210450650357 0 -0.72259210450650357 3.397554570996931 0 0 0 0 -110.44771167347062 74.122817546559872 0 74.122817546559872 -111.14775548155012 0 0 0 0 -25.527852024522872 -52.920547733276635 0 -52.920547733276635 5.1142080324352719 0 0 0 0 -238.1693730984116 71.797270505933739 0 71.797270505933739 140.69107248802902 0 0 0 0 -192.09551006948459 0.74294494806781586 0 0.74294494806781586 135.44385650328513 0 0 0 0 -228.56854227843723 61.929295805336551 0 61.929295805336551 36.622127793256368 0 0 0 0 -187.34021596817911 -12.520184768011859 0 -12.520184768011859 32.233734804569394 0 0 0 0 -211.4900631112796 -5.2578527525520258 0 -5.2578527525520258 37.139896380173013 0 0 0 0 -210.14601903541006 2.4132608191121108 0 2.4132608191121108 34.116937990293081 0 0 0 0 -192.64271837292836 -3.7310150214261739 0 -3.7310150214261739 27.51599741740938 0 0 0 0 -55.937544872898059 32.778945250709178 0 32.778945250709178 20.415195144764873 0 0 0 0 -58.86336149635099 364.48028818714909 0 364.48028818714909 266.81302194336195 0 0 0 0 -70.391681977875123 489.15420586495702 0 489.15420586495702 -985.86638109359751 0 0 0 0 -1118.4003100226764 -105.58039666106339 0 -105.58039666106339 491.5681323793591 0 0 0 0 -1415.0373880038096 -533.17914341687424 0 -533.17914341687424 259.70879022517329 0 0 0 0 -118.20566731528197 -10.884476217367592 0 -10.884476217367592 0.28545269721871591 0 0 0 0 -330.5882646005989 -257.52952990612812 0 -257.52952990612812 148.90084368233329 0 0 0 0 -106.20400714266725 2.2119129014695318 0 2.2119129014695318 4.1378862589035634 0 0 0 0 -399.19156531324552 194.76524641029727 0 194.76524641029727 202.50720857331964 0 0 0 0 -71.076266537661709 18.197224872330779 0 18.197224872330779 17.464363957492239 0 0 0 0 -87.887351888988121 18.281611781665596 0 18.281611781665596 1.493262085082975 0 0 0 0 -106.56479557723196 -0.52882496567542603 0 -0.52882496567542603 -12.577241473011782 0 0 0 0 -78.456713577790651 -269.69304996454048 0 -269.69304996454048 98.027880518518941 0 0 0 0 -122.54668374966059 414.17325139575405 0 414.17325139575405 634.15130588373177 0 0 0 0 -12.005888680010393 -6.5861481240879929 0 -6.5861481240879929 0.059019865308570729 0 0 0 0 -276.46150158031378 381.11775901761393 0 381.11775901761393 638.82118491940128 0 0 0 0 -109.90632762143287 377.4218358516282 0 377.4218358516282 564.42817618351364 0 0 0 0 63.432018416311621 244.53236043799734 0 244.53236043799734 535.8022992320839 0 0 0 0 -307.49745364392584 179.54787607538492 0 179.54787607538492 547.07859943834228 0 0 0 0 -147.89020634602639 288.25233896810551 0 288.25233896810551 603.46646135063929 0 0 0 0 -157.76239053643076 0.94736352522249945 0 0.94736352522249945 673.95634145355143 0 0 0 0 -229.48663666456014 -96.7530034422889 0 -96.7530034422889 640.43997938521898 0 0 0 0 -446.5653084435362 -214.53162943937787 0 -214.53162943937787 614.62224005668713 0 0 0 0 -209.59751402930669 -116.44911757885802 0 -116.44911757885802 532.14806593337198 0 0 0 0 -136.78586637867738 87.017825334876761 0 87.017825334876761 560.59918858579113 0 0 0 0 -423.33381802244912 24.83409941262471 0 24.83409941262471 864.46311870323188 0 0 0 0 -102.27531014470441 10.227053126239628 0 10.227053126239628 9.8097159412640114 0 0 0 0 -157.09721486418675 2.6275387690293428 0 2.6275387690293428 -5.2031568083439197 0 0 0 0 -13.413845499919377 -7.1798299540991843 0 -7.1798299540991843 2.2933626044046846 0 0 0 0 -101.71089833635415 252.02274960389695 0 252.02274960389695 697.18904781446417 0 0 0 0 -196.2226020056878 43.454618453945841 0 43.454618453945841 549.81026908620333 0 0 0 0 114.07199205308279 126.00286240350033 0 126.00286240350033 328.39031375058767 0 0 0 0 159.36389704294925 -165.55163908075701 0 -165.55163908075701 -130.03051926275657 0 0 0 0 -96.416961779381381 -17.126134468584496 0 -17.126134468584496 8.9585663022094195 0 0 0 0 -15.65962576672354 -3.9520658822013495 0 -3.9520658822013495 4.7073089724826076 0 0 0 0 -98.173320689622173 -23.889027896436161 0 -23.889027896436161 -4.8782282701850121 0 0 0 0 -128.67129711364055 -96.589771952279989 0 -96.589771952279989 -65.658103691359429 0 0 0 0 -107.43756054185951 -93.578145888064682 0 -93.578145888064682 160.32291836600416 0 0 0 0 -36.133197121062551 -6.2800353460280363 0 -6.2800353460280363 7.5636733327025709 0 0 0 0 -90.625447188846266 16.489548494079365 0 16.489548494079365 15.810475927968898 0 0 0 0 -156.79387556032816 -3.1106663478713017 0 -3.1106663478713017 -2.4975116825225996 0 0 0 0 -196.37901328136286 22.429495291184139 0 22.429495291184139 355.56386832031785 0 0 0 0 -207.30927202561088 -235.00755938707243 0 -235.00755938707243 461.10631874296814 0 0 0 0 -182.59446920831397 -117.88261700510884 0 -117.88261700510884 338.52630280961966 0 0 0 0 287.55554384098696 -838.21630097500588 0 -838.21630097500588 551.25580092347627 0 0 0 0 -266.55206021772938 -255.35168708490119 0 -255.35168708490119 593.28127960850907 0 0 0 0 -725.06172002511084 -275.00121784406565 0 -275.00121784406565 624.96799413389863 0 0 0 0 -1077.0343177405857 52.309465436234404 0 52.309465436234404 411.59918075665701 0 0 0 0 -1016.4740708519785 -174.37270572685702 0 -174.37270572685702 63.736603025327895 0 0 0 0 -321.75803470506207 -622.5127178146106 0 -622.5127178146106 -121.88858147867177 0 0 0 0 -148.08529650199898 -243.77062635585003 0 -243.77062635585003 572.53490865271851 0 0 0 0 -685.14193156912916 -672.72624337108141 0 -672.72624337108141 -1253.984611398273 0 0 0 0 -1694.9122186549976 -994.18165329361273 0 -994.18165329361273 -212.1447716629209 0 0 0 0 -3194.2539476205529 -662.80941138865865 0 -662.80941138865865 -361.77894802588617 0 0 0 0 -1506.1257714841952 67.342690028096285 0 67.342690028096285 -53.856904700116502 0 0 0 0 -1444.8036347111802 -1525.6879475838132 0 -1525.6879475838132 -2099.2258925415495 0 0 0 0 -1274.1497231775866 -179.36475142437803 0 -179.36475142437803 -2538.2358713690405 0 0 0 0 -136.48161179903582 -74.262281483499464 0 -74.262281483499464 -41.577273571427213 0 0 0 0 -8.6289687650714768 -73.513959827620965 0 -73.513959827620965 -467.85643232012171 0 0 0 0 1.5448353149422474 362.23886399580078 0 362.23886399580078 -915.03454624048845 0 0 0 0 -1856.6000736899696 1144.4843592345505 0 1144.4843592345505 -697.98737865662724 0 0 0 0 -297.7191468848996 570.69986186636652 0 570.69986186636652 -1428.5058134847523 0 0 0 0 -591.90947677193617 423.98419486027979 0 423.98419486027979 -431.83753411366888 0 0 0 0 -400.62199726415383 698.47574800094708 0 698.47574800094708 -481.91866885231684 0 0 0 0 -141.96890399617769 505.29893740045736 0 505.29893740045736 -340.1284767025054 0 0 0 0 -348.09224171502774 387.330797453797 0 387.330797453797 35.154164034529458 0 0 0 0 -135.31822172066859 676.23953208666535 0 676.23953208666535 -192.10044867719262 0 0 0 0 -581.46448338296614 684.29775978343514 0 684.29775978343514 -342.55473461267684 0 0 0 0 -1281.25384185033 445.77456067933144 0 445.77456067933144 226.00676676940202 0 0 0 0 -506.43265050909395 248.2426232436228 0 248.2426232436228 260.81539960178247 0 0 0 0 -777.16886493340121 293.07093613106349 0 293.07093613106349 561.22372476134296 0 0 0 0 -322.29858582319503 162.44507397360394 0 162.44507397360394 579.88161717988623 0 0 0 0 -481.98845057863946 258.43520302635079 0 258.43520302635079 603.9671625334995 0 0 0 0 -540.24095716110241 117.18499959643668 0 117.18499959643668 642.99126767452208 0 0 0 0 -128.57710584296728 305.10212668457734 0 305.10212668457734 425.9738871772206 0 0 0 0 -457.36740080767231 571.8425106037721 0 571.8425106037721 210.59931039893763 0 0 0 0 -277.70808754432983 455.72994845907397 0 455.72994845907397 535.73269198894195 0 0 0 0 544.33689694678287 391.75353507955515 0 391.75353507955515 27.695864292094484 0 0 0 0 587.40157851604636 1107.052252609792 0 1107.052252609792 -79.302468576557658 0 0 0 0 -132.51155722641079 317.392097007404 0 317.392097007404 633.37533780983904 0 0 0 0 -2616.1482438256116 -1228.126364309107 0 -1228.126364309107 -212.40421985368039 0 0 0 0 108.58781400204589 1065.5367066068211 0 1065.5367066068211 -511.32363283072118 0 0 0 0 -41.112272075596167 9.6750821355349839 0 9.6750821355349839 -22.873339178987599 0 0 0 0 -14.80033110111582 14.399473070122237 0 14.399473070122237 -7.4988516176410513 0 0 0 0 -368.03489567176712 -490.56904294827109 0 -490.56904294827109 -806.22287656504341 0 0 0 0 -2942.8938328236127 1509.9580840034862 0 1509.9580840034862 1194.4552541666817 0 0 0 0 1025.3324445374692 -1199.4219447172709 0 -1199.4219447172709 -1018.4106748399972 0 0 0 0 -2005.6193273101771 -77.750988002775557 0 -77.750988002775557 110.6681952748695 0 0 0 0 -479.2178077351291 1166.715652522128 0 1166.715652522128 -80.475767202572627 0 0 0 0 -120.70747198526806 621.08988320795561 0 621.08988320795561 -43.875298691052649 0 0 0 0 50.820553777238274 673.29566896461847 0 673.29566896461847 -216.0676943953149 0 0 0 0 -246.72425413444762 501.11016866231967 0 501.11016866231967 -317.46969946640638 0 0 0 0 -102.26700110495722 642.51082977500641 0 642.51082977500641 -188.412692936643 0 0 0 0 65.810232192945477 193.01355394744314 0 193.01355394744314 18.079837308336209 0 0 0 0 -301.97579624034552 146.62150085629128 0 146.62150085629128 246.44855522814578 0 0 0 0 309.40493807215717 351.20896842749062 0 351.20896842749062 160.06502182639088 0 0 0 0 138.05733413785129 144.08240647413368 0 144.08240647413368 102.93079733198829 0 0 0 0 163.25046951251716 31.032399060656644 0 31.032399060656644 284.93670111375104 0 0 0 0 82.805382907748026 -36.05815390968246 0 -36.05815390968246 6.0850988584315928 0 0 0 0 280.81030009075403 5.9402235638717684 0 5.9402235638717684 -125.78494260898739 0 0 0 0 -81.876370172069073 277.19525582331221 0 277.19525582331221 -137.05645888838626 0 0 0 0 -46.502325186011149 106.68292580376692 0 106.68292580376692 -43.996484098297969 0 0 0 0 1.5997731157749513 98.175741221200042 0 98.175741221200042 -314.35707031317361 0 0 0 0 -1921.2990952311166 1066.5231395780575 0 1066.5231395780575 1275.5674942767182 0 0 0 0 -6.2295483845984156 8.5435153626047882 0 8.5435153626047882 -11.726740514702371 0 0 0 0 -617.7668669338816 -88.214656165654446 0 -88.214656165654446 -17.740618016134249 0 0 0 0 -628.18368270721658 134.93904367052528 0 134.93904367052528 44.074906990914315 0 0 0 0 -2015.3502814497479 -213.41335993809207 0 -213.41335993809207 630.06557745961254 0 0 0 0 606.50395770184355 155.66850062560525 0 155.66850062560525 -247.22704623865138 0 0 0 0 393.6543026715608 20.053452691961866 0 20.053452691961866 -126.82609275890354 0 0 0 0 277.6703196815979 45.356065963499532 0 45.356065963499532 -75.248834446044384 0 0 0 0 473.31272062224161 -173.43289039803676 0 -173.43289039803676 164.44821681204121 0 0 0 0 -277.18452934088828 53.386364160289304 0 53.386364160289304 -473.94861372240848 0 0 0 0 175.23350739854141 101.80037374751919 0 101.80037374751919 575.74194308728511 0 0 0 0 282.44209209564724 372.8306965860811 0 372.8306965860811 427.50211220649362 0 0 0 0 -634.19444773832947 -341.47728602587813 0 -341.47728602587813 -288.21176160983669 0 0 0 0 -1270.3193704882735 76.311534909605143 0 76.311534909605143 -89.229903768718941 0 0 0 0 -1169.1478228346696 -165.25800807267842 0 -165.25800807267842 -109.38111320664757 0 0 0 0 -194.22288388719608 164.75998331571009 0 164.75998331571009 -9.8885014516636147 0 0 0 0 -1164.6277914644522 -52.50236204872067 0 -52.50236204872067 239.92161749107618 0 0 0 0 -413.82001463297638 -427.033643462908 0 -427.033643462908 -154.75254440956633 0 0 0 0 -6.4715690221525755 4.628473273444996 0 4.628473273444996 -7.0682009506133028 0 0 0 0 -1277.3476030989978 147.23947620244871 0 147.23947620244871 -258.00719655049761 0 0 0 0 -4.1085665259080315 11.206391082651944 0 11.206391082651944 -19.881731986440386 0 0 0 0 -1178.304533259291 -62.84111969881269 0 -62.84111969881269 -230.965938789755 0 0 0 0 -1865.0972546036614 30.57608646740664 0 30.57608646740664 269.09986273550021 0 0 0 0 -91.264961134642135 128.88853872688924 0 128.88853872688924 -73.788577127881581 0 0 0 0 -1013.7553268476072 319.41285816060463 0 319.41285816060463 158.71509752162092 0 0 0 0 -1132.3022467643891 -143.83461601910312 0 -143.83461601910312 -117.67787840585925 0 0 0 0 -1648.8780952430834 -75.134905171969876 0 -75.134905171969876 119.70074395761912 0 0 0 0 1755.9879253718518 207.36612877949574 0 207.36612877949574 -782.35059033688049 0 0 0 0 -253.04047750530901 463.60650539726203 0 463.60650539726203 -217.01666538771678 0 0 0 0 -8.6810213966964316 24.730642493309844 0 24.730642493309844 -28.789244153612586 0 0 0 0 -772.79548757542625 244.75392594498771 0 244.75392594498771 338.4044637787083 0 0 0 0 -773.13506755434469 231.56566634233604 0 231.56566634233604 -80.959464609913994 0 0 0 0 264.18390812741364 -216.63157060675439 0 -216.63157060675439 -17.413702350542735 0 0 0 0 338.58217316607431 -221.08370131975425 0 -221.08370131975425 -481.48997579201568 0 0 0 0 26.992169534193295 843.64977216537773 0 843.64977216537773 -1031.5093376486584 0 0 0 0 -29.530639512889593 -177.78692478148469 0 -177.78692478148469 -173.04700382440933 0 0 0 0 596.73821151831521 310.03355247400964 0 310.03355247400964 -280.93799691558525 0 0 0 0 -1810.9989318561095 609.8488546795943 0 609.8488546795943 134.48654167198765 0 0 0 0 -1012.1957139195338 389.68332471216127 0 389.68332471216127 80.268683117523324 0 0 0 0 545.37457084645803 -497.19674021672836 0 -497.19674021672836 -430.53874932184408 0 0 0 0 1373.028136441578 -422.72770977229084 0 -422.72770977229084 -686.5399367331047 0 0 0 0 13.588310791612884 26.669255354872476 0 26.669255354872476 -12.152383473089923 0 0 0 0 -595.3940378499683 186.82633486768464 0 186.82633486768464 1172.169351253091 0 0 0 0 -209.34398372937198 297.98037216755591 0 297.98037216755591 90.806261977459144 0 0 0 0 -97.837104056891931 -19.524790166582932 0 -19.524790166582932 25.227233457192074 0 0 0 0 -285.29607284306257 -180.40148193790083 0 -180.40148193790083 419.69403764540039 0 0 0 0 0.49506222500713193 304.80378177431385 0 304.80378177431385 20.049157525257215 0 0 0 0 -65.103606536404257 36.682534206753957 0 36.682534206753957 -37.877335918901139 0 0 0 0 -2998.5843595729757 602.02359980933034 0 602.02359980933034 694.69647835145042 0 0 0 0 74.590292077264166 81.862424275022931 0 81.862424275022931 30.550534729808533 0 0 0 0 -201.13565997203477 139.98032009884651 0 139.98032009884651 137.56380945859109 0 0 0 0 153.1664166245464 152.75635235438676 0 152.75635235438676 -15.213928716826558 0 0 0 0 -117.27398951451195 -37.381626566828785 0 -37.381626566828785 28.000787752644939 0 0 0 0 107.30101109097814 -214.67046419162637 0 -214.67046419162637 -284.16404135744915 0 0 0 0 -130.6943857253209 -140.20818140797201 0 -140.20818140797201 -204.9953447297753 0 0 0 0 -27.083776655075781 61.846379812431678 0 61.846379812431678 -135.8574819290734 0 0 0 0 -372.08910004649988 -631.37045924343511 0 -631.37045924343511 -347.78050583812728 0 0 0 0 -32.929162831107917 -25.685344966293982 0 -25.685344966293982 -16.509317108220827 0 0 0 0 -310.53866798659146 -236.58213193267738 0 -236.58213193267738 -133.49697782809108 0 0 0 0 75.207340924463438 734.17856569810942 0 734.17856569810942 177.7594501418007 0 0 0 0 -124.19188604848588 -35.735866742666317 0 -35.735866742666317 23.481167548585116 0 0 0 0 -919.14046179136494 106.9634347959668 0 106.9634347959668 -58.14421804004337 0 0 0 0 -61.832290131445582 25.005773260365785 0 25.005773260365785 -39.5277584006041 0 0 0 0 -1030.1047961759632 -414.70865726630291 0 -414.70865726630291 588.79149585200867 0 0 0 0 -1086.3105526602826 -111.81209393881363 0 -111.81209393881363 202.88192772988259 0 0 0 0 -75.24545022254938 489.38909571936961 0 489.38909571936961 655.80676983715057 0 0 0 0 -521.03789664671785 -250.95953019022636 0 -250.95953019022636 -86.184431834921043 0 0 0 0 -671.53816076268959 -172.30194856773215 0 -172.30194856773215 -118.14647995546829 0 0 0 0 -35.822987449248373 28.8752346432141 0 28.8752346432141 -19.362411022698065 0 0 0 0 -520.44012810373897 -4.8430913300928751 0 -4.8430913300928751 -11.812175166068869 0 0 0 0 -664.87497648922363 176.95999717423592 0 176.95999717423592 -192.36143590277715 0 0 0 0 148.71455033087113 154.25919218832769 0 154.25919218832769 45.179890756477107 0 0 0 0 133.31675683073991 100.22214539533525 0 100.22214539533525 63.111001102955925 0 0 0 0 -651.19038197267582 -454.82604987622233 0 -454.82604987622233 -354.21571226358992 0 0 0 0 -1182.5446025408728 -933.45091481177553 0 -933.45091481177553 -265.7094254421504 0 0 0 0 30.754760841504321 108.53826821134453 0 108.53826821134453 -254.247269088346 0 0 0 0 -14.550480226135718 8.5425980764612675 0 8.5425980764612675 -6.2006530277572693 0 0 0 0 114.48039467354101 60.392035344476426 0 60.392035344476426 28.219633116314071 0 0 0 0 61.992624293738118 -4.5362334191596574 0 -4.5362334191596574 -35.317854123445613 0 0 0 0 162.47683443034475 50.664596932773748 0 50.664596932773748 12.99146797074809 0 0 0 0 204.59660666710988 76.409929788375393 0 76.409929788375393 -11.063069058534893 0 0 0 0 122.64258856677043 107.42547301938976 0 107.42547301938976 99.020856716102571 0 0 0 0 144.84241207559899 151.81568383934132 0 151.81568383934132 -20.190524954905413 0 0 0 0 135.47069059141722 226.86515671641382 0 226.86515671641382 -72.612176118414936 0 0 0 0 96.097326144343242 194.41155752836221 0 194.41155752836221 36.126114762971156 0 0 0 0 86.420167595584644 135.90519998878881 0 135.90519998878881 5.7404896830921643 0 0 0 0 -135.13490454872954 253.39492469924608 0 253.39492469924608 -7.7198218591938712 0 0 0 0 -177.94247572196599 257.61856011108301 0 257.61856011108301 23.270300919839428 0 0 0 0 -177.34536934791325 152.80378334245944 0 152.80378334245944 39.213477267327107 0 0 0 0 128.82377645650558 84.36417119265343 0 84.36417119265343 7.2555062163064576 0 0 0 0 89.00586851288972 133.66220243152111 0 133.66220243152111 -36.798920051708592 0 0 0 0 -615.72964823670554 115.24994405720508 0 115.24994405720508 151.3004337175189 0 0 0 0 -656.34179686477 91.933071312898392 0 91.933071312898392 216.23067675172661 0 0 0 0 -338.40907776620588 475.14341687582737 0 475.14341687582737 86.36896239307498 0 0 0 0 -817.87968704890227 299.58970303278602 0 299.58970303278602 206.55953066853181 0 0 0 0 -178.65579644967511 219.54364569141444 0 219.54364569141444 39.308238470756351 0 0 0 0 -992.27902958104096 611.8831948401189 0 611.8831948401189 91.185715623439592 0 0 0 0 87.726189460530804 530.38480281557065 0 530.38480281557065 -168.33675528320509 0 0 0 0 -488.08610131539172 -120.79320301563394 0 -120.79320301563394 -358.55946188668622 0 0 0 0 -1301.6695124820253 -38.038528362999386 0 -38.038528362999386 190.96006892549303 0 0 0 0 37.427103824833466 -183.55605971844443 0 -183.55605971844443 -91.38859230981825 0 0 0 0 -12.14417480423478 -10.53978982693674 0 -10.53978982693674 15.150716655284338 0 0 0 0 -490.19984475338515 -106.63920951974467 0 -106.63920951974467 56.068309713978124 0 0 0 0 -198.5447020653628 76.248695035988476 0 76.248695035988476 -141.87125849846962 0 0 0 0 -10.838212567978189 -7.0704251563965954 0 -7.0704251563965954 -3.1049936509102736 0 0 0 0 0.095723350882451541 -1.4509597751706025 0 -1.4509597751706025 0.55100597078125624 0 0 0 0 -3.6153772217039659 -24.314098231341404 0 -24.314098231341404 34.751716989811484 0 0 0 0 -212.86659713000699 122.01361057121585 0 122.01361057121585 29.414356496306937 0 0 0 0 -12.615074781331273 -11.061648587686548 0 -11.061648587686548 17.435806451592111 0 0 0 0 -279.40084411021235 43.019205666736525 0 43.019205666736525 100.76758256145604 0 0 0 0 -163.9976350497891 -39.094610408650169 0 -39.094610408650169 -27.342505272569724 0 0 0 0 -40.916758336345083 52.462101676550901 0 52.462101676550901 15.015012506471976 0 0 0 0 -29.904417747342762 -7.9478299328035362 0 -7.9478299328035362 14.0878892950159 0 0 0 0 -42.712152990571667 -48.16591986710101 0 -48.16591986710101 22.055731718347488 0 0 0 0 -232.47799839158688 114.08168647558011 0 114.08168647558011 25.711108674508719 0 0 0 0 -58.601355744714965 -43.566585633330639 0 -43.566585633330639 -80.910396730185866 0 0 0 0 -227.1039388070385 -14.068688889903655 0 -14.068688889903655 13.768206765713728 0 0 0 0 -25.818908293024293 -7.210373232259677 0 -7.210373232259677 20.127098254359808 0 0 0 0 -60.595592652258347 7.4261015619399586 0 7.4261015619399586 16.05619597907156 0 0 0 0 -22.913361002266178 -2.8899058694564275 0 -2.8899058694564275 17.076900456343683 0 0 0 0 -156.25945489406877 49.964169553638385 0 49.964169553638385 -44.399158079446806 0 0 0 0 -578.89711205631465 345.7616537415538 0 345.7616537415538 -71.943953918564148 0 0 0 0 -720.05342942799325 156.87293242859687 0 156.87293242859687 125.18753734860366 0 0 0 0 -442.79814619172248 129.66013430630301 0 129.66013430630301 -117.07393134872666 0 0 0 0 -492.86783357658715 191.48364985812441 0 191.48364985812441 83.613246580420309 0 0 0 0 -519.50969668023754 275.92410300416668 0 275.92410300416668 195.07972050068292 0 0 0 0 -295.68877997283562 272.38127025836684 0 272.38127025836684 20.719353500959187 0 0 0 0 -755.10038979681849 428.04318084289116 0 428.04318084289116 66.691583871226612 0 0 0 0 -25.108834080423843 0.53778125945699173 0 0.53778125945699173 -4.5320702753076887 0 0 0 0 -222.30861391744929 112.88957520547854 0 112.88957520547854 30.960034656807693 0 0 0 0 -791.47046260225761 340.9571668925164 0 340.9571668925164 -136.59345965182729 0 0 0 0 -536.14631258709414 390.50122530563567 0 390.50122530563567 -139.48676993149309 0 0 0 0 -728.94086786174739 377.29495400043197 0 377.29495400043197 68.880037842478487 0 0 0 0 -804.16043761689798 274.03711763480169 0 274.03711763480169 65.28645567056401 0 0 0 0 -313.37920067290543 -71.141965437655017 0 -71.141965437655017 188.50339199329028 0 0 0 0 -490.09480773983523 281.45379713598231 0 281.45379713598231 115.97872384650691 0 0 0 0 -1479.3939076636743 253.38992164380034 0 253.38992164380034 325.87904508244901 0 0 0 0 -202.06480786702014 686.69117094406829 0 686.69117094406829 -1208.4384471073536 0 0 0 0 -396.81344625976635 182.90948598484101 0 182.90948598484101 -259.11926968348052 0 0 0 0 -123.85481808636931 39.683567051461488 0 39.683567051461488 14.282827871996403 0 0 0 0 -1207.5450044012396 942.26366809727188 0 942.26366809727188 -880.43413160146156 0 0 0 0 1339.2346119085721 736.60250097824155 0 736.60250097824155 -278.44649143241259 0 0 0 0 -33.124189105396169 -7.6535542208600589 0 -7.6535542208600589 1.6324591913538526 0 0 0 0 -1294.0731559841915 962.83977235957673 0 962.83977235957673 -327.91696247813525 0 0 0 0 -539.76604249335651 -18.20758053753525 0 -18.20758053753525 -58.25486072152853 0 0 0 0 -52.681492955659465 30.535833084052776 0 30.535833084052776 18.827241003702973 0 0 0 0 -52.267160530667752 -3.4861230034948676 0 -3.4861230034948676 10.008319344691699 0 0 0 0 -331.15123481641365 191.04637349190625 0 191.04637349190625 31.793117887820699 0 0 0 0 -86.906963697277305 12.112226804654249 0 12.112226804654249 28.291622673384765 0 0 0 0 -158.12002898921719 45.540450930535883 0 45.540450930535883 51.558514260144584 0 0 0 0 148.6370130811365 539.98701465746126 0 539.98701465746126 -150.32997320449067 0 0 0 0 -46.210465604143792 172.17910509003559 0 172.17910509003559 -296.45603255545211 0 0 0 0 -16.100365334530579 309.91658377735439 0 309.91658377735439 -68.558064114520676 0 0 0 0 -307.3556408360655 412.78997851480381 0 412.78997851480381 -74.750661764839606 0 0 0 0 -157.39976901815317 46.8151511472538 0 46.8151511472538 -0.73099744532373734 0 0 0 0 -77.927348241006257 11.53986376861576 0 11.53986376861576 15.280151069870044 0 0 0 0 -148.04003346528043 5.4222055702244916 0 5.4222055702244916 71.269057496443452 0 0 0 0 -61.135034028643048 -15.14646148991703 0 -15.14646148991703 31.090813531228012 0 0 0 0 -45.558787922670859 14.081251545800292 0 14.081251545800292 31.937369804130732 0 0 0 0 -131.65166689473699 -14.592286531220537 0 -14.592286531220537 89.288384189039448 0 0 0 0 -55.794650033172729 5.9825866431096983 0 5.9825866431096983 16.914739934789395 0 0 0 0 -106.23690701137093 -22.782566096836149 0 -22.782566096836149 51.883379624801421 0 0 0 0 -40.689956225234667 18.397375773320086 0 18.397375773320086 12.944773128719415 0 0 0 0 -93.564417124222814 19.549429391031936 0 19.549429391031936 7.7900359094073792 0 0 0 0 -83.202076615923033 -25.784260930310893 0 -25.784260930310893 -4.5371464012109755 0 0 0 0 -45.16248451390139 1.2414356599841341 0 1.2414356599841341 19.712309119904862 0 0 0 0 -58.493852765331241 -7.8031312490637914 0 -7.8031312490637914 12.232067007841231 0 0 0 0 -98.246124999488529 -14.770654912457758 0 -14.770654912457758 19.502308322011231 0 0 0 0 -44.286181303323247 -0.47482734657455694 0 -0.47482734657455694 54.706192465537924 0 0 0 0 -27.742678912647534 8.6578853000173694 0 8.6578853000173694 32.527277144181426 0 0 0 0 -40.9794608561036 20.117019713938795 0 20.117019713938795 41.928692808626707 0 0 0 0 -111.04205468879893 6.8164881775418564 0 6.8164881775418564 34.432292304671961 0 0 0 0 -56.176586869332823 -9.602507089406572 0 -9.602507089406572 53.840591097075958 0 0 0 0 -49.027343820298739 -9.0738375154365016 0 -9.0738375154365016 15.677147402735248 0 0 0 0 -71.382761695276713 4.8889903915114701 0 4.8889903915114701 23.940468031729779 0 0 0 0 -149.15109386234144 225.34712964894425 0 225.34712964894425 -119.03004026583949 0 0 0 0 0.45480293745224643 15.754140808478446 0 15.754140808478446 11.78852884683482 0 0 0 0 -116.11966601795189 74.863251687123011 0 74.863251687123011 57.506834419291408 0 0 0 0 38.049855804256367 19.052067338932829 0 19.052067338932829 98.590428405397688 0 0 0 0 -75.250750777140638 9.6260085464218719 0 9.6260085464218719 7.4515845918867853 0 0 0 0 -74.505565902268245 42.517496143562312 0 42.517496143562312 15.007137602073158 0 0 0 0 -51.212539097157858 56.880480319723254 0 56.880480319723254 47.143311679770669 0 0 0 0 -61.184997667936841 27.945272444623697 0 27.945272444623697 44.697826933974284 0 0 0 0 -56.820833816950781 35.198119389562777 0 35.198119389562777 63.114974069604443 0 0 0 0 -81.689408699343531 -11.81347396184438 0 -11.81347396184438 32.193285717131943 0 0 0 0 -95.330865875817835 -0.80534214268845972 0 -0.80534214268845972 53.172432780411327 0 0 0 0 -110.38083911898138 14.884398324480571 0 14.884398324480571 62.614829275786178 0 0 0 0 -95.207688836904708 17.313689287075249 0 17.313689287075249 58.28281768400484 0 0 0 0 -94.624698262011748 15.094570650630594 0 15.094570650630594 33.00965143101476 0 0 0 0 -83.468023878886015 13.727931923313008 0 13.727931923313008 44.731768922240008 0 0 0 0 -42.686290392047596 13.983648660873875 0 13.983648660873875 52.044608995529515 0 0 0 0 -28.90411707909065 4.0425073784411154 0 4.0425073784411154 17.972521181420205 0 0 0 0 -29.766323049901985 11.91803857202467 0 11.91803857202467 46.070832880964645 0 0 0 0 -113.97218887381082 14.31980706028385 0 14.31980706028385 22.085422919901056 0 0 0 0 -37.523307834759244 17.499131825555942 0 17.499131825555942 9.4196185386576801 0 0 0 0 -48.000220083896984 -11.365523468828879 0 -11.365523468828879 10.13342922163217 0 0 0 0 -19.797565175405165 25.614425999713642 0 25.614425999713642 29.423331693839671 0 0 0 0 -63.4413624917579 22.243985964692911 0 22.243985964692911 9.2065797703435237 0 0 0 0 -19.82372042439367 3.5258865551335177 0 3.5258865551335177 12.910554709442252 0 0 0 0 -87.530631601630802 17.02067304299635 0 17.02067304299635 7.4945440397641505 0 0 0 0 -15.580595064348213 25.625765161169813 0 25.625765161169813 3.1240372266578689 0 0 0 0 -61.567696533360049 36.559669322385162 0 36.559669322385162 12.960049143458946 0 0 0 0 -11.907891264248898 8.12795801789302 0 8.12795801789302 7.6771038056180743 0 0 0 0 -54.073578357373208 -4.578237608829113 0 -4.578237608829113 10.445384364223173 0 0 0 0 -115.91334049554041 19.443936536865408 0 19.443936536865408 20.569286929528971 0 0 0 0 -54.345655369979795 -5.139201252046405 0 -5.139201252046405 15.086862399166534 0 0 0 0 -8.4304244622445808 4.9361051788594068 0 4.9361051788594068 2.8371250803433199 0 0 0 0 -52.732821229564252 23.464895948775848 0 23.464895948775848 1.6096452826350287 0 0 0 0 -111.63588068660829 14.608350858209178 0 14.608350858209178 21.63264897184763 0 0 0 0 -10.261019093574699 19.403364474244686 0 19.403364474244686 2.5624702706671627 0 0 0 0 -66.075577111510711 18.7269188493201 0 18.7269188493201 6.9311437521150765 0 0 0 0 -8.6389517875930029 3.0846259550530197 0 3.0846259550530197 12.124231346045296 0 0 0 0 -45.635874856293384 16.918125951697732 0 16.918125951697732 0.028351383839787303 0 0 0 0 -52.119364523572358 3.7098447137345829 0 3.7098447137345829 -4.6853125449479194 0 0 0 0 -80.986838459101136 51.348891035535871 0 51.348891035535871 21.334492136301833 0 0 0 0 -68.258918783129957 15.02025502491631 0 15.02025502491631 30.932726019626898 0 0 0 0 -46.268506551558175 17.432591415419779 0 17.432591415419779 25.996298305160963 0 0 0 0 -33.020299172881643 8.6722860479384085 0 8.6722860479384085 29.089849638656332 0 0 0 0 -74.406122171877541 -19.649250171353287 0 -19.649250171353287 10.417829033933913 0 0 0 0 -46.927273265184652 -10.846163975589706 0 -10.846163975589706 13.59996987351507 0 0 0 0 -48.917953129999766 6.5924432505786044 0 6.5924432505786044 20.676107803896599 0 0 0 0 -45.07235462096105 -0.83693081789897406 0 -0.83693081789897406 -7.5394543310376321 0 0 0 0 -79.962670685525154 -3.1474733005707485 0 -3.1474733005707485 9.4610997668432617 0 0 0 0 -59.96053517450423 -2.2026422331105096 0 -2.2026422331105096 -1.4771670636916951 0 0 0 0 -46.279035006250325 1.7754305026096144 0 1.7754305026096144 -5.0061120854124308 0 0 0 0 -32.322292222065556 9.7142635505101342 0 9.7142635505101342 4.9301041166684696 0 0 0 0 -59.414302184938037 10.745243111884259 0 10.745243111884259 9.683938499083979 0 0 0 0 -59.979632412926378 -13.376774299749512 0 -13.376774299749512 11.211749263786714 0 0 0 0 -45.043973255076025 1.8564483233155911 0 1.8564483233155911 2.6336090777703478 0 0 0 0 -43.142344212575765 6.2367041313576337 0 6.2367041313576337 12.723267250060877 0 0 0 0 -72.690287910019833 -12.562354118117582 0 -12.562354118117582 14.181468717895314 0 0 0 0 -95.565474233009809 8.6979580052729339 0 8.6979580052729339 54.481544016148035 0 0 0 0 -50.211067700620333 79.473931421276262 0 79.473931421276262 1.6349558177008703 0 0 0 0 -80.648554045226774 -44.424758332016609 0 -44.424758332016609 64.129925221365767 0 0 0 0 -16.337000852283666 -5.7935719846961149 0 -5.7935719846961149 1.5181756756366069 0 0 0 0 8.6419487222701719 130.46407825334555 0 130.46407825334555 116.72425953576746 0 0 0 0 -108.49954821049869 142.83580089814495 0 142.83580089814495 36.364194150854168 0 0 0 0 -104.03223614234594 68.395338211624406 0 68.395338211624406 232.06064615831096 0 0 0 0 -286.74577377925743 -172.56372890955606 0 -172.56372890955606 195.51596106802623 0 0 0 0 -4.9244647730137387 -1.9658357194784273 0 -1.9658357194784273 -0.80209283740473192 0 0 0 0 -2.3494232106022537 -58.285206662955034 0 -58.285206662955034 -94.797322891558792 0 0 0 0 -41.981310833660245 -17.068553686239511 0 -17.068553686239511 72.002483577740676 0 0 0 0 -69.329895987990312 -228.78759617132363 0 -228.78759617132363 -118.53342406231147 0 0 0 0 -79.635131819886738 10.660016420296074 0 10.660016420296074 73.735851197572629 0 0 0 0 -6.7822421531231534 -1.7553336322301476 0 -1.7553336322301476 1.5782781039695208 0 0 0 0 -86.668474787367813 3.8340613624308162 0 3.8340613624308162 -1.7243313800162028 0 0 0 0 -86.860101551625775 -0.39453921439314121 0 -0.39453921439314121 4.7880709077693844 0 0 0 0 -108.6161978977907 -7.6380533763332323 0 -7.6380533763332323 -2.7072534659689609 0 0 0 0 -45.611955766921831 -13.496774956273072 0 -13.496774956273072 3.5644534654857685 0 0 0 0 -118.44788970141144 14.18244476350889 0 14.18244476350889 -10.087493795601034 0 0 0 0 -38.319931623355316 -6.4173419788025754 0 -6.4173419788025754 3.2330258698696408 0 0 0 0 -217.41479889156471 -67.948297065181094 0 -67.948297065181094 295.71545812036572 0 0 0 0 -50.015388352443651 -7.7560161380127335 0 -7.7560161380127335 0.65415118792066795 0 0 0 0 101.98009200466913 -179.29910403146062 0 -179.29910403146062 19.184632559241891 0 0 0 0 -17.864917567741685 1.7816530126614083 0 1.7816530126614083 9.3658201827189789 0 0 0 0 -76.262592887374922 -2.3483299801929434 0 -2.3483299801929434 2.0459036301863307 0 0 0 0 -77.749857810670619 -7.3204296319344166 0 -7.3204296319344166 -2.7974407243823407 0 0 0 0 -59.862267847085604 10.283550640547219 0 10.283550640547219 1.8381569423411399 0 0 0 0 -87.25504708202061 -1.6176742532525168 0 -1.6176742532525168 2.2078912688042465 0 0 0 0 -99.815479612578201 -5.1120875571335773 0 -5.1120875571335773 2.8331016886752423 0 0 0 0 -21.379737618930534 2.3593932718947777 0 2.3593932718947777 -1.1010298019820288 0 0 0 0 -87.713865494190713 -5.1480164295178952 0 -5.1480164295178952 -8.0567212640858088 0 0 0 0 -106.71842143600497 5.2334682628954354 0 5.2334682628954354 1.5162884715457352 0 0 0 0 -61.744644067428979 -12.484883695190444 0 -12.484883695190444 4.4371228021825031 0 0 0 0 -16.477685501357321 -1.1496300179175529 0 -1.1496300179175529 -1.4384623240884491 0 0 0 0 -16.925250914812988 0.48486223861788513 0 0.48486223861788513 -15.119101755260996 0 0 0 0 -86.278115225481088 5.381540679793261 0 5.381540679793261 -14.810369866093765 0 0 0 0 -87.037684113980504 -5.9041617432176281 0 -5.9041617432176281 -8.0940549182628558 0 0 0 0 -47.636086644890369 8.6802866076204062 0 8.6802866076204062 -5.8904185519467562 0 0 0 0 -42.017734667746701 -4.595409376085545 0 -4.595409376085545 -4.3300018140172405 0 0 0 0 -23.78955666294496 4.3155016477412573 0 4.3155016477412573 -3.6061250902494066 0 0 0 0 -31.25483940507274 -2.1925782319026741 0 -2.1925782319026741 -16.668463056117822 0 0 0 0 -89.912447316291946 -1.3853308681732415 0 -1.3853308681732415 -3.9010005446973537 0 0 0 0 -47.727830056122286 -4.0982600879005986 0 -4.0982600879005986 -1.6139899515073921 0 0 0 0 -41.214076860747141 16.093178553041341 0 16.093178553041341 -0.34523522570110821 0 0 0 0 -69.73812189335149 -6.4142950441435005 0 -6.4142950441435005 -6.8949008062845678 0 0 0 0 -2454.2533872327758 1147.2675160411175 0 1147.2675160411175 -322.5429252354528 0 0 0 0 -46.079108881536399 -6.3791660116595077 0 -6.3791660116595077 6.189398821646245 0 0 0 0 -2461.7024943082965 1025.9092243674882 0 1025.9092243674882 -415.86006586479027 0 0 0 0 -1491.4180467530723 679.03239935774661 0 679.03239935774661 -592.13822935295059 0 0 0 0 -1916.4100013932921 904.63774961162903 0 904.63774961162903 -411.03342237780515 0 0 0 0 -37.100346031332734 -7.8871924496858714 0 -7.8871924496858714 0.27999131585238834 0 0 0 0 70.937523267231882 100.52761282923683 0 100.52761282923683 83.067372658674358 0 0 0 0 39.343851937952422 -6.6614459039403116 0 -6.6614459039403116 -126.54060636715334 0 0 0 0 -18.574450489937853 -7.7092307150894293 0 -7.7092307150894293 -4.8485083364375727 0 0 0 0 -649.24373063137682 -366.65669928201589 0 -366.65669928201589 267.13863528005237 0 0 0 0 -18.800681564607046 -0.54856860380429495 0 -0.54856860380429495 1.0630994389705051 0 0 0 0 74.807883473626134 9.71692646579422 0 9.71692646579422 -232.33505604704317 0 0 0 0 -5492.0105903068534 3145.6904231553126 0 3145.6904231553126 -1424.2445206581117 0 0 0 0 -301.28630697503831 1344.558382982698 0 1344.558382982698 -502.76351894427648 0 0 0 0 -5456.5396171541615 -233.13120699042281 0 -233.13120699042281 319.29695901092151 0 0 0 0 -26.815767540011024 -9.6305609653594821 0 -9.6305609653594821 0.29083494902571327 0 0 0 0 -629.8896813752458 -565.56864173214103 0 -565.56864173214103 -373.35323505446638 0 0 0 0 -6.5715725837812826 -12.433925652517139 0 -12.433925652517139 -2.3994517735863585 0 0 0 0 -1878.6612439646087 -3799.9422696060183 0 -3799.9422696060183 -2464.8920103431728 0 0 0 0 -10.799227913152123 -2.0591600722082006 0 -2.0591600722082006 -4.5674575056351152 0 0 0 0 -23.196373734856024 -13.162214206658064 0 -13.162214206658064 3.895654588663092 0 0 0 0 -82.290718943151205 -2.3947597419430622 0 -2.3947597419430622 -2.9010438951495416 0 0 0 0 -166.64938494633134 -30.609544192118538 0 -30.609544192118538 241.33745819351299 0 0 0 0 -48.130824409400972 -0.34649343358391604 0 -0.34649343358391604 0.81148052155058803 0 0 0 0 -36.47297194757266 -13.608307406640051 0 -13.608307406640051 0.48483552654261075 0 0 0 0 -46.170839604294088 -10.654846279897903 0 -10.654846279897903 4.1318700361757692 0 0 0 0 -36.902930195475577 -9.3008629145857498 0 -9.3008629145857498 -4.0657979848418018 0 0 0 0 -87.727635982309948 -25.46726717939444 0 -25.46726717939444 74.793247679362594 0 0 0 0 -26.946143706454968 -31.603227535156456 0 -31.603227535156456 -3.681878785732537 0 0 0 0 -72.708837376558222 -28.976692311785484 0 -28.976692311785484 -42.47782785635394 0 0 0 0 -53.870656925074599 -6.4527949193702376 0 -6.4527949193702376 7.0658268165072124 0 0 0 0 -2161.9769112089634 -814.32308988030195 0 -814.32308988030195 -425.6468668354201 0 0 0 0 -5492.8867248742727 -1624.3042739710199 0 -1624.3042739710199 482.11699889142068 0 0 0 0 -2437.7425804300219 -284.18680097173404 0 -284.18680097173404 147.50882390726304 0 0 0 0 -3163.7535776937075 343.72220287138231 0 343.72220287138231 492.77842668039813 0 0 0 0 -5499.2825187677317 690.15502233825873 0 690.15502233825873 497.03021170203561 0 0 0 0 -18.807482059455857 -25.226957487791537 0 -25.226957487791537 -3.1996804514565431 0 0 0 0 -4589.9392787801116 1135.7608129889782 0 1135.7608129889782 -260.69942727998239 0 0 0 0 23.769661982103571 -249.41416411955342 0 -249.41416411955342 206.16386977364652 0 0 0 0 -147.21201266160642 -126.2888549909884 0 -126.2888549909884 151.09475915988301 0 0 0 0 -111.54678644881642 1.4237160572618279 0 1.4237160572618279 133.76248011072425 0 0 0 0 59.0329269467411 -74.538423964811429 0 -74.538423964811429 72.53432377839755 0 0 0 0 -214.87677882326534 25.393637355732125 0 25.393637355732125 139.13239940024533 0 0 0 0 -115.91027491302521 -66.428640072568697 0 -66.428640072568697 170.96098874267778 0 0 0 0 -171.9572276300496 12.827520872595983 0 12.827520872595983 6.5361060746578232 0 0 0 0 -76.73792310888166 94.716438316359472 0 94.716438316359472 74.648612232309574 0 0 0 0 -260.28838782876119 234.38219782458594 0 234.38219782458594 -59.895295862067378 0 0 0 0 -30.987230052206456 -11.415888903607616 0 -11.415888903607616 9.3020689150969229 0 0 0 0 -20.344761284066408 -34.053025710639218 0 -34.053025710639218 27.210107602129938 0 0 0 0 -219.44886037500146 186.48132083541108 0 186.48132083541108 -202.49066752391764 0 0 0 0 547.42216322344757 -921.21302225498493 0 -921.21302225498493 -60.959511245617335 0 0 0 0 -5499.7952771566497 1523.1917493486937 0 1523.1917493486937 -411.87751289846591 0 0 0 0 -10.484879471715523 -8.6873100666847733 0 -8.6873100666847733 -1.4058632566044855 0 0 0 0 -493.49078176294643 59.468458530461703 0 59.468458530461703 263.75587230478811 0 0 0 0 -257.91650862909592 919.5222960129322 0 919.5222960129322 -2446.483995869301 0 0 0 0 -14.695456333219596 -2.4465655715688186 0 -2.4465655715688186 -15.718307158962986 0 0 0 0 -881.51200312214496 776.11628613629364 0 776.11628613629364 -1908.8492523251289 0 0 0 0 810.47100902841339 -425.96258296094766 0 -425.96258296094766 -1495.5682306087665 0 0 0 0 -18.485685021500103 -1901.8202165166258 0 -1901.8202165166258 -153.53843626865637 0 0 0 0 -1095.7366700673515 -988.17421165139308 0 -988.17421165139308 -146.53490390202023 0 0 0 0 -905.86169998967671 176.74141463279238 0 176.74141463279238 159.9991301556347 0 0 0 0 -4.5909583102887979 1.2487334440042908 0 1.2487334440042908 5.4812635128732978 0 0 0 0 -1730.4553951554226 1170.5635785150334 0 1170.5635785150334 308.76640004913861 0 0 0 0 -384.36805306478345 -463.32245993028926 0 -463.32245993028926 936.00898657701828 0 0 0 0 5.9769082335536723 11.375561813984351 0 11.375561813984351 15.562123382161793 0 0 0 0 -442.23826358351653 945.00832544004834 0 945.00832544004834 -243.85684026872229 0 0 0 0 -732.60718481790536 616.27012717920843 0 616.27012717920843 -608.10915418988952 0 0 0 0 -732.68940245747945 917.59825841996826 0 917.59825841996826 -730.19707038775323 0 0 0 0 -38.502640529705587 -29.578453157390008 0 -29.578453157390008 -26.79047292420611 0 0 0 0 -96.210065869090613 65.672665183141362 0 65.672665183141362 49.053481618517253 0 0 0 0 -13.54321790066092 -5.577921416733858 0 -5.577921416733858 5.5669575733159178 0 0 0 0 -58.400637721439125 134.81563662743429 0 134.81563662743429 -210.94683961026021 0 0 0 0 -223.88913413507362 70.20523765256803 0 70.20523765256803 -236.14079461250003 0 0 0 0 -285.284225157935 967.85386737386943 0 967.85386737386943 -1004.5512618506236 0 0 0 0 -46.078350714039146 -20.627172655723765 0 -20.627172655723765 -21.959222721461657 0 0 0 0 -272.66553516691783 -323.22498180755792 0 -323.22498180755792 154.2326914309233 0 0 0 0 -216.834355780838 254.28962977501413 0 254.28962977501413 219.970236594163 0 0 0 0 -575.70580598960805 -170.43558259950078 0 -170.43558259950078 -103.58723770284087 0 0 0 0 -775.06844184460351 301.2504782921751 0 301.2504782921751 -170.11922569287708 0 0 0 0 -58.052498088781562 17.752786165118238 0 17.752786165118238 -23.270620426089579 0 0 0 0 -205.4655504636994 259.06064774449806 0 259.06064774449806 -152.70543709855701 0 0 0 0 -276.68443447323807 73.368297467719458 0 73.368297467719458 21.042376908109873 0 0 0 0 -279.3742666451144 67.155175561958458 0 67.155175561958458 37.897289769975032 0 0 0 0 449.64605275320355 -123.9989963817934 0 -123.9989963817934 -156.01689814727069 0 0 0 0 -94.090081109491621 28.435002805892424 0 28.435002805892424 -0.50773712948979011 0 0 0 0 -4.8048240466576004 -0.22415572767757208 0 -0.22415572767757208 -2.2572483226540925 0 0 0 0 133.14438234126283 -224.90554644963231 0 -224.90554644963231 -284.40036433597561 0 0 0 0 -185.87242060816789 -486.19177750607196 0 -486.19177750607196 -1330.3653835558653 0 0 0 0 -376.76078184136713 -705.97422318093049 0 -705.97422318093049 -1065.5175475599026 0 0 0 0 -1184.0151434852523 -1940.0679653981242 0 -1940.0679653981242 -2248.4039616816476 0 0 0 0 319.55228314618034 -416.75170775177548 0 -416.75170775177548 -2346.6005199659776 0 0 0 0 -241.24056871873472 192.22103691532902 0 192.22103691532902 -74.939777376519487 0 0 0 0 -12.60853414842515 -9.7630390147082942 0 -9.7630390147082942 -10.874855690068998 0 0 0 0 -1627.8295451634217 1278.9904814213153 0 1278.9904814213153 -1027.3337221722213 0 0 0 0 -1494.2248886838497 -110.32674156337089 0 -110.32674156337089 -57.58648665596229 0 0 0 0 -38.990763969862201 -21.411918199886436 0 -21.411918199886436 -25.375206685222189 0 0 0 0 -170.29831377083269 -403.12066294398232 0 -403.12066294398232 223.83262174853735 0 0 0 0 -3430.0259988451726 976.25369704414516 0 976.25369704414516 -325.04097282449948 0 0 0 0 -2427.880969458367 -1428.060273558636 0 -1428.060273558636 -1756.6483611982694 0 0 0 0 -1050.1459609242083 -327.81977939071294 0 -327.81977939071294 -2950.9521030944725 0 0 0 0 -3377.3305449278923 -1010.9729985773765 0 -1010.9729985773765 -1000.4821818668825 0 0 0 0 -2291.6021364392218 499.4628476099424 0 499.4628476099424 -1918.5322363707419 0 0 0 0 -967.08135164789564 237.03771391130067 0 237.03771391130067 -1451.4112329707427 0 0 0 0 -1006.1998532876169 -590.34320772693172 0 -590.34320772693172 -1527.7856649779212 0 0 0 0 -557.52993417307152 -425.39824467619837 0 -425.39824467619837 -1147.7121984190617 0 0 0 0 -361.78081128445774 -185.38929590579573 0 -185.38929590579573 -1286.182628704224 0 0 0 0 -711.50522450311109 -682.8058809392578 0 -682.8058809392578 -1148.1112441429109 0 0 0 0 -419.60589271533536 -295.18244427289937 0 -295.18244427289937 -1053.8301480617301 0 0 0 0 -565.70385030583566 -364.07244276973665 0 -364.07244276973665 -1558.5592528340021 0 0 0 0 -1108.5866155959957 -407.66072746777445 0 -407.66072746777445 -968.40326698458557 0 0 0 0 -952.75369313483679 -1025.9592450324189 0 -1025.9592450324189 -1305.7058296508167 0 0 0 0 -435.96543461421243 -54.672801736642214 0 -54.672801736642214 -578.70241298388783 0 0 0 0 -336.82487823812698 55.720723281256141 0 55.720723281256141 -679.8120233102054 0 0 0 0 -433.00681867526146 -294.55521556239 0 -294.55521556239 -1020.7945276713153 0 0 0 0 -321.55922529041345 -116.85705644145082 0 -116.85705644145082 -839.80140898920763 0 0 0 0 -343.79334056617517 -10.718086979188229 0 -10.718086979188229 -724.08283086487427 0 0 0 0 -643.76865444009309 -396.43362214053013 0 -396.43362214053013 -888.6368023752932 0 0 0 0 -566.21914342864329 -230.12814230986305 0 -230.12814230986305 -675.21798400955049 0 0 0 0 -715.03785885065736 -102.58615286881513 0 -102.58615286881513 -696.41998594984398 0 0 0 0 -966.45437649318137 -327.92181128006177 0 -327.92181128006177 -693.71727078250842 0 0 0 0 -875.34487926154907 -529.89472067688985 0 -529.89472067688985 -772.74172032442402 0 0 0 0 -594.87379138171309 -472.36670019473695 0 -472.36670019473695 -771.8336621375729 0 0 0 0 -828.20269090845613 -440.49033799902463 0 -440.49033799902463 -605.15017499403984 0 0 0 0 -1099.7062079233365 -310.22590232789935 0 -310.22590232789935 -595.74711788670038 0 0 0 0 -883.89114688894915 -669.1856312374357 0 -669.1856312374357 -690.49329795808671 0 0 0 0 -791.82265990826272 -695.11265035918177 0 -695.11265035918177 -697.76343386975532 0 0 0 0 -867.49180442593206 -612.19760462986096 0 -612.19760462986096 -499.42725402093674 0 0 0 0 -1197.9358735435235 -575.95603082411481 0 -575.95603082411481 -242.08180373007144 0 0 0 0 -749.06356779539055 -125.43702231520365 0 -125.43702231520365 61.477432660073191 0 0 0 0 -898.21198568739783 -430.10867686233541 0 -430.10867686233541 -398.12365080113977 0 0 0 0 -909.38554199322061 -478.38252502005616 0 -478.38252502005616 -267.62061171527603 0 0 0 0 -799.78623150247586 -192.76613869576067 0 -192.76613869576067 -89.643225559334951 0 0 0 0 -545.28841776429726 -262.2043324948304 0 -262.2043324948304 -183.72630366050907 0 0 0 0 -453.06926026677866 0.10619718328155159 0 0.10619718328155159 -33.628845779781841 0 0 0 0 -431.53979070662899 -175.55892528566528 0 -175.55892528566528 -158.67487134085695 0 0 0 0 -1359.4607536915034 -326.12847607432855 0 -326.12847607432855 -344.18360135786315 0 0 0 0 -928.14426917011224 -494.2425008934938 0 -494.2425008934938 -405.6857118724165 0 0 0 0 -917.96254407458764 -444.89974683727314 0 -444.89974683727314 -259.14197432519813 0 0 0 0 -1138.6795273911921 -314.01971603943457 0 -314.01971603943457 -293.91183182590476 0 0 0 0 -1157.3878448918258 -391.864788014434 0 -391.864788014434 -359.02206920641402 0 0 0 0 -1571.2488806043111 -294.47992758455484 0 -294.47992758455484 -166.93217787745834 0 0 0 0 -1117.1859025798331 -482.68930974164596 0 -482.68930974164596 -214.67389190243557 0 0 0 0 -710.1871929469271 -353.04970194258749 0 -353.04970194258749 -177.4905800263532 0 0 0 0 -999.34041677696041 -211.27121246401771 0 -211.27121246401771 -160.35587622318053 0 0 0 0 -863.50690179292724 -473.28527708447291 0 -473.28527708447291 -194.91062957967006 0 0 0 0 -593.97930357915902 -89.884068429314539 0 -89.884068429314539 -166.74790066509922 0 0 0 0 -1309.6432494832543 -294.90239106524444 0 -294.90239106524444 -82.155537696484316 0 0 0 0 -162.89422600500984 -81.603929042840264 0 -81.603929042840264 -120.46608188394566 0 0 0 0 -639.47538861809153 -91.647172849939125 0 -91.647172849939125 -51.472186079542098 0 0 0 0 -593.47212022096573 -130.56277644644797 0 -130.56277644644797 29.229842359818576 0 0 0 0 -271.29039857187308 -124.81632661813273 0 -124.81632661813273 -170.11254454356731 0 0 0 0 81.945687555769837 68.680099166564105 0 68.680099166564105 -16.249047189026896 0 0 0 0 -294.90938846013296 87.794624231611635 0 87.794624231611635 111.76850347256368 0 0 0 0 140.88324128797831 353.32131841377441 0 353.32131841377441 277.84089974789458 0 0 0 0 -103.00145028440559 37.258759523460625 0 37.258759523460625 67.817170154263778 0 0 0 0 195.24920441212453 310.47154448409071 0 310.47154448409071 156.03856639824699 0 0 0 0 135.10753957935958 67.219908530038992 0 67.219908530038992 34.000043707967052 0 0 0 0 139.46896196537364 86.618292310485117 0 86.618292310485117 -16.438271558008637 0 0 0 0 -107.91580012073973 151.2372969115313 0 151.2372969115313 64.639950099477574 0 0 0 0 -1.2735546090843854 -19.927011735933775 0 -19.927011735933775 -136.31030834646936 0 0 0 0 36.47334071595651 100.02845361486879 0 100.02845361486879 39.379720021983303 0 0 0 0 -10.313563812691427 -140.78284395009905 0 -140.78284395009905 50.537282501634763 0 0 0 0 95.941686198646494 39.642470448212407 0 39.642470448212407 -50.631071161931231 0 0 0 0 -306.46430135309856 118.81397515926528 0 118.81397515926528 -67.175376180108287 0 0 0 0 17.271474943932844 -84.676822501680363 0 -84.676822501680363 -199.83035835383635 0 0 0 0 -87.645337968628155 860.91766304608609 0 860.91766304608609 -843.451316367853 0 0 0 0 -1160.3842446425933 649.29897192788553 0 649.29897192788553 -124.65381662713435 0 0 0 0 18.977364055004131 41.866313222269419 0 41.866313222269419 40.10368246082038 0 0 0 0 -552.34215303934616 149.93598491533612 0 149.93598491533612 224.79018246646274 0 0 0 0 107.94746086096711 81.353892307077103 0 81.353892307077103 81.66427469546943 0 0 0 0 -93.593818123621375 30.157791869267612 0 30.157791869267612 73.728698912246571 0 0 0 0 151.26013988116756 146.92511397156704 0 146.92511397156704 65.240974444192943 0 0 0 0 -306.71120699598032 -469.76724306643928 0 -469.76724306643928 -1001.7155944723545 0 0 0 0 -1721.5680924382323 765.69690407363578 0 765.69690407363578 -334.38983310123785 0 0 0 0 -2.954027252156834 2.5066678338249915 0 2.5066678338249915 2.1843625987874553 0 0 0 0 41.545909276079328 225.49428777369462 0 225.49428777369462 -383.58785413704391 0 0 0 0 -591.61291414528273 -592.7489563970222 0 -592.7489563970222 -497.17864700282371 0 0 0 0 -381.35303994643618 -537.44886436304296 0 -537.44886436304296 -320.11265047588802 0 0 0 0 -176.9985853688122 -291.77693131773049 0 -291.77693131773049 -362.28150425150307 0 0 0 0 -410.14546940285072 -376.59328182606259 0 -376.59328182606259 -305.53803686201172 0 0 0 0 -840.50336522066209 -448.58347684683031 0 -448.58347684683031 -93.573471070983942 0 0 0 0 -591.88398363758461 -422.52667328550069 0 -422.52667328550069 -341.41297698987182 0 0 0 0 -464.21763463786192 -555.78519570097183 0 -555.78519570097183 -358.22521480388605 0 0 0 0 -1324.1229304924491 -762.11355457892751 0 -762.11355457892751 -234.09806468380339 0 0 0 0 -1276.1471777475235 39.816700085868433 0 39.816700085868433 322.12094634008827 0 0 0 0 -3064.8852344748011 -469.35455061874381 0 -469.35455061874381 179.73269081257877 0 0 0 0 -1541.4714159817959 -1283.8056567458843 0 -1283.8056567458843 -888.48472067393777 0 0 0 0 -1601.8795331301444 2278.4079709559028 0 2278.4079709559028 -628.63271523139701 0 0 0 0 -650.95169825675839 219.92086217753058 0 219.92086217753058 -1049.4144716595783 0 0 0 0 541.60579022282764 -24.147445627559591 0 -24.147445627559591 -370.33167501689059 0 0 0 0 -32.33002554688926 -45.178061079703468 0 -45.178061079703468 -64.96048069609526 0 0 0 0 -744.91870912061722 326.27991466145232 0 326.27991466145232 -45.499262090663251 0 0 0 0 -424.69531010368519 372.62535143964305 0 372.62535143964305 -457.34713961959392 0 0 0 0 -272.05128128620345 500.65667552043533 0 500.65667552043533 -416.36385109129333 0 0 0 0 -231.01407194988678 263.25146139605476 0 263.25146139605476 -339.38488471389428 0 0 0 0 -86.670609498600243 65.203609385973323 0 65.203609385973323 -349.5842609463316 0 0 0 0 -631.97118172541377 628.50200701459732 0 628.50200701459732 -608.36906208314758 0 0 0 0 -632.96048060593603 614.69537167241651 0 614.69537167241651 -794.54951777312453 0 0 0 0 -648.4493609128258 267.78294955683668 0 267.78294955683668 -408.26510059974589 0 0 0 0 -832.98579130788858 89.299920538500373 0 89.299920538500373 -314.52121299060855 0 0 0 0 -366.7332602339593 203.45176963015001 0 203.45176963015001 -590.43396002340342 0 0 0 0 -498.87171622329333 -14.883786497945039 0 -14.883786497945039 -142.37481659322839 0 0 0 0 -422.34308508818503 81.398372976040264 0 81.398372976040264 -389.37774498220824 0 0 0 0 -760.53224979987135 97.316042390297298 0 97.316042390297298 -211.56262985332796 0 0 0 0 -326.21325810463168 316.69068493056329 0 316.69068493056329 -281.91977403267811 0 0 0 0 83.372116947015456 -115.021038987672 0 -115.021038987672 -86.758226703072069 0 0 0 0 160.27753184230824 -430.01834033112573 0 -430.01834033112573 86.716195047758447 0 0 0 0 -55.430388427984155 -7.2963542981723037 0 -7.2963542981723037 -24.133276554751824 0 0 0 0 -185.12673424370587 -35.237320355995507 0 -35.237320355995507 193.12521023542649 0 0 0 0 -148.51415246266333 15.89173465762542 0 15.89173465762542 -228.9659887200869 0 0 0 0 -576.7744133079832 -97.172739102688865 0 -97.172739102688865 -279.49848976510111 0 0 0 0 -396.14249939932779 -187.1438825116893 0 -187.1438825116893 49.486409005345195 0 0 0 0 -483.44582775010349 18.640046723520754 0 18.640046723520754 -145.46723904384271 0 0 0 0 -512.44507388197235 -246.23697605954658 0 -246.23697605954658 6.2436802704942238 0 0 0 0 -724.8275998205354 -201.11450622632401 0 -201.11450622632401 -213.45508551897728 0 0 0 0 -886.21462960338249 -86.161360191048516 0 -86.161360191048516 -151.17875917407946 0 0 0 0 -914.59352224529721 58.284906235654489 0 58.284906235654489 -280.93677414255581 0 0 0 0 -734.37421277479734 87.977853268905164 0 87.977853268905164 -346.1381543064108 0 0 0 0 -997.0216284164344 293.30153374918336 0 293.30153374918336 -710.47964426373437 0 0 0 0 -872.31264797240146 140.80962439046743 0 140.80962439046743 -543.28879515965673 0 0 0 0 -883.99855037612724 -208.78959636317813 0 -208.78959636317813 -657.64620574912078 0 0 0 0 -43.663223026867442 -42.093127364555286 0 -42.093127364555286 -38.448922727193889 0 0 0 0 -1127.2697361614191 480.84157005941131 0 480.84157005941131 -407.49057703735161 0 0 0 0 -489.41046194966475 -438.74423185658452 0 -438.74423185658452 -399.36446678611537 0 0 0 0 -4.7545077323920282 -2.0704776265301632 0 -2.0704776265301632 -2.7223571142236125 0 0 0 0 -1186.9864129449707 256.60788849115124 0 256.60788849115124 -562.70668200032378 0 0 0 0 -1624.560569599169 1266.6324045727392 0 1266.6324045727392 -599.57597217797729 0 0 0 0 -43.194258251383303 -15.652518146426232 0 -15.652518146426232 3.7805381717398241 0 0 0 0 -2277.0836507979548 -2426.512389901487 0 -2426.512389901487 -796.40161350897051 0 0 0 0 -40.321403135833947 -50.503144025762239 0 -50.503144025762239 -60.460131361681185 0 0 0 0 -1304.6942207429383 415.030470645077 0 415.030470645077 -415.04925116211234 0 0 0 0 -1267.3922269740433 18.377150537569833 0 18.377150537569833 -501.10104841303473 0 0 0 0 -774.21357000857824 240.4759819566616 0 240.4759819566616 -443.62279321095411 0 0 0 0 -996.40207839323557 122.97322019715284 0 122.97322019715284 -377.02419541515701 0 0 0 0 -739.38648564834875 115.56698370730737 0 115.56698370730737 -468.5945326084111 0 0 0 0 -1091.1396425488638 331.9311402061976 0 331.9311402061976 -560.16436716600242 0 0 0 0 -1129.0423191837617 344.67102397786039 0 344.67102397786039 -421.85442732652882 0 0 0 0 -143.62713408674682 -4.5149948061317744 0 -4.5149948061317744 46.550210933054615 0 0 0 0 124.22169433109229 -10.879971845751243 0 -10.879971845751243 93.283328817135896 0 0 0 0 109.22505429462763 -341.23664742967412 0 -341.23664742967412 121.72969750915524 0 0 0 0 214.24158578006609 -200.40049667973653 0 -200.40049667973653 -126.92306875421309 0 0 0 0 134.42634062657817 12.44552636358992 0 12.44552636358992 -254.93911088333334 0 0 0 0 -15.596487422517384 255.91188569903989 0 255.91188569903989 -31.829372217192031 0 0 0 0 -42.327247381268535 -34.060492229127703 0 -34.060492229127703 -153.70193347113673 0 0 0 0 -176.04273149513756 215.98616437864803 0 215.98616437864803 283.92605733645712 0 0 0 0 -96.810428141245211 91.07500778747999 0 91.07500778747999 -394.53798187699795 0 0 0 0 -212.80622964218492 -356.68186259580216 0 -356.68186259580216 -446.02066637703706 0 0 0 0 -143.3501741525979 -179.42637116964215 0 -179.42637116964215 -44.682516865983416 0 0 0 0 -789.52033190074144 -11.593812994015025 0 -11.593812994015025 -10.585968243343814 0 0 0 0 -2117.3441285857698 419.10783465013515 0 419.10783465013515 98.183134674782195 0 0 0 0 -9.2601791252951244 -7.4526735468206624 0 -7.4526735468206624 -2.0772893435135771 0 0 0 0 -1551.4128634876542 -733.35259544320297 0 -733.35259544320297 -183.93528540762054 0 0 0 0 -337.34688354385435 -1116.5094685669014 0 -1116.5094685669014 73.424189439084785 0 0 0 0 -346.23029642412803 -569.16055645562051 0 -569.16055645562051 -945.78172048190754 0 0 0 0 -7.90283155094113 -2.6441832958690696 0 -2.6441832958690696 1.9789287640473816 0 0 0 0 -909.81998379821016 -1154.0352205893869 0 -1154.0352205893869 150.94011823484834 0 0 0 0 173.27565404940833 86.6505619860759 0 86.6505619860759 -539.24556960471455 0 0 0 0 -1971.1783765318687 793.4375465563071 0 793.4375465563071 -339.46278012337348 0 0 0 0 -749.20535618368012 4.7969029323085124 0 4.7969029323085124 -678.64431184063505 0 0 0 0 -502.8392837746942 -337.56847209720127 0 -337.56847209720127 -774.5611295020808 0 0 0 0 -1898.4957181583368 -297.2225825046562 0 -297.2225825046562 -448.02318134917914 0 0 0 0 -218.43854719860246 362.3492478270673 0 362.3492478270673 -560.56621197382492 0 0 0 0 307.67169035853294 142.27354275139896 0 142.27354275139896 -506.34251686216703 0 0 0 0 -126.5681576243951 465.36147909874308 0 465.36147909874308 -57.539931140327099 0 0 0 0 -14.992109845284844 -19.752042866217735 0 -19.752042866217735 -8.7637346998664611 0 0 0 0 -247.91195611600415 56.27152266997382 0 56.27152266997382 237.36466317495069 0 0 0 0 424.71276185219176 -236.50684760655531 0 -236.50684760655531 -77.031590198990671 0 0 0 0 -787.21800761494706 214.88086385507995 0 214.88086385507995 97.973346137940098 0 0 0 0 -268.72964133215282 56.932546788722902 0 56.932546788722902 -180.30362499342664 0 0 0 0 -396.70826736127492 74.693321411141369 0 74.693321411141369 -103.94653974929315 0 0 0 0 -646.12602415199945 -226.42888244300593 0 -226.42888244300593 283.43153674670089 0 0 0 0 -151.56812073658961 -6.9318041703410032 0 -6.9318041703410032 51.816310623881591 0 0 0 0 -592.07911454426358 -142.47807695042775 0 -142.47807695042775 235.41570764912103 0 0 0 0 -644.2059715269279 190.53125030397314 0 190.53125030397314 -180.1279051323263 0 0 0 0 -739.56218229126353 23.283466244322881 0 23.283466244322881 210.14005883433128 0 0 0 0 -717.10091313990415 133.23753218625734 0 133.23753218625734 -209.67904478721357 0 0 0 0 -516.47473996531335 -563.47864898542502 0 -563.47864898542502 34.988730370040571 0 0 0 0 -527.70030504658644 -437.6910291189597 0 -437.6910291189597 592.26724867991652 0 0 0 0 -148.58774385968712 -8.4438498294476858 0 -8.4438498294476858 49.111424581307361 0 0 0 0 -495.14572911221512 125.29914235301572 0 125.29914235301572 -228.97739205728635 0 0 0 0 -935.31426978019954 114.87682491375381 0 114.87682491375381 -29.013310898057171 0 0 0 0 951.1236367740712 -252.36491890081186 0 -252.36491890081186 -374.22110530369673 0 0 0 0 -1.08575116537979 0.94326999395965316 0 0.94326999395965316 6.5629824804690333 0 0 0 0 -1183.9481461345895 511.94910802878303 0 511.94910802878303 -155.40191502073048 0 0 0 0 322.3951559545967 -22.743702911309356 0 -22.743702911309356 -374.77862509211263 0 0 0 0 -416.35684230791958 449.27201556316049 0 449.27201556316049 -338.01174148445079 0 0 0 0 -138.02709277387567 42.273938540824588 0 42.273938540824588 -383.83011728259862 0 0 0 0 144.22410744627268 260.59865786021192 0 260.59865786021192 -66.630344275211428 0 0 0 0 -189.67896811545324 504.10262278959897 0 504.10262278959897 -203.14369189793047 0 0 0 0 -906.22925020873299 387.36055766113532 0 387.36055766113532 -180.25077787762848 0 0 0 0 6.3687333283302365 10.685042263782634 0 10.685042263782634 12.582022666685337 0 0 0 0 233.05070428796535 8.0909750671487473 0 8.0909750671487473 2.3324205364051522 0 0 0 0 -1454.8482296989878 475.98080866952569 0 475.98080866952569 43.088297849080845 0 0 0 0 -1060.9359030332344 394.57505229603157 0 394.57505229603157 -237.96395949090177 0 0 0 0 -963.73698045127821 264.47071713170772 0 264.47071713170772 -47.561051735365254 0 0 0 0 -695.49468895687096 133.44026151512935 0 133.44026151512935 9.4454927705446607 0 0 0 0 -1214.0916597784963 189.03445584279871 0 189.03445584279871 190.75317562362943 0 0 0 0 -923.35964658777073 -31.156511985978142 0 -31.156511985978142 267.07868168408459 0 0 0 0 -566.72272154559323 104.00427173175876 0 104.00427173175876 188.86678473377356 0 0 0 0 -306.88805022522956 -417.15996345206918 0 -417.15996345206918 569.87892813972303 0 0 0 0 -171.14705656726255 -275.57068798614273 0 -275.57068798614273 136.63585310850067 0 0 0 0 -138.87976591118911 -7.9043171060833046 0 -7.9043171060833046 46.860816679959314 0 0 0 0 -514.21959439020429 18.859256703906794 0 18.859256703906794 106.54820346729139 0 0 0 0 -798.74556809602655 -126.95412515417047 0 -126.95412515417047 396.2288305820075 0 0 0 0 -989.69629877284024 -89.145271274581319 0 -89.145271274581319 248.51026680170435 0 0 0 0 -450.06762870635566 -364.5552514716519 0 -364.5552514716519 387.96325244261243 0 0 0 0 -768.95293422288159 118.76111181926171 0 118.76111181926171 -12.796344659465831 0 0 0 0 -847.51275972462099 -128.90646834456084 0 -128.90646834456084 269.23360903722278 0 0 0 0 -1245.106190444335 11.040231472151049 0 11.040231472151049 28.016774219940999 0 0 0 0 -1036.4981008803941 -124.54314365636418 0 -124.54314365636418 4.0291017329291208 0 0 0 0 -1026.5991854086205 269.33446773386822 0 269.33446773386822 -172.39221538532456 0 0 0 0 -1827.8014590530438 525.65158059239002 0 525.65158059239002 -167.60545016379729 0 0 0 0 -1680.6685437526758 354.86249099142151 0 354.86249099142151 -85.837446459865532 0 0 0 0 -1223.8535048927733 133.34775784012527 0 133.34775784012527 -238.91718574466722 0 0 0 0 -1536.3317801497324 464.12422465488999 0 464.12422465488999 -561.09073975009414 0 0 0 0 -13.396698001955883 -136.10826397907385 0 -136.10826397907385 92.744872237180971 0 0 0 0 -2238.6574262963913 790.07314569689152 0 790.07314569689152 -141.05725557727055 0 0 0 0 -2054.0280898195961 914.33906291360017 0 914.33906291360017 -472.57064317754339 0 0 0 0 -24.325855552432316 -24.556625740960421 0 -24.556625740960421 -27.691678237946491 0 0 0 0 -2611.7111903379991 599.11081604845094 0 599.11081604845094 -203.73844778158673 0 0 0 0 -1.8955786889581674 -0.61950038066709823 0 -0.61950038066709823 -0.98047111106302509 0 0 0 0 -1508.9329328994354 870.71809504602061 0 870.71809504602061 -497.8686047836818 0 0 0 0 -1854.6755639384355 701.99637309378068 0 701.99637309378068 -58.797353925339849 0 0 0 0 -1582.2277197342264 302.3606720888456 0 302.3606720888456 -342.83355277558803 0 0 0 0 -1659.7296851208812 273.89914835138552 0 273.89914835138552 -74.507753317178867 0 0 0 0 -1629.2491944378344 493.09142811492893 0 493.09142811492893 -202.92523077029909 0 0 0 0 -1442.2353843616947 229.87626233448827 0 229.87626233448827 75.70471890232875 0 0 0 0 -1191.7360987566444 360.31646338021574 0 360.31646338021574 -111.95319815861149 0 0 0 0 -1399.4551444187673 717.9152851352992 0 717.9152851352992 -228.50126173139449 0 0 0 0 -23.156701950874776 74.361781511495337 0 74.361781511495337 23.417860686893619 0 0 0 0 -13.060927446553251 47.327306831992246 0 47.327306831992246 53.63035091470374 0 0 0 0 -2.1085403288294629 17.47836386777599 0 17.47836386777599 22.666419618534036 0 0 0 0 -15.576218896276259 83.561873904143795 0 83.561873904143795 52.956981965349016 0 0 0 0 -74.954507822965965 15.744409337538599 0 15.744409337538599 33.660880780556006 0 0 0 0 26.46276216480328 22.797051738189111 0 22.797051738189111 57.989608953663264 0 0 0 0 -117.62473465695803 71.625701977412064 0 71.625701977412064 62.47076301098059 0 0 0 0 -300.17893324836041 17.972900564456722 0 17.972900564456722 147.41629033587833 0 0 0 0 -113.71472792557324 40.182683726236974 0 40.182683726236974 136.60748991461605 0 0 0 0 -256.41822760453942 107.0790015188054 0 107.0790015188054 118.26434722344675 0 0 0 0 -75.538846964613185 134.00251345689139 0 134.00251345689139 -43.372136523708832 0 0 0 0 -76.461832319226232 136.78504143134069 0 136.78504143134069 114.54598256430972 0 0 0 0 -344.35498127956089 259.02736090271543 0 259.02736090271543 64.957881941352753 0 0 0 0 -735.94331674062414 -214.92517100960322 0 -214.92517100960322 -16.700619149141858 0 0 0 0 -641.22556284879101 -230.27503926270219 0 -230.27503926270219 -16.214842307887125 0 0 0 0 -1260.149271627185 -882.66946862089435 0 -882.66946862089435 318.60714376806027 0 0 0 0 -147.8192689773079 -8.9531812558207058 0 -8.9531812558207058 48.793119141035113 0 0 0 0 -765.31949192704633 -64.395594959194568 0 -64.395594959194568 -46.24743162051891 0 0 0 0 -680.24588593588851 -124.65505390135877 0 -124.65505390135877 -83.048603895576889 0 0 0 0 -282.77368751168797 196.91245670146327 0 196.91245670146327 -97.753661060196464 0 0 0 0 -1117.7282716223424 -252.17859845734785 0 -252.17859845734785 -151.74818327349931 0 0 0 0 -1113.6185093181048 190.31500397473246 0 190.31500397473246 -82.511057788819016 0 0 0 0 -1075.4634215007827 -145.24690616824955 0 -145.24690616824955 56.588329952748609 0 0 0 0 -722.50747970418888 -160.05319543023779 0 -160.05319543023779 55.956617314266623 0 0 0 0 -889.79652654586243 -124.47013660864468 0 -124.47013660864468 52.814889655850493 0 0 0 0 -802.51390704007645 -277.600371652391 0 -277.600371652391 85.691603244049475 0 0 0 0 -723.40967310631822 -181.74525965914654 0 -181.74525965914654 0.8786594617049559 0 0 0 0 -873.89414719610068 -291.21749586292754 0 -291.21749586292754 -77.000460749557533 0 0 0 0 -142.52966800843842 -11.153666704452508 0 -11.153666704452508 42.459605590330007 0 0 0 0 -654.51798137954029 -84.143960935129144 0 -84.143960935129144 -20.830614587008313 0 0 0 0 -521.44720300198242 -415.45374235372947 0 -415.45374235372947 315.48119791167346 0 0 0 0 -579.69272085803095 -314.27798869668186 0 -314.27798869668186 42.409570232498481 0 0 0 0 -508.57459741467028 -164.87864007923781 0 -164.87864007923781 339.47923753776558 0 0 0 0 -245.67237367689086 -9.3636474068271127 0 -9.3636474068271127 150.92557418813158 0 0 0 0 -532.42625556493294 -320.80884756957312 0 -320.80884756957312 32.668051055890828 0 0 0 0 130.54567111409779 -131.19480902092437 0 -131.19480902092437 255.7571846296114 0 0 0 0 -55.423983434393904 1.5609033837449147 0 1.5609033837449147 -18.356674683778664 0 0 0 0 392.49995177500568 -700.21645867962275 0 -700.21645867962275 454.37075779565203 0 0 0 0 91.699542938935338 -179.39751406345204 0 -179.39751406345204 546.45337616067764 0 0 0 0 -31.491201426171756 -390.83416438594304 0 -390.83416438594304 205.58322053409938 0 0 0 0 -366.74225635108451 -60.955761902649101 0 -60.955761902649101 195.68265332588453 0 0 0 0 -480.19330869025725 45.612795190954785 0 45.612795190954785 -43.844253972132719 0 0 0 0 -524.52403469822093 215.01706610277506 0 215.01706610277506 -304.89355358664034 0 0 0 0 -2380.9139224097089 305.00603315915941 0 305.00603315915941 187.51390227697084 0 0 0 0 -6.8433982988418123 -8.8273970683873326 0 -8.8273970683873326 -1.243590025608917 0 0 0 0 1118.7631636265851 -902.91747026712392 0 -902.91747026712392 -362.98926127829327 0 0 0 0 696.07431827442997 -83.822201654182663 0 -83.822201654182663 107.0940604336356 0 0 0 0 290.57232063522679 -1049.2084360629433 0 -1049.2084360629433 -333.47138979472402 0 0 0 0 -341.89401798910694 -252.97762378715925 0 -252.97762378715925 -33.057968266311946 0 0 0 0 -232.80303076035489 -103.14450623708035 0 -103.14450623708035 171.8776437202946 0 0 0 0 204.39977070466921 -450.67422180081121 0 -450.67422180081121 -95.51192939937755 0 0 0 0 -134.96976707150316 -257.67209056025058 0 -257.67209056025058 -160.71059342912577 0 0 0 0 -341.43235024235764 -467.75008627009265 0 -467.75008627009265 -196.67736689419417 0 0 0 0 -1231.5202741737558 -28.095236224829932 0 -28.095236224829932 246.94860902001801 0 0 0 0 -353.49079594314389 -408.11592592648958 0 -408.11592592648958 -225.67211874010536 0 0 0 0 -1179.694411553628 -614.91056793875305 0 -614.91056793875305 -429.61044020777445 0 0 0 0 6.093154347457137 -2.810401995673466 0 -2.810401995673466 2.4754607632897425 0 0 0 0 -695.48168109892868 -1032.0531965297723 0 -1032.0531965297723 -265.62718116482665 0 0 0 0 71.028082711713068 -567.99947782891286 0 -567.99947782891286 430.51464679950368 0 0 0 0 -512.13555308918512 886.92534446437821 0 886.92534446437821 1606.5038175509517 0 0 0 0 -2059.4811648216282 -1144.447044546687 0 -1144.447044546687 -265.16430576284256 0 0 0 0 86.469125232761144 -532.18660671401631 0 -532.18660671401631 -924.65586087336851 0 0 0 0 -477.16433189738382 -170.57027622402165 0 -170.57027622402165 228.39036030052011 0 0 0 0 -265.5898322721041 -16.679716048332921 0 -16.679716048332921 -227.99476065858835 0 0 0 0 32.602092334456472 57.237311894715702 0 57.237311894715702 12.011416369907238 0 0 0 0 -144.7498601899789 -2.996223440301212 0 -2.996223440301212 42.963213495371349 0 0 0 0 -93.906533834060156 -554.14440820892833 0 -554.14440820892833 -78.236962952205431 0 0 0 0 14.000091835434532 -26.805740624970561 0 -26.805740624970561 18.145883228271597 0 0 0 0 -362.67812106613201 88.814121416329726 0 88.814121416329726 929.05384159601817 0 0 0 0 -170.01942459867951 -206.20913358279313 0 -206.20913358279313 83.935452159852503 0 0 0 0 -464.58152160005557 -454.39227040531296 0 -454.39227040531296 -1076.0120574122129 0 0 0 0 -656.54484002915706 -1096.1183384664928 0 -1096.1183384664928 -398.52879592276986 0 0 0 0 -1506.7413512863391 839.40688663142851 0 839.40688663142851 -330.02021608767973 0 0 0 0 -268.94458061877958 -393.04935359928095 0 -393.04935359928095 640.70366191386984 0 0 0 0 -308.76652977155391 406.44129811598395 0 406.44129811598395 -773.07833073281108 0 0 0 0 -776.23743492237827 299.9359238258175 0 299.9359238258175 -782.7910727006747 0 0 0 0 436.39133387747825 145.95160226194912 0 145.95160226194912 -1136.3243205145181 0 0 0 0 253.13615719299742 677.00591299091047 0 677.00591299091047 -1029.0736674990721 0 0 0 0 -14.44642766397158 8.8715608165675413 0 8.8715608165675413 -4.9079439844554393 0 0 0 0 -1756.6448209986265 -597.2504209282597 0 -597.2504209282597 56.282796213297843 0 0 0 0 -1996.3074988193903 -340.28102241718511 0 -340.28102241718511 189.21344101503837 0 0 0 0 -725.07312269135036 -243.76408862782318 0 -243.76408862782318 228.56404788888722 0 0 0 0 -27.73427238770244 18.806572806693058 0 18.806572806693058 -10.358060753957886 0 0 0 0 -420.23532710826748 253.06366818464267 0 253.06366818464267 -185.82417249356013 0 0 0 0 -442.05041225080913 -199.90214104444158 0 -199.90214104444158 -938.20623832101955 0 0 0 0 -729.61870249541244 -505.91846194964251 0 -505.91846194964251 -409.81887683485184 0 0 0 0 -802.54094043677651 -773.07100824238046 0 -773.07100824238046 -414.59112267711043 0 0 0 0 -1526.8039633792214 -110.14636347460601 0 -110.14636347460601 -748.54253026771585 0 0 0 0 -0.038470696926196979 19.376743154939504 0 19.376743154939504 -148.1814777365289 0 0 0 0 -231.58391055623542 5.4549020468311937 0 5.4549020468311937 92.875811894344224 0 0 0 0 -105.19179942687151 162.79804607740152 0 162.79804607740152 17.982128388357523 0 0 0 0 -502.24649004367529 83.130833861294377 0 83.130833861294377 -133.34736454387894 0 0 0 0 -102.11684201884054 30.63206309081734 0 30.63206309081734 19.535883782315924 0 0 0 0 -193.00289710768993 -49.226334455463075 0 -49.226334455463075 -180.99589348791415 0 0 0 0 -264.35632193091442 -15.726485450686596 0 -15.726485450686596 -53.096051106436789 0 0 0 0 -455.95893185048772 237.37197613219178 0 237.37197613219178 15.610704674571025 0 0 0 0 -631.62235714774579 -181.92028771952846 0 -181.92028771952846 263.87410919971444 0 0 0 0 -41.412353379768319 -146.54642859559954 0 -146.54642859559954 146.99349485294624 0 0 0 0 -136.07774627708386 -107.41420471833044 0 -107.41420471833044 12.021072464360259 0 0 0 0 -135.46733810043588 15.750779125006375 0 15.750779125006375 113.39672479144792 0 0 0 0 -235.82942416741207 5.6414012674613332 0 5.6414012674613332 126.43534047924004 0 0 0 0 -151.82475730363149 -45.755652114445184 0 -45.755652114445184 -27.956554659787798 0 0 0 0 -337.83606568874166 -89.784226257537739 0 -89.784226257537739 -21.040425063554721 0 0 0 0 -293.46505397494593 -259.50588374715244 0 -259.50588374715244 -119.89355930420788 0 0 0 0 -201.52785286972903 11.673537705237322 0 11.673537705237322 -165.83781159683713 0 0 0 0 -241.50540052099859 -204.20555616049387 0 -204.20555616049387 -265.61654579249625 0 0 0 0 -750.98912665739226 -935.89620496694442 0 -935.89620496694442 -774.62701332920892 0 0 0 0 20.963198907435071 -275.78162770070867 0 -275.78162770070867 -692.80810980678871 0 0 0 0 204.50830470236178 23.765452668789294 0 23.765452668789294 -361.41585916125041 0 0 0 0 -4.6307545819832221 -5.3397418514446748 0 -5.3397418514446748 -12.865657140406284 0 0 0 0 -280.35645173221747 -103.6515917094348 0 -103.6515917094348 108.11251681888098 0 0 0 0 -2193.4118677097158 470.89608462356102 0 470.89608462356102 -105.76421764247425 0 0 0 0 -3196.0131580137113 947.17263002675281 0 947.17263002675281 -327.76929566651961 0 0 0 0 -1124.7644146721777 13.689168575779149 0 13.689168575779149 -582.03601413801152 0 0 0 0 -2766.5947032643198 -359.0369769217059 0 -359.0369769217059 -294.19199963583014 0 0 0 0 -775.76103324941982 -588.89977841962241 0 -588.89977841962241 -1479.0405355122821 0 0 0 0 -1240.5716661453789 569.58074978635887 0 569.58074978635887 -1012.8561756159725 0 0 0 0 -708.64609606467798 -533.37524320251623 0 -533.37524320251623 40.402257676574663 0 0 0 0 -438.28311584215953 618.19746094537095 0 618.19746094537095 373.38976604449135 0 0 0 0 -969.25610643782329 -560.28882052104336 0 -560.28882052104336 87.319203968494548 0 0 0 0 -903.32986342846198 -465.02714663065944 0 -465.02714663065944 69.920701728540735 0 0 0 0 -1998.3354179574972 -780.61639381832424 0 -780.61639381832424 -12.983453705224747 0 0 0 0 -617.52565990741323 -63.373939534563306 0 -63.373939534563306 70.772750470721803 0 0 0 0 -832.80770312858294 -565.54973988720394 0 -565.54973988720394 -228.86375090254114 0 0 0 0 -447.34952722407434 2.9089965188013593 0 2.9089965188013593 32.537193747270067 0 0 0 0 -772.5513112319818 -158.14903277564872 0 -158.14903277564872 -23.463866169162429 0 0 0 0 -198.82096819046365 -4.7399183612069464 0 -4.7399183612069464 -59.054953470373221 0 0 0 0 -420.23106350433272 -190.47135047536904 0 -190.47135047536904 -84.723984222000581 0 0 0 0 -3.4967500637770064 -4.9615124804931652 0 -4.9615124804931652 -4.0656172281688718 0 0 0 0 1676.7932863141011 -1475.7726906119703 0 -1475.7726906119703 -961.16116541181327 0 0 0 0 -3274.2518953481281 -559.97632841961286 0 -559.97632841961286 -213.38005604556975 0 0 0 0 -5.0163751908813783 -12.455837898764104 0 -12.455837898764104 -2.1513241264153464 0 0 0 0 -1550.1420291176 254.05808640184887 0 254.05808640184887 148.17371856664977 0 0 0 0 -1443.4878267987365 -1035.7210507123427 0 -1035.7210507123427 -540.79043701183218 0 0 0 0 -17.427683397102744 6.0568123380206007 0 6.0568123380206007 -3.3370169515624788 0 0 0 0 -404.72356898557609 -716.81288274032022 0 -716.81288274032022 -876.24340250080149 0 0 0 0 -2589.1461886254424 -1140.4571893478287 0 -1140.4571893478287 -450.82181597851809 0 0 0 0 -2080.9969483386476 -1958.2068453390657 0 -1958.2068453390657 -1615.5233933617128 0 0 0 0 -395.23159702879866 -750.0845288124226 0 -750.0845288124226 -778.4344135239362 0 0 0 0 -365.16538652261215 -577.81517391188163 0 -577.81517391188163 -644.38964734703495 0 0 0 0 -25.555749754749435 14.628389149101476 0 14.628389149101476 -7.6262308881943071 0 0 0 0 -922.7926899934464 -491.44902733131221 0 -491.44902733131221 141.40191686504841 0 0 0 0 -932.61291355547837 -446.19313625824043 0 -446.19313625824043 38.051359536539621 0 0 0 0 71.408084277677062 -283.31390367484573 0 -283.31390367484573 -739.14875255692141 0 0 0 0 -182.87223226192873 -637.41328443345719 0 -637.41328443345719 -512.64741427580793 0 0 0 0 -132.58889892454863 -540.26600715779637 0 -540.26600715779637 -812.2684973173109 0 0 0 0 -95.083508081916079 -367.87960804083241 0 -367.87960804083241 -360.77048585739703 0 0 0 0 -205.24483598806319 -482.45633413261862 0 -482.45633413261862 -414.85945294022349 0 0 0 0 -53.123428259727007 -334.58333151671241 0 -334.58333151671241 -418.14137802112305 0 0 0 0 -135.88437949626086 -335.55348125749663 0 -335.55348125749663 -81.041231260970562 0 0 0 0 -39.27399567548764 -89.446400645812446 0 -89.446400645812446 1.0660120523725709 0 0 0 0 -23.193811161982012 -105.44488913166333 0 -105.44488913166333 15.190934138600369 0 0 0 0 -32.364932672529903 -37.367025487512365 0 -37.367025487512365 37.375304208930629 0 0 0 0 6.3675030236718158 41.260467785224819 0 41.260467785224819 101.90958182524219 0 0 0 0 -41.793878518730821 -151.45284313992647 0 -151.45284313992647 -226.9374909617145 0 0 0 0 -3.654837448917533 -12.45570564749778 0 -12.45570564749778 -27.115630212048018 0 0 0 0 -118.47453276684791 -211.9113116733356 0 -211.9113116733356 -121.65805960126204 0 0 0 0 -154.24254384535925 -342.16085706150079 0 -342.16085706150079 -289.42573594445639 0 0 0 0 -40.206929951435995 -208.24152104134009 0 -208.24152104134009 -306.99533118743966 0 0 0 0 -108.00753255236668 -409.64351152059737 0 -409.64351152059737 -550.59259468020264 0 0 0 0 -164.03604677954536 -313.42772501684885 0 -313.42772501684885 -387.59611944954077 0 0 0 0 -65.322762222397614 -249.35373394796989 0 -249.35373394796989 -428.74416133484124 0 0 0 0 -66.197468631530683 -167.45361377268046 0 -167.45361377268046 -242.41846962264617 0 0 0 0 -112.70357718880769 -191.94917471261692 0 -191.94917471261692 -191.11579143049858 0 0 0 0 -140.82369521444957 -293.60784995688914 0 -293.60784995688914 -377.50484824102023 0 0 0 0 -22.20403032286049 -6.4350794248655347 0 -6.4350794248655347 -70.30825509271267 0 0 0 0 -217.62137466945512 -269.69264009151334 0 -269.69264009151334 -399.70780674861817 0 0 0 0 -79.061351564343113 -224.87862906310875 0 -224.87862906310875 -491.80160868809634 0 0 0 0 -99.045564581199869 -120.62970362625811 0 -120.62970362625811 -290.2591629009122 0 0 0 0 -222.80948704158681 -337.43895965938373 0 -337.43895965938373 -473.30514098212734 0 0 0 0 -207.33018856030225 -369.13866075014676 0 -369.13866075014676 -654.38123586894835 0 0 0 0 -114.18732752582559 -256.38957253173567 0 -256.38957253173567 -493.28831305152744 0 0 0 0 -203.95933550019254 -425.80479177739926 0 -425.80479177739926 -547.22014494099039 0 0 0 0 -251.32702724662221 -576.8491219628861 0 -576.8491219628861 -715.30606477302445 0 0 0 0 -236.16928918246822 -429.03712768032938 0 -429.03712768032938 -515.04574621442998 0 0 0 0 -117.38738728201133 -507.86647040176422 0 -507.86647040176422 -691.2074402733424 0 0 0 0 -374.54700961240866 -533.29375099047047 0 -533.29375099047047 -704.37967325314912 0 0 0 0 -546.01262018711759 -521.03524660993116 0 -521.03524660993116 -909.07848645556737 0 0 0 0 -974.83817987302086 -818.76769259479011 0 -818.76769259479011 -758.09023885974329 0 0 0 0 -759.77098522509277 -516.68545208416663 0 -516.68545208416663 -801.08715214363838 0 0 0 0 -443.19418534098531 -488.97672132928528 0 -488.97672132928528 -790.37772373504913 0 0 0 0 -591.33866126492831 -659.29359209465201 0 -659.29359209465201 -779.48578350323987 0 0 0 0 -371.51752260422893 -614.06170258563043 0 -614.06170258563043 -917.93926419008676 0 0 0 0 -372.96454368476395 -446.62064363033505 0 -446.62064363033505 -605.18045111287211 0 0 0 0 -344.73379821899448 -530.09288161595214 0 -530.09288161595214 -797.0632212186074 0 0 0 0 -192.93607398212936 -320.82432039431933 0 -320.82432039431933 -638.65833812346204 0 0 0 0 -368.18871981520942 -389.79125223337178 0 -389.79125223337178 -556.43936930901327 0 0 0 0 -157.3085311691259 -275.51054698045255 0 -275.51054698045255 -590.12833678658092 0 0 0 0 -358.96132902841055 -369.87001946927558 0 -369.87001946927558 -550.44315475406484 0 0 0 0 -386.48309045089263 -334.02028296736466 0 -334.02028296736466 -593.49424468787038 0 0 0 0 -488.30316894810289 -747.71369393906593 0 -747.71369393906593 -1009.7386684426183 0 0 0 0 -286.53233436986693 -385.2151307830095 0 -385.2151307830095 -781.61420015905878 0 0 0 0 -567.45260562909834 -530.67182919843435 0 -530.67182919843435 -716.24345733770497 0 0 0 0 -483.1933560399907 -565.37885304427255 0 -565.37885304427255 -728.59403172000202 0 0 0 0 -319.06192474771706 -548.44907820808362 0 -548.44907820808362 -975.64210665484325 0 0 0 0 -570.21286163019613 -583.51342062587855 0 -583.51342062587855 -824.19724633462079 0 0 0 0 -403.17118910201498 -697.37968316851425 0 -697.37968316851425 -1421.8977253365952 0 0 0 0 -735.56935261792842 -1086.9131748189898 0 -1086.9131748189898 -1167.5539471233524 0 0 0 0 -812.54868217348121 -1756.4481485581684 0 -1756.4481485581684 -986.1702773357465 0 0 0 0 -608.97708002352238 -1541.903660705022 0 -1541.903660705022 -1639.4419064817921 0 0 0 0 -8.6423448995577878 0.19734055328997302 0 0.19734055328997302 0.26538218222103893 0 0 0 0 -4025.8852070004368 -363.31456594738688 0 -363.31456594738688 -163.90092914392062 0 0 0 0 -3115.37653893893 2028.7354441313007 0 2028.7354441313007 -168.98508424098964 0 0 0 0 -26.813713958355571 -12.244047485485078 0 -12.244047485485078 -7.3639715689560052 0 0 0 0 -57.184281718735292 -924.71051021016194 0 -924.71051021016194 -986.53608375125918 0 0 0 0 -298.84103510349814 35.618647093720767 0 35.618647093720767 301.25872639826457 0 0 0 0 -1987.4298213571319 -1411.5972490237027 0 -1411.5972490237027 -370.00747781216864 0 0 0 0 -2855.6458562574207 -161.03386405111883 0 -161.03386405111883 -110.5789555258757 0 0 0 0 -1623.8111180219466 667.95806810945999 0 667.95806810945999 -1441.5176875253464 0 0 0 0 1.1032107347873534 -471.01921755502008 0 -471.01921755502008 -1183.0780600244061 0 0 0 0 -55.333960521110384 -533.82156859858378 0 -533.82156859858378 -914.58578656580062 0 0 0 0 -593.65238215633144 -492.53483100819335 0 -492.53483100819335 -819.76253357637711 0 0 0 0 -637.78597738177086 -837.80444302915748 0 -837.80444302915748 -2143.2811555746575 0 0 0 0 -650.36526886619799 -1081.917087002324 0 -1081.917087002324 -94.389232734460165 0 0 0 0 -1015.7952131934167 -424.03716016399494 0 -424.03716016399494 515.53519459807558 0 0 0 0 -313.92082648846599 228.00055865049058 0 228.00055865049058 -70.084329799094121 0 0 0 0 -80.404051716239337 -91.072383760732919 0 -91.072383760732919 228.89637537093915 0 0 0 0 -106.94668770890439 -403.78361534660689 0 -403.78361534660689 -326.26134968068709 0 0 0 0 -235.7432714169704 -251.20145607538313 0 -251.20145607538313 198.70211496356751 0 0 0 0 -1.2487186675734847 -110.52324113916802 0 -110.52324113916802 97.85844261406146 0 0 0 0 -62.146747246215 24.048076410535884 0 24.048076410535884 624.73873688614685 0 0 0 0 67.533116981590865 347.10207219592371 0 347.10207219592371 730.46562999598291 0 0 0 0 -10.561400302205584 105.45562939637807 0 105.45562939637807 347.04823086585338 0 0 0 0 -25.053259189917298 99.387230961997375 0 99.387230961997375 374.04325708860256 0 0 0 0 -93.50233077095254 -32.442516463980382 0 -32.442516463980382 188.1894285615067 0 0 0 0 150.30851532677116 944.42011300522745 0 944.42011300522745 1632.62157709194 0 0 0 0 -66.06127528707384 -128.33304582908022 0 -128.33304582908022 300.4226063187125 0 0 0 0 -720.92098702866951 -593.58805805325665 0 -593.58805805325665 7.1819824848607823 0 0 0 0 3.7704186873419712 -4.995969155846403 0 -4.995969155846403 5.6538659838805572 0 0 0 0 -34.707365257757466 9.6290260073990996 0 9.6290260073990996 -3.9536398902007814 0 0 0 0 -304.7805221051367 605.33100653288693 0 605.33100653288693 6.2492883983563843 0 0 0 0 -2657.2992980678105 1589.192764732443 0 1589.192764732443 860.8119647195017 0 0 0 0 -3462.7770681457505 1394.0380284198291 0 1394.0380284198291 1000.1986008087836 0 0 0 0 -1856.176208827736 1300.536521589358 0 1300.536521589358 126.72114048071262 0 0 0 0 -521.70636267129362 -897.6549388443359 0 -897.6549388443359 170.97088392352453 0 0 0 0 -880.31297803806183 -195.59537054384327 0 -195.59537054384327 167.24437686935926 0 0 0 0 -3367.9023602341676 -1516.6794881924955 0 -1516.6794881924955 -441.74750988409778 0 0 0 0 -1093.984431311771 1013.2654507212037 0 1013.2654507212037 -2352.8006359069745 0 0 0 0 -618.60097586521601 -98.295267606644757 0 -98.295267606644757 42.513369751552545 0 0 0 0 451.61897394519667 -693.92312678061228 0 -693.92312678061228 342.6111856412308 0 0 0 0 706.43975680825315 -674.43304678591085 0 -674.43304678591085 -1056.5748444646458 0 0 0 0 892.61757978293326 -7.6066547796062878 0 -7.6066547796062878 -992.25621675850925 0 0 0 0 841.9154027799724 -66.825191742142579 0 -66.825191742142579 -497.08533344791795 0 0 0 0 1284.6384893804325 177.86571713337435 0 177.86571713337435 -638.8859260334782 0 0 0 0 6.3135554320360825 104.38222887847269 0 104.38222887847269 -142.85789066689904 0 0 0 0 -11.664407008946455 -25.74868048401072 0 -25.74868048401072 -11.89645896504453 0 0 0 0 -0.065142653231280434 -2.7317920398025084 0 -2.7317920398025084 -0.20919421383305359 0 0 0 0 1.8019064254611941 -8.0038291927760259 0 -8.0038291927760259 1.361247257602157 0 0 0 0 1110.079100626685 341.03941198806206 0 341.03941198806206 -172.11873289896994 0 0 0 0 57.773797457712817 -94.446225468788384 0 -94.446225468788384 -94.790889606724022 0 0 0 0 879.50542780575711 115.52538223842748 0 115.52538223842748 143.50637658667256 0 0 0 0 1034.1066434174086 93.877759254517514 0 93.877759254517514 -373.96879171273031 0 0 0 0 684.81581483350624 -331.81400597738138 0 -331.81400597738138 -227.02602598942531 0 0 0 0 454.40286497300292 -226.98980557150844 0 -226.98980557150844 207.42536758031383 0 0 0 0 810.0477035208603 -88.276637540589491 0 -88.276637540589491 242.87569309607625 0 0 0 0 -53.319337645169838 -10.726471150989559 0 -10.726471150989559 5.9130713973826357 0 0 0 0 -48.074401443225725 -10.263079762180155 0 -10.263079762180155 0.21701749841270157 0 0 0 0 -46.452573637485578 -17.154453982996721 0 -17.154453982996721 -4.134787750267658 0 0 0 0 289.08814216536666 -594.8789735479113 0 -594.8789735479113 826.23448679840294 0 0 0 0 -770.58402662650496 -901.36352518111607 0 -901.36352518111607 888.11456601220743 0 0 0 0 -65.480856280483579 -34.227130359663228 0 -34.227130359663228 -13.830401867065746 0 0 0 0 -9.622897516047475 -12.473402280325784 0 -12.473402280325784 3.9680577611076986 0 0 0 0 -1062.8850542391074 -846.53928181738991 0 -846.53928181738991 201.72855238213924 0 0 0 0 189.79568140091601 -52.931438966433234 0 -52.931438966433234 704.37938998952995 0 0 0 0 803.71314106105785 -394.25398284668972 0 -394.25398284668972 -314.5013268641178 0 0 0 0 -68.285775656599412 -1277.3000829057819 0 -1277.3000829057819 1211.2916048200568 0 0 0 0 1146.0077003129745 -788.88978716601741 0 -788.88978716601741 -247.24206052239219 0 0 0 0 -175.32016779104742 -7.2377315706708032 0 -7.2377315706708032 -10.445625801551756 0 0 0 0 132.2639749484452 84.358011217675426 0 84.358011217675426 69.300972276283574 0 0 0 0 -42.44725915221602 -192.90384069692516 0 -192.90384069692516 -37.169475968943516 0 0 0 0 -54.335627140418183 -143.14265531344518 0 -143.14265531344518 -153.62197676188771 0 0 0 0 190.68993413005865 -1.676523648859984 0 -1.676523648859984 -107.8016160224085 0 0 0 0 -29.395018283471472 -7.6344697002232351 0 -7.6344697002232351 -10.496399707116325 0 0 0 0 6.4737214798075673 -2.9937179410644275 0 -2.9937179410644275 -4.8691421223577915 0 0 0 0 279.21638063428509 4.8304035991041019 0 4.8304035991041019 -108.38069881774754 0 0 0 0 33.058480792813938 1.2025675667151905 0 1.2025675667151905 -25.417135553735843 0 0 0 0 25.867249119756266 -18.60461865555817 0 -18.60461865555817 41.468533059464789 0 0 0 0 -0.18350571410701377 52.837341537991051 0 52.837341537991051 -38.834995833233734 0 0 0 0 -16.230004787090593 -51.40481650800993 0 -51.40481650800993 -58.606605487876095 0 0 0 0 6.7368697219058618 -3.2071190294598981 0 -3.2071190294598981 -15.597159390624649 0 0 0 0 23.250254275794987 -16.124053239049204 0 -16.124053239049204 -44.343891166133517 0 0 0 0 -3.3223429412119003 23.158290599847987 0 23.158290599847987 -8.4307901922411475 0 0 0 0 -47.818461995724647 -8.650251378339135 0 -8.650251378339135 -12.292006641675471 0 0 0 0 -31.032266967969036 6.6444718053748808 0 6.6444718053748808 -0.56763177283455923 0 0 0 0 351.1111365028014 248.58811866839369 0 248.58811866839369 -10.36220070859963 0 0 0 0 -11.92330681783918 12.321069556991187 0 12.321069556991187 -12.121668214837957 0 0 0 0 499.03929396874219 -593.65592932262643 0 -593.65592932262643 -598.21099240847798 0 0 0 0 624.37530836570249 7.9726585040084501 0 7.9726585040084501 -307.4397287005213 0 0 0 0 -68.524141060411466 94.254273264800077 0 94.254273264800077 171.76027982918913 0 0 0 0 -15.429937698585491 157.7064809122719 0 157.7064809122719 -23.360411686535144 0 0 0 0 201.95534889467672 395.67294834720383 0 395.67294834720383 359.20112014257393 0 0 0 0 -44.071282581760251 7.4558105933176222 0 7.4558105933176222 0.80211436112224987 0 0 0 0 -49.952473887278224 8.2030830409615056 0 8.2030830409615056 7.9845184059529855 0 0 0 0 -47.056609913539432 -1.5841929170196636 0 -1.5841929170196636 -4.6144819028331767 0 0 0 0 -47.641091988414701 153.61794048114734 0 153.61794048114734 360.9771659336725 0 0 0 0 -110.79572102264501 165.84226005225378 0 165.84226005225378 625.93350465572416 0 0 0 0 -410.15741703050662 -218.97465469860526 0 -218.97465469860526 207.18266603913298 0 0 0 0 -262.52539346656704 70.954488387256447 0 70.954488387256447 605.81735257322271 0 0 0 0 84.299139456546982 91.176433216493479 0 91.176433216493479 251.27142937987082 0 0 0 0 -163.4184018822998 206.69675436244324 0 206.69675436244324 325.76467274379843 0 0 0 0 -326.12908159160725 537.7484362521036 0 537.7484362521036 53.428519245716871 0 0 0 0 -46.153592203409062 636.47632060307069 0 636.47632060307069 -580.44220063339344 0 0 0 0 -182.63365130490274 134.54870310944898 0 134.54870310944898 249.30455214181893 0 0 0 0 -22.331620935363389 -68.652792589742489 0 -68.652792589742489 296.36185324287749 0 0 0 0 -221.48297924325379 -277.64265925006453 0 -277.64265925006453 514.68811114089362 0 0 0 0 -278.98803090397269 -64.332868095703816 0 -64.332868095703816 296.76915195787592 0 0 0 0 -165.85459028855257 -82.74880902964037 0 -82.74880902964037 289.50001513462303 0 0 0 0 -154.91532625523178 102.2298423191553 0 102.2298423191553 510.46102540826212 0 0 0 0 -416.6756931854361 -285.48673501651456 0 -285.48673501651456 72.892176400335075 0 0 0 0 -107.24128579337048 -29.55508726232506 0 -29.55508726232506 -68.525695560945223 0 0 0 0 -143.49808757181745 -84.362108690499554 0 -84.362108690499554 -255.7418752646463 0 0 0 0 -456.37161183020726 -656.27643260479226 0 -656.27643260479226 -449.84392260266986 0 0 0 0 -476.09743950243683 -765.45604384058288 0 -765.45604384058288 -774.26331505414419 0 0 0 0 -482.12121172037587 -760.53533574809171 0 -760.53533574809171 -232.349976526315 0 0 0 0 -586.16140706357328 -754.39367127926562 0 -754.39367127926562 -165.55051497523255 0 0 0 0 -279.53516636134373 -265.62134149007989 0 -265.62134149007989 -60.895421763404556 0 0 0 0 -245.98295816603786 -256.03583754927695 0 -256.03583754927695 291.23960251322296 0 0 0 0 -90.133375607956623 334.67580118865749 0 334.67580118865749 1276.7084502062189 0 0 0 0 -194.17330000788934 -283.205498769521 0 -283.205498769521 569.13644042538726 0 0 0 0 -576.39028914914161 -148.73744091241315 0 -148.73744091241315 522.84978024734301 0 0 0 0 -387.63292582864233 -450.23709407132696 0 -450.23709407132696 63.921288968600493 0 0 0 0 -619.90089839971188 -415.89941120189451 0 -415.89941120189451 452.63152502905996 0 0 0 0 -444.14920235050522 -658.75389644096686 0 -658.75389644096686 -187.4537563217109 0 0 0 0 -845.63286381040598 -839.28186009506317 0 -839.28186009506317 -59.666547955112037 0 0 0 0 -688.87025267420177 -659.19028081209854 0 -659.19028081209854 -289.86769427527179 0 0 0 0 -1040.1100426573103 -925.83326136834694 0 -925.83326136834694 -462.26861781337175 0 0 0 0 -592.09030697465641 -414.00164230948303 0 -414.00164230948303 -174.03167446295993 0 0 0 0 -971.5321222568964 -619.93114989633614 0 -619.93114989633614 52.292221237415333 0 0 0 0 -1295.5727761152611 -369.619886008408 0 -369.619886008408 -173.26462808406359 0 0 0 0 -906.67483310357784 -314.80942549484917 0 -314.80942549484917 -568.9687681044702 0 0 0 0 -1446.4283783941737 -1084.8205270069559 0 -1084.8205270069559 -999.13268744686502 0 0 0 0 -1846.233631312869 -29.326535561945775 0 -29.326535561945775 -652.8524619689706 0 0 0 0 -1103.2568682650963 -716.12482336275571 0 -716.12482336275571 -605.81296146709064 0 0 0 0 -747.85250563680893 -1242.0429095742647 0 -1242.0429095742647 -1327.9807997315838 0 0 0 0 -503.05667316711333 -845.212184282419 0 -845.212184282419 -684.70691899667963 0 0 0 0 -518.05359331862928 -859.08970355496149 0 -859.08970355496149 -378.06131408410329 0 0 0 0 -390.95973583155501 -960.08937896757743 0 -960.08937896757743 -302.11053433891368 0 0 0 0 -464.21413445934314 -1004.8452198198238 0 -1004.8452198198238 -575.17754077724385 0 0 0 0 -589.959876308616 -977.85035696969999 0 -977.85035696969999 -599.25321376393367 0 0 0 0 -98.500856916929479 184.59602550248474 0 184.59602550248474 -216.63790935250654 0 0 0 0 -348.37275308671633 238.24037048172306 0 238.24037048172306 190.00837114144815 0 0 0 0 -243.18719650769344 253.04455391498414 0 253.04455391498414 199.96576002146503 0 0 0 0 -28.864287156302453 309.76281308289663 0 309.76281308289663 -167.25622794988521 0 0 0 0 -280.67487695839009 180.23505727608017 0 180.23505727608017 -268.77628047097096 0 0 0 0 -18.131589644544874 144.52859043068383 0 144.52859043068383 -277.71268658796544 0 0 0 0 -136.82696011037478 133.44001434161328 0 133.44001434161328 -635.76991791772343 0 0 0 0 -263.77198766206857 -14.827867796340797 0 -14.827867796340797 -425.24840659398251 0 0 0 0 -205.06791301043631 13.769800331268925 0 13.769800331268925 -753.49563312387909 0 0 0 0 -375.87496413747431 154.47260423421358 0 154.47260423421358 -195.85456998181508 0 0 0 0 -296.86828169350338 206.6402475845307 0 206.6402475845307 -478.83688069205891 0 0 0 0 -539.56037015507172 126.86231094430877 0 126.86231094430877 -761.62975113933862 0 0 0 0 -358.5279431343215 -42.428876587583545 0 -42.428876587583545 -607.90028055775474 0 0 0 0 -628.28921006022392 -192.85687648056114 0 -192.85687648056114 -922.87568377695789 0 0 0 0 -1200.5979642209422 -315.63191906553948 0 -315.63191906553948 -1314.8152691701689 0 0 0 0 -642.68731218746689 224.77019441505217 0 224.77019441505217 -676.14341305510607 0 0 0 0 -1090.9794616000618 -107.14935500050433 0 -107.14935500050433 -208.35895800607977 0 0 0 0 -643.69225407710474 66.713452950450119 0 66.713452950450119 202.22332271982486 0 0 0 0 -464.87556549270812 -25.403841414441558 0 -25.403841414441558 -202.2470794659082 0 0 0 0 -814.79537843371872 -204.13791626441298 0 -204.13791626441298 135.75636956385097 0 0 0 0 -427.9212172209518 252.23196994094178 0 252.23196994094178 -304.45536488472862 0 0 0 0 -558.43460664009035 -13.106731154920453 0 -13.106731154920453 -204.7963297159331 0 0 0 0 -319.17737247108016 102.04879637546401 0 102.04879637546401 -194.61417286806682 0 0 0 0 -306.83158072635888 82.989159250960256 0 82.989159250960256 -178.80541775327947 0 0 0 0 -388.21793920912023 287.42146639469775 0 287.42146639469775 169.37524915821268 0 0 0 0 -269.99176329855254 136.93626674283496 0 136.93626674283496 259.91837471456438 0 0 0 0 -400.82437636210852 95.604673601962077 0 95.604673601962077 659.83646893759578 0 0 0 0 -283.10458577045574 357.47095390094023 0 357.47095390094023 525.52691161978873 0 0 0 0 -172.05744074087852 226.31408343779822 0 226.31408343779822 599.90342039679854 0 0 0 0 -297.61082720583363 -139.63221890406203 0 -139.63221890406203 128.28181025211848 0 0 0 0 -219.51878470370866 166.58369687445065 0 166.58369687445065 201.22641445377889 0 0 0 0 -500.05168440655689 -52.818867775080435 0 -52.818867775080435 511.59529403299894 0 0 0 0 -341.25657096148279 202.27934982900115 0 202.27934982900115 1154.564755708986 0 0 0 0 206.85055676015327 -20.348129568597869 0 -20.348129568597869 1132.2937318281645 0 0 0 0 -476.3846965184639 -226.04065701041782 0 -226.04065701041782 2239.4972128957538 0 0 0 0 -2.0231157908929163 197.20595719452376 0 197.20595719452376 582.11459571491014 0 0 0 0 63.908861701849673 273.82772743671467 0 273.82772743671467 1017.1372811022547 0 0 0 0 -289.81792800589028 328.98457198196866 0 328.98457198196866 1025.1174784052619 0 0 0 0 -135.78874463187822 381.7053011290991 0 381.7053011290991 824.74056838058823 0 0 0 0 -83.461580925075395 116.74189675361504 0 116.74189675361504 659.692721485128 0 0 0 0 -175.53266869881918 386.20687485253075 0 386.20687485253075 1103.432883584147 0 0 0 0 -147.66076657816666 398.28430865072824 0 398.28430865072824 711.99563400489751 0 0 0 0 -145.67062641365919 298.2649628242616 0 298.2649628242616 1026.5797836165766 0 0 0 0 -263.11281712364143 245.80030643670852 0 245.80030643670852 879.94210855542951 0 0 0 0 -199.55223056233081 187.54714379264442 0 187.54714379264442 596.53168477054169 0 0 0 0 -182.54439770166937 362.15197627246562 0 362.15197627246562 199.43807693282554 0 0 0 0 -107.67201071087038 380.51212335521086 0 380.51212335521086 582.20061271946361 0 0 0 0 -116.66994861881722 418.15359533331184 0 418.15359533331184 528.61999563347126 0 0 0 0 -41.286001242624479 209.3241892442984 0 209.3241892442984 209.43309406041681 0 0 0 0 15.142288759088842 285.56512466405184 0 285.56512466405184 642.41261778209082 0 0 0 0 -94.452385970158502 481.59724393737815 0 481.59724393737815 876.69017850250566 0 0 0 0 -24.04626866696708 351.63724976196045 0 351.63724976196045 592.02125265156064 0 0 0 0 242.31832756941731 536.65308120731606 0 536.65308120731606 809.1945533809394 0 0 0 0 -51.698293953420944 234.39818014517368 0 234.39818014517368 1066.5476537091017 0 0 0 0 179.78284444917517 274.83568102634672 0 274.83568102634672 912.12140951365836 0 0 0 0 -39.942673029028811 440.64408151071621 0 440.64408151071621 787.02220229681006 0 0 0 0 51.285673181460652 60.971429534152321 0 60.971429534152321 -21.722973944989292 0 0 0 0 182.10583748810495 -101.88144384024372 0 -101.88144384024372 -273.36362561670012 0 0 0 0 -23.040751725614392 11.723008968296991 0 11.723008968296991 -6.2438632387486201 0 0 0 0 1.4221021277545773 2.8581140005166263 0 2.8581140005166263 -6.2133480302646458 0 0 0 0 -106.0494814621452 -76.553670787983719 0 -76.553670787983719 21.153514246462464 0 0 0 0 -79.368301532882029 23.122309421665115 0 23.122309421665115 -3.3894831013718507 0 0 0 0 -15.054199678942496 157.55994046205819 0 157.55994046205819 49.628984720749031 0 0 0 0 -20.856809581625974 14.835051370307621 0 14.835051370307621 -2.7937357826139397 0 0 0 0 -68.017874730856875 95.479540979277431 0 95.479540979277431 187.20937301662184 0 0 0 0 -62.32707478507109 -75.319008571471841 0 -75.319008571471841 118.43217063679174 0 0 0 0 -22.653101398207781 10.806312146102654 0 10.806312146102654 -1.9874903288731787 0 0 0 0 279.95234716071354 87.346869536352301 0 87.346869536352301 -43.28902856453999 0 0 0 0 23.388495955443886 12.374256513629859 0 12.374256513629859 6.2225748702880992 0 0 0 0 -153.00413110866612 -66.723617070455475 0 -66.723617070455475 36.077851170245481 0 0 0 0 -70.920761116765789 -23.080695897771193 0 -23.080695897771193 166.22087850110012 0 0 0 0 2.5197611537411433 -2.0990750875753861 0 -2.0990750875753861 -0.19319732815165436 0 0 0 0 297.22436010283127 424.65827206929134 0 424.65827206929134 -1066.7489519376895 0 0 0 0 -318.99860854168583 394.54672970620834 0 394.54672970620834 715.71168215768785 0 0 0 0 -190.94226364954375 6.3609381966621186 0 6.3609381966621186 396.83840167566041 0 0 0 0 45.477821770771698 -223.69377542832444 0 -223.69377542832444 -405.27224158260515 0 0 0 0 -201.74692710189993 53.551487742917288 0 53.551487742917288 1332.8769841019548 0 0 0 0 -231.88961333836778 174.5427284184243 0 174.5427284184243 368.36373400722596 0 0 0 0 -54.148661035543228 450.3410176342237 0 450.3410176342237 -15.935666659639992 0 0 0 0 -104.94863206196143 15.694190474132636 0 15.694190474132636 6.9600583363621755 0 0 0 0 -4.9498587510316554 20.902040049278476 0 20.902040049278476 4.0472837468337568 0 0 0 0 -11.288036004769335 2.8657441317982544 0 2.8657441317982544 0.071875879077089699 0 0 0 0 -1913.3420596846481 -349.87977651359233 0 -349.87977651359233 312.28434819488814 0 0 0 0 -730.76776688469727 10.447014493151642 0 10.447014493151642 116.98601855446429 0 0 0 0 268.65299927163699 -129.26188641678581 0 -129.26188641678581 -313.0362807537972 0 0 0 0 459.96076263180294 -63.774131023162681 0 -63.774131023162681 -473.71271679725169 0 0 0 0 -227.48531756462762 510.15128777252471 0 510.15128777252471 715.16537806398901 0 0 0 0 -102.80655824724035 16.044907119334056 0 16.044907119334056 4.644427430743896 0 0 0 0 -10.496065244737768 3.8989037925807608 0 3.8989037925807608 -0.19176561389924318 0 0 0 0 -1042.445861831231 147.21637086162082 0 147.21637086162082 290.30688995223227 0 0 0 0 -1065.2371793195557 193.96484288311797 0 193.96484288311797 93.118724431182272 0 0 0 0 -911.50737157738877 -699.22631797782878 0 -699.22631797782878 -17.625061859293055 0 0 0 0 -322.46235499824434 -166.36672784354505 0 -166.36672784354505 -16.079997056818229 0 0 0 0 23.459552948969758 -917.35823150533588 0 -917.35823150533588 -471.63241646384176 0 0 0 0 -557.24275748485434 357.32794347435629 0 357.32794347435629 -74.304900655812162 0 0 0 0 -291.74493809782598 311.15799852879672 0 311.15799852879672 -125.00481295657573 0 0 0 0 -141.30286858844556 279.26951826842969 0 279.26951826842969 -72.061354631531685 0 0 0 0 162.70046206525103 62.327243877460319 0 62.327243877460319 -138.97664202057331 0 0 0 0 -183.8238525209822 106.69823272399253 0 106.69823272399253 -116.80726486143567 0 0 0 0 -157.63510990417171 140.91081942254323 0 140.91081942254323 -76.812646441661855 0 0 0 0 -244.17122153876426 124.01138468439694 0 124.01138468439694 -73.284869020742178 0 0 0 0 -199.02551178495469 -14.267744608965586 0 -14.267744608965586 19.877706852850224 0 0 0 0 -519.35536988769127 55.924643411857687 0 55.924643411857687 96.766306726598032 0 0 0 0 -330.91803011826187 25.867853420554638 0 25.867853420554638 13.159753032556637 0 0 0 0 -274.8530051703674 -124.49198667299515 0 -124.49198667299515 27.108914602870755 0 0 0 0 -53.728257863418548 -111.02334533715862 0 -111.02334533715862 -166.50177887733753 0 0 0 0 -270.33621520466659 -210.99837914909358 0 -210.99837914909358 -125.86847789044475 0 0 0 0 -228.67660637569497 -80.639787427497595 0 -80.639787427497595 -82.512717545977765 0 0 0 0 -39.335167643866953 -17.189037751807291 0 -17.189037751807291 -86.096342513768832 0 0 0 0 -98.762760793053531 54.090859288593265 0 54.090859288593265 -114.70264867925107 0 0 0 0 -228.50916242932362 15.236530664197744 0 15.236530664197744 -121.17215533016815 0 0 0 0 -165.34536663541894 -151.7383100823422 0 -151.7383100823422 -187.25129400961123 0 0 0 0 -335.73633576662905 -192.0878329568809 0 -192.0878329568809 -112.88757210565564 0 0 0 0 -502.83801735159386 -283.84504440579758 0 -283.84504440579758 -159.63340263085684 0 0 0 0 -402.31707111863693 -149.55476338007747 0 -149.55476338007747 -69.508985407564978 0 0 0 0 -482.22885869728589 -21.11463709660211 0 -21.11463709660211 -45.914442394669095 0 0 0 0 -809.1595988060285 -251.53276652076192 0 -251.53276652076192 -70.362299312269172 0 0 0 0 -627.51295619689336 54.350929053900927 0 54.350929053900927 -43.727724356534736 0 0 0 0 -181.14642670861741 3.0487811066211634 0 3.0487811066211634 -34.313350990482832 0 0 0 0 -246.13898316951668 119.36784090602316 0 119.36784090602316 -81.810406902362956 0 0 0 0 -178.35836025189155 7.1463245836134774 0 7.1463245836134774 -43.371658310573594 0 0 0 0 -274.59677533957915 100.26009296995358 0 100.26009296995358 -76.688464053397183 0 0 0 0 -192.56886040248901 -49.354727293873509 0 -49.354727293873509 16.671005142721697 0 0 0 0 -41.009316302404471 -25.690600465678415 0 -25.690600465678415 -14.838758223485318 0 0 0 0 -152.63451143725177 82.73008414041999 0 82.73008414041999 -141.90073217036752 0 0 0 0 230.56135633134272 3.4866438510434818 0 3.4866438510434818 -1459.3971036404546 0 0 0 0 -13.68527839343928 -9.7720182352814398 0 -9.7720182352814398 -7.0609241293910472 0 0 0 0 86.095435523955985 -121.54642835497862 0 -121.54642835497862 -559.13667076629736 0 0 0 0 -71.710894781697789 -284.58041077484148 0 -284.58041077484148 -134.63394779067698 0 0 0 0 -632.01064781348714 -389.63653971115491 0 -389.63653971115491 -137.28868409448023 0 0 0 0 -935.21329708232133 -429.49232194195247 0 -429.49232194195247 -135.15373372161503 0 0 0 0 -1313.981015244789 113.07083320753554 0 113.07083320753554 4.18290028503543 0 0 0 0 -1150.2644163296532 -764.97855024772753 0 -764.97855024772753 -584.82939935428294 0 0 0 0 -701.94123130754269 -315.47409831846562 0 -315.47409831846562 -1130.4325550397625 0 0 0 0 -1171.8838407961052 230.80747123049787 0 230.80747123049787 -777.72757554554391 0 0 0 0 -882.16959976599674 -210.31595696742033 0 -210.31595696742033 -349.8345430202553 0 0 0 0 -1320.0038621974115 279.45805120820393 0 279.45805120820393 630.27017752357278 0 0 0 0 -1364.5485816512189 -869.3613714657065 0 -869.3613714657065 270.5021519543443 0 0 0 0 -12.8591411010546 -6.116678268748057 0 -6.116678268748057 3.009255596896347 0 0 0 0 -324.18498738819017 -728.75733278424195 0 -728.75733278424195 -1264.0818131114092 0 0 0 0 -1675.7487278142535 450.35338682212296 0 450.35338682212296 1085.1925716376754 0 0 0 0 -2.6702829477821979 -781.81592042297234 0 -781.81592042297234 -958.21506122541268 0 0 0 0 -83.542410621864974 -659.30763508478958 0 -659.30763508478958 123.43151651658809 0 0 0 0 246.88927125602459 -472.32104147752034 0 -472.32104147752034 -665.4315097736303 0 0 0 0 28.284459507303836 -450.16074780781491 0 -450.16074780781491 -257.07967170961638 0 0 0 0 248.29466242279887 -171.28600810268017 0 -171.28600810268017 -351.31643943565723 0 0 0 0 -27.777922023705266 -9.2561232456808114 0 -9.2561232456808114 5.7119282130450095 0 0 0 0 -108.74702576816105 -119.66437138068113 0 -119.66437138068113 666.35602172113795 0 0 0 0 28.859727569346433 -468.50301730890715 0 -468.50301730890715 63.877505635726266 0 0 0 0 -327.84912961159716 -355.45832242482174 0 -355.45832242482174 244.45097782528683 0 0 0 0 -99.788399935508096 -422.50373580529003 0 -422.50373580529003 224.25923491095091 0 0 0 0 -112.10012912110869 -413.66127192975591 0 -413.66127192975591 495.42094226827976 0 0 0 0 -402.82562282456911 -522.01803149623083 0 -522.01803149623083 407.13876085540142 0 0 0 0 735.05899550135655 -695.60730850930031 0 -695.60730850930031 383.30147422413211 0 0 0 0 246.6223697442656 -212.70628896595372 0 -212.70628896595372 1087.3420823813176 0 0 0 0 262.10771846238276 -307.15941489174293 0 -307.15941489174293 163.18618786915795 0 0 0 0 208.88429538113996 -542.00276903164558 0 -542.00276903164558 423.36387425082285 0 0 0 0 199.69323820783393 -225.15986566718857 0 -225.15986566718857 144.21311392734424 0 0 0 0 429.82464191533654 -311.47927737597092 0 -311.47927737597092 173.80942339803005 0 0 0 0 -83.827252033980585 -327.78493592891618 0 -327.78493592891618 516.8674364786275 0 0 0 0 -178.06422349295462 -154.2424002728585 0 -154.2424002728585 318.14467389253332 0 0 0 0 -49.079851982249238 -398.66631566839715 0 -398.66631566839715 360.0371270415344 0 0 0 0 -123.45881795712285 38.040385903565038 0 38.040385903565038 700.20218554359508 0 0 0 0 -103.45951867017817 -31.189843132093639 0 -31.189843132093639 41.692202863809634 0 0 0 0 -382.00265581923395 64.535379333379751 0 64.535379333379751 1199.2314175691372 0 0 0 0 -81.194141974774539 -170.21053297638855 0 -170.21053297638855 -275.48206241261687 0 0 0 0 -89.52053776757964 -38.659386313319203 0 -38.659386313319203 -17.880123486685036 0 0 0 0 598.99313213499931 662.15004107511345 0 662.15004107511345 925.85929674831277 0 0 0 0 612.10489014187033 428.77303547408701 0 428.77303547408701 916.67480830420391 0 0 0 0 170.42930200731848 700.89449213087391 0 700.89449213087391 1099.6459369043005 0 0 0 0 195.61383747378932 197.2923376237959 0 197.2923376237959 788.03077447129908 0 0 0 0 116.21168077308448 -66.494259396189591 0 -66.494259396189591 891.40623708611383 0 0 0 0 -597.67576483766197 -253.74023275999934 0 -253.74023275999934 932.00433141180883 0 0 0 0 -147.56236537953919 461.75043086882943 0 461.75043086882943 783.18694419544045 0 0 0 0 -478.76422329585557 316.40200640479088 0 316.40200640479088 940.3735601803528 0 0 0 0 -338.40444086798561 121.20245535763024 0 121.20245535763024 607.71013376187511 0 0 0 0 -376.51078850303566 -213.10682868581716 0 -213.10682868581716 404.0963011014137 0 0 0 0 -645.31961302236869 -229.23566390589622 0 -229.23566390589622 803.49412865586373 0 0 0 0 -793.24568561546948 397.23018011434078 0 397.23018011434078 -181.23126535335177 0 0 0 0 -455.16657812294216 -401.98278033216138 0 -401.98278033216138 -376.66753236164004 0 0 0 0 -913.4220350514297 -359.38825006861043 0 -359.38825006861043 54.717731291217206 0 0 0 0 -382.49826757972914 -8.3887672058408498 0 -8.3887672058408498 154.17934574360697 0 0 0 0 -694.4423124050827 210.33080971455956 0 210.33080971455956 525.26449574869184 0 0 0 0 -108.52211500218255 229.50755539779857 0 229.50755539779857 107.62551835360136 0 0 0 0 -88.914399089109793 124.90096204600195 0 124.90096204600195 78.436060679808179 0 0 0 0 -84.082552301701071 166.93753867626219 0 166.93753867626219 193.67585876749581 0 0 0 0 -985.79879859493849 553.28345053284283 0 553.28345053284283 -270.62751800693513 0 0 0 0 -749.76461400937478 108.42040277365959 0 108.42040277365959 -391.75937142547991 0 0 0 0 -2235.9224004709686 794.25824579517575 0 794.25824579517575 301.95180017948496 0 0 0 0 -13.449909227994794 136.74072386330408 0 136.74072386330408 47.960947475025023 0 0 0 0 3.9021445348558252 7.4528352550709869 0 7.4528352550709869 1.0612026833878332 0 0 0 0 -1144.268009971529 188.1768724715439 0 188.1768724715439 -440.31361429340177 0 0 0 0 -941.20657990023756 231.72401590020309 0 231.72401590020309 988.31337766962315 0 0 0 0 0.63668202753045833 2.5396097374376225 0 2.5396097374376225 -5.4895185735429095 0 0 0 0 -2120.3322249082921 180.2481622035757 0 180.2481622035757 1164.2429355533586 0 0 0 0 -607.71814949154941 -684.94113114044649 0 -684.94113114044649 898.30529536667018 0 0 0 0 -15.65420989722405 -6.3742054097346568 0 -6.3742054097346568 3.2867009773832123 0 0 0 0 -356.24537890242937 -842.14981382969927 0 -842.14981382969927 -1131.7712969290169 0 0 0 0 -207.6705380485073 582.96296731842813 0 582.96296731842813 795.82823790261136 0 0 0 0 378.96426741027244 237.05941652378533 0 237.05941652378533 154.71264678476382 0 0 0 0 105.00899571980881 -221.74367856463323 0 -221.74367856463323 -344.53596659988762 0 0 0 0 -1254.7296322968832 -452.29852237636987 0 -452.29852237636987 -348.28929621456956 0 0 0 0 -38.674092755813035 -464.23927851094595 0 -464.23927851094595 -427.80669360004686 0 0 0 0 -355.03604791339967 93.688262400322856 0 93.688262400322856 -592.02632499560787 0 0 0 0 -30.285039558535402 -8.8371840876629619 0 -8.8371840876629619 6.044138939148846 0 0 0 0 -560.17680960614234 24.672287516772485 0 24.672287516772485 66.840287705257651 0 0 0 0 30.104704571174807 -332.99769877310246 0 -332.99769877310246 -195.87205323740363 0 0 0 0 -718.75303329669987 -557.86077711443932 0 -557.86077711443932 -266.9972858802289 0 0 0 0 58.438286047190559 -464.53199090679095 0 -464.53199090679095 -736.89179938941379 0 0 0 0 -621.30780352421425 235.51338708717913 0 235.51338708717913 -68.018465186338744 0 0 0 0 -303.94868766381842 -800.12502600752305 0 -800.12502600752305 -698.30372645063744 0 0 0 0 1.388774635594288 -9.9463409321188205 0 -9.9463409321188205 -9.0773522699814322 0 0 0 0 -121.38970375987992 61.510063464912037 0 61.510063464912037 35.305857842499336 0 0 0 0 -203.2319446317415 -51.05945126124152 0 -51.05945126124152 345.36183167018271 0 0 0 0 -26.349644448870848 3.0659439501845505 0 3.0659439501845505 9.0691926744832276 0 0 0 0 -397.93334518966731 198.97154082288216 0 198.97154082288216 200.95812387820661 0 0 0 0 -1228.2620977010774 -347.19435177833793 0 -347.19435177833793 353.30221324124068 0 0 0 0 -493.2441765810072 -1009.5599474249811 0 -1009.5599474249811 -752.5757614915201 0 0 0 0 -66.804827919128002 195.53457428099318 0 195.53457428099318 -152.53163848308213 0 0 0 0 -0.62801173290924339 1.1819271837610295 0 1.1819271837610295 3.0905650750025755 0 0 0 0 -1059.5596632461456 -219.4053053029329 0 -219.4053053029329 147.19808910373104 0 0 0 0 -17.967099714317399 -1.560736445266329 0 -1.560736445266329 8.1304679906548927 0 0 0 0 514.3334783872051 73.722060094481094 0 73.722060094481094 -185.58442102415211 0 0 0 0 -10.486654837543028 129.03345251434985 0 129.03345251434985 -50.025732106285432 0 0 0 0 -68.018494239607577 26.748422361327343 0 26.748422361327343 39.553668806921202 0 0 0 0 -27.787773641066451 57.186223113886172 0 57.186223113886172 -16.833456271011983 0 0 0 0 -37.411759999890819 190.47961112031362 0 190.47961112031362 194.90745814458933 0 0 0 0 -213.48911181774474 6.4698093873557809 0 6.4698093873557809 533.17477867186972 0 0 0 0 -323.86455116800062 16.213565832358654 0 16.213565832358654 38.158369486431184 0 0 0 0 -43.975109627303006 -7.049990151986357 0 -7.049990151986357 5.0541614358346258 0 0 0 0 -7.6629334858189395 91.829343052281274 0 91.829343052281274 -4.2088734174476485 0 0 0 0 -67.180148341819589 43.234952207234265 0 43.234952207234265 51.314009331357262 0 0 0 0 -138.16559248217527 49.996328424910189 0 49.996328424910189 90.931959807243629 0 0 0 0 346.83536040467334 164.67536884258516 0 164.67536884258516 57.720563109229261 0 0 0 0 -65.427940742256808 42.835304616260572 0 42.835304616260572 43.933632253914681 0 0 0 0 -81.177693050296512 59.152144015115482 0 59.152144015115482 89.347634537611327 0 0 0 0 266.29236803742879 341.49804808608405 0 341.49804808608405 -29.582665583999187 0 0 0 0 -38.15077500359439 138.93835439546001 0 138.93835439546001 201.0594719038354 0 0 0 0 -341.31632380372844 34.296333208239957 0 34.296333208239957 -22.538079931353423 0 0 0 0 -543.80037595931481 271.62359572442347 0 271.62359572442347 344.11405644662136 0 0 0 0 -110.93732533787033 279.47333056105163 0 279.47333056105163 -59.746973955496287 0 0 0 0 -7.2638304721058375 -199.72729011743348 0 -199.72729011743348 -130.27338350297998 0 0 0 0 -381.01673986562946 -0.87481765083822438 0 -0.87481765083822438 191.07589892985584 0 0 0 0 -109.47772943724704 18.930028258497259 0 18.930028258497259 -52.424947044397413 0 0 0 0 -189.17405362426507 128.50996550087052 0 128.50996550087052 -22.674212236985966 0 0 0 0 -42.737280574810171 -43.418233116791271 0 -43.418233116791271 -4.0533830484955615 0 0 0 0 -196.06354269809162 -79.018061195412884 0 -79.018061195412884 221.27438943229959 0 0 0 0 -72.225311454251326 -30.769193462862159 0 -30.769193462862159 -11.331630497522214 0 0 0 0 -28.354229838115771 -40.680095802252254 0 -40.680095802252254 -79.757150142108003 0 0 0 0 -33.522472282045328 -17.0006884908762 0 -17.0006884908762 -34.824383256585861 0 0 0 0 -55.177695196524837 17.035534252409889 0 17.035534252409889 -80.437370871417471 0 0 0 0 -36.236186994934208 14.040302809944647 0 14.040302809944647 -3.9011369052655098 0 0 0 0 186.29828613269456 149.33798596105044 0 149.33798596105044 -13.310238112277148 0 0 0 0 -27.853731276983467 -8.0059608752849272 0 -8.0059608752849272 -20.835572665205063 0 0 0 0 -14.128835331495562 26.761061274104556 0 26.761061274104556 -20.02975581208182 0 0 0 0 101.48911894683624 49.862586699066014 0 49.862586699066014 -58.467501103482164 0 0 0 0 187.8939332311511 119.29400361520482 0 119.29400361520482 23.397749854959557 0 0 0 0 127.59057108821253 -20.474811616782517 0 -20.474811616782517 -67.796118593057145 0 0 0 0 77.035427750356575 -6.9014239132286832 0 -6.9014239132286832 -33.552301803523278 0 0 0 0 -0.6752426139208616 2.194333165911071 0 2.194333165911071 -4.7100403012255896 0 0 0 0 0.8478179580710048 27.542692988862655 0 27.542692988862655 -44.056425390523145 0 0 0 0 -31.543390506319156 -4.6461820000322405 0 -4.6461820000322405 -36.424231324164793 0 0 0 0 -1004.7339863935135 435.0822921801373 0 435.0822921801373 -157.62295789349537 0 0 0 0 4.2051655192299222 -56.874359995532359 0 -56.874359995532359 -199.87057675435761 0 0 0 0 -172.79585263132867 64.834705677708826 0 64.834705677708826 -249.47574900275686 0 0 0 0 -105.98141455863765 120.18059196698516 0 120.18059196698516 -606.95738885671744 0 0 0 0 4.7749538768712227 216.1644755376883 0 216.1644755376883 246.06060713866191 0 0 0 0 -15.511802261290541 315.30787719852424 0 315.30787719852424 -180.56584121378728 0 0 0 0 284.29528500604101 358.23272211841959 0 358.23272211841959 276.291965318439 0 0 0 0 410.52885103515155 13.442468190092427 0 13.442468190092427 -124.58731216919296 0 0 0 0 -19.659898972939452 20.276790821475217 0 20.276790821475217 15.585711564173959 0 0 0 0 149.20277278223693 33.035941104110861 0 33.035941104110861 -96.510821026262875 0 0 0 0 166.98274437520195 23.116409043350359 0 23.116409043350359 -266.3198120089919 0 0 0 0 0.0096455490502194152 -119.12112367987982 0 -119.12112367987982 -121.04801970885262 0 0 0 0 43.445837448160091 -74.506249073810977 0 -74.506249073810977 -189.09692969761568 0 0 0 0 134.74772919262966 -61.369553353125646 0 -61.369553353125646 -213.22129595042679 0 0 0 0 220.70617037008378 -1.5075603287519925 0 -1.5075603287519925 -177.92180557219194 0 0 0 0 132.96503714764646 -26.336283514146778 0 -26.336283514146778 -102.63268687905725 0 0 0 0 99.902536820089153 -88.05106558398893 0 -88.05106558398893 -115.97298848862613 0 0 0 0 79.156966643954547 -80.477819425370171 0 -80.477819425370171 -104.09688362784232 0 0 0 0 -115.14462179127815 -367.80012815742521 0 -367.80012815742521 252.34878960509195 0 0 0 0 -3.6486545009252804 0.60304393673948753 0 0.60304393673948753 4.041931744060248 0 0 0 0 -122.41161412839028 -226.44481526460243 0 -226.44481526460243 -424.13123732954409 0 0 0 0 -1969.3057814184695 1597.2538377088474 0 1597.2538377088474 136.11270061264744 0 0 0 0 -45.247263536557142 -210.11261256239857 0 -210.11261256239857 -294.44702228796268 0 0 0 0 31.710823197697863 -27.08927135350865 0 -27.08927135350865 -378.64064313589324 0 0 0 0 -4756.8186258222777 403.27465621742897 0 403.27465621742897 473.85758488344879 0 0 0 0 -1212.238976564875 -478.03236984380601 0 -478.03236984380601 69.79567670455549 0 0 0 0 -1137.0574387151082 -601.06157279447871 0 -601.06157279447871 101.66831418002948 0 0 0 0 -2055.8083998854036 -241.87372038137573 0 -241.87372038137573 239.51562194466283 0 0 0 0 -2077.9475487337322 -536.0486311205392 0 -536.0486311205392 350.27948093722625 0 0 0 0 -1498.3454841826424 -662.29268008577128 0 -662.29268008577128 -49.190688926077883 0 0 0 0 -837.34556936960507 -514.76860649650075 0 -514.76860649650075 -125.50687518927589 0 0 0 0 -2398.0718461413562 -1967.0183854127581 0 -1967.0183854127581 -1453.3598492035985 0 0 0 0 -86.833242617078668 36.698259413913533 0 36.698259413913533 -5.416990304015588 0 0 0 0 -861.79399810799077 -216.14692903977979 0 -216.14692903977979 -116.21087834110466 0 0 0 0 -576.15883804198529 131.34658071066406 0 131.34658071066406 516.22161634807026 0 0 0 0 -20.360023724127419 -12.725330126706721 0 -12.725330126706721 30.238781021908533 0 0 0 0 -551.23961125550704 -225.63526283153806 0 -225.63526283153806 -121.57975371864131 0 0 0 0 -1060.598408878388 -144.41284510569903 0 -144.41284510569903 -23.040211851900494 0 0 0 0 26.002335176646739 198.86155876386718 0 198.86155876386718 346.46088199037388 0 0 0 0 69.478465910071463 209.24204013302915 0 209.24204013302915 288.10914722124926 0 0 0 0 -15.810428958232933 144.43731199281154 0 144.43731199281154 374.79946284053221 0 0 0 0 62.828032211496975 206.18873545808958 0 206.18873545808958 371.45589153316826 0 0 0 0 332.88385243678749 497.4596387661461 0 497.4596387661461 495.05174194786025 0 0 0 0 272.23004937941596 258.6371843663353 0 258.6371843663353 305.74169216137943 0 0 0 0 138.92258836999463 325.89236958125554 0 325.89236958125554 464.78535898578986 0 0 0 0 -35.309218776474154 9.9872390174468819 0 9.9872390174468819 11.67734085632037 0 0 0 0 -41.147062439958873 15.436686400398774 0 15.436686400398774 18.596499147999737 0 0 0 0 163.5876990061297 198.51155201334859 0 198.51155201334859 273.66647122862537 0 0 0 0 35.030182394173607 299.12119766548494 0 299.12119766548494 496.3927815826155 0 0 0 0 59.934572115875199 273.2422813330395 0 273.2422813330395 399.13199813868175 0 0 0 0 163.12415066579146 217.6477527067436 0 217.6477527067436 429.05324078393136 0 0 0 0 84.95958584112941 237.41162553465477 0 237.41162553465477 335.66145728100025 0 0 0 0 -25.081630363489104 24.316450109478048 0 24.316450109478048 2.1513278750697111 0 0 0 0 -16.651902314724339 26.746263764145169 0 26.746263764145169 -0.71301426434911264 0 0 0 0 -46.452228912294757 15.687877116934555 0 15.687877116934555 10.859574114604849 0 0 0 0 -57.748023651191431 32.665739325200789 0 32.665739325200789 10.431896081506128 0 0 0 0 -27.571183334028319 310.26591421079002 0 310.26591421079002 112.04837854645848 0 0 0 0 -702.50490287018692 -106.76978881471041 0 -106.76978881471041 136.67517405726022 0 0 0 0 -18.553051243953632 21.996081383712188 0 21.996081383712188 -1.5852524408559425 0 0 0 0 -758.58187625765277 -63.564501728390042 0 -63.564501728390042 -33.811557133501992 0 0 0 0 -1296.3282023423708 -89.32371651874746 0 -89.32371651874746 141.41521501563966 0 0 0 0 -700.10040466432838 -115.21760996348348 0 -115.21760996348348 -11.380247882436379 0 0 0 0 -1839.6718034312798 196.21673871348958 0 196.21673871348958 5.781048416349222 0 0 0 0 -964.72543899714219 -157.22313102054613 0 -157.22313102054613 -705.34701712606511 0 0 0 0 -48.485391450411043 30.295535272927737 0 30.295535272927737 11.705891592395346 0 0 0 0 138.55246766094933 312.69897850202506 0 312.69897850202506 -155.09327866045714 0 0 0 0 -936.67524817280355 47.619869922889848 0 47.619869922889848 191.5683715405894 0 0 0 0 270.78155568718921 113.08650778496053 0 113.08650778496053 -319.82391661980364 0 0 0 0 -7.6378529446456866 -1.1722033608000437 0 -1.1722033608000437 -6.6698175316374986 0 0 0 0 -12.534893802491906 25.811275753256858 0 25.811275753256858 -8.2251674911416259 0 0 0 0 -50.953536919032558 14.794304971277597 0 14.794304971277597 -0.273753452092933 0 0 0 0 -1204.0398470732835 -23.607205684116707 0 -23.607205684116707 83.04387049822617 0 0 0 0 -1466.1177279658805 -708.65160520513746 0 -708.65160520513746 -291.40511696393878 0 0 0 0 -1980.6597892056197 -927.90502763397581 0 -927.90502763397581 -357.55041284077379 0 0 0 0 -2560.9683534384185 -705.56067812642323 0 -705.56067812642323 89.893460441086063 0 0 0 0 -2250.9992133919186 782.43155340741214 0 782.43155340741214 -220.98708875457669 0 0 0 0 -8.4705370859374938 -10.855660940031783 0 -10.855660940031783 -8.4749804170326826 0 0 0 0 -212.14849896943497 -769.97152530949211 0 -769.97152530949211 -150.34289406040989 0 0 0 0 -2074.5936235853515 -715.87309383989032 0 -715.87309383989032 156.39539841930764 0 0 0 0 -2332.1285656286163 -479.0722838044021 0 -479.0722838044021 393.30267061130007 0 0 0 0 -361.66191355020783 318.69322952324364 0 318.69322952324364 -143.2242643562895 0 0 0 0 -105.78600690545585 -78.429188407145091 0 -78.429188407145091 306.78678448941628 0 0 0 0 -130.6526151694643 472.17702169286986 0 472.17702169286986 515.47906353159215 0 0 0 0 -726.31912510106486 -396.20539644666746 0 -396.20539644666746 -953.7229742949595 0 0 0 0 -100.87018401442435 -222.38451430099281 0 -222.38451430099281 -1019.1073096436276 0 0 0 0 -537.66580375967533 -582.65573019421299 0 -582.65573019421299 -789.10360294016255 0 0 0 0 -384.35929050665095 -228.01173281775408 0 -228.01173281775408 -764.30520916912155 0 0 0 0 -104.66092653051246 158.20394703786522 0 158.20394703786522 -380.91403830290631 0 0 0 0 -281.5211415310896 -338.4022913575277 0 -338.4022913575277 -645.83268781008144 0 0 0 0 -170.24254902834244 -30.146079825739875 0 -30.146079825739875 -309.40494941877171 0 0 0 0 -142.83687426355243 -224.23527903056782 0 -224.23527903056782 -578.78069298115804 0 0 0 0 -41.82046165886959 38.789358041551168 0 38.789358041551168 -342.57563485219202 0 0 0 0 -154.1606076362383 65.51109827129892 0 65.51109827129892 100.43408326788358 0 0 0 0 -91.303281644279423 103.38470111225661 0 103.38470111225661 97.824960541285691 0 0 0 0 -4.3847679324834985 283.48381895752931 0 283.48381895752931 80.370218481933534 0 0 0 0 -144.48129163397698 203.55215984205324 0 203.55215984205324 -21.062306640896622 0 0 0 0 -146.77142272236597 30.243223765633047 0 30.243223765633047 -53.819101574384149 0 0 0 0 -18.675795482729839 384.98904542140116 0 384.98904542140116 292.75226252996617 0 0 0 0 -44.272876127333802 206.87029856119807 0 206.87029856119807 -42.611975737199032 0 0 0 0 58.250473153487292 451.17160769535985 0 451.17160769535985 423.23281962161582 0 0 0 0 16.678716251822379 207.90223047445488 0 207.90223047445488 527.10690306948982 0 0 0 0 -55.462552095125602 428.19664215731609 0 428.19664215731609 616.81825792120162 0 0 0 0 -1.8228587761474428 0.55400738644910685 0 0.55400738644910685 0.82995849619008411 0 0 0 0 -52.785738157187552 382.8393911844687 0 382.8393911844687 582.9544543950251 0 0 0 0 -34.048200312001427 315.51406757994664 0 315.51406757994664 325.46673300557268 0 0 0 0 -58.743021788053738 254.75205372479559 0 254.75205372479559 700.37286857319759 0 0 0 0 49.414644928906455 130.47498968241644 0 130.47498968241644 139.6841793346623 0 0 0 0 -53.531578249525637 195.27789298892003 0 195.27789298892003 520.65221197811479 0 0 0 0 142.81774242419851 56.042324470437961 0 56.042324470437961 699.15754693766303 0 0 0 0 51.284838135911741 125.64858016809148 0 125.64858016809148 649.42829351489308 0 0 0 0 19.141295750957397 220.11567825809334 0 220.11567825809334 392.92610982949464 0 0 0 0 23.279309159551303 105.91627892672159 0 105.91627892672159 406.28222227613941 0 0 0 0 -84.038469798192409 226.06390333217723 0 226.06390333217723 375.4252602964998 0 0 0 0 -59.646434091013816 301.82939446803971 0 301.82939446803971 346.58502053636221 0 0 0 0 -60.85740223604671 86.608546589092953 0 86.608546589092953 186.29679828677081 0 0 0 0 8.9292073998738033 106.30736938636487 0 106.30736938636487 -104.52425632986197 0 0 0 0 -63.92764735878734 -15.336430221390572 0 -15.336430221390572 -356.81840318286459 0 0 0 0 -120.72921191454952 -86.498201551118655 0 -86.498201551118655 -79.15136471928281 0 0 0 0 -9.3399499431200184 51.688474243857911 0 51.688474243857911 -137.77429258169695 0 0 0 0 -17.164300677670326 -20.564182907578598 0 -20.564182907578598 8.9200762110985181 0 0 0 0 38.061827046864437 105.33624481284403 0 105.33624481284403 46.374287064419605 0 0 0 0 86.894467972251732 120.49813091572628 0 120.49813091572628 20.079602839827515 0 0 0 0 53.234478339362795 78.281962194058679 0 78.281962194058679 183.54041424630941 0 0 0 0 149.87303665802574 165.76855506780521 0 165.76855506780521 207.39473575888178 0 0 0 0 145.7690140656232 132.90093680991754 0 132.90093680991754 228.68583614439513 0 0 0 0 167.14971150763449 287.38046176019611 0 287.38046176019611 278.01516165846999 0 0 0 0 55.104983337003432 159.54745146712128 0 159.54745146712128 208.22468540823365 0 0 0 0 38.205053693247464 72.426577489679289 0 72.426577489679289 107.82986590871917 0 0 0 0 99.32257001664675 184.48210863788572 0 184.48210863788572 171.79074757590251 0 0 0 0 94.822090172368462 174.60258903951274 0 174.60258903951274 128.39391843848557 0 0 0 0 -13.74097460096209 56.836992597863457 0 56.836992597863457 104.49611093516569 0 0 0 0 41.466265365341314 -7.5616070242657543 0 -7.5616070242657543 -83.104799529569163 0 0 0 0 -41.687692313239495 38.63162737687685 0 38.63162737687685 181.11423585660668 0 0 0 0 54.234089515608503 117.90229037291749 0 117.90229037291749 100.20492508105781 0 0 0 0 1.9370759838056983 107.17426841486926 0 107.17426841486926 202.30042563529707 0 0 0 0 51.017448142707508 193.09098076370498 0 193.09098076370498 274.53992212906189 0 0 0 0 63.490230152801814 232.92277943304146 0 232.92277943304146 315.54840180781412 0 0 0 0 44.553862151949943 276.54831748682238 0 276.54831748682238 431.62278396423517 0 0 0 0 89.22291453267826 246.10398858385952 0 246.10398858385952 276.40648720579009 0 0 0 0 133.02820825293384 317.56181788929939 0 317.56181788929939 340.36957479683849 0 0 0 0 106.07536435776137 272.72141971532869 0 272.72141971532869 363.14416935614508 0 0 0 0 83.496283909436897 344.45987332318691 0 344.45987332318691 404.82245903068531 0 0 0 0 -15.87321485072971 36.264005975303007 0 36.264005975303007 -1.7872541885863029 0 0 0 0 -32.856635070497113 19.541325808723663 0 19.541325808723663 -0.17705910636817968 0 0 0 0 119.04685320719364 395.17250447616607 0 395.17250447616607 442.75358614155903 0 0 0 0 253.02350130704508 384.9893223335539 0 384.9893223335539 389.04345780720405 0 0 0 0 196.79866673782408 243.50329403657383 0 243.50329403657383 402.2356236574924 0 0 0 0 307.25296115059791 156.84234215911965 0 156.84234215911965 339.01163790007831 0 0 0 0 105.86290377954265 210.15888962308384 0 210.15888962308384 330.47234204418965 0 0 0 0 489.94106174039916 184.08063121153009 0 184.08063121153009 408.16499758796681 0 0 0 0 167.38211885438432 213.41229591390402 0 213.41229591390402 436.99448462819055 0 0 0 0 391.17611410162499 45.901889955714068 0 45.901889955714068 559.91830850983115 0 0 0 0 114.91394663438768 275.52594212611257 0 275.52594212611257 779.04858814187537 0 0 0 0 354.84378147050666 357.62023354940447 0 357.62023354940447 392.87587997545597 0 0 0 0 8.7480970225811916 10.40135742209776 0 10.40135742209776 -10.31186254780444 0 0 0 0 -20.892359672435305 20.639241954040699 0 20.639241954040699 9.9491437025517371 0 0 0 0 -12.465350362267031 30.289834639304217 0 30.289834639304217 -33.004199433029498 0 0 0 0 -30.052953483213059 23.981022116853637 0 23.981022116853637 7.2132796976584359 0 0 0 0 -13.226831563502522 25.23190577203561 0 25.23190577203561 -7.0973983830579215 0 0 0 0 -21.784159001748776 23.724239989089256 0 23.724239989089256 -3.5459890016063582 0 0 0 0 -23.20679366506468 21.283050324601469 0 21.283050324601469 -1.5191921009301907 0 0 0 0 -7.9737924439525614 37.469952239868633 0 37.469952239868633 -13.7198380705413 0 0 0 0 -5.415065641682304 -0.11515781989510288 0 -0.11515781989510288 -23.036166947191305 0 0 0 0 -37.190610658435617 36.396723669362473 0 36.396723669362473 -0.90250383077727747 0 0 0 0 -28.292847843699214 19.559175319459982 0 19.559175319459982 -3.6776225777381448 0 0 0 0 -73.496379144155071 0.23123713593668072 0 0.23123713593668072 30.359992277248693 0 0 0 0 -228.19720010031597 49.779878107052355 0 49.779878107052355 34.560733432648703 0 0 0 0 2.8074493008753052 100.46273539704998 0 100.46273539704998 -78.184838935994776 0 0 0 0 -12.90017821626823 21.115847025554679 0 21.115847025554679 -0.95429791446833079 0 0 0 0 -72.350343759986572 27.083366316001047 0 27.083366316001047 -4.5746804525188054 0 0 0 0 -62.61046197461345 24.427552455916164 0 24.427552455916164 10.706928870127427 0 0 0 0 -3.7867454661609372 90.686409338602971 0 90.686409338602971 -74.354862522870462 0 0 0 0 -18.837161884943253 33.332191688780753 0 33.332191688780753 -9.8455910130035065 0 0 0 0 -24.969263508413405 19.891425125814749 0 19.891425125814749 4.0796752409951296 0 0 0 0 -38.453898038304921 27.799170635817983 0 27.799170635817983 -2.3881140322283301 0 0 0 0 -38.956558009239757 46.348759832502303 0 46.348759832502303 -12.852059260581441 0 0 0 0 -74.932782934261979 247.76305039365616 0 247.76305039365616 -54.621821990134777 0 0 0 0 -94.751573154347511 14.232056979973947 0 14.232056979973947 1.8867240230010793 0 0 0 0 -44.057947945425724 10.022749628669334 0 10.022749628669334 3.7590134605171954 0 0 0 0 -29.225028307744651 20.751578233668624 0 20.751578233668624 -1.5689179144465015 0 0 0 0 -3.9199224632102414 14.614589815795625 0 14.614589815795625 -0.43206424792151665 0 0 0 0 -35.415099653726429 13.53775174193288 0 13.53775174193288 -9.8521819729940034 0 0 0 0 -3.9564899499055999 8.9329548278446644 0 8.9329548278446644 -2.0897055421564623 0 0 0 0 38.668402065345276 16.844687128661462 0 16.844687128661462 -175.71790092460105 0 0 0 0 -44.501808366434602 95.817331075995753 0 95.817331075995753 186.34263011479197 0 0 0 0 -26.994375051693225 14.430299967807514 0 14.430299967807514 6.0654253626107675 0 0 0 0 54.535260247377892 254.91185065926857 0 254.91185065926857 -54.412136692670174 0 0 0 0 113.21826562101546 210.55671652359888 0 210.55671652359888 -131.0651666064623 0 0 0 0 3.8453182551957301 -2.2025874703577095 0 -2.2025874703577095 -1.8961801843992792 0 0 0 0 115.70082455273587 -67.898107206532586 0 -67.898107206532586 -29.203292708471054 0 0 0 0 -216.43505835203996 -68.212174046983364 0 -68.212174046983364 933.69500752642307 0 0 0 0 126.96441532962217 601.9671971102207 0 601.9671971102207 -215.59783478682334 0 0 0 0 49.301983327255471 -151.45763353319398 0 -151.45763353319398 198.56362616311344 0 0 0 0 -25.083170083231103 -0.075337055673646347 0 -0.075337055673646347 2.4232243957730901 0 0 0 0 -29.524700827302695 12.142567828625033 0 12.142567828625033 -24.005936738132732 0 0 0 0 -310.9321692569556 185.02449386454828 0 185.02449386454828 -56.15319209703739 0 0 0 0 -226.80051335168611 -224.24398455756307 0 -224.24398455756307 141.89544208546249 0 0 0 0 -10.55354322762987 -1.9639851132225745 0 -1.9639851132225745 -8.3762090405798517 0 0 0 0 -85.774666220630024 441.28947167105798 0 441.28947167105798 -581.12944943873481 0 0 0 0 -231.89014468972891 196.35225031975006 0 196.35225031975006 -423.96524671834413 0 0 0 0 -163.19736227056273 276.55844561950107 0 276.55844561950107 -99.82208008683665 0 0 0 0 -206.33369907657107 384.77093904849062 0 384.77093904849062 -116.77064419431917 0 0 0 0 -29.657787776949661 -5.9231427005154229 0 -5.9231427005154229 -2.2652686082627955 0 0 0 0 -6.3867666618225485 -183.62895143394417 0 -183.62895143394417 956.04577757733932 0 0 0 0 -6.2078958901259469 3.3178691776248748 0 3.3178691776248748 -0.73304430818487276 0 0 0 0 -99.121581050543227 18.509005572722117 0 18.509005572722117 361.47056818685905 0 0 0 0 -127.9156209585999 -270.01604416021337 0 -270.01604416021337 342.95073225748274 0 0 0 0 -37.778218879202541 -339.37234077946869 0 -339.37234077946869 288.0272190145879 0 0 0 0 -29.380901269902097 -122.26559987139899 0 -122.26559987139899 70.859417830855818 0 0 0 0 -161.89380110261231 -38.932372759502869 0 -38.932372759502869 -161.07867636517403 0 0 0 0 -422.82267213907471 -139.18838945558855 0 -139.18838945558855 112.2534958126198 0 0 0 0 -175.87889230706378 -103.15776201923131 0 -103.15776201923131 370.74146437852323 0 0 0 0 -0.64751037672249367 -30.184694509855035 0 -30.184694509855035 199.41321018162853 0 0 0 0 -169.09452406075252 199.46445354949174 0 199.46445354949174 2.2392373600196152 0 0 0 0 -219.51015776096392 201.79113434546707 0 201.79113434546707 232.47089995002898 0 0 0 0 -340.25674501858157 322.61470749594082 0 322.61470749594082 37.246451481081749 0 0 0 0 -369.52230402681744 324.10714932401788 0 324.10714932401788 -65.028636896651733 0 0 0 0 -379.25924647155625 266.84637064702474 0 266.84637064702474 -29.834375056202589 0 0 0 0 -222.1100487805079 -69.36207177268443 0 -69.36207177268443 -26.307800032536761 0 0 0 0 -3.6476106078160413 1.1683452921287838 0 1.1683452921287838 -1.2573783270914443 0 0 0 0 -508.51181180479762 256.44115351551955 0 256.44115351551955 23.027392525356845 0 0 0 0 -203.83248415838898 251.07106715265945 0 251.07106715265945 -295.14185441932204 0 0 0 0 -471.15901205531509 287.02334334570821 0 287.02334334570821 -37.249272367698723 0 0 0 0 -211.15780852993703 48.090278368395957 0 48.090278368395957 82.95370562856624 0 0 0 0 -15.819598118283029 53.646184114888271 0 53.646184114888271 -9.812946595665025 0 0 0 0 -76.321016367559423 98.408404092055207 0 98.408404092055207 -22.191482940999322 0 0 0 0 -52.044533677299114 178.01152761965204 0 178.01152761965204 -149.70351876099448 0 0 0 0 -26.229521473286191 24.545908310223155 0 24.545908310223155 -7.5762186916359155 0 0 0 0 -33.817025519791059 29.424410910953156 0 29.424410910953156 -0.26180215099884663 0 0 0 0 37.359732740012987 -16.145770720992004 0 -16.145770720992004 -11.25804370773767 0 0 0 0 -18.857728419138773 37.943740689421922 0 37.943740689421922 -6.4190365968241068 0 0 0 0 2.0711968698468155 1.0824404985289107 0 1.0824404985289107 0.049196240522533685 0 0 0 0 35.373443337150093 36.137630667948542 0 36.137630667948542 -17.169046628088836 0 0 0 0 21.31192544030273 5.9122223723134084 0 5.9122223723134084 47.621048554050503 0 0 0 0 -25.301521729246573 14.657933836963331 0 14.657933836963331 4.505585223852826 0 0 0 0 -57.064186967916612 53.771736526803579 0 53.771736526803579 -35.782153874606593 0 0 0 0 -14.021371132964493 17.351834132585452 0 17.351834132585452 -3.9995702155049102 0 0 0 0 -27.16790736580333 27.448880802376152 0 27.448880802376152 -4.9692285850342159 0 0 0 0 -28.312714016003156 17.423261886506225 0 17.423261886506225 0.34809627442155033 0 0 0 0 -8.441749846941093 17.555119893091614 0 17.555119893091614 0.25936988933062821 0 0 0 0 7.8374898782585944 22.531227735994037 0 22.531227735994037 -11.349113232865612 0 0 0 0 -25.592469137398588 26.999607514133327 0 26.999607514133327 -8.9739475929786821 0 0 0 0 -2.0004766650493622 13.279044427706189 0 13.279044427706189 -4.4810109348201976 0 0 0 0 -6.6761552425325732 5.4438298189660497 0 5.4438298189660497 -0.45153139410106036 0 0 0 0 -27.023560999567053 25.358270948940117 0 25.358270948940117 -10.593350758755491 0 0 0 0 -12.419200159463799 22.526708231711382 0 22.526708231711382 1.9840375219064299 0 0 0 0 -22.066601413080662 28.039730239781392 0 28.039730239781392 -2.2643414097050325 0 0 0 0 -102.84770979527093 21.762053259260938 0 21.762053259260938 17.610314215537073 0 0 0 0 -64.443859304592479 27.090980448054324 0 27.090980448054324 1.9942576564499177 0 0 0 0 -75.553243005979311 88.61830667006052 0 88.61830667006052 -32.334663570737575 0 0 0 0 -87.986714876980841 31.07553241315145 0 31.07553241315145 20.577287734166021 0 0 0 0 -30.729698498010357 21.914572908463086 0 21.914572908463086 -8.66563142339389 0 0 0 0 -79.083656617061934 9.3990851719900093 0 9.3990851719900093 -8.0785986890350614 0 0 0 0 -55.309574570333027 25.731284912469484 0 25.731284912469484 1.1651828884983804 0 0 0 0 -75.09211230262008 38.980563293580417 0 38.980563293580417 -2.1564974206926308 0 0 0 0 -57.852515446512371 30.539107171724481 0 30.539107171724481 0.94222527691454161 0 0 0 0 -40.244515384225032 12.27945999204853 0 12.27945999204853 12.644823584320065 0 0 0 0 -33.590513835494619 38.015955547144941 0 38.015955547144941 7.7651228903969738 0 0 0 0 -19.047602689366556 7.6534285864583467 0 7.6534285864583467 -2.5376616918798049 0 0 0 0 -839.86530369512911 77.403847283221694 0 77.403847283221694 115.32393924212374 0 0 0 0 -18.15730979302516 45.048996605154699 0 45.048996605154699 -14.615743828904527 0 0 0 0 -75.575550573037617 47.966970598244188 0 47.966970598244188 -6.6607890361337923 0 0 0 0 -277.76230249835498 -125.08416359902731 0 -125.08416359902731 -140.47400465445753 0 0 0 0 -61.497990948999558 12.603674520024295 0 12.603674520024295 4.9548324426243155 0 0 0 0 -65.15866859595674 22.135783488221506 0 22.135783488221506 -17.601033699570394 0 0 0 0 -35.321261208212732 48.326535408921373 0 48.326535408921373 3.3789961502875059 0 0 0 0 -75.946399677071895 46.261602376502196 0 46.261602376502196 -3.4346014562433993 0 0 0 0 -96.948083504597889 42.582675188612484 0 42.582675188612484 -3.3800717951380648 0 0 0 0 -147.96042990436035 -6.4766434537905297 0 -6.4766434537905297 64.727156310036662 0 0 0 0 -240.41176507786622 109.69097143209729 0 109.69097143209729 82.560014648763172 0 0 0 0 -198.59574836026513 -30.574157879846098 0 -30.574157879846098 189.58694270790875 0 0 0 0 -189.66548894978405 91.646711293051339 0 91.646711293051339 148.20918501999404 0 0 0 0 -23.638479721344993 -33.128237922168182 0 -33.128237922168182 -78.454861158043059 0 0 0 0 -106.78033313181368 153.41952583340935 0 153.41952583340935 35.069568883883221 0 0 0 0 -116.92502105320455 -6.558256528176571 0 -6.558256528176571 -37.606011300509635 0 0 0 0 -38.221101653591091 -8.8918759487276731 0 -8.8918759487276731 -15.156507771114949 0 0 0 0 -79.183123153937515 -25.033085634255144 0 -25.033085634255144 -9.2281986614574265 0 0 0 0 -0.47540008709165704 192.79813550721065 0 192.79813550721065 -95.955933545606968 0 0 0 0 -271.0636246670183 78.950192425058049 0 78.950192425058049 -95.588442750875402 0 0 0 0 -307.89175516435353 136.53180218731723 0 136.53180218731723 -9.595489754636219 0 0 0 0 -36.669249667930671 -135.53324012457688 0 -135.53324012457688 -156.17763156917681 0 0 0 0 -63.075961898151689 -30.461959642520725 0 -30.461959642520725 -9.6938776411259724 0 0 0 0 -16.97493987197484 -13.927490414775384 0 -13.927490414775384 -7.9716606796511584 0 0 0 0 -278.50966748315841 16.046551851632103 0 16.046551851632103 -110.90045013365307 0 0 0 0 119.81606373822797 -227.64052126534443 0 -227.64052126534443 97.507169946959038 0 0 0 0 -1217.3262733400989 -216.58818069523113 0 -216.58818069523113 -24.424086349459685 0 0 0 0 -98.294439777086026 -25.640787598343699 0 -25.640787598343699 -2.0846164509967373 0 0 0 0 -1284.6965270525134 -27.055129251130211 0 -27.055129251130211 168.8493583178788 0 0 0 0 -99.116009326610438 -14.27696369342144 0 -14.27696369342144 6.1075747867399235 0 0 0 0 -585.8624623005162 252.18083727541125 0 252.18083727541125 -199.3146331133081 0 0 0 0 -292.95759422177935 129.36527892569279 0 129.36527892569279 -89.980177305071265 0 0 0 0 -426.28397765005502 -63.696311027411866 0 -63.696311027411866 240.80873965337059 0 0 0 0 -1305.9747154197357 405.02003149385928 0 405.02003149385928 61.518793468949298 0 0 0 0 -1755.1731068610497 -174.67378637052298 0 -174.67378637052298 697.11815362770722 0 0 0 0 -1719.3472746158077 251.53532860635096 0 251.53532860635096 -25.349228775015945 0 0 0 0 -2064.8041742380337 -461.06261844206711 0 -461.06261844206711 169.13243817668626 0 0 0 0 -1515.3412741004213 -847.65261161774833 0 -847.65261161774833 53.372598665082478 0 0 0 0 -764.90435107906524 -274.58140925914267 0 -274.58140925914267 490.70697362776264 0 0 0 0 77.6724954714673 41.678339609131854 0 41.678339609131854 -176.0584115830934 0 0 0 0 -263.74055313763529 -327.79954697717039 0 -327.79954697717039 -504.69623208932171 0 0 0 0 -98.830230258907022 -18.175444849265212 0 -18.175444849265212 0.23348656698090231 0 0 0 0 -988.62737171411572 -341.99869600776219 0 -341.99869600776219 -111.17172117101018 0 0 0 0 -430.87538101884093 25.117802457347807 0 25.117802457347807 -80.733345780143281 0 0 0 0 -1436.8398537621943 -102.19712116131541 0 -102.19712116131541 111.04577243620224 0 0 0 0 -1254.5923471567803 17.106280510413853 0 17.106280510413853 -348.15847838340335 0 0 0 0 -1250.0355361752299 -193.14727879386464 0 -193.14727879386464 125.88383116221667 0 0 0 0 -1377.745221040117 -109.3867778922031 0 -109.3867778922031 166.00041864086234 0 0 0 0 -1100.3003167037969 -129.76724103356901 0 -129.76724103356901 59.2915542815972 0 0 0 0 -1156.933176159524 -53.673282822050169 0 -53.673282822050169 50.174843327838971 0 0 0 0 -1207.8625422122423 -54.62901018606135 0 -54.62901018606135 13.699464201999945 0 0 0 0 -1001.6277246836253 42.451312896715535 0 42.451312896715535 58.372257761806395 0 0 0 0 -915.49421193516173 193.66330385469519 0 193.66330385469519 94.404065729868307 0 0 0 0 -1305.6252999625722 -8.8335174798230582 0 -8.8335174798230582 153.67898877142215 0 0 0 0 -1207.5763772125792 -63.090737688609806 0 -63.090737688609806 177.41640708082377 0 0 0 0 -1311.4277456012278 -22.201111992484584 0 -22.201111992484584 240.1529262261115 0 0 0 0 -880.04110073870288 -268.54065749919801 0 -268.54065749919801 162.60237173645146 0 0 0 0 -1199.7657457726455 -139.60466993085174 0 -139.60466993085174 215.93805799549227 0 0 0 0 -1325.3325802196159 -20.199677836251794 0 -20.199677836251794 102.76353751910938 0 0 0 0 -931.54329790755583 135.0946420856244 0 135.0946420856244 178.85109452228789 0 0 0 0 -222.11847505295736 -50.278676019241175 0 -50.278676019241175 -63.751107568843508 0 0 0 0 -820.16383318578301 -173.39338249395951 0 -173.39338249395951 -63.927089769087615 0 0 0 0 -409.59460712731379 -201.06262502302343 0 -201.06262502302343 -123.24576124254418 0 0 0 0 -931.40240127356446 -584.05365965035526 0 -584.05365965035526 105.95640574772915 0 0 0 0 146.70795596890093 -593.94588195909819 0 -593.94588195909819 70.512930122114994 0 0 0 0 5.5241736685385945 -3.0666763618206119 0 -3.0666763618206119 -15.028330761384723 0 0 0 0 -1550.3633231974527 -136.38734520960134 0 -136.38734520960134 140.74322455771471 0 0 0 0 -1447.6789682271956 142.81959012399147 0 142.81959012399147 -21.631757174796803 0 0 0 0 -1300.2120428323688 -38.992586600241339 0 -38.992586600241339 118.2195962514852 0 0 0 0 -1317.1947492739291 72.961808585244171 0 72.961808585244171 174.2732606277641 0 0 0 0 -960.71534887430607 40.914845222083386 0 40.914845222083386 138.06902398460079 0 0 0 0 -1076.1921260527888 147.81820238284126 0 147.81820238284126 75.917056441350724 0 0 0 0 -1099.8443615667347 -39.138952772984339 0 -39.138952772984339 45.885705032505939 0 0 0 0 -1264.5477252503842 71.417675858927396 0 71.417675858927396 -28.182963819450379 0 0 0 0 -1410.3968690504626 -220.27675704139619 0 -220.27675704139619 -261.41130394030552 0 0 0 0 -1629.7377885831447 -322.10861421323898 0 -322.10861421323898 -302.44700007968459 0 0 0 0 -1344.0408567925333 -187.81701238088863 0 -187.81701238088863 -405.54070738127484 0 0 0 0 -1435.5270457883598 -168.95029791595334 0 -168.95029791595334 -350.64294750920089 0 0 0 0 -1271.0662233610929 187.23407718584349 0 187.23407718584349 -146.85374886399404 0 0 0 0 -1114.846589892506 -20.605771260616166 0 -20.605771260616166 15.960398923460161 0 0 0 0 -1352.6255537877696 271.01987883419861 0 271.01987883419861 391.34972360593747 0 0 0 0 -845.89094816619763 372.69954597692049 0 372.69954597692049 -178.94584429113638 0 0 0 0 -205.98774829354051 -94.09943287685239 0 -94.09943287685239 87.293289159060322 0 0 0 0 -914.12305760765048 451.13047507747342 0 451.13047507747342 124.13829222894128 0 0 0 0 -791.01991260662908 32.757798178428857 0 32.757798178428857 -430.82963186836059 0 0 0 0 -46.308745550171324 -13.772346250922645 0 -13.772346250922645 27.302705367312569 0 0 0 0 -2105.5134904311763 745.78751061544745 0 745.78751061544745 -281.6683012056892 0 0 0 0 -233.19851577917689 47.792586593470787 0 47.792586593470787 -47.963486234068114 0 0 0 0 -272.05820667090484 158.67528981483224 0 158.67528981483224 -143.07534614387623 0 0 0 0 -329.19909570355958 61.721668245134424 0 61.721668245134424 -105.49914637171423 0 0 0 0 -139.00497761953739 143.68973733877829 0 143.68973733877829 -120.3321833123623 0 0 0 0 -129.16339593709495 21.517481422386538 0 21.517481422386538 -26.282370213575632 0 0 0 0 -92.46260809811065 114.34801383615286 0 114.34801383615286 -61.872451508303129 0 0 0 0 0.0096230195194948465 94.221861047100901 0 94.221861047100901 -116.82203097788988 0 0 0 0 -80.001752484087774 28.004126404570343 0 28.004126404570343 -84.673643723583154 0 0 0 0 -36.298585778990315 63.116638005967914 0 63.116638005967914 -33.426451599030202 0 0 0 0 -254.28616660660919 -4.5367413597841733 0 -4.5367413597841733 -40.549939618280405 0 0 0 0 -96.007179250802437 37.513399055465925 0 37.513399055465925 -28.939199191146599 0 0 0 0 -110.70264927568132 26.083082444835327 0 26.083082444835327 -25.155740758826141 0 0 0 0 -93.891567676124254 -18.557746843452662 0 -18.557746843452662 -5.2192155022243867 0 0 0 0 -35.056259624901109 25.099694603543298 0 25.099694603543298 -33.842749894238068 0 0 0 0 1.0095825902753859 171.58344761488115 0 171.58344761488115 -207.77128019395604 0 0 0 0 -265.58231499258545 17.946545806473296 0 17.946545806473296 236.58463511435548 0 0 0 0 -13.008613324382452 9.6870908810591558 0 9.6870908810591558 0.27021903775809619 0 0 0 0 -97.346325897262432 -27.613409271783894 0 -27.613409271783894 128.05651643670717 0 0 0 0 -904.74031487930915 126.58010670254225 0 126.58010670254225 245.51199283295136 0 0 0 0 -1024.2419935398575 246.39923336294578 0 246.39923336294578 20.208570929884445 0 0 0 0 -280.53278370917542 -30.989718301374523 0 -30.989718301374523 91.409032060561003 0 0 0 0 -294.18637375920662 276.30312354093985 0 276.30312354093985 -175.99041315875365 0 0 0 0 -7.9405060851222089 -13.626190729416948 0 -13.626190729416948 -43.728852217220748 0 0 0 0 -1140.1654581324146 292.8978980117854 0 292.8978980117854 -174.20484274707269 0 0 0 0 -0.94656888405066297 -0.92483924195871836 0 -0.92483924195871836 -14.415009032888747 0 0 0 0 -962.10173753338495 -395.74354256539027 0 -395.74354256539027 -90.954592326641432 0 0 0 0 -6.9653444674258935 -8.5066761990219675 0 -8.5066761990219675 -273.82217666726865 0 0 0 0 -173.41026064079051 -160.86708479161462 0 -160.86708479161462 -160.29474680327985 0 0 0 0 8.8263621990065886 -3.8409625199329298 0 -3.8409625199329298 -69.880645961501301 0 0 0 0 -377.50548919172434 -99.664019642585117 0 -99.664019642585117 110.40478184268795 0 0 0 0 -397.86683640330739 -110.63165067215232 0 -110.63165067215232 205.98285288073021 0 0 0 0 -265.03861112460072 18.47891939605006 0 18.47891939605006 -67.834649368211103 0 0 0 0 -320.52967715700652 -33.083038559338092 0 -33.083038559338092 -110.33505983806754 0 0 0 0 -301.12680507391633 127.60578488327883 0 127.60578488327883 14.423643326873389 0 0 0 0 -115.64346903429032 97.533009994141366 0 97.533009994141366 -37.888894061245082 0 0 0 0 -331.98704703020485 -18.770439907279069 0 -18.770439907279069 68.048084147834743 0 0 0 0 -20.29940752520853 67.20807534768123 0 67.20807534768123 -32.175553192510989 0 0 0 0 -105.19521487504971 6.2437982925785036 0 6.2437982925785036 -21.215128933234155 0 0 0 0 -232.29069904556673 7.3320324961259757 0 7.3320324961259757 -4.3285539568332752 0 0 0 0 -0.92324238439475437 0.57277798043924122 0 0.57277798043924122 -0.15426055183176146 0 0 0 0 -374.0268073336556 -4.7088310400272348 0 -4.7088310400272348 34.400127911923846 0 0 0 0 -68.065599197583651 70.346650571116697 0 70.346650571116697 -22.985812270468159 0 0 0 0 -103.74299701208656 166.74202442964815 0 166.74202442964815 -697.04056279335782 0 0 0 0 -166.31303637301608 13.580497534589995 0 13.580497534589995 -7.4400299736298621 0 0 0 0 -34.233096533545584 62.056362769395705 0 62.056362769395705 -30.072242649909256 0 0 0 0 -118.91388410550098 88.545448239508914 0 88.545448239508914 -69.304928772806306 0 0 0 0 -149.57214963348815 1.8132602267505717 0 1.8132602267505717 175.66257414768916 0 0 0 0 -811.54955881561546 -209.0565900231386 0 -209.0565900231386 109.17678662301478 0 0 0 0 -28.772618220283874 -13.156183221220715 0 -13.156183221220715 -13.551213051988896 0 0 0 0 21.133648150160411 13.904810992932298 0 13.904810992932298 -24.326208154259213 0 0 0 0 -103.59921985023539 -33.016207668693824 0 -33.016207668693824 -100.4827316817973 0 0 0 0 -312.67691849674702 -171.73310669373859 0 -171.73310669373859 -247.16077448524447 0 0 0 0 -34.760061634345973 -31.185318746464816 0 -31.185318746464816 -100.83216855899056 0 0 0 0 -431.59064007730922 255.02556311468561 0 255.02556311468561 -598.86421143382904 0 0 0 0 -797.81087932300579 -229.79586609925718 0 -229.79586609925718 173.94857576940194 0 0 0 0 -713.05427623013384 -197.88650902405425 0 -197.88650902405425 -56.940053593087214 0 0 0 0 -200.87174834619134 -86.391334587468151 0 -86.391334587468151 93.995370564283192 0 0 0 0 -550.85114031092962 161.16635358140411 0 161.16635358140411 291.76261736234483 0 0 0 0 -337.25998448961764 47.03090976634121 0 47.03090976634121 219.75053849431879 0 0 0 0 -613.66416541136277 218.49325409390531 0 218.49325409390531 179.69362839200403 0 0 0 0 -365.25619508058298 277.61097743868186 0 277.61097743868186 58.809983913657561 0 0 0 0 -542.36258539103437 104.31736198828366 0 104.31736198828366 136.53291047966468 0 0 0 0 -267.28638792879065 113.09640744967828 0 113.09640744967828 160.06548471696806 0 0 0 0 -72.307741855518543 151.64277361037375 0 151.64277361037375 86.655842463487716 0 0 0 0 -45.732000917788071 -12.22780870010169 0 -12.22780870010169 16.262755686101279 0 0 0 0 -169.38908789269044 -45.666354270062811 0 -45.666354270062811 -21.489316819380974 0 0 0 0 -701.89813013248568 -115.87453384803291 0 -115.87453384803291 20.010931426972093 0 0 0 0 -145.96018751019903 -27.95483213376545 0 -27.95483213376545 45.117512661551004 0 0 0 0 -101.85928215953027 -29.623302031128333 0 -29.623302031128333 -96.96149467327632 0 0 0 0 -69.538884939923065 -8.7735992299774352 0 -8.7735992299774352 -47.929295072002105 0 0 0 0 -65.361767881793185 3.7726963346851221 0 3.7726963346851221 6.4619701019743196 0 0 0 0 -53.816914842430577 20.56234549771014 0 20.56234549771014 35.002542387293957 0 0 0 0 -527.98908202872553 41.193287082289316 0 41.193287082289316 3.6739274007677523 0 0 0 0 -32.597245157170164 -20.870315320681073 0 -20.870315320681073 -13.87598067918265 0 0 0 0 -148.31640555910781 -32.926969497458728 0 -32.926969497458728 -7.3411954179691747 0 0 0 0 -104.52591631215563 3.3114314541103056 0 3.3114314541103056 8.4637852532162743 0 0 0 0 -98.391927596278776 23.775775310551197 0 23.775775310551197 4.5569343397802591 0 0 0 0 -77.837413142035075 -9.537052294106843 0 -9.537052294106843 -17.215721215510712 0 0 0 0 -129.82612522237469 89.197315362749578 0 89.197315362749578 -21.268287238228879 0 0 0 0 -1099.1179216671153 72.913824957540783 0 72.913824957540783 -5.1392537391013207 0 0 0 0 -944.83073577628238 72.930950822270461 0 72.930950822270461 71.602449858641194 0 0 0 0 -922.27067380505468 -33.627671572639883 0 -33.627671572639883 17.386810991185484 0 0 0 0 -1011.1682202239317 139.90666443349983 0 139.90666443349983 -320.60120794820614 0 0 0 0 -200.72548836923318 -84.464117214644304 0 -84.464117214644304 102.67508576576972 0 0 0 0 -1088.8143451940705 12.923087090022818 0 12.923087090022818 -7.637471021453166 0 0 0 0 -1011.6362387647241 8.5354429318667826 0 8.5354429318667826 -244.45835425559926 0 0 0 0 -202.8994246202584 -87.017905181551157 0 -87.017905181551157 103.41495183355791 0 0 0 0 -832.22249064491734 66.250032286193345 0 66.250032286193345 -26.793819074024213 0 0 0 0 -1004.574216626861 14.093417844541364 0 14.093417844541364 253.1738152065318 0 0 0 0 -556.00436777200412 122.06792993708893 0 122.06792993708893 179.395101588334 0 0 0 0 -1050.4362272829749 182.14739236025889 0 182.14739236025889 28.688460439272603 0 0 0 0 -1137.2977121107542 80.871890640337369 0 80.871890640337369 264.03529884015552 0 0 0 0 -826.67894008447183 18.946831406022284 0 18.946831406022284 198.29792117592342 0 0 0 0 -973.3377929519047 97.443459789811641 0 97.443459789811641 210.08556756224289 0 0 0 0 -832.25014472087059 293.66665457172758 0 293.66665457172758 128.99055723703896 0 0 0 0 -1068.9075854803668 166.99264812627734 0 166.99264812627734 265.57370842376622 0 0 0 0 -1139.3804274370123 26.134787476615429 0 26.134787476615429 283.22247233027338 0 0 0 0 -1304.6933225714311 -203.13682776391306 0 -203.13682776391306 223.83935028680662 0 0 0 0 -1343.6487344703055 50.123023551240294 0 50.123023551240294 289.30988285617877 0 0 0 0 -1164.9851973496588 -26.655881895916195 0 -26.655881895916195 205.75416213631252 0 0 0 0 -1168.9752098974277 4.8921063528832747 0 4.8921063528832747 268.03560564991494 0 0 0 0 -1022.8631975322496 -44.044785633570427 0 -44.044785633570427 172.81971529825569 0 0 0 0 -955.13638402359811 -111.22065303748491 0 -111.22065303748491 127.78397682398281 0 0 0 0 -956.67826327898365 -104.77658393374531 0 -104.77658393374531 214.54126333411386 0 0 0 0 -391.38992553156277 -174.82572633159361 0 -174.82572633159361 6.9341085895525794 0 0 0 0 -105.05554547219072 -3.4055065490820198 0 -3.4055065490820198 -43.134412216522605 0 0 0 0 -429.02075058010814 -93.725482254381632 0 -93.725482254381632 24.690236999654189 0 0 0 0 -224.77785686060815 72.633741395628476 0 72.633741395628476 90.095314967089507 0 0 0 0 -322.22682008723496 -90.516893108693694 0 -90.516893108693694 -5.2708550617080618 0 0 0 0 -537.16263948271808 61.654908470596638 0 61.654908470596638 47.042561028589262 0 0 0 0 -639.66682661615778 -106.45504960087783 0 -106.45504960087783 79.475449458349431 0 0 0 0 -343.22317218163516 0.86890389809195767 0 0.86890389809195767 -43.491142099919671 0 0 0 0 -666.69779804247082 28.050725131230138 0 28.050725131230138 -11.681949992242153 0 0 0 0 -93.227106593039935 -65.84510942630186 0 -65.84510942630186 5.1483177528825763 0 0 0 0 -317.9818155278117 51.976325907106911 0 51.976325907106911 -32.437232019983639 0 0 0 0 -80.390868363669142 86.985349507456704 0 86.985349507456704 -126.53300805664753 0 0 0 0 -161.55921343791124 -2.1104929222856299 0 -2.1104929222856299 -88.962128730581753 0 0 0 0 -159.61562634279835 -88.989118614379549 0 -88.989118614379549 -114.14614770518347 0 0 0 0 -308.31534514734813 37.303954055738359 0 37.303954055738359 -48.213679137952568 0 0 0 0 -0.72458723161253147 -140.53151690455343 0 -140.53151690455343 -144.1100075901486 0 0 0 0 -145.24978364864364 -168.06633867934033 0 -168.06633867934033 -37.349589825395014 0 0 0 0 -229.36027727932378 32.736572863184847 0 32.736572863184847 131.26991484253813 0 0 0 0 -7.3872761321944722 1.2937248373798127 0 1.2937248373798127 2.5640731431480077 0 0 0 0 -70.092433655269133 -49.941827846491002 0 -49.941827846491002 -31.689917810844332 0 0 0 0 -39.402085777779575 232.25082954597747 0 232.25082954597747 -248.48763279426203 0 0 0 0 -731.58418340733624 333.79313420458857 0 333.79313420458857 -105.77473563796957 0 0 0 0 -722.58125770289917 124.64063756817268 0 124.64063756817268 -88.332323326612823 0 0 0 0 -1189.9507357674884 -216.25221575545584 0 -216.25221575545584 -186.48978413176974 0 0 0 0 -686.2169458293356 14.6909152225453 0 14.6909152225453 -214.14134510679696 0 0 0 0 -289.2995205779589 89.694544474870781 0 89.694544474870781 -108.61601856951165 0 0 0 0 -679.35644667854649 121.13213009357423 0 121.13213009357423 -84.811140930614783 0 0 0 0 -231.61195879368461 -25.140152293628489 0 -25.140152293628489 2.6418070629933936 0 0 0 0 -28.432042312976833 -24.176043455998894 0 -24.176043455998894 2.5399591302911944 0 0 0 0 -31.842741696924946 -7.7791318668749341 0 -7.7791318668749341 28.742093140290812 0 0 0 0 -98.012335802926316 -18.739027065115579 0 -18.739027065115579 2.8735567573884495 0 0 0 0 -78.414151101069024 -31.474909371556308 0 -31.474909371556308 -5.5103300315566699 0 0 0 0 -165.02497861662414 -40.254185649157989 0 -40.254185649157989 80.509191301764076 0 0 0 0 -52.072050721180858 -150.8035672027454 0 -150.8035672027454 112.7880292849004 0 0 0 0 -32.253201706885662 26.344258954070796 0 26.344258954070796 17.37501639216444 0 0 0 0 31.171575570755522 19.684448750107549 0 19.684448750107549 -89.651930313215416 0 0 0 0 -227.40478305961005 25.762282983490877 0 25.762282983490877 76.362473799410509 0 0 0 0 -59.731572061573388 13.936365766345261 0 13.936365766345261 23.104469586529376 0 0 0 0 81.627446782062179 -263.71463752079399 0 -263.71463752079399 4.1051363496480917 0 0 0 0 -280.0517592044489 -33.619051896546807 0 -33.619051896546807 102.28767100173991 0 0 0 0 -763.57572810980491 93.656548911516438 0 93.656548911516438 185.47093919820327 0 0 0 0 -984.42142622284155 -876.71011547318449 0 -876.71011547318449 -264.41524211824435 0 0 0 0 -1397.1479412462504 -650.25529406955502 0 -650.25529406955502 -329.1295156383203 0 0 0 0 -23.365292032693588 33.13238654903671 0 33.13238654903671 21.833044046731814 0 0 0 0 -52.934109973866725 131.97323100013273 0 131.97323100013273 -118.08483178710958 0 0 0 0 -39.494696788256988 102.59101931555324 0 102.59101931555324 -33.639400839231712 0 0 0 0 -6.5212309355380285 6.3470031647204905 0 6.3470031647204905 7.7039175441794576 0 0 0 0 -1379.4071152816687 -634.61263940777121 0 -634.61263940777121 -234.48601883549236 0 0 0 0 -809.88797517227158 -543.14372925699115 0 -543.14372925699115 -123.16465872332628 0 0 0 0 -1521.8492570784874 -253.35483940062204 0 -253.35483940062204 -81.554783881608273 0 0 0 0 -8.8266697174767046 5.825332233560431 0 5.825332233560431 4.9713130761035558 0 0 0 0 -775.61219975637505 197.2107006031838 0 197.2107006031838 -0.35368444076084415 0 0 0 0 -928.13712173589738 -375.92955593994338 0 -375.92955593994338 218.17883737169723 0 0 0 0 -95.293515352946997 5.168184106683384 0 5.168184106683384 109.82637442033956 0 0 0 0 -114.03169070827425 -39.952912087182995 0 -39.952912087182995 1.2774099735515847 0 0 0 0 -38.355162845669582 -10.186937123400327 0 -10.186937123400327 7.2006894817054317 0 0 0 0 68.210893509662128 80.892427214752388 0 80.892427214752388 -423.03427769384143 0 0 0 0 1.3062614966474939 168.10589537483338 0 168.10589537483338 -119.22020867772517 0 0 0 0 -163.44689294640557 -43.220878860001903 0 -43.220878860001903 2.8815632713231025 0 0 0 0 -417.39150289510144 -439.67093081530402 0 -439.67093081530402 -226.34478456594115 0 0 0 0 -1571.3417929267744 -966.76660976251151 0 -966.76660976251151 -386.57534728935207 0 0 0 0 -1189.8707874487009 -26.339718334206736 0 -26.339718334206736 -242.21313129767077 0 0 0 0 -253.74776052832021 -631.98151891589168 0 -631.98151891589168 -448.84047967478546 0 0 0 0 -471.17224654933671 -309.97268331736996 0 -309.97268331736996 -903.7912536533986 0 0 0 0 -132.25600755764754 -79.699176599599014 0 -79.699176599599014 28.022074928043367 0 0 0 0 -171.74413253000967 -62.081235715053481 0 -62.081235715053481 20.574396167041414 0 0 0 0 -165.86835097614676 -51.311725701329124 0 -51.311725701329124 66.917549859324936 0 0 0 0 -176.35989387247537 -66.099751880929034 0 -66.099751880929034 73.434569927099801 0 0 0 0 -159.04992958635557 -67.219943442421936 0 -67.219943442421936 65.801265408656036 0 0 0 0 -97.415108831541147 -82.149404943989794 0 -82.149404943989794 -32.693101911041595 0 0 0 0 -38.522200905338295 -60.929656319903017 0 -60.929656319903017 3.3522555610308871 0 0 0 0 -100.71639247450366 -78.647820822860012 0 -78.647820822860012 -3.5068825500711682 0 0 0 0 -96.210988165832532 -87.78532825819093 0 -87.78532825819093 -10.699592387871235 0 0 0 0 -53.191640349890804 -25.408608073317737 0 -25.408608073317737 31.840265558003011 0 0 0 0 -136.06546511505439 -111.73399415165295 0 -111.73399415165295 -23.724288677178265 0 0 0 0 -194.27377175162837 -118.82471255909513 0 -118.82471255909513 3.7410797379452561 0 0 0 0 -83.05801177876819 -41.240678206467344 0 -41.240678206467344 -13.347129845901776 0 0 0 0 -14.616857922243071 -170.19649822168594 0 -170.19649822168594 55.859635814958892 0 0 0 0 -37.300762904749718 -33.888393325954894 0 -33.888393325954894 -89.351230451598894 0 0 0 0 -29.908593903412111 -22.151699969452238 0 -22.151699969452238 -72.792311839442846 0 0 0 0 151.39063016060391 -196.03988341373861 0 -196.03988341373861 -148.62657032717834 0 0 0 0 34.07074707717311 40.352626226856501 0 40.352626226856501 -247.79211524136554 0 0 0 0 40.034411304886362 -86.746537324463873 0 -86.746537324463873 -61.923477910797374 0 0 0 0 210.98847222655968 -85.879563248164686 0 -85.879563248164686 -333.90824541968686 0 0 0 0 -6.9635869241101318 -95.646956480749395 0 -95.646956480749395 -41.531532116575363 0 0 0 0 -37.033957452880955 -7.4353426271393879 0 -7.4353426271393879 4.997689578056157 0 0 0 0 -96.91811328176118 -11.113127099930352 0 -11.113127099930352 32.062035257729804 0 0 0 0 -58.686624364432646 -38.425503920843767 0 -38.425503920843767 -12.394966323263361 0 0 0 0 -108.65295143981348 -48.755291302732076 0 -48.755291302732076 13.109539523204148 0 0 0 0 -93.668069792680626 -56.978203383565102 0 -56.978203383565102 6.4449212262852527 0 0 0 0 -53.917518154774797 -22.03797778805847 0 -22.03797778805847 -0.8580659890789093 0 0 0 0 -255.47357372920669 -142.04118730765458 0 -142.04118730765458 -98.13818119143798 0 0 0 0 -254.44871350380708 -136.86599073001889 0 -136.86599073001889 -148.92056322260032 0 0 0 0 -99.970330152156066 -27.114536347589674 0 -27.114536347589674 0.18455254968636225 0 0 0 0 -59.414226479919179 -41.981015398092211 0 -41.981015398092211 -18.701523069774023 0 0 0 0 -212.6871790841833 -146.08502438415371 0 -146.08502438415371 -232.7539844026187 0 0 0 0 -185.2818475802851 -179.12367513776098 0 -179.12367513776098 -269.96316161444338 0 0 0 0 -211.31975706434241 -197.98908780716306 0 -197.98908780716306 -275.4014611906714 0 0 0 0 -287.55314551537595 -205.65139333997968 0 -205.65139333997968 -208.98875586863687 0 0 0 0 -243.00313491240377 -243.80341921091667 0 -243.80341921091667 -291.02020333878863 0 0 0 0 -12.390671248067122 -7.7866844561556192 0 -7.7866844561556192 -9.148830918830317 0 0 0 0 -79.245913010934601 -101.38476284707394 0 -101.38476284707394 -45.478393692292229 0 0 0 0 -107.42001641786192 -63.14276742061702 0 -63.14276742061702 -95.791728776650416 0 0 0 0 -195.37900534577784 -207.04240322427268 0 -207.04240322427268 -376.92064556204787 0 0 0 0 -197.7482106644311 -214.95288966945373 0 -214.95288966945373 -350.17215658524219 0 0 0 0 -104.73729087318952 29.865811702473309 0 29.865811702473309 16.954187398183421 0 0 0 0 -2775.0626521186277 -301.3883116941206 0 -301.3883116941206 429.55148622089473 0 0 0 0 -24.055664139055423 -2.231510235506704 0 -2.231510235506704 -8.5221898072265674 0 0 0 0 -1682.7591535341926 171.81283880039337 0 171.81283880039337 90.254899732683043 0 0 0 0 -98.202157524620475 -17.751444736813909 0 -17.751444736813909 -1.6011128205930412 0 0 0 0 -745.20377973443829 -664.58514079055385 0 -664.58514079055385 -122.46304440728272 0 0 0 0 -755.03352667868603 -211.6652416666002 0 -211.6652416666002 -76.764488023669401 0 0 0 0 -569.13110633715405 -374.29029220548728 0 -374.29029220548728 354.78469792450051 0 0 0 0 -284.87999538380245 -333.4412701679139 0 -333.4412701679139 -424.65919729032339 0 0 0 0 251.79893434955738 -206.62298170290887 0 -206.62298170290887 89.612345596775413 0 0 0 0 -153.5385714432341 -88.077146265059127 0 -88.077146265059127 59.436264616721019 0 0 0 0 260.81926478480455 -316.18878991972451 0 -316.18878991972451 62.788008590458048 0 0 0 0 -111.40694210211223 -22.410860413533101 0 -22.410860413533101 20.670659385476029 0 0 0 0 -115.81135851126919 -64.826426986430903 0 -64.826426986430903 -10.25773458372565 0 0 0 0 -55.766143546234673 -76.548273615714635 0 -76.548273615714635 -42.431319782556557 0 0 0 0 -79.577367251506075 -65.896613232660457 0 -65.896613232660457 -21.393511578979087 0 0 0 0 -61.405020012018696 -76.244908468629063 0 -76.244908468629063 -20.673526943953107 0 0 0 0 -104.53147014887273 -61.67552949264234 0 -61.67552949264234 5.4789641039005552 0 0 0 0 -76.298969829447742 -41.914440210069685 0 -41.914440210069685 -16.092455275991732 0 0 0 0 -827.14344064504985 27.696726374075297 0 27.696726374075297 -110.39148795887013 0 0 0 0 -74.938637499652771 -91.066394610069835 0 -91.066394610069835 -49.641475948518909 0 0 0 0 -235.4363336503302 -138.25217561840691 0 -138.25217561840691 -204.9642276863342 0 0 0 0 -927.54690922344162 -205.91310937779053 0 -205.91310937779053 -352.27454444913656 0 0 0 0 -1415.0095267216093 -106.25023792015782 0 -106.25023792015782 1.9388353285648918 0 0 0 0 -978.12223022093167 18.760328477389066 0 18.760328477389066 -43.521992625595885 0 0 0 0 -144.58965883229757 -127.12578610594483 0 -127.12578610594483 -246.26818122956229 0 0 0 0 -808.78073625407706 -178.65648982524544 0 -178.65648982524544 -137.08014372428033 0 0 0 0 -45.936931034567323 -89.378870988307085 0 -89.378870988307085 -53.017009013836457 0 0 0 0 -173.91132772152196 -115.72638024787557 0 -115.72638024787557 -183.51708544435996 0 0 0 0 -138.88593651422707 -77.848388336826702 0 -77.848388336826702 -150.87177853369758 0 0 0 0 -122.5242554832148 -119.03674053367581 0 -119.03674053367581 -133.58196342200995 0 0 0 0 -122.48025146153304 -135.24499812688646 0 -135.24499812688646 -39.858111047707553 0 0 0 0 -144.52339854888123 -117.11074640569996 0 -117.11074640569996 -25.919402660405467 0 0 0 0 -997.84456255748955 144.11370432969852 0 144.11370432969852 -36.87107281902172 0 0 0 0 -1006.9658212055729 85.238335927966546 0 85.238335927966546 -95.529382347196588 0 0 0 0 -63.588101743300918 -98.775399690986831 0 -98.775399690986831 -44.608311764650935 0 0 0 0 -147.22347041909234 -183.49881596673413 0 -183.49881596673413 -191.45343374419645 0 0 0 0 -216.24547216446081 -160.38868998532143 0 -160.38868998532143 -130.46662150741486 0 0 0 0 -215.64222227073651 -144.88246567375265 0 -144.88246567375265 -215.24652455255273 0 0 0 0 -211.4771973775205 -181.09826083047847 0 -181.09826083047847 -176.0754532228575 0 0 0 0 -219.10467727007608 -202.23235101295387 0 -202.23235101295387 -196.24963371660851 0 0 0 0 -96.02533314190805 -166.1195245923077 0 -166.1195245923077 -310.40656727362511 0 0 0 0 -73.79388849597126 43.880239858828304 0 43.880239858828304 -454.78073001188204 0 0 0 0 -208.74923390954064 -260.54515066951944 0 -260.54515066951944 -389.33203665369001 0 0 0 0 -357.08601729526708 -151.89473849503793 0 -151.89473849503793 -256.20935803239627 0 0 0 0 -285.65269661313505 -188.06419903400092 0 -188.06419903400092 -239.83423707775091 0 0 0 0 -218.13539561582729 -125.56257296715739 0 -125.56257296715739 -307.82852837165228 0 0 0 0 -303.12567747832509 -82.13425427313723 0 -82.13425427313723 -328.7876577926545 0 0 0 0 -203.26213797469973 -140.16270649476064 0 -140.16270649476064 -414.3522824886586 0 0 0 0 -182.78604505454132 -160.97919676682432 0 -160.97919676682432 -321.20672245371316 0 0 0 0 -202.97146001538204 -160.71523858015553 0 -160.71523858015553 -312.0609547942222 0 0 0 0 -233.15219137149688 -113.40824988924214 0 -113.40824988924214 -255.61249109398887 0 0 0 0 -192.01072144152931 -148.77422089442916 0 -148.77422089442916 -233.49990092252119 0 0 0 0 -225.79301970344386 -117.39731913190326 0 -117.39731913190326 -172.57478452731903 0 0 0 0 -202.27326034408179 -153.87399293730778 0 -153.87399293730778 -132.99986961637114 0 0 0 0 -185.07126307928411 -104.56473674898371 0 -104.56473674898371 -166.9459458722863 0 0 0 0 -207.41057920218009 -126.1268434172498 0 -126.1268434172498 -172.74309454870399 0 0 0 0 -182.86305089451903 -126.90438091819151 0 -126.90438091819151 -277.98186291420825 0 0 0 0 -167.43664296322095 -147.32573859273043 0 -147.32573859273043 -256.82448997236861 0 0 0 0 -173.4052896951107 -108.9862544438588 0 -108.9862544438588 -191.26090915586474 0 0 0 0 -152.88934550436898 -134.3978695749812 0 -134.3978695749812 -174.82221461402787 0 0 0 0 -120.754081772262 -134.72147656694278 0 -134.72147656694278 -109.16260141894327 0 0 0 0 -145.91367406242352 -92.956189230014388 0 -92.956189230014388 -136.23025161340593 0 0 0 0 -160.50528220258275 -128.1819780910796 0 -128.1819780910796 3.4102501483312153 0 0 0 0 -177.195469835322 -147.998541662854 0 -147.998541662854 -2.6478868504691491 0 0 0 0 -148.1313169823261 -121.62903169386482 0 -121.62903169386482 -83.797395103340023 0 0 0 0 -177.99926379774843 -131.21780499342981 0 -131.21780499342981 -82.36840468124592 0 0 0 0 -162.79300596076064 -132.02627228095616 0 -132.02627228095616 -143.98385667974253 0 0 0 0 -178.42704665570636 -130.69315613976005 0 -130.69315613976005 -123.81886761064175 0 0 0 0 -198.05830712347961 -142.81537648449785 0 -142.81537648449785 -67.670024236451354 0 0 0 0 -165.55960749262886 -123.76359342721662 0 -123.76359342721662 -68.958949935923243 0 0 0 0 -151.79475793094025 -144.36757368578174 0 -144.36757368578174 -78.81323776352292 0 0 0 0 -173.92389070321406 -160.12058658032947 0 -160.12058658032947 -27.810400113667129 0 0 0 0 -195.44984492406002 -164.61287039248543 0 -164.61287039248543 -79.830317382853536 0 0 0 0 -151.73000797045825 -161.8959785494867 0 -161.8959785494867 -130.44583581823881 0 0 0 0 -138.58758897749794 -107.51004443251782 0 -107.51004443251782 22.187067679000847 0 0 0 0 -140.5688197149866 -133.89698461967782 0 -133.89698461967782 -25.85957589806614 0 0 0 0 -124.54742787833857 -136.02666924669325 0 -136.02666924669325 -15.129975253417797 0 0 0 0 -155.42776751699421 -157.7451363002649 0 -157.7451363002649 -25.693913588757823 0 0 0 0 -149.22516426174843 -99.419531631865539 0 -99.419531631865539 10.53100398367269 0 0 0 0 -159.04645948798861 -137.97551338671019 0 -137.97551338671019 -2.5400516511840578 0 0 0 0 -117.90728136095277 -49.933599267688123 0 -49.933599267688123 72.407985923577826 0 0 0 0 -131.21006001352362 -101.69688746087922 0 -101.69688746087922 8.9790107200240072 0 0 0 0 -87.426876509143767 -29.060036603543153 0 -29.060036603543153 23.437025429435835 0 0 0 0 -123.35152738382749 36.317829989395364 0 36.317829989395364 49.353614012830349 0 0 0 0 -157.25374750201809 -70.42393212231714 0 -70.42393212231714 115.9866508857358 0 0 0 0 -161.19338002384757 -110.85607681130853 0 -110.85607681130853 39.735241790529699 0 0 0 0 -140.20810009437264 -137.51326201437951 0 -137.51326201437951 6.5399270249088204 0 0 0 0 -144.19469171794481 -160.93409601454573 0 -160.93409601454573 145.9388543639916 0 0 0 0 -213.43602052627102 -108.583828241726 0 -108.583828241726 149.2799517918711 0 0 0 0 -121.87039384471427 104.66074822769701 0 104.66074822769701 224.07572280848402 0 0 0 0 -112.66202845989756 188.21360436343275 0 188.21360436343275 -10.773229531423112 0 0 0 0 -203.67395429528551 -87.076076112375176 0 -87.076076112375176 194.82486917442975 0 0 0 0 -4.8758003452735892 3.1047723678514174 0 3.1047723678514174 -0.75184125704828952 0 0 0 0 -44.47627574949729 79.265187872013826 0 79.265187872013826 -30.215959542238124 0 0 0 0 -272.84865093725966 -57.04582868765101 0 -57.04582868765101 -336.76478786318262 0 0 0 0 335.73119520873297 -439.66789003381678 0 -439.66789003381678 -388.56580262167284 0 0 0 0 -14.982555225360557 -14.727018111023881 0 -14.727018111023881 25.260782566002035 0 0 0 0 -37.001645814510994 42.761700867038826 0 42.761700867038826 45.440476329178182 0 0 0 0 -104.83996494342864 -69.658861422558729 0 -69.658861422558729 17.003706106143625 0 0 0 0 -90.493473979702685 -73.884825447211142 0 -73.884825447211142 5.8817405337160551 0 0 0 0 -26.63238345867849 -6.830353302701667 0 -6.830353302701667 -15.870914189065719 0 0 0 0 -71.096656311987317 -69.274046168894188 0 -69.274046168894188 6.9656677448052733 0 0 0 0 -93.77516868487146 -61.357583477896412 0 -61.357583477896412 19.925894512949526 0 0 0 0 -177.10329756515429 -59.996535820720879 0 -59.996535820720879 78.312019198470921 0 0 0 0 -1241.6675601811439 181.64993902226706 0 181.64993902226706 15.821934603551199 0 0 0 0 -1687.184394286036 379.13957715461584 0 379.13957715461584 275.97131229584193 0 0 0 0 -757.18997403194226 334.97327214538745 0 334.97327214538745 -6.4909105805381841 0 0 0 0 -71.876619115775156 8.3455136027977588 0 8.3455136027977588 136.64710265601056 0 0 0 0 134.98300691993063 -44.1020246585488 0 -44.1020246585488 159.81740863364962 0 0 0 0 -3.4846538009980321 -2.5859589719026133 0 -2.5859589719026133 6.6978720283422817 0 0 0 0 -1061.1880382365634 -3.5189626995088474 0 -3.5189626995088474 -38.40845780071686 0 0 0 0 12.446601860385272 -402.5613398458994 0 -402.5613398458994 -68.776761877591525 0 0 0 0 -11.570766692666496 -19.042069584642068 0 -19.042069584642068 8.7486614636916542 0 0 0 0 -133.80582611859427 -172.85724115845301 0 -172.85724115845301 -71.247449631438371 0 0 0 0 -128.43251553838491 -215.35872886654784 0 -215.35872886654784 105.67036166833896 0 0 0 0 -100.06714668984932 -126.38781341128879 0 -126.38781341128879 -31.238561344883124 0 0 0 0 -700.87475910781359 -639.0579475856166 0 -639.0579475856166 610.3172028782476 0 0 0 0 -208.31031444020482 -194.48825907794833 0 -194.48825907794833 525.09916669850918 0 0 0 0 -155.51085905323271 429.98403543491872 0 429.98403543491872 427.97281203614028 0 0 0 0 -280.4638132181135 -31.899959547631852 0 -31.899959547631852 751.23377807845691 0 0 0 0 -76.547037354396124 -39.340796758647329 0 -39.340796758647329 62.459232822501377 0 0 0 0 -625.48881319457723 -85.673776489738202 0 -85.673776489738202 -146.14132256662606 0 0 0 0 23.197197717867311 -189.91571026999736 0 -189.91571026999736 253.46494390498992 0 0 0 0 -16.921197301229768 -141.51020315195456 0 -141.51020315195456 212.67068420786927 0 0 0 0 -8.7765250843573241 -15.301640329448137 0 -15.301640329448137 -7.1189634799881532 0 0 0 0 -1671.3617822254255 120.67770128135999 0 120.67770128135999 -257.76299177600595 0 0 0 0 -1409.9361509335722 429.79679845022474 0 429.79679845022474 77.583125531557016 0 0 0 0 -199.97667496380382 -60.710774621808014 0 -60.710774621808014 -2.6030165405954904 0 0 0 0 -1528.7423922075286 622.25096853194555 0 622.25096853194555 246.7327162188376 0 0 0 0 -1738.4953375891346 194.20184225782214 0 194.20184225782214 -15.354388406078215 0 0 0 0 -191.70518479625025 13.424295346427243 0 13.424295346427243 -8.8734330189254251 0 0 0 0 -1888.7215376150652 -113.35677359660986 0 -113.35677359660986 138.80632196423539 0 0 0 0 -25.819969058150878 2.9769455631270887 0 2.9769455631270887 13.238438865684373 0 0 0 0 -216.85879501674935 41.637900371879368 0 41.637900371879368 73.0562034532486 0 0 0 0 -29.287025826734517 -2.1547104340095586 0 -2.1547104340095586 -5.4456426820905506 0 0 0 0 -200.83502380375558 59.460490381767158 0 59.460490381767158 88.567062804344459 0 0 0 0 -200.47478132680408 1.4738797287282068 0 1.4738797287282068 155.76369377127412 0 0 0 0 -139.60576469819352 -4.6756958588011912 0 -4.6756958588011912 28.883375018311199 0 0 0 0 -826.01615510536067 95.857584658151609 0 95.857584658151609 -247.34438112058706 0 0 0 0 -211.80085553084064 32.668123711300723 0 32.668123711300723 148.96242161424016 0 0 0 0 -196.37240255258075 48.509246131630789 0 48.509246131630789 91.80625049318769 0 0 0 0 -194.43762706256166 30.704454299458575 0 30.704454299458575 69.984968293647398 0 0 0 0 -179.12408501474783 91.329119228599666 0 91.329119228599666 29.542873565558693 0 0 0 0 -160.67590008557454 60.243539973387669 0 60.243539973387669 61.470987346179754 0 0 0 0 -103.08952690865408 161.16438916020343 0 161.16438916020343 65.270778611075002 0 0 0 0 -80.463387052019243 65.821763322121114 0 65.821763322121114 -27.065367062095902 0 0 0 0 -163.26409771773615 103.61242521824533 0 103.61242521824533 28.551991616892337 0 0 0 0 -244.67343249969417 60.749493660609005 0 60.749493660609005 102.24898682224011 0 0 0 0 -427.07461707819675 61.578693767807636 0 61.578693767807636 117.57618013869796 0 0 0 0 -278.37278203812457 217.40351509487664 0 217.40351509487664 110.31781668647454 0 0 0 0 -485.91334252758861 -96.207594678801797 0 -96.207594678801797 120.61719228408037 0 0 0 0 -238.57567090332304 -42.754234744221321 0 -42.754234744221321 91.988630131589161 0 0 0 0 -286.00149985812823 10.973711670056218 0 10.973711670056218 279.59317028117948 0 0 0 0 -283.23265758084017 32.77228375147206 0 32.77228375147206 181.3345564561896 0 0 0 0 -215.14949068804708 62.95225579520411 0 62.95225579520411 98.923121254676516 0 0 0 0 -200.54022410225116 -39.551284478916841 0 -39.551284478916841 216.5925783296625 0 0 0 0 -215.25965374783846 -64.561335623904597 0 -64.561335623904597 189.81749978868174 0 0 0 0 -157.19300224805193 -197.99025865512886 0 -197.99025865512886 361.71697253197999 0 0 0 0 -168.79046398156788 -137.95028998944963 0 -137.95028998944963 -64.543576098651101 0 0 0 0 -618.94801332236966 -832.72886535386351 0 -832.72886535386351 -642.99008543590026 0 0 0 0 4.0764711356952148 -10.970438373989921 0 -10.970438373989921 -10.133100947992794 0 0 0 0 -120.72023150246156 -58.827442803795435 0 -58.827442803795435 31.023157491925687 0 0 0 0 -636.01111049053725 104.30854421788536 0 104.30854421788536 -862.7555238782079 0 0 0 0 -162.34211172138316 -69.455427550929997 0 -69.455427550929997 74.653248381660248 0 0 0 0 -160.33840511779999 -177.77498740788815 0 -177.77498740788815 -83.62736960802431 0 0 0 0 -222.16993242407625 -112.80936717741088 0 -112.80936717741088 -35.97086095990926 0 0 0 0 -33.639028530014912 -70.394813116065961 0 -70.394813116065961 -28.123648347635026 0 0 0 0 -170.57393642802344 -70.337734352431653 0 -70.337734352431653 -1.3444078756547242 0 0 0 0 -151.06979394859081 -34.700958402728247 0 -34.700958402728247 -42.52522898081952 0 0 0 0 -278.8524760017317 -7.9618192275434012 0 -7.9618192275434012 29.145509443194896 0 0 0 0 -401.67560157406842 -76.928826597156501 0 -76.928826597156501 4.236137883634882 0 0 0 0 -52.299556756330801 -37.162792561664872 0 -37.162792561664872 46.573407945283641 0 0 0 0 -389.33823884451704 -51.75801802722151 0 -51.75801802722151 -9.0036714856805702 0 0 0 0 -47.889446377831462 -9.2637627332056383 0 -9.2637627332056383 -23.566422351384364 0 0 0 0 -222.59883990041271 -93.352171952767094 0 -93.352171952767094 1.0438809589250013 0 0 0 0 -126.42933296294099 -125.56073162313568 0 -125.56073162313568 -46.994018674843886 0 0 0 0 -129.98997102219562 -38.823292033167604 0 -38.823292033167604 49.532408819517379 0 0 0 0 -130.36600207304974 -7.496298532668952 0 -7.496298532668952 50.448511595110517 0 0 0 0 -195.25816085646511 -101.80385951788594 0 -101.80385951788594 -96.417993119785933 0 0 0 0 -175.7281617225126 24.699469034639151 0 24.699469034639151 142.49813798702962 0 0 0 0 -168.13230384580078 -48.194736651908947 0 -48.194736651908947 81.539573992109837 0 0 0 0 -206.98092277342948 33.660611441067886 0 33.660611441067886 173.25014683990594 0 0 0 0 -2472.8196983616508 400.1767792430602 0 400.1767792430602 313.10360086437743 0 0 0 0 -39.099216731677103 33.565188913773774 0 33.565188913773774 -23.67380932874185 0 0 0 0 -1860.7178727344508 374.85370659002211 0 374.85370659002211 275.50440791090523 0 0 0 0 -2638.0361783817061 -362.81774882702507 0 -362.81774882702507 381.17325324315323 0 0 0 0 -2043.9720232703039 -333.58212469191801 0 -333.58212469191801 364.63331207617915 0 0 0 0 -18.30801940425971 12.19226851894873 0 12.19226851894873 -11.181001905528642 0 0 0 0 -5496.2778165007403 -1937.7615399605118 0 -1937.7615399605118 -47.513331098436602 0 0 0 0 270.8768194420918 589.74791782648867 0 589.74791782648867 69.2218783750277 0 0 0 0 -421.8062583123392 431.99374967665278 0 431.99374967665278 51.29301462042379 0 0 0 0 -123.59763242170447 303.47704741945017 0 303.47704741945017 -44.082131036889223 0 0 0 0 -217.94734931869243 151.29604481839419 0 151.29604481839419 257.28808366590602 0 0 0 0 -94.150812147905526 243.31413611738662 0 243.31413611738662 301.40754187993161 0 0 0 0 -153.4398013298196 147.68138716621775 0 147.68138716621775 294.87768449747819 0 0 0 0 -6.992872112634231 -0.14689530805519446 0 -0.14689530805519446 -11.477527984518849 0 0 0 0 -50.380575157834016 37.797953313113283 0 37.797953313113283 -31.571116447621005 0 0 0 0 -20.674853599302878 248.40207629205088 0 248.40207629205088 328.98981902597961 0 0 0 0 128.93335597221085 60.433146634318064 0 60.433146634318064 -64.98856321076687 0 0 0 0 -71.729626165105216 1.8959912543257067 0 1.8959912543257067 0.69970531545222592 0 0 0 0 -155.191015242086 114.19536905924701 0 114.19536905924701 540.68563997557885 0 0 0 0 -499.43137075541745 -394.27554927452093 0 -394.27554927452093 410.45941000461562 0 0 0 0 115.50927415656042 511.12222732546888 0 511.12222732546888 -197.51645873364669 0 0 0 0 -5.8479391713884468 -2.9449664743948745 0 -2.9449664743948745 -6.6043890600423012 0 0 0 0 -27.111485105113388 -146.01496623981984 0 -146.01496623981984 -197.73251254882416 0 0 0 0 20.656319765643275 24.294043290983609 0 24.294043290983609 -112.26022311489396 0 0 0 0 -35.189633479036274 257.92937824929686 0 257.92937824929686 136.63382565026586 0 0 0 0 -96.086734564578364 -57.029546801029028 0 -57.029546801029028 -27.93059234796965 0 0 0 0 -10.716995821738394 -6.5469565725156409 0 -6.5469565725156409 -9.8065596340679715 0 0 0 0 -943.88857332655607 230.16750636942862 0 230.16750636942862 -264.57119861037194 0 0 0 0 -37.424268265982548 21.475023312191823 0 21.475023312191823 -15.458835549252671 0 0 0 0 -25.377146906876078 47.272803404799106 0 47.272803404799106 -45.515700762824054 0 0 0 0 -1574.3516364569732 -25.080082828143986 0 -25.080082828143986 294.00791121237785 0 0 0 0 197.61472607025007 374.35110176563313 0 374.35110176563313 -602.7367165734006 0 0 0 0 -959.40029785429215 -228.11344736417061 0 -228.11344736417061 -274.33507839911152 0 0 0 0 -5491.9788294700629 903.28586503551298 0 903.28586503551298 805.96372228887219 0 0 0 0 -2891.1829520507818 2192.1780914038304 0 2192.1780914038304 -810.03629970705867 0 0 0 0 -9.1503621465854508 2.2471562648493322 0 2.2471562648493322 -11.529910472546417 0 0 0 0 -5447.0244200864399 12.914940686361275 0 12.914940686361275 -28.494727747188186 0 0 0 0 -8.5564021900330687 1.1314173620909003 0 1.1314173620909003 -11.708619459236882 0 0 0 0 617.78496774831729 981.34988873904558 0 981.34988873904558 -2257.5810554432278 0 0 0 0 -1023.0031264718455 -2385.7904119269238 0 -2385.7904119269238 -1614.520619527716 0 0 0 0 -2906.7497844781246 1018.1097198071649 0 1018.1097198071649 747.08124348870331 0 0 0 0 -5478.2655542981393 -630.97067886148363 0 -630.97067886148363 1132.7959948272044 0 0 0 0 480.02690031374004 -182.05638746464422 0 -182.05638746464422 -593.84756088499512 0 0 0 0 -29.283100918183823 -3.6661211167003596 0 -3.6661211167003596 1.1940546507223839 0 0 0 0 -192.58603679547855 535.17132654393492 0 535.17132654393492 -59.127609954395467 0 0 0 0 -5488.6817167823592 -1291.4179849212239 0 -1291.4179849212239 740.20421663064849 0 0 0 0 -17.21380304638938 -3.8356410904051557 0 -3.8356410904051557 0.14193328593691318 0 0 0 0 -1704.6349594700605 -2348.9598562224592 0 -2348.9598562224592 -584.19515713900068 0 0 0 0 -2595.9772608084295 -370.38217578388668 0 -370.38217578388668 665.53808866224608 0 0 0 0 -2595.2069961886891 -34.966686609756664 0 -34.966686609756664 -366.8886379368426 0 0 0 0 -1117.9777474688735 -319.40202889673429 0 -319.40202889673429 -511.68979710071221 0 0 0 0 -1406.99252764024 500.63697112733365 0 500.63697112733365 -366.11765850774628 0 0 0 0 -3115.6733705197626 585.1914348723883 0 585.1914348723883 -27.970524120979803 0 0 0 0 -2273.5582877534707 329.1944893986481 0 329.1944893986481 -385.94633816596445 0 0 0 0 -1651.7309917135076 699.69179516019983 0 699.69179516019983 -387.85706414042903 0 0 0 0 -2060.6064165830385 427.47041526249814 0 427.47041526249814 -404.00668060256692 0 0 0 0 -2437.7586282111952 950.46690956259954 0 950.46690956259954 -323.11460101923797 0 0 0 0 -5501.9448353665257 303.85435842132949 0 303.85435842132949 620.71218769550649 0 0 0 0 -3164.1115131980878 1321.6445749994989 0 1321.6445749994989 -242.42988975537969 0 0 0 0 -52.818209531436878 126.29468607484159 0 126.29468607484159 187.19826924418157 0 0 0 0 -85.979636833722907 37.01745897018327 0 37.01745897018327 75.45480026644691 0 0 0 0 -103.57610335107893 -51.815905977645798 0 -51.815905977645798 355.30301568930099 0 0 0 0 0.23028868923211121 207.92732418917535 0 207.92732418917535 67.613535620419952 0 0 0 0 -7.97544578138994 5.2604191892864298 0 5.2604191892864298 5.3466002118188261 0 0 0 0 72.504173590605205 98.738850416842524 0 98.738850416842524 34.117376734682693 0 0 0 0 -57.211948007952742 -41.727935381982206 0 -41.727935381982206 8.6312339670148504 0 0 0 0 -51.275667057659817 5.3965173021088049 0 5.3965173021088049 -0.78952303812340574 0 0 0 0 -5.7168114026336525 -2.5245259690658912 0 -2.5245259690658912 1.7002273066603255 0 0 0 0 -283.0438654605241 -69.467068339280559 0 -69.467068339280559 141.89116422005281 0 0 0 0 -16.573292054227508 -5.2134826189619883 0 -5.2134826189619883 1.104934725234628 0 0 0 0 -133.09907291279796 116.5458348886677 0 116.5458348886677 -448.11023323607168 0 0 0 0 -63.292599299499159 62.99432401626828 0 62.99432401626828 66.947698028936429 0 0 0 0 -102.37222511824712 13.174363735368843 0 13.174363735368843 -25.716597289534548 0 0 0 0 -80.673249402057991 11.336646883632511 0 11.336646883632511 -186.98803531830981 0 0 0 0 -1403.9127687030832 960.54260503973671 0 960.54260503973671 -538.90775690470025 0 0 0 0 -1624.5189409989682 543.52725156577651 0 543.52725156577651 15.051648821077606 0 0 0 0 -98.691479412416811 191.248289611362 0 191.248289611362 -15.947344108869856 0 0 0 0 -62.496540996476142 56.40145372915822 0 56.40145372915822 -167.08430838563254 0 0 0 0 -1.0905399166496679 -1.2922770943651827 0 -1.2922770943651827 -6.0845229394835112 0 0 0 0 -1448.0462161959667 676.19172295145813 0 676.19172295145813 -1003.3484040837168 0 0 0 0 -246.08422046441046 750.64775765596119 0 750.64775765596119 -1008.8800340190761 0 0 0 0 -169.31909626896959 639.37682542658013 0 639.37682542658013 -981.40679292399398 0 0 0 0 25.789464217114073 81.526449120777784 0 81.526449120777784 -566.29816256391268 0 0 0 0 -140.18991892143822 289.62442609498976 0 289.62442609498976 -96.678172681016349 0 0 0 0 -92.660776293463186 40.581753338610412 0 40.581753338610412 -144.88190193467472 0 0 0 0 -92.330643652136587 340.25120566066784 0 340.25120566066784 -306.80186422082375 0 0 0 0 -269.83623241958776 283.6733807906005 0 283.6733807906005 -192.12102250504586 0 0 0 0 -915.75943370595269 1041.4690057368882 0 1041.4690057368882 -162.44217898060526 0 0 0 0 -524.4285945542606 931.58300818178486 0 931.58300818178486 -6.1642701259708019 0 0 0 0 -811.18041900546814 631.86657430267292 0 631.86657430267292 -247.96207296623834 0 0 0 0 -519.09854534265469 974.39314951982828 0 974.39314951982828 -644.19058179033323 0 0 0 0 -1410.7749479680642 841.34610845348607 0 841.34610845348607 -8.6773720316159597 0 0 0 0 -1062.4733188171613 9.921239986996909 0 9.921239986996909 1606.8966969770381 0 0 0 0 -1110.3284971436519 626.01898897939623 0 626.01898897939623 -156.91010841695663 0 0 0 0 428.43529509652217 533.61385546906229 0 533.61385546906229 -241.57736652927568 0 0 0 0 -65.797440530394127 33.76969123907832 0 33.76969123907832 -14.959589737748512 0 0 0 0 -169.64929613222193 -268.54142668570915 0 -268.54142668570915 572.29495109327638 0 0 0 0 -79.625808925978163 -247.49321883076786 0 -247.49321883076786 117.43569391725771 0 0 0 0 562.94498024003769 -375.64436302812612 0 -375.64436302812612 -236.76896842238642 0 0 0 0 -12.068396032364156 -0.18171215069695767 0 -0.18171215069695767 0.088300545334202396 0 0 0 0 322.81458527564246 510.66786522462826 0 510.66786522462826 -983.64047147634847 0 0 0 0 -479.50372488753419 -215.57884517748562 0 -215.57884517748562 444.99299390912711 0 0 0 0 -83.546604645570142 38.044734713094137 0 38.044734713094137 -15.513277337300369 0 0 0 0 -2061.5864298329652 1185.6368450709367 0 1185.6368450709367 -149.3485639500027 0 0 0 0 -1244.2282356731157 619.12463134367499 0 619.12463134367499 874.49796143796493 0 0 0 0 -149.08448101547401 249.73253300282158 0 249.73253300282158 182.8492233478961 0 0 0 0 -18.300882458301203 -41.91708722147996 0 -41.91708722147996 -91.292806402139831 0 0 0 0 -357.61185572680006 -37.623199291017272 0 -37.623199291017272 253.75237316400489 0 0 0 0 -40.719031768079731 31.115896977441963 0 31.115896977441963 -23.49361578272925 0 0 0 0 -79.417177506038058 38.46904586823927 0 38.46904586823927 -15.040613505610711 0 0 0 0 -45.519907263706955 121.37077985703738 0 121.37077985703738 20.426915590953826 0 0 0 0 -682.25882762681431 -207.61111742313392 0 -207.61111742313392 55.368499515414641 0 0 0 0 -1525.5777892289784 261.75896708037465 0 261.75896708037465 107.19530487798949 0 0 0 0 67.681492866337976 0.17398837252088128 0 0.17398837252088128 -165.28838519604221 0 0 0 0 -298.07052741582083 -58.655677706295592 0 -58.655677706295592 -85.324094539522036 0 0 0 0 -399.01539278484233 167.48755101694337 0 167.48755101694337 -149.5266977685344 0 0 0 0 -625.03966973094157 116.87776522729808 0 116.87776522729808 123.07075428243161 0 0 0 0 -227.87430470883237 11.520851207221121 0 11.520851207221121 -102.74128129437531 0 0 0 0 -50.315800159081164 -100.20553852402736 0 -100.20553852402736 17.184795664775265 0 0 0 0 -196.37664918410519 47.848300000562631 0 47.848300000562631 -62.064225878533136 0 0 0 0 -188.49576447502318 -91.668485828329835 0 -91.668485828329835 -51.033331700215513 0 0 0 0 -66.384565300235408 -5.4743423101294866 0 -5.4743423101294866 -99.476086735829767 0 0 0 0 -42.042241140952683 -3.6714167426002859 0 -3.6714167426002859 -33.315921810675718 0 0 0 0 -111.09593551034982 15.398690787835889 0 15.398690787835889 24.893857790067159 0 0 0 0 -62.58626428805178 31.638723623421669 0 31.638723623421669 -17.696550447250729 0 0 0 0 -115.52213454009689 -19.554220771324708 0 -19.554220771324708 18.388739856837219 0 0 0 0 -56.708329482604313 17.301151599921695 0 17.301151599921695 37.744620528153064 0 0 0 0 -49.580146245784363 -17.219310175684768 0 -17.219310175684768 40.274878620170512 0 0 0 0 -138.30610083913416 4.4386987572561338 0 4.4386987572561338 35.998181484960242 0 0 0 0 -26.704667349773857 -1.1566761187247163 0 -1.1566761187247163 25.121467545507549 0 0 0 0 -17.350140389158824 1.8378079808930323 0 1.8378079808930323 9.8052600762508142 0 0 0 0 -218.8090689003111 -12.491967315836064 0 -12.491967315836064 33.941892423533602 0 0 0 0 -122.47808967275341 95.067894608916504 0 95.067894608916504 87.053373710810774 0 0 0 0 -52.719170503292844 43.802736749443284 0 43.802736749443284 22.83824188969902 0 0 0 0 -168.88319818270611 23.161397714126451 0 23.161397714126451 251.97919554476084 0 0 0 0 -185.8538823774943 -30.638778584934698 0 -30.638778584934698 85.392525938354083 0 0 0 0 -171.85783047235236 -30.662982205023127 0 -30.662982205023127 26.952725873803502 0 0 0 0 -66.655719416079592 -10.715703187082113 0 -10.715703187082113 31.30351160607097 0 0 0 0 -18.293882204823042 13.292675294041356 0 13.292675294041356 23.081059356368108 0 0 0 0 -38.119968720695397 -36.239224019105677 0 -36.239224019105677 -3.9345855393221427 0 0 0 0 -51.53181738074818 19.460245147463866 0 19.460245147463866 8.8475794191217574 0 0 0 0 -32.35144848789605 15.61378554658495 0 15.61378554658495 -3.7819793673488675 0 0 0 0 -10.828110069092002 -0.4551993505007168 0 -0.4551993505007168 0.31501700332983518 0 0 0 0 -88.932572612540071 -2.6820423626185175 0 -2.6820423626185175 28.73088729524261 0 0 0 0 -41.718551892922278 -11.612989971190185 0 -11.612989971190185 25.452486952673098 0 0 0 0 -33.521936081806459 -13.135544875898564 0 -13.135544875898564 18.536262052547499 0 0 0 0 -40.188919899133907 34.965328413755003 0 34.965328413755003 -12.094039265345558 0 0 0 0 -53.061830672911881 9.0657608174324942 0 9.0657608174324942 19.853306130429573 0 0 0 0 -71.23238699441572 -6.8606540652617696 0 -6.8606540652617696 40.348619440623679 0 0 0 0 -51.41677872380842 -27.459680109920555 0 -27.459680109920555 49.241557855815699 0 0 0 0 -31.546795264711776 20.784979463405481 0 20.784979463405481 8.5343083466592127 0 0 0 0 -57.917650749695895 15.916374201172403 0 15.916374201172403 -5.6011830166667096 0 0 0 0 -44.783931718805761 14.441981596436719 0 14.441981596436719 7.6001017705579805 0 0 0 0 -61.688989557674375 14.437077270794605 0 14.437077270794605 9.0607850573991993 0 0 0 0 -65.321897389836522 13.417820005939802 0 13.417820005939802 18.813968465394737 0 0 0 0 -23.523755546849628 2.3864317601003364 0 2.3864317601003364 16.969493374838176 0 0 0 0 -72.247817472754832 13.035531018684651 0 13.035531018684651 31.173319012073989 0 0 0 0 -41.305852389696753 15.872820658865528 0 15.872820658865528 -1.000486445292843 0 0 0 0 -431.48747235379415 515.39558918481089 0 515.39558918481089 1702.7232582971201 0 0 0 0 -60.636949753403456 17.240450309698737 0 17.240450309698737 2.2156146509998678 0 0 0 0 -70.795822491231775 45.713786652647514 0 45.713786652647514 21.288829998549772 0 0 0 0 -1047.5101957680163 376.02646330273456 0 376.02646330273456 1671.6288581243425 0 0 0 0 368.40357858370407 533.41751360743547 0 533.41751360743547 227.42329718487417 0 0 0 0 -294.42390902149782 109.2724234319121 0 109.2724234319121 179.10370694617995 0 0 0 0 -1565.5031059530072 847.30057829990903 0 847.30057829990903 -222.97384182782662 0 0 0 0 167.362080682542 316.00740133207955 0 316.00740133207955 -1653.6358728449632 0 0 0 0 -167.52449894206075 35.824157288409879 0 35.824157288409879 -538.33971556331107 0 0 0 0 -64.678291383788746 606.15402116703262 0 606.15402116703262 392.3510835768102 0 0 0 0 533.4249150675314 553.05546286440222 0 553.05546286440222 -702.84200079746915 0 0 0 0 43.394772355721216 1084.8271443218496 0 1084.8271443218496 1188.140622876861 0 0 0 0 1250.3699553999395 1090.0213976920859 0 1090.0213976920859 241.45581689669416 0 0 0 0 -289.29977537765808 1018.4107421262415 0 1018.4107421262415 224.38778082868885 0 0 0 0 261.37002629803465 452.68517938156492 0 452.68517938156492 734.75461856521906 0 0 0 0 -570.45388941968849 -410.26509093884306 0 -410.26509093884306 -293.39768897124304 0 0 0 0 -76.058995933684855 189.22651708201965 0 189.22651708201965 -832.49792885982424 0 0 0 0 -16.441979927901599 10.515054859630631 0 10.515054859630631 -3.3914300347162971 0 0 0 0 -8.4563178143634516 -2.2783673023238293 0 -2.2783673023238293 5.1007264669180614 0 0 0 0 -322.07218992497656 1317.3590330880779 0 1317.3590330880779 -398.53024881256488 0 0 0 0 -1409.3902707802044 780.93439098597264 0 780.93439098597264 68.783047611775146 0 0 0 0 85.437070355208562 310.5668580382976 0 310.5668580382976 -1529.3886369654501 0 0 0 0 -1654.990436903252 -41.026548180399914 0 -41.026548180399914 192.88521187804571 0 0 0 0 -613.53776716278662 -850.78960187406847 0 -850.78960187406847 -650.28814478609911 0 0 0 0 -1193.3250180934592 1008.286991040081 0 1008.286991040081 -263.63155820601241 0 0 0 0 -177.61134070341359 1021.6059631033131 0 1021.6059631033131 -433.16460295349179 0 0 0 0 -55.324465295445492 -0.35295227095019044 0 -0.35295227095019044 4.3663591031652453 0 0 0 0 938.61914806236018 706.2544175476678 0 706.2544175476678 -459.96631958009311 0 0 0 0 -181.49052339422633 985.22823615803509 0 985.22823615803509 -502.78485346646494 0 0 0 0 -313.09318425038327 -85.802649918212978 0 -85.802649918212978 1166.4714900690378 0 0 0 0 -20.347528422484174 364.24869896529208 0 364.24869896529208 258.06235759359765 0 0 0 0 -29.598548399451829 162.21644508900704 0 162.21644508900704 198.21237683576237 0 0 0 0 -387.82632876175921 482.53098054591624 0 482.53098054591624 -285.97784818333389 0 0 0 0 -142.90003300351964 75.04919983154673 0 75.04919983154673 157.36782757854144 0 0 0 0 -446.41103637345805 -199.14633622681356 0 -199.14633622681356 -113.17137331604044 0 0 0 0 -587.42867748205026 -118.45911840798908 0 -118.45911840798908 144.07060574184328 0 0 0 0 -1541.6729972080138 -763.97255088154839 0 -763.97255088154839 76.031117070467189 0 0 0 0 -1833.2145568847336 -809.11039198233129 0 -809.11039198233129 493.54909374426188 0 0 0 0 -1573.3371115948175 -749.54332108413041 0 -749.54332108413041 231.19375329821105 0 0 0 0 -3780.0067972535908 -893.71722214389047 0 -893.71722214389047 597.47236487582995 0 0 0 0 -2804.9140740721591 465.66645446744923 0 465.66645446744923 -1542.0415168496925 0 0 0 0 395.77332232413755 -613.3717070556454 0 -613.3717070556454 -51.542738192658135 0 0 0 0 -21.460932307095533 0.59776939511232108 0 0.59776939511232108 0.91472498638808197 0 0 0 0 -1131.8051455310415 -1331.9881601456145 0 -1331.9881601456145 346.34070957424638 0 0 0 0 -5.5497192597415506 -5.1224023341483225 0 -5.1224023341483225 -2.0500860645479371 0 0 0 0 273.63323033249617 -801.10074468366929 0 -801.10074468366929 -447.28597920361881 0 0 0 0 813.97256994235431 627.856800605025 0 627.856800605025 2144.2462762124633 0 0 0 0 377.82656065658011 -228.71574422605136 0 -228.71574422605136 568.73926962249243 0 0 0 0 -2756.4674247255066 -1057.9799272045966 0 -1057.9799272045966 -1190.8905332689055 0 0 0 0 -2512.7676043092652 543.82045009846297 0 543.82045009846297 -149.95971757674852 0 0 0 0 1675.5442674263395 -939.76360232670413 0 -939.76360232670413 -2520.899324602975 0 0 0 0 -4.4417146676582391 -10.432483621823209 0 -10.432483621823209 -17.420126256443204 0 0 0 0 -2189.7044971791765 -390.88533679065222 0 -390.88533679065222 182.18093112536098 0 0 0 0 -1144.0070788338853 66.980459692980276 0 66.980459692980276 -67.864347164653282 0 0 0 0 525.53273448661639 -538.91594753871777 0 -538.91594753871777 486.41116590230558 0 0 0 0 -8.4960879487481833 -23.928820250108359 0 -23.928820250108359 -36.804074004597183 0 0 0 0 -0.05690829933155328 -291.95917058250961 0 -291.95917058250961 688.68342665445289 0 0 0 0 -570.76745971413038 -625.72545088625975 0 -625.72545088625975 1126.9273082651653 0 0 0 0 -1.0808574191760272 -271.31253986081538 0 -271.31253986081538 489.07214453307643 0 0 0 0 -15.408809430027674 -7.5542622170818809 0 -7.5542622170818809 -1.4595934295977813 0 0 0 0 -166.46696824900573 -172.04856041045696 0 -172.04856041045696 352.71359086949724 0 0 0 0 249.48435529059861 -894.63976351685437 0 -894.63976351685437 -705.26241126827881 0 0 0 0 85.471720840934722 -889.71776774805312 0 -889.71776774805312 -704.07585772229868 0 0 0 0 -472.42714600086038 -690.95200751384118 0 -690.95200751384118 -527.31995141992775 0 0 0 0 -988.0872454541186 -480.34224051183355 0 -480.34224051183355 -601.2685093408727 0 0 0 0 -327.72833228829404 -594.59258909454911 0 -594.59258909454911 -1126.4784922055987 0 0 0 0 -409.47506947015609 -1336.6460027537103 0 -1336.6460027537103 -1078.6252460275537 0 0 0 0 391.08050387433468 -1298.0763399388352 0 -1298.0763399388352 -1080.2105388647196 0 0 0 0 -204.37338903600175 -1380.1075904564423 0 -1380.1075904564423 -940.12654220161312 0 0 0 0 -306.81254764585174 -1038.1873189076487 0 -1038.1873189076487 72.427023883095899 0 0 0 0 1459.0578253990607 -1064.036749044536 0 -1064.036749044536 -1278.5584332017206 0 0 0 0 5.40693184083284 -1778.0651057117789 0 -1778.0651057117789 -1550.0570535716106 0 0 0 0 -3976.3571130004857 -1580.7885041267682 0 -1580.7885041267682 -799.80619645870138 0 0 0 0 -1537.956287665379 -1094.6558133467406 0 -1094.6558133467406 -2072.567372909265 0 0 0 0 -1722.8512452593204 -89.571014066835232 0 -89.571014066835232 221.92642648631045 0 0 0 0 -1537.9825776442449 -1970.3846939119676 0 -1970.3846939119676 -585.17712333980307 0 0 0 0 -253.16623809072189 -278.50431258829121 0 -278.50431258829121 238.6455001873328 0 0 0 0 27.44595088128699 181.52822535530436 0 181.52822535530436 214.22483730418617 0 0 0 0 -89.84115697767993 390.52193088396234 0 390.52193088396234 1205.7048005888628 0 0 0 0 155.60858476742578 -556.14414754133395 0 -556.14414754133395 2112.399833928981 0 0 0 0 -401.10044505701717 -1115.5856753042381 0 -1115.5856753042381 173.71908184441963 0 0 0 0 -18.778259716343129 9.5805282507430292 0 9.5805282507430292 2.7539664841653106 0 0 0 0 -225.69374813844479 -86.323639264373924 0 -86.323639264373924 742.54607565565152 0 0 0 0 86.298642914873199 -362.42320031278996 0 -362.42320031278996 -636.23744471826649 0 0 0 0 -134.95156907019555 -761.59587805573574 0 -761.59587805573574 -98.815880852460396 0 0 0 0 40.362245305674151 39.603003918352158 0 39.603003918352158 -195.85625356608693 0 0 0 0 -62.913683647718898 24.023071732548086 0 24.023071732548086 -5.0334922232489125 0 0 0 0 -195.55352963782207 188.45147725583834 0 188.45147725583834 -14.534249787408015 0 0 0 0 -86.002713318637689 156.08870879542218 0 156.08870879542218 51.345186129081071 0 0 0 0 -119.15382363413664 78.725771643539304 0 78.725771643539304 32.952161883185397 0 0 0 0 -89.500361289399734 36.305748442904985 0 36.305748442904985 -64.267566002547596 0 0 0 0 15.056803017163475 149.50908551745465 0 149.50908551745465 -69.465245216987825 0 0 0 0 -89.26310997332655 31.734946334894424 0 31.734946334894424 -6.5619144160488645 0 0 0 0 -245.40930869049544 36.471591734622507 0 36.471591734622507 372.13995257834904 0 0 0 0 -578.38477958047406 -328.61781466237335 0 -328.61781466237335 191.67985606973343 0 0 0 0 106.96553424697777 146.5696315965597 0 146.5696315965597 106.76675619479647 0 0 0 0 -86.205827228557439 33.793520678222464 0 33.793520678222464 -12.612838037974633 0 0 0 0 -122.7919720694772 345.81234671409061 0 345.81234671409061 338.92938194169233 0 0 0 0 2.0482198321840315 -12.651179787997645 0 -12.651179787997645 139.87384082769512 0 0 0 0 6.089579552518444 405.64571136963923 0 405.64571136963923 200.67501791773793 0 0 0 0 66.629299465088252 429.99036129769127 0 429.99036129769127 3.7583540918312792 0 0 0 0 184.17534130038257 270.48762949370575 0 270.48762949370575 -201.1740310651503 0 0 0 0 -145.2768070541224 556.06934348472942 0 556.06934348472942 -66.292828984522203 0 0 0 0 234.15504657999918 119.32794614286286 0 119.32794614286286 1.5533843305856863 0 0 0 0 191.3312719093592 241.20741629789427 0 241.20741629789427 -324.18199128630658 0 0 0 0 -138.9719895857852 674.91495731780378 0 674.91495731780378 -499.46658603677133 0 0 0 0 298.95956159911862 416.64305070957994 0 416.64305070957994 -468.68328002439375 0 0 0 0 -1243.8682641242849 -573.52833577817 0 -573.52833577817 -1757.1131282068818 0 0 0 0 -49.31971234210323 15.128572400523808 0 15.128572400523808 -32.366908263971709 0 0 0 0 -0.28743416331161953 -0.0038472190056708655 0 -0.0038472190056708655 -0.9309247772787046 0 0 0 0 -35.558681536826043 -30.962717635387889 0 -30.962717635387889 -80.258852546850903 0 0 0 0 -1001.8815210710072 619.0388637437236 0 619.0388637437236 22.126410072800354 0 0 0 0 -213.0091111327165 236.39613670867766 0 236.39613670867766 109.28045165688576 0 0 0 0 -76.485042646770125 49.258820018949791 0 49.258820018949791 39.062638398781928 0 0 0 0 -75.227272581955731 26.084511479255468 0 26.084511479255468 -7.9966759911789431 0 0 0 0 -471.26021820437018 869.30423904390386 0 869.30423904390386 826.75512313801323 0 0 0 0 96.367496845483402 78.860083052382834 0 78.860083052382834 92.657146662559626 0 0 0 0 50.243248535454768 -10.433089355792617 0 -10.433089355792617 -85.058170608163209 0 0 0 0 59.67206136090681 39.053975350740302 0 39.053975350740302 49.519614828874182 0 0 0 0 163.31755236925164 23.146823047924045 0 23.146823047924045 -125.72260649315268 0 0 0 0 464.99695390311172 289.63446536854104 0 289.63446536854104 -320.48372726639712 0 0 0 0 -368.98315480571182 -301.394461194001 0 -301.394461194001 331.61325561871661 0 0 0 0 -319.47525857316577 29.335551777714954 0 29.335551777714954 -1677.9358389727677 0 0 0 0 -44.737426079745092 13.503239841368213 0 13.503239841368213 -5.1866126746484227 0 0 0 0 85.944164605185506 -177.14016199199742 0 -177.14016199199742 -449.96951520389484 0 0 0 0 -542.50909154165129 94.340210956931514 0 94.340210956931514 -36.499323255332001 0 0 0 0 74.26043114978529 -426.49481485951765 0 -426.49481485951765 -889.96609281217025 0 0 0 0 -142.24341634867596 -847.09510294453776 0 -847.09510294453776 -784.22597584040159 0 0 0 0 -875.66097596600594 -1442.2488120222856 0 -1442.2488120222856 -1955.7310932755172 0 0 0 0 63.670020326178928 -1645.1657504708255 0 -1645.1657504708255 -4.7356049619756959 0 0 0 0 -1310.2064798457141 -1999.7493593734598 0 -1999.7493593734598 -92.320463788524194 0 0 0 0 -23.97870366446088 -12.746255066406118 0 -12.746255066406118 -7.5656087344263625 0 0 0 0 -2537.3076822155563 -1080.6027129999643 0 -1080.6027129999643 -1309.602015293593 0 0 0 0 -2772.7036511801416 -1585.990852046607 0 -1585.990852046607 -198.14996425722302 0 0 0 0 -2151.2514563345621 -1949.5797348637213 0 -1949.5797348637213 -763.33319182361447 0 0 0 0 -2937.6245575993744 -1285.3421348490037 0 -1285.3421348490037 -428.4370939667142 0 0 0 0 -20.069135062562339 1.0865706761491047 0 1.0865706761491047 -0.077881853966570436 0 0 0 0 150.15999988386102 -187.19444493856196 0 -187.19444493856196 -1294.5651844845993 0 0 0 0 93.051031412607699 1011.3212937106159 0 1011.3212937106159 -722.74077230089028 0 0 0 0 -2575.3504534520434 -1096.896801648234 0 -1096.896801648234 -347.8084721784972 0 0 0 0 -2715.269585580163 -1788.5355689313947 0 -1788.5355689313947 -565.43065930251635 0 0 0 0 -2439.7564342771384 -1023.3286666602877 0 -1023.3286666602877 -1286.5422030224292 0 0 0 0 -3218.7798513264861 -1595.973000793548 0 -1595.973000793548 -230.15997605353471 0 0 0 0 -2992.2292885858551 -1771.2901314849546 0 -1771.2901314849546 -126.3008175533223 0 0 0 0 -2495.2627320968968 -2046.1839677069045 0 -2046.1839677069045 -328.27550765504566 0 0 0 0 -34.991487508069845 7.767646297369792 0 7.767646297369792 -2.9385344215644489 0 0 0 0 -1466.900294184843 9.1126142478708516 0 9.1126142478708516 -808.21489817309953 0 0 0 0 -719.82881045022907 -896.03250146650305 0 -896.03250146650305 -1620.6655547694077 0 0 0 0 -1422.1726727838486 -1198.8801438922903 0 -1198.8801438922903 -606.75614632139309 0 0 0 0 -3464.3754411253649 -402.50013610012684 0 -402.50013610012684 -843.44904804748012 0 0 0 0 -2544.0492068629655 -1078.1235695393125 0 -1078.1235695393125 -38.996040373916458 0 0 0 0 -387.95841394713625 -500.16425015103187 0 -500.16425015103187 -697.60326460768738 0 0 0 0 190.63805109358509 293.00163162025274 0 293.00163162025274 4.8922342869554996 0 0 0 0 -435.42321915617686 235.55113565503325 0 235.55113565503325 1128.5279996705622 0 0 0 0 -886.35588418899715 -1432.0881640019402 0 -1432.0881640019402 -125.58211283267883 0 0 0 0 -10.528946870743901 -6.5636480412655391 0 -6.5636480412655391 -3.3343538828466386 0 0 0 0 -1901.8350205165077 610.66536509360412 0 610.66536509360412 -962.29412001413402 0 0 0 0 39.54683864859544 226.58071597971684 0 226.58071597971684 -890.69594121291721 0 0 0 0 -1103.0411695470202 397.78986909227973 0 397.78986909227973 -209.90928614179575 0 0 0 0 35.260205886988842 413.70773916653707 0 413.70773916653707 -270.16568692503733 0 0 0 0 -208.55491841573894 451.10882135252723 0 451.10882135252723 504.00520790662995 0 0 0 0 246.56566350837238 -16.931812919625372 0 -16.931812919625372 -83.36257086313708 0 0 0 0 722.74517991556786 435.92068549400574 0 435.92068549400574 242.54741639456188 0 0 0 0 -240.59840344515396 481.82726309382997 0 481.82726309382997 -325.42635833879467 0 0 0 0 -263.8155315582153 161.4821226467302 0 161.4821226467302 -319.65766312370761 0 0 0 0 -161.33634656268714 214.8549571587132 0 214.8549571587132 322.38093331715208 0 0 0 0 -146.18330693074677 262.04503573970214 0 262.04503573970214 -183.19437296692922 0 0 0 0 -98.111379863330512 386.82514332023493 0 386.82514332023493 -68.382704225405178 0 0 0 0 -24.074601050786441 114.56464229063204 0 114.56464229063204 167.92792112763027 0 0 0 0 -223.28449092462688 289.55213636012468 0 289.55213636012468 201.39721622964862 0 0 0 0 -84.01618216434872 207.77512597166424 0 207.77512597166424 306.02355346556942 0 0 0 0 23.140108944149688 -118.54814612898281 0 -118.54814612898281 618.65785969755962 0 0 0 0 -77.688017002481502 -97.923261706870107 0 -97.923261706870107 708.82321667494944 0 0 0 0 140.19032065210195 -276.74436003251321 0 -276.74436003251321 567.13682983972831 0 0 0 0 220.58179060947441 -470.09032667980955 0 -470.09032667980955 810.69077024445141 0 0 0 0 -104.81794179770986 110.4736732510728 0 110.4736732510728 451.44727125675126 0 0 0 0 237.5440141008803 -202.00070524316834 0 -202.00070524316834 418.12766449475203 0 0 0 0 35.412280774951796 -55.592366020027839 0 -55.592366020027839 345.26788938297977 0 0 0 0 432.62378408441145 -212.19832306030003 0 -212.19832306030003 372.20008932475685 0 0 0 0 -9.9436807919846615 149.96202720229849 0 149.96202720229849 54.893871775038861 0 0 0 0 -11.452953938398423 -9.798083100351505 0 -9.798083100351505 375.51272009513195 0 0 0 0 447.51460871026211 -548.80285966241718 0 -548.80285966241718 546.50243438709003 0 0 0 0 549.46438461222715 -416.95260034769308 0 -416.95260034769308 382.87742392151267 0 0 0 0 -959.44701615154918 664.25617101323405 0 664.25617101323405 -408.54557018280775 0 0 0 0 -8.2709844397683128 -4.0575270015661076 0 -4.0575270015661076 -2.9836561951086651 0 0 0 0 -12.26871393663626 -122.09986088285048 0 -122.09986088285048 -72.563132137471257 0 0 0 0 -989.14529332458915 573.26614900970162 0 573.26614900970162 -242.13320898356142 0 0 0 0 -1100.9190547391481 663.92294479330303 0 663.92294479330303 -288.0767122555244 0 0 0 0 -637.49052117853716 621.86274793883058 0 621.86274793883058 -465.56057190376669 0 0 0 0 -1091.8395604140387 515.28619354241891 0 515.28619354241891 -488.29190744587686 0 0 0 0 -80.331538120881305 -495.37921462217491 0 -495.37921462217491 1437.3751782990294 0 0 0 0 -425.96569437946891 -391.6773265061056 0 -391.6773265061056 -243.12218807708268 0 0 0 0 -56.09136716579431 -26.990904493510193 0 -26.990904493510193 -9.2363812135563634 0 0 0 0 128.63755629834486 -653.95676833771722 0 -653.95676833771722 983.25601659146196 0 0 0 0 -204.80411742685828 -132.70747630144251 0 -132.70747630144251 1350.0101929735538 0 0 0 0 -45.023654499796976 -219.21974137817961 0 -219.21974137817961 769.60813610028708 0 0 0 0 -5.0169203641780769 133.15690255852678 0 133.15690255852678 482.31299410307838 0 0 0 0 -154.83531227995263 63.973792352742748 0 63.973792352742748 978.20174756560846 0 0 0 0 -100.6358616070429 190.43003470000076 0 190.43003470000076 1874.9809320641943 0 0 0 0 448.0632166854848 664.08892421497876 0 664.08892421497876 1346.2779798984193 0 0 0 0 -114.93029711216514 -56.498652578771726 0 -56.498652578771726 1010.6449650352733 0 0 0 0 98.75514958313579 137.07664507224581 0 137.07664507224581 643.60831995289482 0 0 0 0 -72.471947739759344 347.3705552923966 0 347.3705552923966 1148.4897327817798 0 0 0 0 748.39307615580037 566.12800096013962 0 566.12800096013962 552.97112975135678 0 0 0 0 -2207.1218582940855 1749.4620532022209 0 1749.4620532022209 -1212.3466640957304 0 0 0 0 -486.11025120838895 1111.0661252393111 0 1111.0661252393111 -1013.9702898071082 0 0 0 0 394.85026356572052 669.57126534719737 0 669.57126534719737 -1984.5841088095985 0 0 0 0 -3534.9275993946576 687.06848132384084 0 687.06848132384084 -340.51933155016377 0 0 0 0 -2869.2848894870767 -1421.1327870819678 0 -1421.1327870819678 -784.48596217962404 0 0 0 0 -1212.0262348220422 217.26127676691431 0 217.26127676691431 -245.50472153434612 0 0 0 0 -1356.3346485926486 191.16449827639735 0 191.16449827639735 73.161026325935381 0 0 0 0 -1628.6801900975552 765.35450562839378 0 765.35450562839378 -147.87913612413104 0 0 0 0 -1065.9172530218784 364.87716163176265 0 364.87716163176265 -1191.2040267152406 0 0 0 0 -1032.9211570101033 676.06586629681442 0 676.06586629681442 -481.16311727630091 0 0 0 0 -1108.7594515878736 974.56740182709655 0 974.56740182709655 -1041.4387978536797 0 0 0 0 -1162.1969634408888 543.63604996795311 0 543.63604996795311 -302.02793670329265 0 0 0 0 -1195.1656720958854 686.78293846117958 0 686.78293846117958 -156.17927526232052 0 0 0 0 -1277.5846763398849 376.94812522475422 0 376.94812522475422 181.24609872798828 0 0 0 0 -126.35991784317594 -425.03064851091494 0 -425.03064851091494 349.43283426211383 0 0 0 0 -638.61505911477798 558.21426017746853 0 558.21426017746853 195.5160331150264 0 0 0 0 -1430.0918388003338 246.07612122047613 0 246.07612122047613 670.92851056903373 0 0 0 0 -1119.3159715670554 564.47304648143381 0 564.47304648143381 548.0400220491556 0 0 0 0 -9.1898478487476325 -3.2034130044056255 0 -3.2034130044056255 -0.29058071602140245 0 0 0 0 -782.18229755586071 116.06269907906062 0 116.06269907906062 112.18756836103466 0 0 0 0 -1232.178773034575 -63.87884378678973 0 -63.87884378678973 76.178513723918968 0 0 0 0 -298.72096397947462 187.92403745847378 0 187.92403745847378 -121.208154972599 0 0 0 0 -373.50719716519234 49.415110559215464 0 49.415110559215464 -103.50449082419937 0 0 0 0 -526.29580811738197 281.52722615829089 0 281.52722615829089 -128.89083947213658 0 0 0 0 -723.88740828854498 302.68824809305806 0 302.68824809305806 -123.53565186668857 0 0 0 0 -515.47308608120511 127.72279261898143 0 127.72279261898143 -108.232463753091 0 0 0 0 -182.42397815043114 60.02974343996641 0 60.02974343996641 -228.25718115754717 0 0 0 0 -208.93155232506797 384.11455948850039 0 384.11455948850039 -333.75227323890431 0 0 0 0 -986.790505007506 551.52007050357133 0 551.52007050357133 -106.0632017724638 0 0 0 0 -717.53568334180454 429.59678171619089 0 429.59678171619089 -127.10197350911267 0 0 0 0 -1143.8993533372995 294.78685657507594 0 294.78685657507594 77.659512557467679 0 0 0 0 -1185.9987542627059 407.27166867231335 0 407.27166867231335 236.05561949085313 0 0 0 0 -1195.4905435960318 616.59634054916569 0 616.59634054916569 77.735333337346674 0 0 0 0 -902.68955800921685 214.76629292730195 0 214.76629292730195 -24.362042418756573 0 0 0 0 -498.53938505687256 172.68014211746231 0 172.68014211746231 11.848823687678305 0 0 0 0 -497.31278168438439 -47.144590281684941 0 -47.144590281684941 81.722905250442636 0 0 0 0 -517.39018872888118 166.41978773902792 0 166.41978773902792 -38.505786557223473 0 0 0 0 -554.40634913293889 -5.8462989295627494 0 -5.8462989295627494 -260.96881942989967 0 0 0 0 -327.07185325423052 -647.67488336713723 0 -647.67488336713723 86.523908773856419 0 0 0 0 63.502484972808816 -231.03846354000461 0 -231.03846354000461 8.9930880671872728 0 0 0 0 -436.11084695725913 -334.61557179222518 0 -334.61557179222518 114.34378939795715 0 0 0 0 -1038.1492102654665 -376.36318400359778 0 -376.36318400359778 306.60747538121905 0 0 0 0 -470.69499671549784 -250.82564502009996 0 -250.82564502009996 158.42670594073752 0 0 0 0 -540.0073210129267 -251.33073119382607 0 -251.33073119382607 165.84737776595102 0 0 0 0 -429.01149901582176 -160.3274282276534 0 -160.3274282276534 60.813031974254045 0 0 0 0 -400.84035376917109 -233.25703854940866 0 -233.25703854940866 102.7590303863326 0 0 0 0 -556.44203306796408 -171.22867979898285 0 -171.22867979898285 60.447104160331946 0 0 0 0 -303.4561648080562 -183.69854911461243 0 -183.69854911461243 53.609093922307693 0 0 0 0 -234.40926486723038 113.52921869926104 0 113.52921869926104 24.059440603601161 0 0 0 0 -328.76626552125526 -73.08198304925827 0 -73.08198304925827 85.70113552819339 0 0 0 0 -103.18316722758755 4.1549132827485664 0 4.1549132827485664 -42.529873309451432 0 0 0 0 -1.122127623790675 0.79891583837735425 0 0.79891583837735425 -0.80257125173302057 0 0 0 0 -532.66863888539956 -374.60957342159327 0 -374.60957342159327 -66.576246203370829 0 0 0 0 133.87331370771062 -109.69461518900607 0 -109.69461518900607 -247.77910272815643 0 0 0 0 -0.60721368162356271 0.52030423376135104 0 0.52030423376135104 -0.27563001895880035 0 0 0 0 -4.3849218510076753 -17.348841199901472 0 -17.348841199901472 -37.858950493083739 0 0 0 0 -62.487869777407468 -75.225044753608017 0 -75.225044753608017 -0.56238173078963882 0 0 0 0 -73.673533585018959 -71.197797435913913 0 -71.197797435913913 44.754123899369006 0 0 0 0 567.91581502225017 665.22041770340547 0 665.22041770340547 -85.063451649912395 0 0 0 0 -108.33074377833739 16.502162389149191 0 16.502162389149191 12.064891556466836 0 0 0 0 659.19486756479 -155.25768131006794 0 -155.25768131006794 -197.6443554038924 0 0 0 0 -157.13733112969203 165.99884600593214 0 165.99884600593214 -26.328800913111991 0 0 0 0 -102.64884141218465 4.4176163444295753 0 4.4176163444295753 13.91063507477662 0 0 0 0 -127.49424084991915 3.3868485720411172 0 3.3868485720411172 61.070446701532774 0 0 0 0 -112.30880913947476 -19.910111588761993 0 -19.910111588761993 -5.0069795514220914 0 0 0 0 -435.0793925066755 -1277.9262713658541 0 -1277.9262713658541 -1593.9467640830462 0 0 0 0 -1032.1404810543172 676.87889781565173 0 676.87889781565173 1268.995597217152 0 0 0 0 -100.73596897335727 0.90561788752630434 0 0.90561788752630434 14.018687022371992 0 0 0 0 -63.129138268781389 -106.27690145097472 0 -106.27690145097472 125.43817515065712 0 0 0 0 -139.81911368400324 167.88048188694665 0 167.88048188694665 -22.608498719735508 0 0 0 0 -1057.6116479164557 1077.913968436068 0 1077.913968436068 200.93538121824167 0 0 0 0 -101.67271290833179 14.087716890518223 0 14.087716890518223 17.032779982698251 0 0 0 0 -106.50904200602963 37.024276298014229 0 37.024276298014229 -216.26038812573279 0 0 0 0 -51.976127268405435 -191.34390798626623 0 -191.34390798626623 -1865.2660961474285 0 0 0 0 -410.90888009942864 331.90429966806369 0 331.90429966806369 -66.124647702034054 0 0 0 0 -17.923879887450767 1.2746409332667241 0 1.2746409332667241 -0.23075808841746337 0 0 0 0 -1647.8310642482393 -304.14838394228946 0 -304.14838394228946 97.199164756282698 0 0 0 0 -267.29524762382789 -945.68734844180653 0 -945.68734844180653 -1322.2086459120492 0 0 0 0 -296.9629449623244 -740.46289564311519 0 -740.46289564311519 -948.11503864484439 0 0 0 0 -609.63908478128724 -227.25025804777488 0 -227.25025804777488 104.92826109411453 0 0 0 0 -492.53928297684797 -186.23518897711301 0 -186.23518897711301 41.474237997841556 0 0 0 0 -575.01494482857925 -25.888409164479526 0 -25.888409164479526 49.100695539709704 0 0 0 0 40.477249359926645 -45.52831108661303 0 -45.52831108661303 -92.811698490943854 0 0 0 0 -132.81334992929624 -44.789519446819213 0 -44.789519446819213 17.9037100213136 0 0 0 0 -133.20819981299428 27.605483723887119 0 27.605483723887119 -168.51960389378837 0 0 0 0 -123.54567197344295 -113.93974839561088 0 -113.93974839561088 -60.040348095004447 0 0 0 0 -58.852322146451485 -7.6145081320006085 0 -7.6145081320006085 -8.0262451331262898 0 0 0 0 -121.94326552066559 -66.192672844844765 0 -66.192672844844765 76.514007925479746 0 0 0 0 -62.494548279653827 -89.924030543638764 0 -89.924030543638764 -39.467680315829057 0 0 0 0 -29.083782136188177 -24.196439637909563 0 -24.196439637909563 -20.11170593221803 0 0 0 0 27.648321603039221 -68.53465819906819 0 -68.53465819906819 -131.63649958787391 0 0 0 0 -826.89080411061877 -236.54579651014501 0 -236.54579651014501 -242.61617123821998 0 0 0 0 -647.01857689517783 -641.22669577270426 0 -641.22669577270426 178.63557955243959 0 0 0 0 -603.6277969777293 -568.82177540365046 0 -568.82177540365046 -993.55851902960876 0 0 0 0 -293.15207380781067 -89.867985005727803 0 -89.867985005727803 -525.40708374378187 0 0 0 0 -462.36089485260891 -93.248516994122838 0 -93.248516994122838 30.953735804083408 0 0 0 0 -117.82436415948706 -22.756546783879458 0 -22.756546783879458 4.8749690690236944 0 0 0 0 -816.77119105820748 144.00799923756585 0 144.00799923756585 117.89523609234402 0 0 0 0 -847.16365600388053 16.528500031376325 0 16.528500031376325 -188.93057360666899 0 0 0 0 -324.53484086833487 172.2460118528038 0 172.2460118528038 -45.758273854641629 0 0 0 0 -927.03128833518713 6.1005629096280245 0 6.1005629096280245 83.669631159503979 0 0 0 0 -131.10359649450402 114.63645271207884 0 114.63645271207884 -116.39748388773569 0 0 0 0 -6.6138214063764309 -25.96839843520992 0 -25.96839843520992 -33.27041588375242 0 0 0 0 -921.89388788505767 33.311789033616066 0 33.311789033616066 -36.982433269946341 0 0 0 0 -290.91795109581381 13.197865608220354 0 13.197865608220354 -304.41347824754666 0 0 0 0 -1088.5090834721123 201.40539073099535 0 201.40539073099535 -55.005369165383627 0 0 0 0 -1245.6862891127385 -95.5355188659546 0 -95.5355188659546 0.69731689436480337 0 0 0 0 -9.6812042447930153 -27.355663557864176 0 -27.355663557864176 -39.539029949196305 0 0 0 0 -107.37552861536824 -102.96460962237052 0 -102.96460962237052 -3.6091604915463904 0 0 0 0 -184.07601362081186 -43.047642948788962 0 -43.047642948788962 11.406954535508703 0 0 0 0 60.29953200111504 -65.40528325459718 0 -65.40528325459718 -19.710914571327521 0 0 0 0 -177.41346892117144 -116.00703155344854 0 -116.00703155344854 32.875331683667355 0 0 0 0 -47.015618801196979 -207.22414817649405 0 -207.22414817649405 52.266428798906418 0 0 0 0 173.95754588981072 -135.74771538672485 0 -135.74771538672485 -2.1094480307137928 0 0 0 0 -52.908815776705524 -111.63807324277627 0 -111.63807324277627 346.58264589077226 0 0 0 0 430.64798807703482 -341.2595569740588 0 -341.2595569740588 76.698229185267337 0 0 0 0 -1486.3481366042324 -209.10914995238682 0 -209.10914995238682 227.34011467751316 0 0 0 0 -466.79949920196123 -262.85908814732994 0 -262.85908814732994 -300.67730873959636 0 0 0 0 -9.1906249433598362 -26.869361805159571 0 -26.869361805159571 -40.283086712523314 0 0 0 0 76.14535711031931 -88.097590605294954 0 -88.097590605294954 76.783508128335598 0 0 0 0 -1577.4174877812184 -845.70156873872315 0 -845.70156873872315 -671.19465339781152 0 0 0 0 -1634.2763776910397 -683.95668173679348 0 -683.95668173679348 -272.40976036621032 0 0 0 0 -1842.0891570134409 -736.78039696395444 0 -736.78039696395444 236.28770400334463 0 0 0 0 -1826.1125358095051 -954.31359267689004 0 -954.31359267689004 -245.63205941311935 0 0 0 0 -221.30952536392942 1116.6715130088448 0 1116.6715130088448 -581.24718343952827 0 0 0 0 229.79895988091084 149.93487778754729 0 149.93487778754729 -572.69453697913764 0 0 0 0 -2349.3035994543825 112.80552617507948 0 112.80552617507948 83.340805161886237 0 0 0 0 39.236407909822447 236.30106603579409 0 236.30106603579409 -603.30574602141348 0 0 0 0 -20.534201113213186 10.499691885588049 0 10.499691885588049 -5.9241517202436116 0 0 0 0 -2789.6865088422128 -1188.4426471856873 0 -1188.4426471856873 -402.46875028999375 0 0 0 0 -909.28435607709616 -154.65793578552831 0 -154.65793578552831 109.04875649250471 0 0 0 0 -1157.0347497822877 -670.97204567250219 0 -670.97204567250219 -239.39679561509661 0 0 0 0 -1473.9267932824951 67.065582296650518 0 67.065582296650518 -105.77177646251744 0 0 0 0 -2746.7745927030564 229.94879886860588 0 229.94879886860588 -89.395096353735426 0 0 0 0 -1295.6894762463853 136.2479172828173 0 136.2479172828173 -1027.2805392296827 0 0 0 0 -2041.771462999448 -266.60936844771572 0 -266.60936844771572 98.464514324150059 0 0 0 0 -1423.7560437966313 -45.92247524104323 0 -45.92247524104323 117.27788066822905 0 0 0 0 -1472.0440911033766 -135.9175852359117 0 -135.9175852359117 112.38226387246414 0 0 0 0 -1465.5186994122632 -86.49089046190943 0 -86.49089046190943 -78.078907134718975 0 0 0 0 -1445.8689152622101 -22.934419188070933 0 -22.934419188070933 123.87275298303757 0 0 0 0 -1604.2220377587291 161.80479441723037 0 161.80479441723037 -65.440032849020383 0 0 0 0 -1402.2928862239132 93.977158145391058 0 93.977158145391058 -711.14410766351193 0 0 0 0 -114.31585502763005 -13.454385471682947 0 -13.454385471682947 15.592049010933369 0 0 0 0 -1380.5597932965538 -186.04448180415511 0 -186.04448180415511 -183.48974499106134 0 0 0 0 -1561.2728700898297 241.50661539428256 0 241.50661539428256 -405.23225321591326 0 0 0 0 -1139.9396958242141 22.453073572798075 0 22.453073572798075 -293.08016860676616 0 0 0 0 -1155.0539775033967 233.63043228952489 0 233.63043228952489 -725.04895095992833 0 0 0 0 -1132.181150034643 -210.70753834101492 0 -210.70753834101492 -543.45711741463037 0 0 0 0 -1210.8651114156528 -58.890492165469368 0 -58.890492165469368 -338.24588645381209 0 0 0 0 -723.60710287459369 -642.27838244273607 0 -642.27838244273607 -220.95558462248209 0 0 0 0 -59.941228892230441 33.753061915478021 0 33.753061915478021 -15.473232158925315 0 0 0 0 -235.75751138709893 582.19266606856513 0 582.19266606856513 379.1527946446804 0 0 0 0 -1734.6399103462754 -1038.2448755063892 0 -1038.2448755063892 -64.797499349083409 0 0 0 0 -330.39114296226217 214.61541465562254 0 214.61541465562254 -1954.099351850482 0 0 0 0 -424.16948098661669 -125.37179125713237 0 -125.37179125713237 -580.31086181555656 0 0 0 0 -1051.1890037462581 905.37199155981853 0 905.37199155981853 -870.95413741325046 0 0 0 0 1.3741498722418868 2.6377847135462673 0 2.6377847135462673 -19.985191352065673 0 0 0 0 -809.25064311829919 150.33141834424305 0 150.33141834424305 -82.053256962875821 0 0 0 0 -776.61097767252068 316.30673488455977 0 316.30673488455977 -715.35236813561096 0 0 0 0 -5747.5476413736033 972.52095402370423 0 972.52095402370423 252.77568165050775 0 0 0 0 -2869.7199394612981 -414.17336688961535 0 -414.17336688961535 543.62023029618058 0 0 0 0 -1539.5317659634384 -136.98744683699948 0 -136.98744683699948 761.1533202451285 0 0 0 0 -2115.0571896565525 925.56594576211648 0 925.56594576211648 -942.08597200028362 0 0 0 0 3.7934951202769298 -184.08679002881127 0 -184.08679002881127 -2631.6171652478251 0 0 0 0 408.32942228994216 1189.6691607332273 0 1189.6691607332273 -2226.1118050144141 0 0 0 0 -249.60560118204739 -295.02655225360422 0 -295.02655225360422 -775.58569433380148 0 0 0 0 416.127944471913 -827.16644015418979 0 -827.16644015418979 -1662.0785851865671 0 0 0 0 -2467.9813353600184 1899.3685308574759 0 1899.3685308574759 -2238.2605842032376 0 0 0 0 -5504.1149863332857 -215.50654785481527 0 -215.50654785481527 -4378.9042282201553 0 0 0 0 -6513.2946840487075 -1345.2391874699358 0 -1345.2391874699358 -385.09313031785382 0 0 0 0 -5498.519147635765 -2157.5553068257605 0 -2157.5553068257605 145.8350697188358 0 0 0 0 -29.042761868062968 15.121025121352929 0 15.121025121352929 -10.493011862056546 0 0 0 0 1235.8043991155137 -216.12525246619953 0 -216.12525246619953 -2702.0672649527341 0 0 0 0 -1762.6918001711019 388.43881667058866 0 388.43881667058866 815.18400865339595 0 0 0 0 -2140.8078406020722 -478.36862808670401 0 -478.36862808670401 851.17587691736776 0 0 0 0 -5500.4014780964499 -482.24038110074724 0 -482.24038110074724 1154.4248773818408 0 0 0 0 -2776.1965946546043 849.09179756773176 0 849.09179756773176 596.47322370760071 0 0 0 0 -138.80685528169852 615.88949644500349 0 615.88949644500349 610.8503878715992 0 0 0 0 -1944.4705594879997 -362.70267763061366 0 -362.70267763061366 534.55639934075282 0 0 0 0 -75.39909149619416 400.48153502552123 0 400.48153502552123 -454.40392411883136 0 0 0 0 -51.007773168002984 28.611153548818493 0 28.611153548818493 -12.922010680274596 0 0 0 0 -858.47665825967852 233.7544466798131 0 233.7544466798131 -216.46306276472922 0 0 0 0 -261.89787641262956 -50.127368033313587 0 -50.127368033313587 -299.1841911408842 0 0 0 0 42.792942238044816 226.02904372490468 0 226.02904372490468 -756.86803961488908 0 0 0 0 -317.25681009233085 208.39352365789011 0 208.39352365789011 -680.02760893298728 0 0 0 0 -489.4701763926023 2935.7260569458617 0 2935.7260569458617 -3209.8137113096072 0 0 0 0 -5488.8041287389224 2524.2778515438222 0 2524.2778515438222 430.00200475071523 0 0 0 0 -3240.851695502206 991.20203596266174 0 991.20203596266174 622.6285161600141 0 0 0 0 -1352.4767250269997 1526.8519438229464 0 1526.8519438229464 -1379.0121765226431 0 0 0 0 -3525.7853347196215 1783.5563124407354 0 1783.5563124407354 -423.43088276192111 0 0 0 0 -4576.0505241331557 1435.4817450799942 0 1435.4817450799942 -5.5439117545925249 0 0 0 0 -5499.737725545594 1711.123783083412 0 1711.123783083412 189.10360308540064 0 0 0 0 -4168.3799787307071 1222.8934220256642 0 1222.8934220256642 -2.1885236539380459 0 0 0 0 -5498.5477480338304 660.3130337363707 0 660.3130337363707 188.60885106649377 0 0 0 0 -3972.5566110268555 769.59693130267192 0 769.59693130267192 -585.17276734395716 0 0 0 0 -3100.9003585228638 1241.6973326897178 0 1241.6973326897178 -587.63391290404218 0 0 0 0 -3019.8167717206961 921.77637594381827 0 921.77637594381827 -882.97061258058579 0 0 0 0 -2468.2284781386697 977.46352598141584 0 977.46352598141584 -747.7582718820878 0 0 0 0 -2705.6405623303863 1113.695014868412 0 1113.695014868412 -796.48317175898319 0 0 0 0 -3333.1009270976501 1237.4561017397366 0 1237.4561017397366 -573.16889163156941 0 0 0 0 -2222.1851667467708 1383.4531618267101 0 1383.4531618267101 -650.97309686618246 0 0 0 0 -2844.8067390645228 1504.1999252958744 0 1504.1999252958744 -649.39923803007287 0 0 0 0 -2621.2198786026856 917.71618218941148 0 917.71618218941148 -557.26682840672447 0 0 0 0 -1761.6784920998034 748.05475013208763 0 748.05475013208763 -658.51939249324334 0 0 0 0 -2421.9689886243432 1180.3793429944387 0 1180.3793429944387 -734.74978224421557 0 0 0 0 -725.60598167718854 715.61185526453551 0 715.61185526453551 -772.05803052938336 0 0 0 0 -1712.613458252381 191.68612263397426 0 191.68612263397426 93.262769211700743 0 0 0 0 -3475.7667347772513 1889.479830788051 0 1889.479830788051 -445.12471624889969 0 0 0 0 -1890.5075848490233 1873.788380677438 0 1873.788380677438 -831.52802743685322 0 0 0 0 -3457.2755224296179 1984.6479685603563 0 1984.6479685603563 -287.95048086338636 0 0 0 0 -4537.8066848884337 2019.4996738140451 0 2019.4996738140451 -252.36716675798041 0 0 0 0 -5499.5137999721919 2931.5389232973721 0 2931.5389232973721 -683.50574712916887 0 0 0 0 -4456.4305667933222 3098.7795198809863 0 3098.7795198809863 -712.82365447842358 0 0 0 0 -5491.4979748017922 2334.3674016110213 0 2334.3674016110213 -430.8781393729281 0 0 0 0 -1.1558901366024088 7.6298539112631545 0 7.6298539112631545 -5.13922385946322 0 0 0 0 -891.25866113754455 365.52138054304532 0 365.52138054304532 -731.43963507850253 0 0 0 0 -5492.9175558466886 3690.5968788218433 0 3690.5968788218433 -780.42881466055917 0 0 0 0 -1624.3556870726752 -2347.6212303037209 0 -2347.6212303037209 -1349.7620941764576 0 0 0 0 -2065.5848207806121 3859.7719521746058 0 3859.7719521746058 -4563.1419319088 0 0 0 0 -26.01065368713023 7.4964063985052434 0 7.4964063985052434 -6.5976069111932985 0 0 0 0 -25.232811173389763 14.197750196227076 0 14.197750196227076 -1.7263461609528665 0 0 0 0 -1820.5116707528814 68.044790287704686 0 68.044790287704686 614.1240420437988 0 0 0 0 -831.54557762021432 535.79932913735865 0 535.79932913735865 -372.71054613859269 0 0 0 0 -60.740517826134123 21.00765027932492 0 21.00765027932492 -12.426672997490364 0 0 0 0 268.04996312065487 432.32937865286249 0 432.32937865286249 -508.0722757905819 0 0 0 0 -5489.3823429140439 -605.27424572530447 0 -605.27424572530447 875.98695545791634 0 0 0 0 -20.673502399738467 7.1734462435771036 0 7.1734462435771036 -42.866544440098167 0 0 0 0 -237.65950808944035 181.30754629165676 0 181.30754629165676 -330.09644278703036 0 0 0 0 731.99969444418639 635.26334732733756 0 635.26334732733756 280.6264760466961 0 0 0 0 -103.07236086751396 -1.0348474421560638 0 -1.0348474421560638 5.8429062595119117 0 0 0 0 -566.88541051768698 485.05290622829853 0 485.05290622829853 710.63363405195378 0 0 0 0 -432.9932820100621 341.39576684018073 0 341.39576684018073 476.99173450014541 0 0 0 0 -709.11493502095311 174.42286556196225 0 174.42286556196225 131.28648860859676 0 0 0 0 -700.91904853905726 766.40201977014874 0 766.40201977014874 442.5390941031485 0 0 0 0 2009.1599107529455 939.05405564998784 0 939.05405564998784 -638.85806749042672 0 0 0 0 -1438.7342611640051 420.46433883856344 0 420.46433883856344 160.03757995644469 0 0 0 0 -1977.9089612738171 74.955339648746985 0 74.955339648746985 67.666399785807926 0 0 0 0 -1395.2323847862426 -28.105459518043972 0 -28.105459518043972 53.936016850752139 0 0 0 0 -2092.3161757574708 -270.98131733565924 0 -270.98131733565924 115.34970267923609 0 0 0 0 -1888.4128577325464 -206.03405399041162 0 -206.03405399041162 67.413538885416074 0 0 0 0 -1689.0647259591788 -184.02002353191494 0 -184.02002353191494 67.576692090526649 0 0 0 0 -1505.2120695567137 -116.52375863726979 0 -116.52375863726979 77.47634606683323 0 0 0 0 -1980.7101190338435 -365.11627852168795 0 -365.11627852168795 14.189735992637367 0 0 0 0 -1645.0111941166688 16.610088342112704 0 16.610088342112704 -33.102577820116494 0 0 0 0 -1182.9320249995071 215.85057077455713 0 215.85057077455713 103.40218839406344 0 0 0 0 -1776.5824317453153 -89.162571160587504 0 -89.162571160587504 238.12630126860358 0 0 0 0 -1332.934282208691 322.53223748856533 0 322.53223748856533 602.97050535623362 0 0 0 0 -1699.9354536253377 394.59759608410161 0 394.59759608410161 492.83590134222391 0 0 0 0 -1255.5657466752091 497.23612355541968 0 497.23612355541968 328.36751299790967 0 0 0 0 -110.84132788322034 -7.1073460931355683 0 -7.1073460931355683 11.775348858764499 0 0 0 0 -1072.1768437671635 520.55861958550304 0 520.55861958550304 -673.20405519027918 0 0 0 0 -1430.7647203323286 513.52215296353666 0 513.52215296353666 1071.3005054662681 0 0 0 0 -1609.6290415273179 -40.945131022719011 0 -40.945131022719011 -69.062127881764809 0 0 0 0 -1924.8413550452824 -369.77321436800895 0 -369.77321436800895 -110.61390208715585 0 0 0 0 -113.22911024792688 -11.6186635740764 0 -11.6186635740764 13.223679971161809 0 0 0 0 -1911.8618686828122 655.68524980754023 0 655.68524980754023 488.26865577648982 0 0 0 0 -1889.2590330919193 438.67003664736217 0 438.67003664736217 908.98745312660844 0 0 0 0 -1657.7081129404542 56.112715043800108 0 56.112715043800108 -122.90096719703183 0 0 0 0 -2170.5076702015649 206.69963713270363 0 206.69963713270363 -98.293973383638331 0 0 0 0 -2081.1085733084619 8.5401610947465088 0 8.5401610947465088 -674.96941117666438 0 0 0 0 -3919.5845660512568 -804.85390355497293 0 -804.85390355497293 -314.52779114970167 0 0 0 0 -3061.1752351536124 -209.13195161589431 0 -209.13195161589431 95.428742312727763 0 0 0 0 -2387.9431896909809 -814.6162415969311 0 -814.6162415969311 -381.92705634594222 0 0 0 0 -2254.3502757741662 -638.31453474476052 0 -638.31453474476052 -416.97493165202377 0 0 0 0 -3133.7089624496002 626.27823013387797 0 626.27823013387797 -1834.3226335311956 0 0 0 0 -3018.3241552998661 -1167.7539150770881 0 -1167.7539150770881 -1104.9475579414232 0 0 0 0 -3272.9186731230002 -454.18948382349049 0 -454.18948382349049 363.77531522345816 0 0 0 0 -2668.2392204375938 -471.78935297138833 0 -471.78935297138833 135.73950249984318 0 0 0 0 -2693.3487977301702 -548.06227233958771 0 -548.06227233958771 171.92291658470435 0 0 0 0 -1686.5061424715677 614.98254621278465 0 614.98254621278465 875.45155259112062 0 0 0 0 -2543.3622342743911 218.73745174558553 0 218.73745174558553 707.71888127244347 0 0 0 0 -2768.9104704008787 -314.56569322750147 0 -314.56569322750147 211.32028693467964 0 0 0 0 -1787.6140018782462 -299.90779004882233 0 -299.90779004882233 -539.76509753400569 0 0 0 0 -2796.2015265777445 -87.155546998694717 0 -87.155546998694717 -346.89351155870736 0 0 0 0 -2184.5941535955353 -550.96848608610208 0 -550.96848608610208 -1145.9599270837302 0 0 0 0 -2164.8076596724168 -403.24929220616292 0 -403.24929220616292 -110.60799978312298 0 0 0 0 -1967.350954348658 -395.16733798350992 0 -395.16733798350992 -158.03884637627016 0 0 0 0 -2387.2820072499426 -276.65970051299962 0 -276.65970051299962 389.47079020390447 0 0 0 0 -2381.1385147823312 -532.92441227805966 0 -532.92441227805966 176.50337487252818 0 0 0 0 -2300.866231155931 -312.92024079309954 0 -312.92024079309954 311.8088279480844 0 0 0 0 -2095.936344572634 -294.12701512230547 0 -294.12701512230547 206.78895963592686 0 0 0 0 -2192.0759721978393 -375.01187926056537 0 -375.01187926056537 239.53268069692263 0 0 0 0 -2240.8054702127702 77.042817093848953 0 77.042817093848953 412.63499738500514 0 0 0 0 -1539.353683239111 253.37040652917722 0 253.37040652917722 380.07869594307476 0 0 0 0 -1405.2959989486844 429.08763774103181 0 429.08763774103181 495.16129098162173 0 0 0 0 -2371.5739791826927 112.59908415618247 0 112.59908415618247 557.39779973553686 0 0 0 0 -2113.4423451494658 -184.57725685660444 0 -184.57725685660444 334.08800464757564 0 0 0 0 -2176.0308302464109 -141.98666927842157 0 -141.98666927842157 349.42007137469363 0 0 0 0 -1466.7043768118019 -143.67592852094617 0 -143.67592852094617 169.24325293500215 0 0 0 0 -2130.2796852939937 -239.8431350208557 0 -239.8431350208557 290.93059006723388 0 0 0 0 -1901.5857450918993 -35.406563658707455 0 -35.406563658707455 352.44932759119172 0 0 0 0 -1917.1086955653736 -231.86753346522278 0 -231.86753346522278 194.72220509219801 0 0 0 0 -2010.7717191957781 -115.76035595431381 0 -115.76035595431381 287.8599483300859 0 0 0 0 -1492.3758654065132 -222.76559263394608 0 -222.76559263394608 78.270321467879512 0 0 0 0 -2120.0875451419706 -334.12003686440323 0 -334.12003686440323 139.70786975064971 0 0 0 0 -2093.9912684733572 -135.75600418640954 0 -135.75600418640954 25.646422275121949 0 0 0 0 -2335.4214472056337 -187.97909655252647 0 -187.97909655252647 224.5741589665256 0 0 0 0 -2076.2931172910903 -214.0545277218896 0 -214.0545277218896 168.168042936853 0 0 0 0 -2134.7041682758136 -234.09439917182135 0 -234.09439917182135 287.22490343003642 0 0 0 0 -2272.2689525791502 -217.7295433764159 0 -217.7295433764159 203.34047906723555 0 0 0 0 -2219.8711892158753 -293.19058285224389 0 -293.19058285224389 259.19744091488337 0 0 0 0 -2086.1257236173697 -116.59707650897838 0 -116.59707650897838 35.989232474740675 0 0 0 0 -2392.3053036089404 -4.8120528685155932 0 -4.8120528685155932 99.122258209529832 0 0 0 0 -2283.7461848180101 460.47134296962662 0 460.47134296962662 -283.76193261084302 0 0 0 0 -1591.5799757713103 136.43836513182293 0 136.43836513182293 -176.05044125342556 0 0 0 0 -2121.5142161069307 156.27932270685102 0 156.27932270685102 -128.7230941901812 0 0 0 0 -2580.1403100526368 546.84056743349015 0 546.84056743349015 -397.29231179137264 0 0 0 0 -2818.5531078423373 89.066811928989637 0 89.066811928989637 164.68767917152286 0 0 0 0 -2253.1263573112228 -24.858068035030954 0 -24.858068035030954 -11.629050311633819 0 0 0 0 -2598.4382540622173 538.15139971343876 0 538.15139971343876 -400.72350861638051 0 0 0 0 -2674.9536077115754 857.14532256808832 0 857.14532256808832 -793.49070506570661 0 0 0 0 -2492.7517959699617 964.7000678490225 0 964.7000678490225 -730.04660658446437 0 0 0 0 -2712.2709504435625 1056.4046499948727 0 1056.4046499948727 -992.66472895718834 0 0 0 0 -2821.6626191541727 819.48619823351419 0 819.48619823351419 -816.43557347627166 0 0 0 0 -2830.6905841988591 456.48541437922199 0 456.48541437922199 -476.67488752164263 0 0 0 0 -2933.9976966393006 1077.4503739499673 0 1077.4503739499673 -1277.817984827157 0 0 0 0 -3023.6206931001507 915.72689819602431 0 915.72689819602431 -637.52689993120271 0 0 0 0 -3705.7866118423117 781.45493917424756 0 781.45493917424756 -477.38909335268215 0 0 0 0 -1949.1242927412168 -1028.532624183669 0 -1028.532624183669 -396.44556074529692 0 0 0 0 -4682.8766837134026 -897.44386850104638 0 -897.44386850104638 -342.92808655500642 0 0 0 0 -709.20650185653358 -187.72263499387918 0 -187.72263499387918 -316.22111406126004 0 0 0 0 -1424.6939328600565 -612.56278212009352 0 -612.56278212009352 -273.65072758968358 0 0 0 0 -3487.0020150423079 290.78942444057816 0 290.78942444057816 -9.2217179978783861 0 0 0 0 -2460.102944563987 -200.90826076249232 0 -200.90826076249232 130.29856822476904 0 0 0 0 -334.93795327778207 -324.21999886412505 0 -324.21999886412505 -170.45211454821435 0 0 0 0 -764.65759185739444 -75.779042282271803 0 -75.779042282271803 -14.191654891310122 0 0 0 0 -40.867052471107854 17.722224540065355 0 17.722224540065355 -4.8111190408053544 0 0 0 0 -32.161991612709244 -70.934867053920698 0 -70.934867053920698 435.14507374125878 0 0 0 0 -31.817145212509786 7.2797577102973037 0 7.2797577102973037 13.077555206152283 0 0 0 0 -95.784258756655618 -35.430785247299809 0 -35.430785247299809 6.2163540586193449 0 0 0 0 -77.460560009305482 -50.89252028820647 0 -50.89252028820647 19.25980451686155 0 0 0 0 -9.6665716920669844 -21.515849676206784 0 -21.515849676206784 4.9750977470528461 0 0 0 0 -93.740862750695669 -20.839794096087871 0 -20.839794096087871 15.801755211671804 0 0 0 0 -6.0490231811505488 -20.408882762438992 0 -20.408882762438992 7.2488653316031328 0 0 0 0 -86.869256524955745 -40.009831770552118 0 -40.009831770552118 -18.494955233084056 0 0 0 0 -104.82241482587415 15.570845164868388 0 15.570845164868388 69.975459729445902 0 0 0 0 -46.30664962538134 18.972003125640242 0 18.972003125640242 -4.3853533331314116 0 0 0 0 -70.488488543880521 85.818309130960984 0 85.818309130960984 31.209604408868927 0 0 0 0 -56.42038950175629 101.39627184076346 0 101.39627184076346 -50.277789967139597 0 0 0 0 94.851946251903428 -20.236008299026935 0 -20.236008299026935 -21.015784853583909 0 0 0 0 -63.760518698909436 -94.768420678452259 0 -94.768420678452259 -146.49604621203389 0 0 0 0 -11.764806622212461 0.14187446017707828 0 0.14187446017707828 -0.057720258760737941 0 0 0 0 -36.812512617479115 17.581749906251893 0 17.581749906251893 89.579595073666269 0 0 0 0 -167.61218822501542 -50.237107452008559 0 -50.237107452008559 -9.1086026810087333 0 0 0 0 -11.486130399102922 1.5450419490856291 0 1.5450419490856291 0.28106012866943431 0 0 0 0 -74.278481306246249 -9.2649628160314705 0 -9.2649628160314705 95.516884201539142 0 0 0 0 11.253840873483568 -21.095351375111875 0 -21.095351375111875 16.876534408825137 0 0 0 0 -86.6855530711764 -86.4531795865405 0 -86.4531795865405 -5.0031555235029828 0 0 0 0 -213.37899583100807 -87.819459010143191 0 -87.819459010143191 -49.594255212215444 0 0 0 0 -70.089315936667845 -10.225400750553263 0 -10.225400750553263 48.617147650104926 0 0 0 0 -32.596655688081228 -127.00029812044897 0 -127.00029812044897 -35.103493273894856 0 0 0 0 -99.900033071666257 -113.76837383032853 0 -113.76837383032853 -13.774805120448036 0 0 0 0 -109.06726936768973 -158.18249266238945 0 -158.18249266238945 -114.32388298622345 0 0 0 0 -219.52133238824899 -161.03275676354505 0 -161.03275676354505 -45.29577592963642 0 0 0 0 -223.77813002640687 -99.708118904157118 0 -99.708118904157118 -116.92399495946938 0 0 0 0 -456.10174856666708 -60.13020281892841 0 -60.13020281892841 -103.75305521345354 0 0 0 0 -441.3340211698669 -155.57582118516189 0 -155.57582118516189 -66.83523058757396 0 0 0 0 -214.00924752454739 -122.14238832862679 0 -122.14238832862679 -187.5051203115429 0 0 0 0 -7.5223570348171052 -101.03758503332483 0 -101.03758503332483 -278.27154693361172 0 0 0 0 -443.22732325945981 -90.647839045424917 0 -90.647839045424917 -38.974776841306493 0 0 0 0 -826.01486265365384 -220.28250428930892 0 -220.28250428930892 -230.21464487396611 0 0 0 0 -824.71755170248798 -237.01685564526508 0 -237.01685564526508 -16.217089264438755 0 0 0 0 -441.03469323764875 -103.47355489173786 0 -103.47355489173786 -209.42297029614201 0 0 0 0 -1485.9467120659137 -265.29903887797531 0 -265.29903887797531 43.233823719956035 0 0 0 0 -871.07888635242125 -125.92326532925154 0 -125.92326532925154 0.59494105415956255 0 0 0 0 -867.35649056083639 -185.38363299269372 0 -185.38363299269372 -47.693131222613147 0 0 0 0 -1461.9518310711437 -61.337778707082663 0 -61.337778707082663 122.89459313166117 0 0 0 0 -1422.1777746581065 56.42886007805464 0 56.42886007805464 183.19334363817984 0 0 0 0 -830.70841635562829 80.450129431910682 0 80.450129431910682 88.488526595451276 0 0 0 0 -811.82778892769238 -72.162506252045588 0 -72.162506252045588 -6.1342418433287094 0 0 0 0 -764.01254325173795 179.34719185185349 0 179.34719185185349 141.71145961178081 0 0 0 0 -437.57675317858229 -37.576961861607288 0 -37.576961861607288 -13.38354846889888 0 0 0 0 -369.15097273181891 167.13690415925112 0 167.13690415925112 142.06263064281731 0 0 0 0 -877.99142113904236 209.87183011193974 0 209.87183011193974 198.15305550491939 0 0 0 0 -732.16670667152357 264.04287546843852 0 264.04287546843852 177.38067668263375 0 0 0 0 -1413.4751755773323 406.24208865246385 0 406.24208865246385 442.4991212215682 0 0 0 0 -213.06840198015561 -178.19339917544539 0 -178.19339917544539 -88.220268966470599 0 0 0 0 -203.5572419645614 -149.66056867284192 0 -149.66056867284192 -14.475896904827096 0 0 0 0 -396.40207554094377 -54.225928523526704 0 -54.225928523526704 -17.746940809102398 0 0 0 0 -348.13857692625606 6.6959591548466051 0 6.6959591548466051 -44.148165322787918 0 0 0 0 -152.49341131240362 -113.25681938694765 0 -113.25681938694765 -4.1935730719078492 0 0 0 0 -327.18705715695978 64.350147651693078 0 64.350147651693078 35.807864927478477 0 0 0 0 -178.64413760276511 -103.28276014547419 0 -103.28276014547419 48.789236492288182 0 0 0 0 -94.131079379789298 -191.55724327208759 0 -191.55724327208759 -12.795225123478303 0 0 0 0 -88.182285843824502 -147.47659287715487 0 -147.47659287715487 178.11845498740968 0 0 0 0 39.182701713929418 -176.89507028750131 0 -176.89507028750131 73.625098536405403 0 0 0 0 197.17366796499118 -17.510793152197039 0 -17.510793152197039 128.38946926060225 0 0 0 0 -129.13998404509039 7.460037374329886 0 7.460037374329886 131.57319531820485 0 0 0 0 -115.56882037728792 -9.7187157777675566 0 -9.7187157777675566 60.972138790018107 0 0 0 0 135.81245183393185 293.11302988885802 0 293.11302988885802 193.86550709470976 0 0 0 0 85.948514307558071 28.343798394801752 0 28.343798394801752 204.84216499799004 0 0 0 0 535.00382806581911 369.86075126953938 0 369.86075126953938 244.33705036880338 0 0 0 0 774.23982304293895 -33.757951346855407 0 -33.757951346855407 187.27240018904558 0 0 0 0 292.06465057865717 99.932630831208371 0 99.932630831208371 229.48940885344655 0 0 0 0 372.48825236933772 -228.85825080261566 0 -228.85825080261566 355.4411910375602 0 0 0 0 406.74304144171765 -151.69139129962537 0 -151.69139129962537 220.92665887513795 0 0 0 0 78.009358131792396 -33.771094357154652 0 -33.771094357154652 192.77070816358992 0 0 0 0 87.428025829679427 -249.5928892721796 0 -249.5928892721796 235.94093497607537 0 0 0 0 129.19798029455706 -168.01424517998908 0 -168.01424517998908 251.35793181920781 0 0 0 0 141.37675192859024 -210.84659361056765 0 -210.84659361056765 361.54515162970074 0 0 0 0 -92.122114231569867 -230.75489677815608 0 -230.75489677815608 327.15438508701845 0 0 0 0 -83.544561852933839 -186.89132469449942 0 -186.89132469449942 433.46764425245328 0 0 0 0 -730.2998028130387 745.00842692063361 0 745.00842692063361 827.84982278945245 0 0 0 0 -2161.0550379244887 268.33577291585971 0 268.33577291585971 318.30818982873689 0 0 0 0 697.30165676801698 132.72394978952252 0 132.72394978952252 -845.83363950015337 0 0 0 0 1.1201146649517568 1.9455959501481743 0 1.9455959501481743 1.5777247121467681 0 0 0 0 -832.18500581615081 508.38282712196678 0 508.38282712196678 547.43682473383706 0 0 0 0 -946.65689999429742 366.2386653509916 0 366.2386653509916 442.25744180084985 0 0 0 0 -666.38700831995811 407.67805916731959 0 407.67805916731959 267.16878187204748 0 0 0 0 -330.94267585471971 385.50788251153426 0 385.50788251153426 268.49393051462334 0 0 0 0 -303.72853911295533 229.68682977330673 0 229.68682977330673 169.37813693830685 0 0 0 0 -51.989529766724445 401.16846365353513 0 401.16846365353513 349.00983526192977 0 0 0 0 -327.29080806381535 290.89544351996028 0 290.89544351996028 315.5207574570577 0 0 0 0 -119.8746433397755 196.83858673103532 0 196.83858673103532 167.76268184874152 0 0 0 0 47.915736806375207 646.9219877785481 0 646.9219877785481 509.62911605020258 0 0 0 0 -21.893110407219524 3.8016876237908548 0 3.8016876237908548 0.42709256635874038 0 0 0 0 -1931.1065279949398 -1350.5912833220859 0 -1350.5912833220859 -1229.0072947550766 0 0 0 0 -654.14606866013492 -958.16247907345041 0 -958.16247907345041 -1326.7504201954062 0 0 0 0 -1185.1448819758953 -1101.2697685422181 0 -1101.2697685422181 -1095.2999852644762 0 0 0 0 -1172.7728136563674 -393.87243959252373 0 -393.87243959252373 -274.02809838566446 0 0 0 0 -704.63837759481976 -779.67001301418554 0 -779.67001301418554 -770.7148071342765 0 0 0 0 -105.21725259473897 -722.04295207508994 0 -722.04295207508994 -1234.2016676170642 0 0 0 0 -728.91959006292745 -717.8347309288547 0 -717.8347309288547 -786.8079941215251 0 0 0 0 -51.691518552334969 5.0712810992468178 0 5.0712810992468178 -8.1734859481497395 0 0 0 0 -701.36808091689454 -491.02030410222812 0 -491.02030410222812 335.91166083164444 0 0 0 0 -62.555018002611178 70.629019937757903 0 70.629019937757903 -418.74959856640635 0 0 0 0 342.7411460808944 -319.09106968010474 0 -319.09106968010474 504.46423459220023 0 0 0 0 498.4362607098883 -346.10210710108868 0 -346.10210710108868 396.78181424140712 0 0 0 0 82.628341735864524 -225.65471351155429 0 -225.65471351155429 557.62795114757364 0 0 0 0 -105.16427194187418 -105.48973258897149 0 -105.48973258897149 481.34347794653752 0 0 0 0 -125.57759824613458 -66.898964604138882 0 -66.898964604138882 408.97341342624713 0 0 0 0 59.813796066911891 -254.02357832704092 0 -254.02357832704092 451.88897506733883 0 0 0 0 64.892136007198133 -222.29512025353142 0 -222.29512025353142 474.67551770333193 0 0 0 0 369.63472620269749 -236.62817402315306 0 -236.62817402315306 -1017.828634408967 0 0 0 0 -292.41938303138159 -138.50800260835643 0 -138.50800260835643 -427.78471422643611 0 0 0 0 -158.26792828978796 -322.56550675845517 0 -322.56550675845517 -639.83114807163713 0 0 0 0 -902.86620918550761 -336.10948917360616 0 -336.10948917360616 -480.90256200806346 0 0 0 0 -987.30257730008452 -2.9959253139559223 0 -2.9959253139559223 23.499982579889945 0 0 0 0 -416.63871246285271 -408.15720815921873 0 -408.15720815921873 -668.1548337487161 0 0 0 0 -327.07811266838689 211.51554912247099 0 211.51554912247099 -48.793084144584554 0 0 0 0 -643.09377101009159 -340.46819975472863 0 -340.46819975472863 -505.67630696977722 0 0 0 0 -748.5150394985103 -47.362902722314175 0 -47.362902722314175 252.5683640383395 0 0 0 0 -765.73767925769789 458.2219063856387 0 458.2219063856387 -342.14739946400232 0 0 0 0 -166.42854677827489 -30.856736071393442 0 -30.856736071393442 28.552056876330475 0 0 0 0 -50.43169785421837 -50.417597710877857 0 -50.417597710877857 -82.184215011783166 0 0 0 0 -72.580328393341915 -218.53996748928313 0 -218.53996748928313 -598.94380420557752 0 0 0 0 -136.77455847946112 -11.867383450006628 0 -11.867383450006628 502.04531628749953 0 0 0 0 -31.992829646074014 -15.412569866558755 0 -15.412569866558755 6.5396681826343031 0 0 0 0 -1510.7802629704529 585.26330783371134 0 585.26330783371134 -106.03050500598511 0 0 0 0 -16.156137879664527 -13.089475081479492 0 -13.089475081479492 -2.9076974946165892 0 0 0 0 31.761844451393699 -150.95965934362391 0 -150.95965934362391 30.147551510741323 0 0 0 0 -158.7332392927492 84.911719229059145 0 84.911719229059145 354.18916008986525 0 0 0 0 -189.02164777426515 -153.39198217825879 0 -153.39198217825879 297.00361757892688 0 0 0 0 -739.73890945210587 47.125877464465702 0 47.125877464465702 284.09077242750027 0 0 0 0 -366.99612879165215 -101.34486017658901 0 -101.34486017658901 229.40728921210655 0 0 0 0 -466.51974207734747 151.27294784447975 0 151.27294784447975 -85.09410678807626 0 0 0 0 -1037.5833778903179 207.21549565614146 0 207.21549565614146 -64.948990277692246 0 0 0 0 -489.38861111100414 16.517675795469472 0 16.517675795469472 -256.1225569896701 0 0 0 0 -493.85641034193395 118.79561992158301 0 118.79561992158301 79.013754860789049 0 0 0 0 -403.71555965275184 276.24141464461155 0 276.24141464461155 -78.062783804806259 0 0 0 0 -356.81656307865342 76.18897227766422 0 76.18897227766422 84.353358973218292 0 0 0 0 -491.21519293454185 -24.279863184994838 0 -24.279863184994838 213.86319569484203 0 0 0 0 -388.60544265381759 103.47570675263887 0 103.47570675263887 67.855123970799241 0 0 0 0 -243.00179292209214 -111.21205181637424 0 -111.21205181637424 139.47852800778924 0 0 0 0 -318.86626372116734 -78.028393064547799 0 -78.028393064547799 125.48206823730516 0 0 0 0 -290.26233122698613 -44.071530562763314 0 -44.071530562763314 57.683609363226424 0 0 0 0 -243.38490061451739 31.601859118172001 0 31.601859118172001 36.522863750010856 0 0 0 0 -147.93599087838084 -157.45312281304973 0 -157.45312281304973 236.01029779949113 0 0 0 0 -196.60907697491348 -232.41512496663972 0 -232.41512496663972 261.91403788386037 0 0 0 0 -300.4283432213706 -176.09084117774501 0 -176.09084117774501 346.15949966592643 0 0 0 0 -290.36301413056208 -179.50280700964549 0 -179.50280700964549 234.91543079491515 0 0 0 0 -343.76418648792605 -83.862709205788178 0 -83.862709205788178 224.38705371457672 0 0 0 0 -188.58756168014952 -199.01190784130063 0 -199.01190784130063 130.92122698178071 0 0 0 0 -213.07057051046286 -176.17272633068205 0 -176.17272633068205 121.63935405221127 0 0 0 0 -68.467096412459796 -223.211951491881 0 -223.211951491881 110.35335171343195 0 0 0 0 -154.56368699984159 -213.04049713693348 0 -213.04049713693348 109.21561318450205 0 0 0 0 -151.81772920058575 -197.42935824780693 0 -197.42935824780693 5.443881257704561 0 0 0 0 -215.70401458919514 -136.12660648816291 0 -136.12660648816291 38.942959733766656 0 0 0 0 -162.28780822339468 -142.40132842426829 0 -142.40132842426829 28.679711348178898 0 0 0 0 -140.59946352934639 -169.81225955840068 0 -169.81225955840068 -3.0854322184068224 0 0 0 0 -85.001029721752275 -144.51325561601379 0 -144.51325561601379 -44.544580397544678 0 0 0 0 -136.9592170661781 -176.97140356819045 0 -176.97140356819045 6.3805828899985784 0 0 0 0 -137.36247605907556 -196.49101453749051 0 -196.49101453749051 -62.257224208736716 0 0 0 0 -228.18452464242 31.144833936545865 0 31.144833936545865 16.710479037119057 0 0 0 0 -170.57149406796088 -83.438112158199147 0 -83.438112158199147 32.393290529091928 0 0 0 0 -131.06612154410686 -75.460499165360034 0 -75.460499165360034 3.3260454517676408 0 0 0 0 -90.854335515659841 -82.999811134790008 0 -82.999811134790008 -7.8576649773058307 0 0 0 0 -161.25898076770318 20.227728371668206 0 20.227728371668206 -32.059594308518172 0 0 0 0 -53.593268220101891 -9.6172983196491941 0 -9.6172983196491941 -25.489576096626479 0 0 0 0 -348.22078164484992 192.23484240716812 0 192.23484240716812 -8.1526740925733066 0 0 0 0 -188.8779070507735 114.66091659051392 0 114.66091659051392 -22.340948008417172 0 0 0 0 -284.97314954106696 -17.333249309098733 0 -17.333249309098733 -283.20521829188851 0 0 0 0 -503.87186941719847 7.0826144399874238 0 7.0826144399874238 8.8646097380355968 0 0 0 0 -258.79153089239844 51.420973023135048 0 51.420973023135048 15.779910108044703 0 0 0 0 -260.6482812595932 41.335412667237847 0 41.335412667237847 -6.6531543293872346 0 0 0 0 -291.05135062118643 141.19879746140987 0 141.19879746140987 3.4018793940363139 0 0 0 0 -314.04299385083141 111.90873825525148 0 111.90873825525148 -19.225114741222569 0 0 0 0 -297.20647114186431 148.77101115419589 0 148.77101115419589 -5.9132416744268994 0 0 0 0 -258.63668502078508 154.05085841448681 0 154.05085841448681 -5.7850696917034838 0 0 0 0 -249.89321479496721 159.07644567362235 0 159.07644567362235 -78.897969577701133 0 0 0 0 -187.4642291215423 96.135530740702279 0 96.135530740702279 -23.056046970860876 0 0 0 0 -132.95655621385959 17.228226115477014 0 17.228226115477014 -17.565014860993415 0 0 0 0 -213.2416953085085 22.738554957875778 0 22.738554957875778 -4.5635231173732791 0 0 0 0 -123.96105496247765 44.102513310401037 0 44.102513310401037 118.52739612167159 0 0 0 0 -131.24386664121266 -33.136002462207671 0 -33.136002462207671 63.975610403890187 0 0 0 0 -95.678256708676798 -13.549978220570779 0 -13.549978220570779 14.803266570058909 0 0 0 0 -85.503843747729206 10.051269328630013 0 10.051269328630013 22.931239271602763 0 0 0 0 -50.417210570420139 -92.649131122685503 0 -92.649131122685503 139.26452713581239 0 0 0 0 -62.820052687733551 42.791035541489578 0 42.791035541489578 -64.401154319126206 0 0 0 0 -145.31416056476883 165.18406721761176 0 165.18406721761176 -130.34295392637728 0 0 0 0 -146.75904773571528 -48.026529225400509 0 -48.026529225400509 12.056518547087876 0 0 0 0 -125.80384789225354 -43.847704304101057 0 -43.847704304101057 -3.9793738504349676 0 0 0 0 -121.25580111794989 -33.589765895712162 0 -33.589765895712162 8.5890827374028049 0 0 0 0 -151.3719710810692 -38.73041493242772 0 -38.73041493242772 29.20315250262496 0 0 0 0 -100.44916957312671 -18.150089024699355 0 -18.150089024699355 30.195398999677082 0 0 0 0 -131.96161936485441 -30.497061737426748 0 -30.497061737426748 46.611121740460248 0 0 0 0 -149.16071151930373 -50.063171115201158 0 -50.063171115201158 6.7052843283750008 0 0 0 0 -134.89870787385735 -44.589006016561825 0 -44.589006016561825 -14.35981375040501 0 0 0 0 -186.88801663630875 -38.75548641640853 0 -38.75548641640853 -13.920630051244785 0 0 0 0 -131.37721170473378 -60.569487617140567 0 -60.569487617140567 -21.630002321273082 0 0 0 0 -134.22020374593558 -58.051138586142997 0 -58.051138586142997 -22.316315238639618 0 0 0 0 -155.66271377622616 -50.174179027208993 0 -50.174179027208993 -2.9668538133687434 0 0 0 0 -133.71840758088729 -55.9482011730301 0 -55.9482011730301 -24.931258537502345 0 0 0 0 -144.08065620958223 -44.636740267800519 0 -44.636740267800519 -11.433825745282775 0 0 0 0 -132.64196861460368 -57.945699450018083 0 -57.945699450018083 -23.911136494110451 0 0 0 0 -111.49390496821798 -59.553033279292634 0 -59.553033279292634 -37.075655211266167 0 0 0 0 -114.58625175562338 -84.914569849474447 0 -84.914569849474447 -38.238298380709693 0 0 0 0 -1.9370823420751151 1.1688170302324465 0 1.1688170302324465 -0.17578986791999718 0 0 0 0 163.62355001152901 71.945646765342644 0 71.945646765342644 20.738403412536172 0 0 0 0 -158.76984342519427 -78.896216317441827 0 -78.896216317441827 -25.267849799443411 0 0 0 0 -187.75078540396498 -101.29209532739148 0 -101.29209532739148 3.1208933908669678 0 0 0 0 -239.94294534522487 -69.488406967203019 0 -69.488406967203019 -11.814369683401765 0 0 0 0 -202.19724389497424 -47.438786396386149 0 -47.438786396386149 -64.090952369865136 0 0 0 0 -226.675016003981 16.799391924171687 0 16.799391924171687 -71.558983803723777 0 0 0 0 -283.69364003124065 0.10202260004473374 0 0.10202260004473374 -63.387481013740398 0 0 0 0 -252.10525823192438 16.798356266836208 0 16.798356266836208 -60.946418346901865 0 0 0 0 -236.49998294934994 -38.036098972754075 0 -38.036098972754075 8.6483010122337873 0 0 0 0 159.46632776788829 73.781913503671717 0 73.781913503671717 21.558724176897158 0 0 0 0 -0.51811472479775489 0.85551291014920139 0 0.85551291014920139 -0.026568637400017359 0 0 0 0 149.50353938938861 22.12822472717798 0 22.12822472717798 1.0013475695732268 0 0 0 0 214.38372890968458 51.60721448096831 0 51.60721448096831 -22.601665559706362 0 0 0 0 194.91637743431056 14.362495228002729 0 14.362495228002729 -31.526625357400462 0 0 0 0 -13.627492652546437 41.185193375143456 0 41.185193375143456 1.6370862453785957 0 0 0 0 74.611015149668674 115.32519022171709 0 115.32519022171709 -24.427503986061993 0 0 0 0 -188.07431700700545 119.11276361108776 0 119.11276361108776 20.24590102726188 0 0 0 0 -190.3231435030757 135.4373709556819 0 135.4373709556819 -41.422383867276494 0 0 0 0 -225.72673076170031 10.965962279889652 0 10.965962279889652 -171.43612062986585 0 0 0 0 -521.58944390180113 110.07327185864597 0 110.07327185864597 -41.558033343475927 0 0 0 0 -36.783491867216071 -44.206610967465735 0 -44.206610967465735 29.993012126334634 0 0 0 0 -2.1377764695091628 1.413703818448198 0 1.413703818448198 -0.96092620276915275 0 0 0 0 -498.60036437066447 -249.97453913350751 0 -249.97453913350751 -109.13591829008078 0 0 0 0 -38.417315942468122 168.69982659958021 0 168.69982659958021 -50.783509698216221 0 0 0 0 -171.76801754707412 -94.348490766189798 0 -94.348490766189798 -35.03267173468339 0 0 0 0 -305.66318212630722 -18.86097674898781 0 -18.86097674898781 6.0489200825418266 0 0 0 0 -313.05750041173087 -81.59748311200741 0 -81.59748311200741 47.116455678969942 0 0 0 0 -272.52850458135072 42.748213320829564 0 42.748213320829564 45.650808734573047 0 0 0 0 -225.74506593600381 -44.397964454060912 0 -44.397964454060912 62.130026620418448 0 0 0 0 -211.16515132263885 2.5780183474084879 0 2.5780183474084879 19.544117019927398 0 0 0 0 -301.08192243980011 -81.875886494626229 0 -81.875886494626229 32.052645835054591 0 0 0 0 -213.225778562497 -40.822146287409851 0 -40.822146287409851 48.617362217095888 0 0 0 0 -144.36202702618903 38.100063057795523 0 38.100063057795523 62.11441069247121 0 0 0 0 14.771577554565738 68.885745983799097 0 68.885745983799097 -29.182926388571104 0 0 0 0 88.754159515592619 -4.6864960868438175 0 -4.6864960868438175 -31.443044801148062 0 0 0 0 -22.350993851817677 37.699303192974838 0 37.699303192974838 1.6288113619370019 0 0 0 0 -148.02297394254128 7.359007027743246 0 7.359007027743246 30.717165848638615 0 0 0 0 -149.98193664016435 20.390678400684919 0 20.390678400684919 56.392336760929538 0 0 0 0 -137.04067791203852 28.152542413608671 0 28.152542413608671 41.123900591306665 0 0 0 0 -75.032104699148476 -17.829686549467397 0 -17.829686549467397 2.3698032546336663 0 0 0 0 -87.019652520495583 -25.945917816053679 0 -25.945917816053679 -3.1045747431483903 0 0 0 0 68.67632259857055 -25.66855297618001 0 -25.66855297618001 -77.072787723596321 0 0 0 0 -4.6012867503829682 -8.0742055601195943 0 -8.0742055601195943 -9.7489959725515813 0 0 0 0 9.533946866333963 0.80971536357235152 0 0.80971536357235152 -2.2376970169960568 0 0 0 0 -35.189730389989563 108.75237153499711 0 108.75237153499711 82.931342478450006 0 0 0 0 -69.020345780008029 12.653040634955516 0 12.653040634955516 11.885893022420554 0 0 0 0 -7.5080291580816265 12.725447519844693 0 12.725447519844693 -173.4788726133097 0 0 0 0 -103.28385072956735 -170.11549074369759 0 -170.11549074369759 -139.98690653411722 0 0 0 0 -8.0929462827588736 -11.113381590848846 0 -11.113381590848846 2.2638901494449462 0 0 0 0 -204.30087643274601 55.324238977134883 0 55.324238977134883 1.2440445149818515 0 0 0 0 -187.89775937213562 -167.30777570634291 0 -167.30777570634291 -53.223925241326469 0 0 0 0 -143.71609126249678 -72.863197157181276 0 -72.863197157181276 136.69932045139103 0 0 0 0 -73.906258621609936 8.0778657184467448 0 8.0778657184467448 12.702741279851342 0 0 0 0 -274.01910594732908 115.96897022620738 0 115.96897022620738 219.92755234606557 0 0 0 0 -107.242013981333 15.814102367297664 0 15.814102367297664 63.704483677828023 0 0 0 0 -40.920487250870792 1.8727377249812207 0 1.8727377249812207 31.399553207055646 0 0 0 0 -76.763054231036506 2.6351787362205243 0 2.6351787362205243 15.190088964077535 0 0 0 0 -41.795844276641446 42.527150383539151 0 42.527150383539151 39.953949414136048 0 0 0 0 23.33980832863017 136.90604693293324 0 136.90604693293324 -108.74982888772547 0 0 0 0 180.50988036311173 -31.488360464182705 0 -31.488360464182705 -39.840328049037055 0 0 0 0 -33.673244332196191 59.845997150284802 0 59.845997150284802 -60.212272681457421 0 0 0 0 -122.70010262195865 -96.735179452296279 0 -96.735179452296279 -74.048489942000174 0 0 0 0 -2.3474982936217543 1.9777107033778449 0 1.9777107033778449 1.1202069362488734 0 0 0 0 -239.41037176395184 0.57536673955564765 0 0.57536673955564765 59.620133781276877 0 0 0 0 -5.8219082080995577 -8.3790630172126725 0 -8.3790630172126725 2.9184233572075966 0 0 0 0 -67.163509730846272 -29.223243518136883 0 -29.223243518136883 -4.0056669624730716 0 0 0 0 -55.402350469514204 -42.208471988970985 0 -42.208471988970985 95.924109487754208 0 0 0 0 -44.548521539152716 -120.48221710399122 0 -120.48221710399122 -15.788666029762453 0 0 0 0 -177.57569023761607 1.2824442287262627 0 1.2824442287262627 81.751326723091779 0 0 0 0 -58.241596600615196 6.63172291194428 0 6.63172291194428 4.5045092987792081 0 0 0 0 -199.73015513179416 177.20860466613968 0 177.20860466613968 -43.517556210467319 0 0 0 0 -153.09345649842726 51.21309634836274 0 51.21309634836274 24.423386896322882 0 0 0 0 24.544560165741132 63.873117063759196 0 63.873117063759196 -40.812230223384859 0 0 0 0 -10.957317269472696 41.513839463116568 0 41.513839463116568 -45.962420057343934 0 0 0 0 -16.01423690994497 19.875643293439936 0 19.875643293439936 11.080874712847127 0 0 0 0 43.254271732119378 -1.9467786235165363 0 -1.9467786235165363 5.8312921325069738 0 0 0 0 -14.161455082814456 20.284953383166851 0 20.284953383166851 8.6625088227239218 0 0 0 0 -67.060068278588005 18.491122517258873 0 18.491122517258873 28.942129380344795 0 0 0 0 11.216767519741552 -35.167689296444564 0 -35.167689296444564 -24.802353335563112 0 0 0 0 0.93719793000093432 2.7624005929461788 0 2.7624005929461788 0.13900217846866481 0 0 0 0 -1.6118917363631908 -0.20339215783162956 0 -0.20339215783162956 0.63078071495786547 0 0 0 0 -55.337835223086586 100.17436665537338 0 100.17436665537338 -109.7737129753566 0 0 0 0 113.13610112742754 -64.546084357215477 0 -64.546084357215477 -88.008677865773791 0 0 0 0 -595.67424098492484 45.179029519706546 0 45.179029519706546 28.723330145523562 0 0 0 0 -437.54620335734216 -372.07740566237959 0 -372.07740566237959 -62.122695236675668 0 0 0 0 -457.34310982871102 177.10816718089393 0 177.10816718089393 -140.11727473380847 0 0 0 0 -2.4761231805377975 -0.9808469063849703 0 -0.9808469063849703 0.0094150891783691126 0 0 0 0 5.4574933105322998 157.58542264113677 0 157.58542264113677 -40.286643538244832 0 0 0 0 -77.11932282068301 98.789768082837952 0 98.789768082837952 194.52792126123342 0 0 0 0 5.2955275073181838 3.115385774481183 0 3.115385774481183 -1.9513230827479333 0 0 0 0 135.5349418375481 6.1270234293549848 0 6.1270234293549848 -1.9557693565903946 0 0 0 0 -54.414988039337914 -12.823704412272194 0 -12.823704412272194 2.8104330701510021 0 0 0 0 -4.6054063862048906 2.6177885669665759 0 2.6177885669665759 0.38883605105087438 0 0 0 0 -26.585070157578485 4.0279327132816434 0 4.0279327132816434 3.909720965161525 0 0 0 0 -12.172214777095292 16.985893638212769 0 16.985893638212769 0.24806051419048639 0 0 0 0 3.4198641189141199 15.735927335160341 0 15.735927335160341 7.7493594839847901 0 0 0 0 -24.188505481580933 14.429885299228545 0 14.429885299228545 3.909809963219363 0 0 0 0 -4.9013179735629819 10.078502967830445 0 10.078502967830445 76.808368259989905 0 0 0 0 -3.6173480216982909 -0.029096863784559446 0 -0.029096863784559446 0.33600132005058375 0 0 0 0 75.146371825801907 22.792412070484602 0 22.792412070484602 -104.05626069120659 0 0 0 0 -103.48943189518468 28.562281110869954 0 28.562281110869954 -0.37479432051974959 0 0 0 0 -445.72982285226681 -260.7970526377718 0 -260.7970526377718 -236.65143965543768 0 0 0 0 -426.68401758762775 -145.65009889196105 0 -145.65009889196105 -75.789900007754227 0 0 0 0 21.731232831261877 -21.581054509849785 0 -21.581054509849785 -206.96499843011279 0 0 0 0 -2.2144928171240963 -1.6035016883774063 0 -1.6035016883774063 -0.040818732004892555 0 0 0 0 -50.52924743067706 -95.844135069325148 0 -95.844135069325148 -32.378749515778182 0 0 0 0 -50.621888678404503 30.473585537588754 0 30.473585537588754 -18.229781761214273 0 0 0 0 -63.10578575800173 6.1764977444770279 0 6.1764977444770279 3.0808798556553465 0 0 0 0 34.548582738090772 -23.148904727921547 0 -23.148904727921547 -25.974946371199188 0 0 0 0 -231.74852524627931 88.038142342642004 0 88.038142342642004 -15.907334014251497 0 0 0 0 -1.1972829955630004 12.687366433801971 0 12.687366433801971 -0.16065505015096831 0 0 0 0 -59.864759437259636 20.839187848608919 0 20.839187848608919 11.70653701742448 0 0 0 0 -36.949129262095084 0.26967413067812984 0 0.26967413067812984 0.75213582177696026 0 0 0 0 -4.1725354902097251 0.11684962459685266 0 0.11684962459685266 0.48258971751636687 0 0 0 0 -31.318504353205924 0.705583994881545 0 0.705583994881545 2.1549121815275565 0 0 0 0 -65.236877517512767 2.1878597035781695 0 2.1878597035781695 5.4839012095973771 0 0 0 0 -17.782785869785585 2.6417893013300784 0 2.6417893013300784 8.4139805938106633 0 0 0 0 -19.075910226687938 1.4029614192590429 0 1.4029614192590429 0.7110308908069729 0 0 0 0 -52.06123196426779 10.614564819349766 0 10.614564819349766 -4.2651065483564707 0 0 0 0 -40.731451723899227 -45.308312326801243 0 -45.308312326801243 -50.680544050977105 0 0 0 0 -68.13928958697943 -14.142481719461188 0 -14.142481719461188 24.599071744954259 0 0 0 0 -70.642009226605296 -6.4028516393208292 0 -6.4028516393208292 3.0342479912442286 0 0 0 0 -44.678640157121038 -4.0372705600211702 0 -4.0372705600211702 0.64590508424227622 0 0 0 0 -60.275050085969269 -12.303506258886301 0 -12.303506258886301 22.51386841903242 0 0 0 0 -25.621530833872384 1.1494828141998106 0 1.1494828141998106 -28.870958058236837 0 0 0 0 -33.714565128615135 -5.0271574319119736 0 -5.0271574319119736 1.2061482074565788 0 0 0 0 -86.910076634318102 -67.755951818427647 0 -67.755951818427647 -11.483919335179806 0 0 0 0 -71.449294877646025 -8.1646933870235898 0 -8.1646933870235898 0.98566701767265386 0 0 0 0 -9.7092230408070463 -1.482282575388524 0 -1.482282575388524 -1.1978998315774758 0 0 0 0 -69.507497112295823 -8.8441369812181847 0 -8.8441369812181847 -3.8705775072953656 0 0 0 0 -33.180905544068082 -25.369491191251996 0 -25.369491191251996 25.891554427789515 0 0 0 0 -114.11077603886952 -27.270098115533415 0 -27.270098115533415 39.554636331558868 0 0 0 0 -89.374509379660594 22.582552477089735 0 22.582552477089735 39.458002346945705 0 0 0 0 -65.538736569666071 24.80006070708464 0 24.80006070708464 39.481807767942882 0 0 0 0 -141.88730155592202 89.063976243982978 0 89.063976243982978 -14.540478499120127 0 0 0 0 76.688158902506984 -67.72338622795769 0 -67.72338622795769 2.4200705119203576 0 0 0 0 -217.68663751415443 -148.15849191927589 0 -148.15849191927589 13.476276506136855 0 0 0 0 -143.07084812576068 10.681167445160611 0 10.681167445160611 34.013009639808843 0 0 0 0 -0.14981601541356326 -1.2431252202421206 0 -1.2431252202421206 -1.9258542952924653 0 0 0 0 -607.22731205640594 180.22187412650578 0 180.22187412650578 -100.61794754445896 0 0 0 0 -652.15805294851452 6.8006530599232633 0 6.8006530599232633 104.63030070537116 0 0 0 0 -310.73145616892725 -287.48333430999173 0 -287.48333430999173 204.43171652473592 0 0 0 0 -708.87334301453666 240.38796759989938 0 240.38796759989938 331.83583825551733 0 0 0 0 -1494.3553002614353 344.01507224250395 0 344.01507224250395 198.33337245599455 0 0 0 0 -736.04335127350714 107.93006115765796 0 107.93006115765796 -106.92250387540832 0 0 0 0 -1778.6430881755368 310.78136547777029 0 310.78136547777029 211.45327815186363 0 0 0 0 -66.769508109689923 -7.6178035951945731 0 -7.6178035951945731 -6.1226580220022697 0 0 0 0 -3.7539524511259046 -15.228636823356908 0 -15.228636823356908 -3.6032249939320224 0 0 0 0 87.401428998913616 43.002364226456692 0 43.002364226456692 -351.24891665268717 0 0 0 0 -66.475147180448403 -6.6746008210457148 0 -6.6746008210457148 -3.5404248945583277 0 0 0 0 -67.934153849098948 -6.0834508968103478 0 -6.0834508968103478 0.78149391794590883 0 0 0 0 -30.820353362709284 7.8132267463852969 0 7.8132267463852969 33.233440001863656 0 0 0 0 0.62587022443767637 60.190286366647669 0 60.190286366647669 106.22865330716843 0 0 0 0 -91.572688599524554 -29.725617739696574 0 -29.725617739696574 179.99937130516736 0 0 0 0 -112.99429104541196 -75.028119153989337 0 -75.028119153989337 85.212532304573998 0 0 0 0 -79.304777871468104 474.70364321690334 0 474.70364321690334 -264.59464033396461 0 0 0 0 380.67275308303761 -248.98018775602443 0 -248.98018775602443 -139.79937661712461 0 0 0 0 -8.3474952784912304 -1.8237597026595154 0 -1.8237597026595154 1.4131582638053879 0 0 0 0 -6.937043547874282 -1.7844678892781776 0 -1.7844678892781776 -1.9718654043824986 0 0 0 0 -546.55034516222076 512.64693425488292 0 512.64693425488292 -764.75898508578712 0 0 0 0 -870.20744100368756 -467.83835267703017 0 -467.83835267703017 38.218182106220866 0 0 0 0 -1209.7211844429839 857.12815810823895 0 857.12815810823895 -284.87519936536899 0 0 0 0 -2080.3629154802552 439.27885053575415 0 439.27885053575415 178.22893482608811 0 0 0 0 -908.20097146183252 199.83173211330643 0 199.83173211330643 -0.020477695305839538 0 0 0 0 -139.78483704174869 132.61271481169501 0 132.61271481169501 -200.99986596451478 0 0 0 0 321.48359847301617 -205.1182062816618 0 -205.1182062816618 -74.774929810885908 0 0 0 0 -200.47016164338856 133.91480043003622 0 133.91480043003622 -186.21820506206566 0 0 0 0 -1060.2792100376173 322.56524847386174 0 322.56524847386174 -74.416935643837519 0 0 0 0 -173.34212188742822 139.55181117696407 0 139.55181117696407 -200.50395074796918 0 0 0 0 -4013.2700955196779 891.95455863076302 0 891.95455863076302 -175.75561974765156 0 0 0 0 -2077.778185625044 344.89745549510246 0 344.89745549510246 -405.12007746076864 0 0 0 0 -2836.7630451323057 342.74075824484811 0 342.74075824484811 -1.9227358555682963 0 0 0 0 -2187.2691787664953 494.06365582039655 0 494.06365582039655 -300.88419100824979 0 0 0 0 -2794.5506906113878 563.25293655681116 0 563.25293655681116 -277.56299543714499 0 0 0 0 -2831.6177205933345 505.03925287099327 0 505.03925287099327 -368.98473875526162 0 0 0 0 -2805.2063827662 976.49567988372371 0 976.49567988372371 32.463684888589285 0 0 0 0 -2797.0058814488584 607.66301086713804 0 607.66301086713804 104.43449724113054 0 0 0 0 -1662.6377741483739 757.83597896211745 0 757.83597896211745 -270.25964720429562 0 0 0 0 -2430.3938973632467 784.69410872195908 0 784.69410872195908 55.367647946441252 0 0 0 0 -1866.0027987963113 579.21613376610844 0 579.21613376610844 81.432989378982256 0 0 0 0 -1448.1267978458272 551.7688709554526 0 551.7688709554526 -30.3639569351337 0 0 0 0 -2376.2291844801512 1216.646887744929 0 1216.646887744929 -206.24907869570734 0 0 0 0 -2030.788036121914 1434.3319546595928 0 1434.3319546595928 -487.6646644209427 0 0 0 0 -1396.803015938116 717.94579901499469 0 717.94579901499469 -81.356140530135235 0 0 0 0 -2472.4108357988734 1197.7015710536923 0 1197.7015710536923 -277.590219007423 0 0 0 0 -527.67154756822856 462.34470128245812 0 462.34470128245812 -634.55370918191147 0 0 0 0 -204.42789115873165 -119.680069224617 0 -119.680069224617 -260.39993785818024 0 0 0 0 -1425.7451548135141 634.77130410727955 0 634.77130410727955 -165.37788458948876 0 0 0 0 -943.05042864408665 542.04555295764737 0 542.04555295764737 -261.3019945509518 0 0 0 0 -941.67787972597318 256.98043278536954 0 256.98043278536954 -12.024670449679434 0 0 0 0 -92.648423346545314 99.771668706796163 0 99.771668706796163 -245.06536546985126 0 0 0 0 -250.80524867767235 -16.916176261298006 0 -16.916176261298006 -115.38062533025322 0 0 0 0 -51.245732487979694 99.170344173346791 0 99.170344173346791 -116.58660977606814 0 0 0 0 -307.87618175827083 234.35184853932833 0 234.35184853932833 -362.00664640622108 0 0 0 0 -13.454310162835466 -19.680611661670412 0 -19.680611661670412 5.5674387816412167 0 0 0 0 -352.38897004598402 -15.055054910458864 0 -15.055054910458864 68.200952713065305 0 0 0 0 -85.994652793917339 -52.291591591896761 0 -52.291591591896761 -54.707435787755003 0 0 0 0 253.07934551523067 -17.288275409626749 0 -17.288275409626749 -242.07589455751076 0 0 0 0 64.272466923925094 -262.00712557576571 0 -262.00712557576571 -117.28457906967378 0 0 0 0 -0.21870886864232375 -0.33446297039452588 0 -0.33446297039452588 -1.0255852112346378 0 0 0 0 -124.81319279386662 55.398847140725536 0 55.398847140725536 -56.168892864607756 0 0 0 0 -152.44139139715116 -51.465344357580761 0 -51.465344357580761 130.38174315244214 0 0 0 0 -192.38652481324971 83.609135595824682 0 83.609135595824682 56.201651205789858 0 0 0 0 -245.35383174351591 -220.13627802408934 0 -220.13627802408934 167.65406512749996 0 0 0 0 -134.5845872972277 -101.1069965969109 0 -101.1069965969109 185.46174594832883 0 0 0 0 -49.057320207881276 123.94491259979623 0 123.94491259979623 112.53299864904511 0 0 0 0 -296.2533994121477 -75.745274780038471 0 -75.745274780038471 -121.60538285511893 0 0 0 0 -144.25594083988108 -146.63873229296951 0 -146.63873229296951 12.622180412334728 0 0 0 0 -48.003345483681187 -212.96600752241466 0 -212.96600752241466 35.646896405193729 0 0 0 0 -60.196953261271119 -94.415102971850501 0 -94.415102971850501 -62.028943994512701 0 0 0 0 -267.08304776616569 -15.089042597056505 0 -15.089042597056505 -8.5456848833282493 0 0 0 0 -98.946058113295294 -88.483432395363479 0 -88.483432395363479 242.95140936028656 0 0 0 0 -157.82623951742426 -203.9084637297774 0 -203.9084637297774 99.34707177040309 0 0 0 0 12.296411474744673 -158.08248152794204 0 -158.08248152794204 48.292571795185722 0 0 0 0 -70.883505545840308 -57.342722637189354 0 -57.342722637189354 44.997754513668951 0 0 0 0 -102.70196558573662 -123.4221886580325 0 -123.4221886580325 -91.317302398059837 0 0 0 0 -13.627345337934344 -56.076594374476969 0 -56.076594374476969 2.0384127396062617 0 0 0 0 -68.57379988799164 4.3832558680262537 0 4.3832558680262537 1.1273634390505398 0 0 0 0 -94.606841834873194 -74.236988364487843 0 -74.236988364487843 -52.101961163436044 0 0 0 0 -137.75058836297831 -20.773034956820084 0 -20.773034956820084 42.010812239664119 0 0 0 0 249.67215220304206 -25.925747789055549 0 -25.925747789055549 -207.87045183911687 0 0 0 0 301.81260335230036 -387.2731068435387 0 -387.2731068435387 -320.8939842131158 0 0 0 0 279.75392540714529 57.224061069343861 0 57.224061069343861 -607.92556295525628 0 0 0 0 56.712973320303718 944.67834477636825 0 944.67834477636825 -1725.978660761275 0 0 0 0 -460.63305471762578 -44.865668217663597 0 -44.865668217663597 188.13878897516588 0 0 0 0 -378.33641305824858 202.82025027293912 0 202.82025027293912 457.71721035214705 0 0 0 0 -71.473579604789848 171.65080861286515 0 171.65080861286515 23.584339816883585 0 0 0 0 -47.257986702188759 15.017428068722495 0 15.017428068722495 -4.1031605048849782 0 0 0 0 -3587.6996513030317 1087.4467810584299 0 1087.4467810584299 -1722.8919567352123 0 0 0 0 -3363.14098250799 407.34578689993123 0 407.34578689993123 -1490.831717786828 0 0 0 0 -5265.1766321905307 848.08418555221942 0 848.08418555221942 -1565.4414351497189 0 0 0 0 -1215.4554852105794 1843.7043457125346 0 1843.7043457125346 -1862.1713468506027 0 0 0 0 -19.295706262340275 7.0909440965401487 0 7.0909440965401487 -2.9420994431586425 0 0 0 0 -1234.394532275066 -328.9286457868584 0 -328.9286457868584 -154.7142765207509 0 0 0 0 -5304.3329142464208 1674.9434642328256 0 1674.9434642328256 -660.46209801361329 0 0 0 0 -20.184344627890027 7.0209007412266828 0 7.0209007412266828 -1.7961487789967876 0 0 0 0 -4830.4466149142245 1689.8481262244495 0 1689.8481262244495 61.160073921049843 0 0 0 0 -660.85845976960991 1046.274266165768 0 1046.274266165768 43.118774778055922 0 0 0 0 -4177.8103381371038 1284.8175079530251 0 1284.8175079530251 -1003.6366228087209 0 0 0 0 -3288.0242420679715 1070.2751678143229 0 1070.2751678143229 -1949.1280146533572 0 0 0 0 -3268.4014219290366 950.47565689947237 0 950.47565689947237 -1265.8084316845357 0 0 0 0 -2713.459641257039 936.7303788127258 0 936.7303788127258 -1689.9573504429459 0 0 0 0 -2678.8313868804544 853.11965862051011 0 853.11965862051011 -1226.3032321814326 0 0 0 0 -2694.593179520034 840.71775186574973 0 840.71775186574973 -1208.1209296599066 0 0 0 0 -2615.5703103671112 765.61537447544379 0 765.61537447544379 -1335.4484190760013 0 0 0 0 -3303.7603363659873 551.6254793493797 0 551.6254793493797 -1379.9525072730264 0 0 0 0 -3347.701598849404 787.7309946541734 0 787.7309946541734 -1039.9460145579064 0 0 0 0 -3343.1635637741683 849.04293840756975 0 849.04293840756975 -953.93812835670133 0 0 0 0 -2464.9905876220291 416.57487748470339 0 416.57487748470339 -1004.4433524611212 0 0 0 0 -3.1833456296039806 4.7138090810419726 0 4.7138090810419726 -2.8033057223257307 0 0 0 0 -4155.6670337920223 974.1990912539527 0 974.1990912539527 -121.90354589730543 0 0 0 0 -3391.9026979313639 1063.5501285820581 0 1063.5501285820581 -959.90041527233609 0 0 0 0 -3472.0372274355686 1114.4825513332294 0 1114.4825513332294 -257.17403130145931 0 0 0 0 -3287.6895957876113 1057.8808550539443 0 1057.8808550539443 -242.27219772199271 0 0 0 0 -3380.922469001438 1396.8245367762511 0 1396.8245367762511 149.59055278234348 0 0 0 0 -3554.8902802412631 733.44227119565608 0 733.44227119565608 -786.79437909239459 0 0 0 0 -3750.9498866997346 1398.3284311481511 0 1398.3284311481511 -194.39512198760713 0 0 0 0 -2577.7262024710653 1415.3539407582134 0 1415.3539407582134 -717.44597700384941 0 0 0 0 -2861.7898708778957 1175.3141101625743 0 1175.3141101625743 68.413028588662655 0 0 0 0 -2914.912446882925 1347.4301557306276 0 1347.4301557306276 -268.25452671201163 0 0 0 0 -2400.6874179713705 1194.216505282189 0 1194.216505282189 -21.500911768830747 0 0 0 0 -3041.4629524456832 1192.6795349136187 0 1192.6795349136187 250.87625658779487 0 0 0 0 -3171.3141307304031 1431.611946560216 0 1431.611946560216 119.71390352216157 0 0 0 0 -3232.2580405681074 1415.5625325805545 0 1415.5625325805545 186.41660847109245 0 0 0 0 -3458.8704610414352 1700.0155838787696 0 1700.0155838787696 15.952896311875008 0 0 0 0 -2745.7106096015923 1304.4842352797866 0 1304.4842352797866 172.35132398649296 0 0 0 0 -3418.8443142968172 1286.4078265713752 0 1286.4078265713752 227.59773300635678 0 0 0 0 -3333.0038556804939 1306.5513984064703 0 1306.5513984064703 102.1361318311067 0 0 0 0 -4098.5035669476783 839.14441036129688 0 839.14441036129688 52.556073706250345 0 0 0 0 -3854.9125770362916 1468.9616750137463 0 1468.9616750137463 -255.1927355653163 0 0 0 0 -3906.4969705859548 1602.7272692764222 0 1602.7272692764222 -50.767626242775464 0 0 0 0 -2364.5896706294152 1763.6774006517851 0 1763.6774006517851 -360.34420926560551 0 0 0 0 -4082.1279254389519 2532.5411617539435 0 2532.5411617539435 -690.57536928820764 0 0 0 0 -3081.1498165669182 3542.7966265818986 0 3542.7966265818986 -3459.405711889392 0 0 0 0 -406.69157064781757 63.121426671265489 0 63.121426671265489 504.05895882836819 0 0 0 0 -22.425431436532676 5.0315975675506124 0 5.0315975675506124 -0.39953583590635122 0 0 0 0 -1184.9914072050306 1939.8946913208256 0 1939.8946913208256 -2323.2906615946895 0 0 0 0 -6357.1951432852075 3525.9420287887651 0 3525.9420287887651 1.1623190861283168 0 0 0 0 -4342.6820645455446 451.67393494918031 0 451.67393494918031 -581.04225190057514 0 0 0 0 -6163.2008185932646 2421.5780643949956 0 2421.5780643949956 -492.93306062618535 0 0 0 0 -77.060438105916546 2.7706376813296005 0 2.7706376813296005 10.041687885281451 0 0 0 0 -40.603001605842067 -0.92991438275822702 0 -0.92991438275822702 0.29608866709780229 0 0 0 0 159.46129397832556 -7.6975846308145357 0 -7.6975846308145357 1.3402297770832059 0 0 0 0 -840.67923137446633 250.65288345032661 0 250.65288345032661 46.58097026947496 0 0 0 0 -263.3822198555863 533.79028296920183 0 533.79028296920183 -1186.0368884870136 0 0 0 0 -53.609882629589833 6.4695321727076802 0 6.4695321727076802 6.5268482139619879 0 0 0 0 -2357.0075031275042 1569.5051874644037 0 1569.5051874644037 -413.18501318128642 0 0 0 0 -265.78151835997414 436.95185194900358 0 436.95185194900358 -678.74846413198713 0 0 0 0 773.39624095683939 195.15507315496592 0 195.15507315496592 -622.48938944548809 0 0 0 0 -18.450257798765723 16.099766219501248 0 16.099766219501248 21.481415263927314 0 0 0 0 -0.40489145747143063 13.673630538821385 0 13.673630538821385 0.14495389025055871 0 0 0 0 -1954.0389753309282 774.785693485504 0 774.785693485504 -151.20413223721306 0 0 0 0 330.79440822312336 -328.13448055376966 0 -328.13448055376966 -100.24732629175833 0 0 0 0 -1733.1004420052195 348.19648103181146 0 348.19648103181146 231.20673580030643 0 0 0 0 -2175.0273569726996 1503.7544300162742 0 1503.7544300162742 -405.3298992050569 0 0 0 0 -3018.0248507092656 482.27389365842453 0 482.27389365842453 83.419796456069434 0 0 0 0 -2874.1338264859514 1352.7877633718285 0 1352.7877633718285 -39.04365707477848 0 0 0 0 -1005.3987138626835 -58.862384177872919 0 -58.862384177872919 -0.76254683455928474 0 0 0 0 -806.68575195448648 286.39726247461289 0 286.39726247461289 48.309874601859391 0 0 0 0 -1382.7128978822802 -554.24609472295344 0 -554.24609472295344 -609.24734339069096 0 0 0 0 -1691.9327018232798 -181.29841937818827 0 -181.29841937818827 532.16427986118219 0 0 0 0 -1989.2608257381944 -190.33247104603697 0 -190.33247104603697 532.83470630632939 0 0 0 0 -546.14018510724418 78.741825219827888 0 78.741825219827888 231.13972519274182 0 0 0 0 -892.05024979785958 12.22473323454642 0 12.22473323454642 1077.0278730140726 0 0 0 0 -838.82945099302742 -884.57816457289005 0 -884.57816457289005 -797.95022865413284 0 0 0 0 -20.876109885656376 -11.797644081610315 0 -11.797644081610315 -3.9735613768544766 0 0 0 0 244.18874477161444 -1848.8221473787789 0 -1848.8221473787789 -1767.0972223129154 0 0 0 0 -1768.7819558090559 124.56517550839192 0 124.56517550839192 973.74590927460713 0 0 0 0 -2418.3992324870487 1890.3814691390744 0 1890.3814691390744 -811.90211464230413 0 0 0 0 -82.036920014298005 -19.954273440327082 0 -19.954273440327082 -0.025556746568693681 0 0 0 0 -125.60109126402676 65.532633548342503 0 65.532633548342503 -137.84350346283543 0 0 0 0 -4366.1321186519635 228.72371992923803 0 228.72371992923803 241.49543155258351 0 0 0 0 -5479.5882588902314 1422.8698365776536 0 1422.8698365776536 -884.45327836605838 0 0 0 0 2584.9870988332841 -1672.0155028682573 0 -1672.0155028682573 -2806.9655594384658 0 0 0 0 -32.035631754793485 -13.124679870301037 0 -13.124679870301037 -5.7359395541471798 0 0 0 0 -21.865246062092069 -9.5156115358285263 0 -9.5156115358285263 -3.2999980265379518 0 0 0 0 -7566.0995655393781 1794.43269908515 0 1794.43269908515 1718.2383967941901 0 0 0 0 -1370.5022518616897 -2876.7291176286799 0 -2876.7291176286799 -2234.07344168298 0 0 0 0 -546.57960501872003 257.69590309659833 0 257.69590309659833 76.241143356244081 0 0 0 0 -3240.9334506621235 -1019.5685315219891 0 -1019.5685315219891 -44.79446042816835 0 0 0 0 -5489.2480011170846 -2605.9688716317487 0 -2605.9688716317487 38.898015520941911 0 0 0 0 -3075.5817438119557 -1691.6399058205695 0 -1691.6399058205695 269.38192727025239 0 0 0 0 -5500.6915270225954 -1055.0234721861489 0 -1055.0234721861489 543.91221055122037 0 0 0 0 -4012.4795567422552 -749.90630008098753 0 -749.90630008098753 471.30548272528063 0 0 0 0 -3587.7947012923396 -58.346508152290895 0 -58.346508152290895 -257.94627122329615 0 0 0 0 -1841.6165731775545 -361.25347487308522 0 -361.25347487308522 -329.60561450163402 0 0 0 0 -1908.8900045403861 -327.0322701965149 0 -327.0322701965149 175.42376859229591 0 0 0 0 172.52901654718607 -9.4048277103827314 0 -9.4048277103827314 -764.11712938303936 0 0 0 0 -2378.988464512513 540.60919647516857 0 540.60919647516857 -873.85766091493701 0 0 0 0 -2913.7199940640421 -578.22547900243842 0 -578.22547900243842 -300.35806267549322 0 0 0 0 -2082.7165243020136 294.16570347854804 0 294.16570347854804 -1023.8637518627121 0 0 0 0 -2445.0300325931312 352.17576266430717 0 352.17576266430717 -933.60974845765054 0 0 0 0 -2576.8349687902082 741.9961398489088 0 741.9961398489088 -1331.6856046939156 0 0 0 0 -2679.09562472164 858.65583361157769 0 858.65583361157769 -903.81533736320557 0 0 0 0 -3069.2427957800028 595.37102593532597 0 595.37102593532597 -551.57306593706937 0 0 0 0 -3065.4550055961881 621.98129956381365 0 621.98129956381365 -1038.7414071900616 0 0 0 0 -4190.6407926284155 404.23266191344266 0 404.23266191344266 229.29505860545694 0 0 0 0 -5499.0575733553496 -122.50149246942379 0 -122.50149246942379 362.19323671206644 0 0 0 0 -4016.2405932667752 97.841949814126551 0 97.841949814126551 -256.99315061472566 0 0 0 0 -51.612287000222466 18.992383375973077 0 18.992383375973077 -0.85922797728935763 0 0 0 0 -277.77059347121394 238.17130434190494 0 238.17130434190494 987.13791132322331 0 0 0 0 -903.53618692987948 -480.00489667854572 0 -480.00489667854572 -264.81262335686597 0 0 0 0 -409.67179873406712 -295.06884876853417 0 -295.06884876853417 -204.32887724627835 0 0 0 0 -1307.2904936957639 -365.13706547513357 0 -365.13706547513357 22.132102987169674 0 0 0 0 -1049.187563968153 -327.31241472863121 0 -327.31241472863121 -1.6192917328649514 0 0 0 0 -146.05944524516235 59.85107916465131 0 59.85107916465131 84.879848906663028 0 0 0 0 -710.09395698900335 -22.407176619159145 0 -22.407176619159145 73.403467609362451 0 0 0 0 -35.3070153187291 131.67919010350488 0 131.67919010350488 69.030047661886783 0 0 0 0 -1150.0549085352686 -299.11389968106823 0 -299.11389968106823 -463.34166847902088 0 0 0 0 -11.952712988261737 22.159032755370987 0 22.159032755370987 5.6115727415295709 0 0 0 0 -154.21489857436973 23.139157228978547 0 23.139157228978547 121.7419587719437 0 0 0 0 -901.33581461397989 -503.93756502869428 0 -503.93756502869428 -295.78530847172624 0 0 0 0 -420.01082974183373 1396.642659254785 0 1396.642659254785 979.4067530304028 0 0 0 0 -1828.1553910173025 -1768.1855789087597 0 -1768.1855789087597 -1278.6481284258025 0 0 0 0 -20.342907479876942 6.2520846535947783 0 6.2520846535947783 0.24673281488674803 0 0 0 0 -792.92149385927769 614.497008425476 0 614.497008425476 -1927.4348169755758 0 0 0 0 -14.053130467955242 17.231609002911057 0 17.231609002911057 7.8327391875784045 0 0 0 0 -2655.454614030954 -1025.6034264676928 0 -1025.6034264676928 1386.9023758697949 0 0 0 0 -83.552089182056079 -106.06837677466024 0 -106.06837677466024 -6.1371656269584491 0 0 0 0 -1878.109937041605 -96.746921892931596 0 -96.746921892931596 774.61904072563266 0 0 0 0 -1287.0729193451116 -220.52870884753611 0 -220.52870884753611 794.98020496098343 0 0 0 0 -3.3715940733190735 -8.7152545648930015 0 -8.7152545648930015 -2.9375793985334973 0 0 0 0 -2107.2133449119283 -73.182977624193882 0 -73.182977624193882 -146.51390820742836 0 0 0 0 -485.28446304721001 302.88665526759405 0 302.88665526759405 -230.32631851627411 0 0 0 0 -1717.2561275924309 648.10262658481861 0 648.10262658481861 675.40160099204695 0 0 0 0 -983.29973024781793 620.15553156780334 0 620.15553156780334 554.38001248935598 0 0 0 0 -1386.1460015243501 287.41073696776857 0 287.41073696776857 287.59532216304615 0 0 0 0 -1110.1073995061452 296.55077468462196 0 296.55077468462196 247.10187359289921 0 0 0 0 436.04937250151852 172.99046208524123 0 172.99046208524123 183.62733207998463 0 0 0 0 -42.906046498894284 -96.420753338111581 0 -96.420753338111581 43.856918537438105 0 0 0 0 -217.30724838477181 -560.28499743819566 0 -560.28499743819566 -794.68839554724491 0 0 0 0 -155.22335822292371 -229.51213192218484 0 -229.51213192218484 88.267115569004545 0 0 0 0 -178.15132450677629 -160.38751386289505 0 -160.38751386289505 -43.230318157970032 0 0 0 0 -137.9143649750622 -111.26726791495639 0 -111.26726791495639 8.2760578755915049 0 0 0 0 -35.449653043237049 -62.618912988834381 0 -62.618912988834381 -63.610525100029918 0 0 0 0 -466.70828215565416 -11.170936382939544 0 -11.170936382939544 89.156068105769464 0 0 0 0 175.37597966242902 -171.71228695592708 0 -171.71228695592708 2.3662521269397985 0 0 0 0 0.6184015467453321 -0.91318838757447907 0 -0.91318838757447907 -3.3008423110662548 0 0 0 0 -28.714280706779391 -58.867920014292167 0 -58.867920014292167 17.013713255706534 0 0 0 0 -64.7935479441403 -3.6660834141309806 0 -3.6660834141309806 12.170031885467324 0 0 0 0 -8.7721595926591647 -5.1063286494790816 0 -5.1063286494790816 -4.6833782096597858 0 0 0 0 -57.689776701998198 -57.835785344085707 0 -57.835785344085707 86.115652606525146 0 0 0 0 23.201097123732325 -92.625077586241787 0 -92.625077586241787 37.48518811334452 0 0 0 0 56.814572001254419 -14.251763666857187 0 -14.251763666857187 21.096171730338028 0 0 0 0 -182.45160532555019 -23.03345894438371 0 -23.03345894438371 68.015582936857754 0 0 0 0 -226.35673413060431 13.200021320911674 0 13.200021320911674 57.347180293483689 0 0 0 0 -103.99631288176079 10.309823093787202 0 10.309823093787202 -30.302879966218825 0 0 0 0 -36.563664018773125 -47.207918181323294 0 -47.207918181323294 0.8035646496246045 0 0 0 0 -102.34139225651052 -53.444227866189323 0 -53.444227866189323 66.979225877928911 0 0 0 0 -161.62043117446592 -43.793371229317017 0 -43.793371229317017 42.314857975291488 0 0 0 0 -157.21984420544322 -35.649568050467224 0 -35.649568050467224 -2.9878480119896267 0 0 0 0 -12.726271887162625 -28.970018530656546 0 -28.970018530656546 24.306298953543376 0 0 0 0 -26.172561452446828 -17.610090317803355 0 -17.610090317803355 14.448247144485023 0 0 0 0 -23.311432027629053 -38.626154450879994 0 -38.626154450879994 23.809843332191122 0 0 0 0 -193.33624027475889 -239.60119589440069 0 -239.60119589440069 129.84961180703885 0 0 0 0 -81.802511268429953 -160.41285158900132 0 -160.41285158900132 57.869574056292549 0 0 0 0 -249.08850506266754 -107.57231364298787 0 -107.57231364298787 86.389479899799881 0 0 0 0 -69.326300897983572 30.053505526286244 0 30.053505526286244 -6.4613915124153269 0 0 0 0 -119.24835457894369 251.2118580314941 0 251.2118580314941 319.54047949136998 0 0 0 0 -524.79261375716305 -60.160277581134778 0 -60.160277581134778 17.616364826882432 0 0 0 0 -67.065201516044908 -6.0062793406099502 0 -6.0062793406099502 -135.51143420052222 0 0 0 0 -86.898227048443914 35.651688899668841 0 35.651688899668841 -9.4836048066358902 0 0 0 0 -130.06798060444271 78.557258544264357 0 78.557258544264357 -5.7400754978448276 0 0 0 0 -142.39607259492914 -3.1225484272736139 0 -3.1225484272736139 151.52720953114863 0 0 0 0 -58.241727626693319 -36.057000139974662 0 -36.057000139974662 -59.306510509783038 0 0 0 0 -72.565613763115834 -203.31497857309023 0 -203.31497857309023 -304.83829341426781 0 0 0 0 -13.053028988766187 8.0578337925050647 0 8.0578337925050647 -8.0551329799459168 0 0 0 0 2.5150136311096389 -5.017786807018453 0 -5.017786807018453 -5.5482381868574215 0 0 0 0 -661.47326007884112 15.325537026039569 0 15.325537026039569 -11.232718606889875 0 0 0 0 -49.034154023525453 -17.920553236191665 0 -17.920553236191665 -2.2432775568231893 0 0 0 0 482.39345881102054 -893.32224731568931 0 -893.32224731568931 414.4405650687595 0 0 0 0 -105.1966210204203 -34.60852360744164 0 -34.60852360744164 35.608773842299158 0 0 0 0 -148.72188273642678 -16.744373578777413 0 -16.744373578777413 -18.44162922950909 0 0 0 0 -90.938814332413699 -34.271952642075505 0 -34.271952642075505 9.6956944602382631 0 0 0 0 -214.76844837976387 -6.2310384375432477 0 -6.2310384375432477 -3.4089293716424152 0 0 0 0 -62.014847190588625 -29.718134945363587 0 -29.718134945363587 11.21320116675588 0 0 0 0 -66.670266733377389 -27.419077501908262 0 -27.419077501908262 18.575154661807208 0 0 0 0 -148.37769361037135 -18.458868151225374 0 -18.458868151225374 -10.814103852228982 0 0 0 0 -140.41763029395952 -8.4401428694959577 0 -8.4401428694959577 1.7577589786005774 0 0 0 0 -91.861087404199054 -17.362948276121486 0 -17.362948276121486 7.1644951978748521 0 0 0 0 -74.593133198985015 -30.397008005810676 0 -30.397008005810676 18.084833169624289 0 0 0 0 -58.331114076027006 -34.082531290954961 0 -34.082531290954961 24.600457679567626 0 0 0 0 -42.615220618154865 -18.967546963514351 0 -18.967546963514351 19.046099096288437 0 0 0 0 -87.359573812122107 -79.931563913669379 0 -79.931563913669379 -39.070614188004001 0 0 0 0 -77.237788785729208 -19.947955128656758 0 -19.947955128656758 15.346264975745726 0 0 0 0 -93.330087055568583 -9.8447123795303924 0 -9.8447123795303924 -23.110002809582511 0 0 0 0 -33.943678589440395 -17.459521782290096 0 -17.459521782290096 -6.866011224679923 0 0 0 0 -52.857888871571049 -23.245589264921364 0 -23.245589264921364 -33.869944090532954 0 0 0 0 -81.433998205553507 -4.5355926864440335 0 -4.5355926864440335 -39.443437276480523 0 0 0 0 -12.198482770623045 0.41340059729319023 0 0.41340059729319023 0.26705764829947576 0 0 0 0 -139.65020241910679 18.988168067541665 0 18.988168067541665 65.500842170262331 0 0 0 0 -34.725302370448048 -47.811405140752441 0 -47.811405140752441 29.253653384428105 0 0 0 0 -168.55149310876004 55.94756250071714 0 55.94756250071714 46.169940058935026 0 0 0 0 -51.686906984355346 15.677779738239451 0 15.677779738239451 -5.5494800481586388 0 0 0 0 -59.179263485348201 -48.412150615521568 0 -48.412150615521568 -1.2713519980770798 0 0 0 0 -31.002747002799879 -71.710297937615906 0 -71.710297937615906 -2.8046717239440113 0 0 0 0 -31.870228497995413 -53.803233093503962 0 -53.803233093503962 15.89267645743282 0 0 0 0 -208.85882328018488 -33.594257378008479 0 -33.594257378008479 54.528885476766845 0 0 0 0 -117.72954538976046 -68.779097840736085 0 -68.779097840736085 53.653091323754779 0 0 0 0 -181.86422569703427 -59.440607606754384 0 -59.440607606754384 51.073418344374659 0 0 0 0 -123.68912720422668 -1.3931710052893322 0 -1.3931710052893322 0.42291327631210152 0 0 0 0 -136.59521003968257 -21.522930049246497 0 -21.522930049246497 61.634929534833645 0 0 0 0 -125.10974897701453 8.0617561222447875 0 8.0617561222447875 89.207424406988139 0 0 0 0 -526.60631554494967 -159.24674282685419 0 -159.24674282685419 97.686989382178581 0 0 0 0 -533.94558435269391 301.48513766567169 0 301.48513766567169 156.38526356754119 0 0 0 0 -89.439814355835551 -62.65121192289098 0 -62.65121192289098 1.0021580279508271 0 0 0 0 -141.74178475779991 -80.960416861143131 0 -80.960416861143131 121.56204952285225 0 0 0 0 -132.20657620977727 -98.19403975948444 0 -98.19403975948444 23.695310886653715 0 0 0 0 -88.032860871811863 -78.448337635175449 0 -78.448337635175449 84.870152748130977 0 0 0 0 -3.3749297529684554 374.18722318489824 0 374.18722318489824 137.490359307978 0 0 0 0 -9.2079789449920213 3.041623126344831 0 3.041623126344831 5.2844128095822569 0 0 0 0 -1581.7535106498399 -194.51763253451691 0 -194.51763253451691 12.772990375400695 0 0 0 0 -1687.5180292425648 -609.27346093700316 0 -609.27346093700316 -127.9218453255811 0 0 0 0 -447.14714548533084 -153.39955106172511 0 -153.39955106172511 -267.11514109782547 0 0 0 0 -897.24914312156034 -524.88794197150582 0 -524.88794197150582 -217.60395307853651 0 0 0 0 -913.63249263901162 -276.43152712037704 0 -276.43152712037704 36.645224823141689 0 0 0 0 -917.70965066706412 -233.23956083364237 0 -233.23956083364237 -133.49896269122155 0 0 0 0 -933.03166660564511 -291.35563915198327 0 -291.35563915198327 -41.848753306063372 0 0 0 0 -760.2068366544845 -341.0211610994686 0 -341.0211610994686 -46.888788226679253 0 0 0 0 -521.50722915373626 -120.56953808861647 0 -120.56953808861647 -145.83522087580781 0 0 0 0 -940.90944003261393 -55.639855281046493 0 -55.639855281046493 -154.42807863574944 0 0 0 0 -859.62929250288289 -293.2715707864395 0 -293.2715707864395 -53.825561509824411 0 0 0 0 -866.84561391220268 -312.59344536133494 0 -312.59344536133494 -56.217534403944228 0 0 0 0 -868.07220816140034 -305.76604125589824 0 -305.76604125589824 -13.789439316537255 0 0 0 0 -895.57893050571874 -254.39312318474765 0 -254.39312318474765 -66.048176546045397 0 0 0 0 -715.63346765897586 186.32199098562842 0 186.32199098562842 14.765310165544847 0 0 0 0 -2.5421078793588094 90.73901161725388 0 90.73901161725388 -140.27587883960814 0 0 0 0 -10.476968254196379 17.537931728052683 0 17.537931728052683 11.089680195883307 0 0 0 0 -6.893523357037239 11.678210444100017 0 11.678210444100017 20.330413957134439 0 0 0 0 84.278570721071446 -101.94979903093247 0 -101.94979903093247 34.856640972001969 0 0 0 0 -826.97708716934721 -335.82022047082955 0 -335.82022047082955 -45.700948743241497 0 0 0 0 -378.39274970072438 -121.86401753668986 0 -121.86401753668986 29.886210563028008 0 0 0 0 79.986888809246011 -162.58554918764196 0 -162.58554918764196 -261.868063611568 0 0 0 0 -523.19138907529123 375.16936601437317 0 375.16936601437317 -246.68834408693965 0 0 0 0 -44.187861831026169 16.101835992987972 0 16.101835992987972 -3.2093048752461133 0 0 0 0 -276.53305897908285 -296.0099056425945 0 -296.0099056425945 443.97205862001704 0 0 0 0 -60.600242369086118 155.73354073443747 0 155.73354073443747 579.73910251242683 0 0 0 0 -551.40161486066063 -155.25002999139565 0 -155.25002999139565 -81.578577958089227 0 0 0 0 -33.203805210650899 -14.100711025125065 0 -14.100711025125065 1.193081580088915 0 0 0 0 -48.514654539774995 29.059879861500406 0 29.059879861500406 0.58367426288961433 0 0 0 0 -105.20579294703202 55.738416489612973 0 55.738416489612973 39.346041711048883 0 0 0 0 -103.88632447920099 22.570106547793785 0 22.570106547793785 133.9279526836267 0 0 0 0 -15.538312508759674 8.5199477587221395 0 8.5199477587221395 34.360736797123472 0 0 0 0 -691.34228839748539 -165.74662901584998 0 -165.74662901584998 16.247560765969638 0 0 0 0 -333.20764914663596 -292.59774363353972 0 -292.59774363353972 -148.55263063572784 0 0 0 0 -1321.7162625301426 -171.73909830740331 0 -171.73909830740331 205.02467332645938 0 0 0 0 -1057.339203532385 -501.06420041539855 0 -501.06420041539855 -125.16320287219969 0 0 0 0 -19.24768491603885 6.2007104815750722 0 6.2007104815750722 -0.80085259623795313 0 0 0 0 -2514.7345257285051 -1301.4364409328793 0 -1301.4364409328793 -635.46337589415975 0 0 0 0 -490.81766074965708 -248.01765876165291 0 -248.01765876165291 -216.45804404425633 0 0 0 0 -1291.6262518131552 -947.82971717276337 0 -947.82971717276337 -591.21809073068471 0 0 0 0 -3287.2363505500543 175.10338590518427 0 175.10338590518427 -154.01474933818702 0 0 0 0 -2191.5955448110763 -183.95977542113997 0 -183.95977542113997 163.18734042964934 0 0 0 0 -1749.4125273471 102.57209207847131 0 102.57209207847131 -191.6790111313594 0 0 0 0 -1625.713272401832 137.40500157002015 0 137.40500157002015 170.1010007260229 0 0 0 0 -1599.5222468918946 -310.0034182123245 0 -310.0034182123245 188.84445233887845 0 0 0 0 -1345.3385648076364 3.1767243209496883 0 3.1767243209496883 234.30369901639733 0 0 0 0 -1241.5508588523735 251.2642442080878 0 251.2642442080878 163.16095373883036 0 0 0 0 -1205.0276583333034 113.23889951931778 0 113.23889951931778 89.624612860550769 0 0 0 0 -668.26746281556552 119.11446265383665 0 119.11446265383665 54.04181713946673 0 0 0 0 -976.20635300503636 377.59567673895026 0 377.59567673895026 -85.80205952092092 0 0 0 0 -978.41390579810832 101.76861356584459 0 101.76861356584459 -126.99947807637182 0 0 0 0 -679.05457665026188 198.05261331087809 0 198.05261331087809 -295.45381591045407 0 0 0 0 -1589.6109980360052 417.10025524750677 0 417.10025524750677 -100.66065591852976 0 0 0 0 -1692.5430139681266 -12.637061853465866 0 -12.637061853465866 12.226343117582928 0 0 0 0 -1078.577348478866 324.7364574470148 0 324.7364574470148 -602.43002356553552 0 0 0 0 -1526.0957808520325 -42.022549908028793 0 -42.022549908028793 -266.37908450880036 0 0 0 0 -1229.1861677555135 -145.39545030884619 0 -145.39545030884619 -486.54072519631694 0 0 0 0 -1206.8519854394253 -23.110562752478245 0 -23.110562752478245 -487.55566641585949 0 0 0 0 -586.50577967871504 92.204869710678508 0 92.204869710678508 -208.44335072679496 0 0 0 0 -879.13629057252547 -71.319424165548298 0 -71.319424165548298 -159.65893647738346 0 0 0 0 -978.58142077545926 93.012006887063421 0 93.012006887063421 -325.63031025693908 0 0 0 0 -1157.0568849885021 -180.46349325083179 0 -180.46349325083179 -206.54777103662815 0 0 0 0 -892.4754558824061 -51.621292684448534 0 -51.621292684448534 -207.96430984278959 0 0 0 0 -874.87932772745989 -117.05670353211116 0 -117.05670353211116 -40.832187853510732 0 0 0 0 -620.92017672638758 -119.28828839557818 0 -119.28828839557818 -148.71827660290955 0 0 0 0 -1106.1126762206259 -287.47466368914786 0 -287.47466368914786 -122.04965931307902 0 0 0 0 -934.72610247839475 -96.077053797746956 0 -96.077053797746956 35.276150764587328 0 0 0 0 -1722.4400706431479 -162.30485241854984 0 -162.30485241854984 238.0316896674251 0 0 0 0 -1484.2551211949612 -442.28403974148722 0 -442.28403974148722 -270.21279777849753 0 0 0 0 -1235.0642640472361 -163.74893522315807 0 -163.74893522315807 41.076710427797536 0 0 0 0 -1556.7788312071061 -170.35008292200445 0 -170.35008292200445 208.64224789477365 0 0 0 0 -857.76766730559757 196.16876192462189 0 196.16876192462189 106.16046031140061 0 0 0 0 -1550.5805187019287 -15.828851016802133 0 -15.828851016802133 452.3868235882419 0 0 0 0 -663.3251618377908 -261.99373120210231 0 -261.99373120210231 152.65065198969407 0 0 0 0 -1110.8504759390198 -257.42276466167692 0 -257.42276466167692 426.15074582261161 0 0 0 0 -3.0350530230278139 5.6554201764188292 0 5.6554201764188292 -5.7123701961066891 0 0 0 0 -2142.0229936844989 218.14570364778936 0 218.14570364778936 393.01193472980435 0 0 0 0 148.32498587805458 737.97317402065596 0 737.97317402065596 -582.01382639955114 0 0 0 0 -688.37944354116917 126.27233258345018 0 126.27233258345018 -3.9203040170505119 0 0 0 0 -1300.2267055588891 -360.22346572351785 0 -360.22346572351785 273.57325304216175 0 0 0 0 -1641.2575214452227 -249.17409850561933 0 -249.17409850561933 361.03816614597599 0 0 0 0 -1576.4511786634685 497.56895711685331 0 497.56895711685331 -35.38655862061978 0 0 0 0 -588.53233019488107 1288.5423154153407 0 1288.5423154153407 30.487540301687204 0 0 0 0 -1409.525687996269 987.75785202354655 0 987.75785202354655 -525.61682442821484 0 0 0 0 846.51379224209813 3.9641792831289422 0 3.9641792831289422 -881.40198651314472 0 0 0 0 -1522.905593496585 95.076735723746054 0 95.076735723746054 -1720.8708878028365 0 0 0 0 -2169.6185725759424 -605.07164847838271 0 -605.07164847838271 -120.16703493616353 0 0 0 0 -2436.0143028780585 279.85837085046609 0 279.85837085046609 272.06779496909076 0 0 0 0 -1180.5722438880184 1658.6091248059402 0 1658.6091248059402 -76.612912640215427 0 0 0 0 -22.144918048171874 33.155415259573687 0 33.155415259573687 19.036417775612211 0 0 0 0 131.36477577168262 94.222927685196623 0 94.222927685196623 37.299427545703111 0 0 0 0 3.763160097336339 5.0376777162607596 0 5.0376777162607596 2.5989775386942044 0 0 0 0 -153.44396678656631 -52.813417987056368 0 -52.813417987056368 6.5646070218274417 0 0 0 0 -140.90000056801364 -53.880277705723302 0 -53.880277705723302 0.21823839088290242 0 0 0 0 -771.24716158838419 -168.84353187803049 0 -168.84353187803049 65.432248337049401 0 0 0 0 -426.90062017859236 61.531514965203854 0 61.531514965203854 -45.895132626008944 0 0 0 0 -0.61729394527723969 16.516487179356432 0 16.516487179356432 17.510148576044976 0 0 0 0 -865.10731517533713 -187.29684439613865 0 -187.29684439613865 80.756788385473158 0 0 0 0 -79.48653849051334 81.026817278064982 0 81.026817278064982 144.73790406684452 0 0 0 0 -72.94167911625118 8.9164057298739863 0 8.9164057298739863 66.517326431283891 0 0 0 0 321.53479649717337 295.99074177102125 0 295.99074177102125 -41.900894957720084 0 0 0 0 -509.38678135399823 316.70368236434661 0 316.70368236434661 32.880105377165137 0 0 0 0 -108.82816186535638 158.88165711844647 0 158.88165711844647 -12.138125392464644 0 0 0 0 -311.17919879528927 82.810679211682327 0 82.810679211682327 -42.488469641632264 0 0 0 0 -76.002728563995333 159.77825258683765 0 159.77825258683765 -148.0538910573182 0 0 0 0 -323.23765158178867 234.13787552979488 0 234.13787552979488 -48.118389575412948 0 0 0 0 -673.9622091647816 142.46132762058204 0 142.46132762058204 23.660387353176702 0 0 0 0 -505.46825534496747 -53.320567785845128 0 -53.320567785845128 -21.236149327231942 0 0 0 0 -94.942259544986882 43.287444718581128 0 43.287444718581128 -144.42036851202693 0 0 0 0 -604.79379235728993 -30.125093134647251 0 -30.125093134647251 104.81577474983226 0 0 0 0 -397.55541405096301 -137.70016254256814 0 -137.70016254256814 -33.638390257109336 0 0 0 0 243.71114010299789 -85.060313448374245 0 -85.060313448374245 43.793588067184714 0 0 0 0 -288.1614156550495 106.58062509309508 0 106.58062509309508 218.57163519481674 0 0 0 0 -80.960543484145091 142.25033923906778 0 142.25033923906778 183.37771021521974 0 0 0 0 610.04058679156878 173.48187090591267 0 173.48187090591267 -104.38626400084115 0 0 0 0 -3.6593020039145046 7.374902426581599 0 7.374902426581599 8.6786560745046923 0 0 0 0 897.08880284887346 391.74389273908594 0 391.74389273908594 -51.46687336489822 0 0 0 0 -1.3344536895569235 3.8520008241365247 0 3.8520008241365247 3.1211894141996748 0 0 0 0 -994.9000893975317 -209.55010413165246 0 -209.55010413165246 128.98670584320985 0 0 0 0 -377.0244223750924 85.739302238142614 0 85.739302238142614 -91.305219903436182 0 0 0 0 -12.987813779838049 37.850003390737044 0 37.850003390737044 9.404733544082104 0 0 0 0 162.93457710230723 29.541585984346511 0 29.541585984346511 12.324183356775279 0 0 0 0 -61.238062544449349 115.91500608041088 0 115.91500608041088 44.331243810554497 0 0 0 0 -283.79387852010768 181.08627086167914 0 181.08627086167914 26.109007971782148 0 0 0 0 -14.789349565435955 39.53500359839623 0 39.53500359839623 3.3293315044681071 0 0 0 0 -201.0431415917119 241.37637434993752 0 241.37637434993752 371.7307076937517 0 0 0 0 -87.250676564042806 158.64009629952182 0 158.64009629952182 7.4555873173339933 0 0 0 0 -479.6848599704972 23.842497252813928 0 23.842497252813928 112.03162419028467 0 0 0 0 -65.188617179766879 30.945252783825993 0 30.945252783825993 -18.001831615090396 0 0 0 0 -308.36028076204821 -184.11355330103555 0 -184.11355330103555 108.36568770018289 0 0 0 0 -480.6543067159364 -54.038731582071591 0 -54.038731582071591 60.48056001547684 0 0 0 0 -739.68739059715881 -65.283771103202753 0 -65.283771103202753 87.784835947495139 0 0 0 0 -584.27003737798077 -221.28846827506737 0 -221.28846827506737 -16.312939147605675 0 0 0 0 -589.19279850086605 -163.81873583102822 0 -163.81873583102822 -76.936378099307603 0 0 0 0 -782.84762716316618 -216.11927645212904 0 -216.11927645212904 69.480977764676254 0 0 0 0 -547.13123908397392 -231.61856668636483 0 -231.61856668636483 31.327581264638525 0 0 0 0 -718.33311594709812 -374.8842884999749 0 -374.8842884999749 27.447905844124534 0 0 0 0 -1032.3177243324317 -540.44142457205214 0 -540.44142457205214 -38.851181125845414 0 0 0 0 -227.79521442332771 -590.46333887634773 0 -590.46333887634773 -168.20908236437108 0 0 0 0 -662.04856310049945 -743.4672866433757 0 -743.4672866433757 -161.51181246658007 0 0 0 0 -725.44462545739952 49.969729346246822 0 49.969729346246822 105.75070760252174 0 0 0 0 -2191.8323238942539 413.37590092194023 0 413.37590092194023 24.510625799122181 0 0 0 0 -941.78883060454973 19.375882494207076 0 19.375882494207076 164.63984536872113 0 0 0 0 -343.06952172327146 -18.701103029896558 0 -18.701103029896558 -3.1393816666850398 0 0 0 0 147.79552828727174 250.4618947477469 0 250.4618947477469 -135.11151855663638 0 0 0 0 -410.33020290085187 244.46598070625032 0 244.46598070625032 14.738085912957558 0 0 0 0 -587.77022357920396 599.53611888122168 0 599.53611888122168 -28.41434777334598 0 0 0 0 82.198277732339193 142.30075820815648 0 142.30075820815648 -109.40544254291581 0 0 0 0 154.218256800159 38.855360877260068 0 38.855360877260068 -5.6491308640040643 0 0 0 0 -1413.8142567701288 69.674632388709711 0 69.674632388709711 -191.44686471098754 0 0 0 0 -1460.3999525637482 82.671744782843348 0 82.671744782843348 88.235743516373986 0 0 0 0 -1530.121532926365 -115.79573567151829 0 -115.79573567151829 -234.4434643985777 0 0 0 0 -3.3379072994829073 -3.1847599436920291 0 -3.1847599436920291 -5.0298244771604921 0 0 0 0 208.77689200328314 -273.23076702038725 0 -273.23076702038725 -42.635957316821077 0 0 0 0 -2926.1872279786767 1038.5507101755786 0 1038.5507101755786 796.58221999956731 0 0 0 0 -6.1895222570810304 10.973709770651482 0 10.973709770651482 -13.096293363567032 0 0 0 0 -1964.0942794888979 -541.66292225001803 0 -541.66292225001803 -858.68808465258189 0 0 0 0 -402.71190791983827 -538.74983748570571 0 -538.74983748570571 9.3908021746374288 0 0 0 0 -581.0797483197457 -596.86154540322025 0 -596.86154540322025 -8.1457169058812724 0 0 0 0 -1961.5200202122214 -358.39705400917865 0 -358.39705400917865 275.63984386020752 0 0 0 0 -1524.9003728522803 91.106269378805109 0 91.106269378805109 167.26682916993695 0 0 0 0 -1480.0043563294166 -51.390196622727899 0 -51.390196622727899 403.42264254066532 0 0 0 0 -1501.9212807790536 70.745289995691294 0 70.745289995691294 221.54140106961609 0 0 0 0 -1478.1875146170496 -26.298239428368333 0 -26.298239428368333 317.68060043669755 0 0 0 0 -1474.6695764454053 -48.580938710985777 0 -48.580938710985777 175.50655449722763 0 0 0 0 -1285.6104158879025 -222.7170700701505 0 -222.7170700701505 74.399528884950428 0 0 0 0 -1185.2575570690533 3.4415931437750942 0 3.4415931437750942 -66.764632787276241 0 0 0 0 -1392.8090960668633 54.020820642442686 0 54.020820642442686 100.17948890863499 0 0 0 0 -1341.5826423935068 -26.395900149942463 0 -26.395900149942463 150.02439379666498 0 0 0 0 -836.37478701391956 -209.23024116056308 0 -209.23024116056308 -7.5023883916791192 0 0 0 0 -1115.3106818757951 -76.317414552274954 0 -76.317414552274954 57.844106920429795 0 0 0 0 -1050.151414074382 -164.85248152905933 0 -164.85248152905933 62.711363970140312 0 0 0 0 -971.03542873426341 -30.006341166448692 0 -30.006341166448692 -191.32389423350605 0 0 0 0 -800.1299809760676 -130.97033760073646 0 -130.97033760073646 -133.6652108357107 0 0 0 0 -1033.6012851727137 -62.5214742319381 0 -62.5214742319381 -47.755836381067752 0 0 0 0 -1172.4009837975464 133.78662623698665 0 133.78662623698665 -205.14308847508164 0 0 0 0 -780.36768568769185 162.52242759622493 0 162.52242759622493 -526.98395410493322 0 0 0 0 -1535.0489633689576 198.44001334837003 0 198.44001334837003 -200.76751230281934 0 0 0 0 -870.35024195257574 -24.90839334157522 0 -24.90839334157522 -408.12371311508286 0 0 0 0 -260.54034205674543 -247.72723505419208 0 -247.72723505419208 -468.4060818163847 0 0 0 0 -1262.4624131635064 97.291204711569662 0 97.291204711569662 -376.09465040871146 0 0 0 0 -586.98387236506096 -240.43246673392832 0 -240.43246673392832 -283.7653865338026 0 0 0 0 -675.05973524751607 -326.32100111023237 0 -326.32100111023237 -304.98179894365967 0 0 0 0 -307.81724295954336 -448.47261485038416 0 -448.47261485038416 -307.96478806563795 0 0 0 0 -110.70529310870916 -548.77192040950968 0 -548.77192040950968 -254.49707160443131 0 0 0 0 -476.40185359833413 -319.69800768987466 0 -319.69800768987466 -291.39553524247276 0 0 0 0 -23.735114698516554 -554.39502655369506 0 -554.39502655369506 -217.2922801776399 0 0 0 0 -451.07623467004305 -423.90114962109772 0 -423.90114962109772 901.20740286458704 0 0 0 0 -644.34617244102992 325.36029980271269 0 325.36029980271269 -505.16988856281478 0 0 0 0 114.95346405434248 446.40095437759021 0 446.40095437759021 -1101.7723019911743 0 0 0 0 -1538.5218158510979 1146.2647467316756 0 1146.2647467316756 -567.98155502446525 0 0 0 0 -3.4547000254964857 4.659276810624533 0 4.659276810624533 -7.5565141508662652 0 0 0 0 -2965.2808588964326 254.17926820945024 0 254.17926820945024 103.45918286353935 0 0 0 0 -12.830160361990707 -16.999413387576169 0 -16.999413387576169 -20.103458040578843 0 0 0 0 -1282.2696768984024 -644.91495061204978 0 -644.91495061204978 -740.53929237498414 0 0 0 0 -1919.7010641026427 570.97704693956211 0 570.97704693956211 297.97962168071717 0 0 0 0 -62.476514377351123 805.80582157430877 0 805.80582157430877 -441.39401197878942 0 0 0 0 -2313.6362871941528 758.3663074393603 0 758.3663074393603 19.172787334294753 0 0 0 0 -1856.5457395415579 865.14952845171183 0 865.14952845171183 42.759304548249929 0 0 0 0 -1799.7624098463202 499.30506994173777 0 499.30506994173777 0.70524001063495234 0 0 0 0 -2539.6030490624253 347.5070254607715 0 347.5070254607715 -26.508265287366271 0 0 0 0 -1935.8100545677007 261.20487597570082 0 261.20487597570082 -297.67162988215568 0 0 0 0 -2483.1401977790665 134.65308007787451 0 134.65308007787451 304.62748085948442 0 0 0 0 -2667.510770001747 -21.565033555877335 0 -21.565033555877335 193.93352859757488 0 0 0 0 -1039.8123207126919 -168.60851208738177 0 -168.60851208738177 29.814675665415962 0 0 0 0 -488.54647629792453 -397.15990186742465 0 -397.15990186742465 -186.20912730823829 0 0 0 0 313.67126746155554 -176.59628389030468 0 -176.59628389030468 -342.56161209196171 0 0 0 0 39.068697793903993 -357.95227222484436 0 -357.95227222484436 -291.79231763877078 0 0 0 0 -976.09649493303732 -75.469049399201367 0 -75.469049399201367 -13.166029780827557 0 0 0 0 -956.68536880487227 -595.84591216473655 0 -595.84591216473655 -94.366675917378643 0 0 0 0 -1623.7068300605315 1304.0913685056994 0 1304.0913685056994 405.93224448793012 0 0 0 0 -19.150352564680702 0.53769133741695008 0 0.53769133741695008 0.46975255044945674 0 0 0 0 -39.047376457962287 -1.793930510144099 0 -1.793930510144099 1.7405685759862934 0 0 0 0 -558.39248704258353 -136.64471449408484 0 -136.64471449408484 1203.8652649852766 0 0 0 0 200.25375761135365 -467.484018020137 0 -467.484018020137 836.66617634477177 0 0 0 0 43.103469015681185 -20.798856680943118 0 -20.798856680943118 326.705513648139 0 0 0 0 995.24778460719972 -411.71203175084759 0 -411.71203175084759 -855.08437354143598 0 0 0 0 -1565.7620074583974 -157.49775387759115 0 -157.49775387759115 -878.04990925670745 0 0 0 0 -8.2888223765140197 -5.1441162966174261 0 -5.1441162966174261 -3.8573153407054948 0 0 0 0 370.21938631926241 331.06164401736601 0 331.06164401736601 -631.18704673269849 0 0 0 0 178.07245958980639 107.68130676627698 0 107.68130676627698 7.8477006670327683 0 0 0 0 244.39125494845212 -188.49928247284538 0 -188.49928247284538 -76.953557103194271 0 0 0 0 123.11323090756196 -163.45137030914407 0 -163.45137030914407 8.610545257983631 0 0 0 0 -16.746289987784735 -13.4453521182092 0 -13.4453521182092 -10.187628781207659 0 0 0 0 145.32799539575353 -516.26774146565594 0 -516.26774146565594 -38.263108426755025 0 0 0 0 -842.07980670893448 1204.225665061474 0 1204.225665061474 -514.79612439717368 0 0 0 0 -244.34575510476134 1376.1732404146865 0 1376.1732404146865 62.12964745118569 0 0 0 0 -452.59739998343866 842.02292698877579 0 842.02292698877579 -179.62886163412077 0 0 0 0 -7.2269292118277235 3.9565372954685927 0 3.9565372954685927 -0.96645251357280548 0 0 0 0 -848.78145491276518 -146.92616478123347 0 -146.92616478123347 -362.59964221456585 0 0 0 0 -828.77532131466432 803.14734722636695 0 803.14734722636695 -209.28525842160482 0 0 0 0 -681.94376712401572 -204.40096896791994 0 -204.40096896791994 330.86857593799897 0 0 0 0 190.528968444356 70.967459221845047 0 70.967459221845047 -87.34774212487423 0 0 0 0 -1548.8076830082864 48.627952018851829 0 48.627952018851829 243.58943843030875 0 0 0 0 -642.02160565975646 -25.536136724557707 0 -25.536136724557707 -33.161663258966144 0 0 0 0 -1767.2629586964904 122.14282734050835 0 122.14282734050835 89.095924104021833 0 0 0 0 -802.93268582032761 70.215448706543157 0 70.215448706543157 -126.13335789475241 0 0 0 0 -408.74522362599964 -50.497866602965587 0 -50.497866602965587 -104.05460582219575 0 0 0 0 -787.60740374538091 -173.89579946723387 0 -173.89579946723387 8.6745361602602316 0 0 0 0 304.93497083502007 107.4073823681228 0 107.4073823681228 -6.9201157209661233 0 0 0 0 344.99024421074319 -70.263884580089709 0 -70.263884580089709 -547.72489069262429 0 0 0 0 -341.16487123956904 -165.51115327921389 0 -165.51115327921389 -17.924353458661766 0 0 0 0 -173.45398066488269 -555.97785466409482 0 -555.97785466409482 -1.9705785392421831 0 0 0 0 -1902.0716618981678 -488.68176958276399 0 -488.68176958276399 -401.94013151021545 0 0 0 0 116.81563124162494 296.88596791790485 0 296.88596791790485 -154.5779131342133 0 0 0 0 -463.90333158041904 389.61464804378068 0 389.61464804378068 -1426.4192753054417 0 0 0 0 -1399.1143454018747 -1104.7624276521094 0 -1104.7624276521094 -280.0866799422929 0 0 0 0 -19.833508518781173 -0.22101611677054045 0 -0.22101611677054045 0.47520883845939998 0 0 0 0 -2037.0622356639942 1169.134149684771 0 1169.134149684771 585.94002151643667 0 0 0 0 -1632.5688729447702 825.99015736293723 0 825.99015736293723 99.154951612681998 0 0 0 0 -1911.4112566468539 448.85252934453956 0 448.85252934453956 381.49949589237048 0 0 0 0 -2142.2069398296881 62.401420040640289 0 62.401420040640289 97.247075751479315 0 0 0 0 110.3942359497305 -135.03443183304091 0 -135.03443183304091 -36.870527328943695 0 0 0 0 -342.69884182456008 -329.89840190365214 0 -329.89840190365214 -126.84489907839861 0 0 0 0 -17.215879966410341 1.7736433156229836 0 1.7736433156229836 -0.29304629157790052 0 0 0 0 -784.32104123961471 -1080.1217685176362 0 -1080.1217685176362 -1222.6312254644265 0 0 0 0 -1406.3034289263887 884.65693750741616 0 884.65693750741616 745.03253692270653 0 0 0 0 -44.042581400703284 1.8541472473885605 0 1.8541472473885605 0.96609780486089702 0 0 0 0 -336.98474683782842 -333.59211672146188 0 -333.59211672146188 -179.41189217161138 0 0 0 0 -251.62893463751243 -231.07115602566205 0 -231.07115602566205 -64.235115808158071 0 0 0 0 -189.3967847378226 22.770666939496778 0 22.770666939496778 44.042524968662974 0 0 0 0 -48.625066025284468 -123.03360979232212 0 -123.03360979232212 515.60169053328764 0 0 0 0 -796.98863116039138 237.85819613991924 0 237.85819613991924 60.998594215107914 0 0 0 0 -1004.0312326776038 -259.63708396347465 0 -259.63708396347465 21.918610536264232 0 0 0 0 -431.48480928936624 -224.04223683792924 0 -224.04223683792924 23.053914491723162 0 0 0 0 -550.02599029667908 -98.382158696849729 0 -98.382158696849729 21.272206727313232 0 0 0 0 -454.94450678199064 -401.0355449920329 0 -401.0355449920329 33.963288071858642 0 0 0 0 -521.87302383969654 -301.67072385115944 0 -301.67072385115944 -9.7021576504519089 0 0 0 0 -539.53774049815547 -400.16352364557042 0 -400.16352364557042 -287.88299741962464 0 0 0 0 -434.53230066579999 -203.803547970165 0 -203.803547970165 59.960354970828952 0 0 0 0 -13.653540063808236 5.1633203765989037 0 5.1633203765989037 0.38710478592141673 0 0 0 0 -387.65093496673217 -412.09891382523256 0 -412.09891382523256 -68.19279037421677 0 0 0 0 -494.44049323817126 133.19476506874292 0 133.19476506874292 749.02517545002024 0 0 0 0 -15.832129408509672 7.1288115323736179 0 7.1288115323736179 -0.51630895756813988 0 0 0 0 -316.61856142112811 60.485386760513492 0 60.485386760513492 174.55009075685291 0 0 0 0 -18.77717077665875 50.147316783168669 0 50.147316783168669 -3.9313084229570165 0 0 0 0 -126.381840017988 -63.780269329381554 0 -63.780269329381554 59.22839548362947 0 0 0 0 -87.757325055339606 30.000019354513071 0 30.000019354513071 80.137419297267172 0 0 0 0 42.916181224485626 15.109646488459816 0 15.109646488459816 -0.24591354102112234 0 0 0 0 -4.2313298453937023 172.60041910655093 0 172.60041910655093 230.35579530076177 0 0 0 0 -83.940615408850135 -11.65644793998535 0 -11.65644793998535 131.91671286502273 0 0 0 0 169.33123072695889 257.32349569937992 0 257.32349569937992 150.98135371872146 0 0 0 0 -5.955508179615606 1.595662006639003 0 1.595662006639003 0.35258980242664462 0 0 0 0 -350.82966642288375 175.11665590131611 0 175.11665590131611 157.46229684646161 0 0 0 0 -982.56132315186551 -161.64676516999501 0 -161.64676516999501 0.44513623916331369 0 0 0 0 -1196.1593006660114 -9.7375600256087296 0 -9.7375600256087296 -20.310622818334792 0 0 0 0 -1326.2831566653913 -591.03735219898113 0 -591.03735219898113 -307.65307676401903 0 0 0 0 -574.2024197299761 262.4920379811208 0 262.4920379811208 79.343068448299476 0 0 0 0 -187.89183649700863 -296.00346303923976 0 -296.00346303923976 -230.3321523647715 0 0 0 0 -9.2911480976355847 -5.1082870481627651 0 -5.1082870481627651 -3.0599624325856492 0 0 0 0 -1276.5027276289911 453.83242465992839 0 453.83242465992839 79.999759007414923 0 0 0 0 -76.148889426607639 142.17258738974942 0 142.17258738974942 -37.622436060936707 0 0 0 0 -18.362342302226239 -13.397844860499276 0 -13.397844860499276 -8.8324461140216961 0 0 0 0 -758.34348721662536 309.76885183626376 0 309.76885183626376 75.851662788425756 0 0 0 0 -722.63785431731958 -26.042953285642 0 -26.042953285642 140.47551094682848 0 0 0 0 -1786.6899887500331 -93.139379575867309 0 -93.139379575867309 154.32898665990319 0 0 0 0 -319.12113681028131 40.320691225097235 0 40.320691225097235 44.984194652238244 0 0 0 0 -607.01448881590136 129.06717426187916 0 129.06717426187916 -96.668845111436099 0 0 0 0 -605.98507988968458 81.918257111596574 0 81.918257111596574 117.55710482897337 0 0 0 0 -294.6525194092028 89.990117819807253 0 89.990117819807253 0.19810801120321003 0 0 0 0 -437.86829854117241 -58.444118111626786 0 -58.444118111626786 8.9720641627737958 0 0 0 0 -590.091856473402 94.49341017565159 0 94.49341017565159 -0.26875084418355993 0 0 0 0 -777.04646320985921 20.429006057523551 0 20.429006057523551 37.716440394215653 0 0 0 0 -1463.8834413015575 -361.59294876689421 0 -361.59294876689421 -87.142982582486383 0 0 0 0 -1459.4425908586272 24.085003672232066 0 24.085003672232066 0.19900052313263822 0 0 0 0 -781.30789657269497 -221.03753374875177 0 -221.03753374875177 -173.63390954785234 0 0 0 0 -1463.6844231685682 37.858693499452194 0 37.858693499452194 49.503565028744291 0 0 0 0 -1469.911136008508 62.530877039786624 0 62.530877039786624 0.14275909142168347 0 0 0 0 -2042.3956846109068 200.72458570543918 0 200.72458570543918 12.427166071477473 0 0 0 0 -825.61966709801345 23.918040456245127 0 23.918040456245127 -0.16138875308190617 0 0 0 0 -1259.8281436269754 270.42140385620866 0 270.42140385620866 -53.14607588887516 0 0 0 0 -765.44667802545882 146.24740125720933 0 146.24740125720933 -164.59774637323855 0 0 0 0 -719.35489796084585 10.720978054951148 0 10.720978054951148 -48.729899184890712 0 0 0 0 -1343.6412382813287 181.6433915961791 0 181.6433915961791 -66.738558566048226 0 0 0 0 -541.7712136755008 177.16466393754581 0 177.16466393754581 -186.53716170068429 0 0 0 0 -1520.6446366319869 185.86821602115026 0 185.86821602115026 70.737223743463574 0 0 0 0 -2082.6428619046346 -273.79124023798869 0 -273.79124023798869 -81.539390710620182 0 0 0 0 -1306.3374432855344 59.960362396389655 0 59.960362396389655 -481.44913897014862 0 0 0 0 -1509.1586140047439 -12.964304093651322 0 -12.964304093651322 4.9917606948806679 0 0 0 0 -2504.1088266172301 544.21400532358803 0 544.21400532358803 81.701460942507424 0 0 0 0 -1951.6171686481393 117.9165194678103 0 117.9165194678103 287.36546633617627 0 0 0 0 -1558.8421173831553 288.73632813164562 0 288.73632813164562 108.23114330331146 0 0 0 0 -2073.9053072319366 57.86350800234095 0 57.86350800234095 33.14379064499326 0 0 0 0 -1644.5227459784219 486.89019405398727 0 486.89019405398727 -509.89282617210256 0 0 0 0 -1217.4512024667056 45.82592631923626 0 45.82592631923626 -391.16862202083621 0 0 0 0 -2003.429595615662 378.76263068993899 0 378.76263068993899 46.213009259033242 0 0 0 0 -1829.0330036936066 265.2973732179737 0 265.2973732179737 117.5852882217896 0 0 0 0 -1944.3362396492303 127.03607616239418 0 127.03607616239418 -28.650645059924955 0 0 0 0 -1725.28531255704 -202.03005979426712 0 -202.03005979426712 -4.0513981454714667 0 0 0 0 -4.0114416667209412 1.9284247029227402 0 1.9284247029227402 -1.0445815978522068 0 0 0 0 -114.91134277323727 418.78379987132917 0 418.78379987132917 82.962025623581212 0 0 0 0 -271.82823294945229 -187.99418268185565 0 -187.99418268185565 136.12842885921009 0 0 0 0 -209.69996134010762 206.23627777694114 0 206.23627777694114 114.01285700590734 0 0 0 0 -6.1303230312566939 2.8175383777989964 0 2.8175383777989964 -0.72007083691247953 0 0 0 0 -126.75133841831121 -297.55293366994101 0 -297.55293366994101 -120.7289962706235 0 0 0 0 -1213.8067927577222 -39.322233187419513 0 -39.322233187419513 171.31697133451962 0 0 0 0 -8.0657441388163988 -1.5389507547343513 0 -1.5389507547343513 -0.46843468650643505 0 0 0 0 -76.179111528734211 -187.43639812528909 0 -187.43639812528909 175.35764434290832 0 0 0 0 -472.44627535209293 200.83593312749622 0 200.83593312749622 256.78245976559629 0 0 0 0 -1153.9718014467217 -205.78760836078004 0 -205.78760836078004 -59.496248602998094 0 0 0 0 -1030.6627646575434 -393.53891211247378 0 -393.53891211247378 129.03161697462883 0 0 0 0 -974.90764469720307 -164.88063351163782 0 -164.88063351163782 -202.17634282569693 0 0 0 0 -1063.2481486733377 90.75289716827524 0 90.75289716827524 393.17744046638836 0 0 0 0 -10.443940090607242 -4.759178682956076 0 -4.759178682956076 -14.133624821044393 0 0 0 0 -1106.3041859796649 469.12948079621378 0 469.12948079621378 -252.80614204009999 0 0 0 0 -643.58230917569017 -309.3815740672444 0 -309.3815740672444 343.313114287399 0 0 0 0 -1257.6486855715193 86.748239858290617 0 86.748239858290617 -1206.2272477923525 0 0 0 0 -2362.2216385350403 999.75630353054305 0 999.75630353054305 -143.27595995677893 0 0 0 0 -949.14192637251108 46.130178540953239 0 46.130178540953239 39.218929112679689 0 0 0 0 -2.3847731197912765 -1.0534037067107249 0 -1.0534037067107249 -6.0883303834173148 0 0 0 0 -1918.5396537064807 772.53287794059179 0 772.53287794059179 -88.495075972357881 0 0 0 0 -1624.7171039053646 126.47000197365628 0 126.47000197365628 32.67883811943102 0 0 0 0 -1293.8256881095003 -247.83243173299934 0 -247.83243173299934 -40.727745565322039 0 0 0 0 328.79100836315774 -171.83134043174778 0 -171.83134043174778 2.1070167783814213 0 0 0 0 -201.55056412919657 89.945158699065814 0 89.945158699065814 409.95938712373572 0 0 0 0 -61.138604931213195 -37.49635355824671 0 -37.49635355824671 40.537274994436302 0 0 0 0 -12.707627763051022 -6.3063458564881216 0 -6.3063458564881216 5.2545845548098189 0 0 0 0 -86.767972602363443 9.0445079757039366 0 9.0445079757039366 41.532500911443435 0 0 0 0 -58.485209987680719 -58.408860745120819 0 -58.408860745120819 33.865161687854197 0 0 0 0 -14.482777631325007 -34.263879829894449 0 -34.263879829894449 23.424650641271 0 0 0 0 -36.793629128238535 -36.747209004734032 0 -36.747209004734032 38.862426659419725 0 0 0 0 -36.838207332464151 -19.283978945553564 0 -19.283978945553564 -6.776013087893622 0 0 0 0 -366.60857590916567 -312.94680668695582 0 -312.94680668695582 319.94850169900837 0 0 0 0 -31.271660175462785 -11.06387297118799 0 -11.06387297118799 -2.955671835141521 0 0 0 0 -95.269236453110352 -4.4571112571188678 0 -4.4571112571188678 18.993404092218043 0 0 0 0 -40.753574909904273 -81.22278197939886 0 -81.22278197939886 466.3060119317006 0 0 0 0 -21.511236349806495 -5.7144935459540775 0 -5.7144935459540775 -1.1884446246649194 0 0 0 0 -78.05913965824584 -126.28279132111948 0 -126.28279132111948 -143.38872424523197 0 0 0 0 136.48940691948519 93.200862671959385 0 93.200862671959385 259.65867861566221 0 0 0 0 105.01826832740335 -5.4719051767378915 0 -5.4719051767378915 -29.774171683292479 0 0 0 0 -1.2942558219019702 1.0083800578285036 0 1.0083800578285036 -0.90751791056413822 0 0 0 0 -27.296457246760838 -232.69050475133508 0 -232.69050475133508 -127.7936973431797 0 0 0 0 -370.94557391755006 -456.99524573037058 0 -456.99524573037058 -29.987519451077333 0 0 0 0 114.69581180700334 54.153769665302207 0 54.153769665302207 503.0233858627571 0 0 0 0 -124.02157670617453 -81.289833498812186 0 -81.289833498812186 -52.765864103375861 0 0 0 0 -21.582051933684852 -163.45265493522152 0 -163.45265493522152 13.133449375723558 0 0 0 0 -244.54210607454297 -97.067266970115384 0 -97.067266970115384 70.53289181137643 0 0 0 0 -243.00025752844522 -64.353801963355977 0 -64.353801963355977 217.11126492461813 0 0 0 0 -160.85994339255558 -168.00844115054974 0 -168.00844115054974 130.40043995389374 0 0 0 0 -212.72077944870398 -96.78656504506705 0 -96.78656504506705 141.04293456966496 0 0 0 0 -9.8054124846185005 -95.100149675173896 0 -95.100149675173896 159.28128187889706 0 0 0 0 -29.688576685482985 -244.32483961986199 0 -244.32483961986199 103.21202621793327 0 0 0 0 -253.4351609525911 4.3207929721186247 0 4.3207929721186247 7.7057767658702687 0 0 0 0 347.8339612155105 -226.21775992924398 0 -226.21775992924398 68.758821638403901 0 0 0 0 -2.6078221180143544 -4.0434445254557261 0 -4.0434445254557261 0.83543398628716758 0 0 0 0 525.17710700453608 -258.91318691757317 0 -258.91318691757317 22.482374986935156 0 0 0 0 51.258036194674787 -123.28604424979648 0 -123.28604424979648 141.80159642583089 0 0 0 0 -15.131251890903513 -214.34807854216254 0 -214.34807854216254 39.71639287036669 0 0 0 0 22.877368627508986 -22.740756260601415 0 -22.740756260601415 -8.7340785447704192 0 0 0 0 52.203274654984853 -248.49874228584588 0 -248.49874228584588 91.278915774341556 0 0 0 0 -216.6641981069115 -121.55314235224486 0 -121.55314235224486 -22.318085601438213 0 0 0 0 -193.10499130462995 -93.477259055629219 0 -93.477259055629219 -68.97232668625287 0 0 0 0 -519.92117746062195 -63.548107239343423 0 -63.548107239343423 1.3108392074602762 0 0 0 0 -309.76488993043313 64.623586690957424 0 64.623586690957424 -151.57812106702585 0 0 0 0 -176.89589529282966 29.02335900611692 0 29.02335900611692 -89.055481703803906 0 0 0 0 -542.02842142840382 113.05229259625834 0 113.05229259625834 -111.46831273765964 0 0 0 0 -387.38372682016052 -60.989984287604507 0 -60.989984287604507 -0.0073221714515451126 0 0 0 0 -29.858662503531377 -123.68442247215664 0 -123.68442247215664 -0.17342482340140003 0 0 0 0 -19.808694593659311 -109.90846060562154 0 -109.90846060562154 10.05636546920573 0 0 0 0 -0.56545397499576211 -117.45033982823034 0 -117.45033982823034 0.079706502604036264 0 0 0 0 -11.717625703298836 -128.16451010689775 0 -128.16451010689775 -4.9789863606149822 0 0 0 0 -15.507122718918254 -106.92147906331631 0 -106.92147906331631 18.692281141975677 0 0 0 0 76.850431927370664 -52.378801378420789 0 -52.378801378420789 20.779701669260021 0 0 0 0 57.096735489962157 -71.439880575541608 0 -71.439880575541608 22.356042489618225 0 0 0 0 191.57198223471642 -60.87953305008736 0 -60.87953305008736 18.922485847866369 0 0 0 0 162.24907572893426 -64.332913837556475 0 -64.332913837556475 0.017947873652490003 0 0 0 0 91.732626906712539 -100.26791160968615 0 -100.26791160968615 17.296228665563508 0 0 0 0 -789.8074673698211 214.05530817296676 0 214.05530817296676 629.51308608108639 0 0 0 0 -47.449629976334109 10.004903112633702 0 10.004903112633702 8.4440799280311545 0 0 0 0 -37.500744799014853 6.7789120647838104 0 6.7789120647838104 -0.76265136005278911 0 0 0 0 70.745293920743279 -95.282420116294517 0 -95.282420116294517 71.767319227042265 0 0 0 0 -2.5830408274828187 -8.1504188872784056 0 -8.1504188872784056 2.2786557971577523 0 0 0 0 479.37618918418593 -297.60070741753225 0 -297.60070741753225 -613.20258701048419 0 0 0 0 -21.318091719056952 -26.916775645659328 0 -26.916775645659328 13.966842739952641 0 0 0 0 143.93056509207236 -101.53937113221225 0 -101.53937113221225 -13.708281018865677 0 0 0 0 -14.276130259707855 -27.553439580698097 0 -27.553439580698097 14.985580411256841 0 0 0 0 -847.00023391139985 376.26961628400693 0 376.26961628400693 202.52654201997575 0 0 0 0 18.797615989737096 90.138853177910391 0 90.138853177910391 -65.610488304037517 0 0 0 0 -310.4587078000186 139.37013333490813 0 139.37013333490813 9.1923488100426312 0 0 0 0 -430.80652121198364 -31.429440738782034 0 -31.429440738782034 119.2413393180625 0 0 0 0 -1.9035874787654734 -2.0363653577446996 0 -2.0363653577446996 0.77226684208531982 0 0 0 0 -505.10988272209943 174.47147812318727 0 174.47147812318727 31.707969449325219 0 0 0 0 23.713834056790802 -147.19120353132985 0 -147.19120353132985 -25.422407711658025 0 0 0 0 602.39635636017192 189.23265124708618 0 189.23265124708618 -2124.6540456793905 0 0 0 0 548.33939329115674 827.10996238453924 0 827.10996238453924 -587.59843361472952 0 0 0 0 -11.808344650583081 5.1031986298216552 0 5.1031986298216552 -2.9062750217081472 0 0 0 0 922.10464540727116 -223.86002542384645 0 -223.86002542384645 -823.23857276736294 0 0 0 0 1131.7400307559292 433.55607154089836 0 433.55607154089836 -1195.6490811015071 0 0 0 0 270.34227017135709 -203.91419003053397 0 -203.91419003053397 -1302.1048088052423 0 0 0 0 -299.0943410131149 -340.69800956489985 0 -340.69800956489985 -239.30083211040875 0 0 0 0 -1015.2412727695773 -178.83933180380285 0 -178.83933180380285 -113.74070419282002 0 0 0 0 -680.99530772824073 -187.22370783756475 0 -187.22370783756475 -0.20206128614059432 0 0 0 0 -1384.6687990061473 -274.49007908948914 0 -274.49007908948914 40.050366220762861 0 0 0 0 241.25593861835659 -148.27644310518784 0 -148.27644310518784 -275.97445275816841 0 0 0 0 177.07922916554162 104.77479712515471 0 104.77479712515471 35.10588192366415 0 0 0 0 -292.24214736110298 337.70581316767834 0 337.70581316767834 -122.93075361007322 0 0 0 0 -201.53950235724915 267.78281631050504 0 267.78281631050504 -476.42045303037321 0 0 0 0 -794.53461679318571 -110.47258571901273 0 -110.47258571901273 -335.66948170616251 0 0 0 0 -669.41524596622912 511.34251526496109 0 511.34251526496109 -200.38165171728724 0 0 0 0 455.94507773421356 137.16056568925205 0 137.16056568925205 -306.61676671567534 0 0 0 0 -34.982151285341615 13.511181780010919 0 13.511181780010919 -3.8379207342470494 0 0 0 0 -27.76326789293671 18.835637075608282 0 18.835637075608282 -0.094266853803001011 0 0 0 0 -301.97215662032249 361.17705440058126 0 361.17705440058126 -101.95510725584518 0 0 0 0 -27.754669097019359 18.455205340991732 0 18.455205340991732 0.051189923408702327 0 0 0 0 -55.112938537785055 12.655217024499041 0 12.655217024499041 0.16240268425048018 0 0 0 0 443.50675913388841 207.18647226234498 0 207.18647226234498 -207.90892260659649 0 0 0 0 1154.280482524744 911.14967361405604 0 911.14967361405604 -322.87043536307442 0 0 0 0 -968.12730280203323 -454.59987265608055 0 -454.59987265608055 -185.03007804598019 0 0 0 0 -8.0236419084021691 6.0423464894621759 0 6.0423464894621759 -3.5838323423479039 0 0 0 0 -343.84298392588971 -44.351342970257974 0 -44.351342970257974 11.196705674728264 0 0 0 0 -414.13982198460144 -77.541512336741562 0 -77.541512336741562 50.186045763307447 0 0 0 0 -21.059605594112895 11.594443673331739 0 11.594443673331739 -1.1790378514404907 0 0 0 0 -402.39883524015386 -196.37361385141654 0 -196.37361385141654 -82.248684660464278 0 0 0 0 1111.7841003506182 -24.875350771267016 0 -24.875350771267016 -1411.1039042311809 0 0 0 0 -673.80711536754097 1090.7285742333843 0 1090.7285742333843 1350.2366429191002 0 0 0 0 -19.32812961570113 5.3500619131070408 0 5.3500619131070408 -0.89261931301072628 0 0 0 0 66.93586969786702 -86.134299730088372 0 -86.134299730088372 132.07999733184329 0 0 0 0 -120.69420123558666 774.65563093325261 0 774.65563093325261 -118.4304510052782 0 0 0 0 -114.86939211470963 -21.655419181543095 0 -21.655419181543095 361.7636511093051 0 0 0 0 -95.500871445503435 73.341575839270376 0 73.341575839270376 522.54097547560968 0 0 0 0 -22.142137366173188 3.5051612156001681 0 3.5051612156001681 8.7811383850628371 0 0 0 0 -61.088201775368361 -6.5611256551648012 0 -6.5611256551648012 10.645268099794521 0 0 0 0 -59.389901128190104 -9.4822813529367522 0 -9.4822813529367522 -13.095353741040526 0 0 0 0 -93.093585230177268 -17.673122041036549 0 -17.673122041036549 23.463878198794191 0 0 0 0 7.3351261604620959 139.59937458302483 0 139.59937458302483 262.85715439158503 0 0 0 0 -22.271045077076963 9.0334953775278564 0 9.0334953775278564 4.5667052524676102 0 0 0 0 30.699659417965449 251.38571068904412 0 251.38571068904412 514.10889876652425 0 0 0 0 -162.63924644862709 -49.400226905854197 0 -49.400226905854197 -20.298880471167649 0 0 0 0 -95.229037546159816 -42.511555691376088 0 -42.511555691376088 -19.639940413691875 0 0 0 0 -170.69988674177148 -45.036026876320648 0 -45.036026876320648 8.3442532622311774 0 0 0 0 -93.571946668504097 -15.013411735637874 0 -15.013411735637874 14.350369771802434 0 0 0 0 -214.94467760131374 -5.2587334421264131 0 -5.2587334421264131 45.466598137612891 0 0 0 0 -225.15328322059941 -17.283972416446431 0 -17.283972416446431 38.403725134564525 0 0 0 0 -336.52968023178983 -26.783416684173972 0 -26.783416684173972 44.085574232764884 0 0 0 0 -175.42492798397143 -89.079715690432749 0 -89.079715690432749 -71.187412768631816 0 0 0 0 -312.09999467626767 42.144799182262204 0 42.144799182262204 106.32952861283593 0 0 0 0 -104.4483680867678 -1.3403705450205265 0 -1.3403705450205265 4.7475327104792466 0 0 0 0 -285.8312794104786 25.073856171843346 0 25.073856171843346 72.057027006787735 0 0 0 0 -189.66923904397117 67.45966886646238 0 67.45966886646238 36.256620664941394 0 0 0 0 -174.63546148396563 16.291993124100621 0 16.291993124100621 54.591204395278666 0 0 0 0 -164.97660015866859 4.0577425922807322 0 4.0577425922807322 65.85279132556235 0 0 0 0 -156.64698777106241 1.0244254764111247 0 1.0244254764111247 41.34027595586349 0 0 0 0 -105.92148660044359 -6.8566274785737065 0 -6.8566274785737065 5.4194093004254382 0 0 0 0 -91.732507092441665 -22.294480987560746 0 -22.294480987560746 17.516123576843711 0 0 0 0 -18.609311464605639 13.321340303373788 0 13.321340303373788 13.049665824651605 0 0 0 0 -89.475258983540698 -20.293564292075104 0 -20.293564292075104 28.439130394964934 0 0 0 0 -145.12071495683631 18.379592503070512 0 18.379592503070512 46.870531710579201 0 0 0 0 -143.94591719344226 1.3265142988076679 0 1.3265142988076679 29.81669998157804 0 0 0 0 -101.10560419872854 10.635020049253363 0 10.635020049253363 26.336495926163792 0 0 0 0 -98.658040662485291 8.6855714839574176 0 8.6855714839574176 20.699967358561544 0 0 0 0 -38.394897463137511 -1.9735733501742345 0 -1.9735733501742345 6.8463007031794341 0 0 0 0 -60.160894820565488 1.875693529497763 0 1.875693529497763 10.165903623061698 0 0 0 0 -35.137044724804582 10.748552710400872 0 10.748552710400872 32.139493358336495 0 0 0 0 -94.758480661839712 -28.14777345769653 0 -28.14777345769653 22.820739835566201 0 0 0 0 -59.553065009778379 1.6098567539443138 0 1.6098567539443138 8.6358817474420864 0 0 0 0 -90.930403723701602 -24.765245888330355 0 -24.765245888330355 22.893301816190501 0 0 0 0 -10.456710760692658 -1.416738721528958 0 -1.416738721528958 4.8736887987556479 0 0 0 0 -25.373016860423377 4.3662704326238782 0 4.3662704326238782 11.693172159256392 0 0 0 0 -87.501610687089851 -0.6072158147171649 0 -0.6072158147171649 71.756938631549019 0 0 0 0 -12.496825644996647 -27.331978750169089 0 -27.331978750169089 7.8437599752138798 0 0 0 0 -159.18132287176559 1.9890322808610108 0 1.9890322808610108 130.54625360306363 0 0 0 0 -324.12033147609327 6.6067192217838056 0 6.6067192217838056 16.960188873184052 0 0 0 0 -135.59226757579017 -101.09002446228396 0 -101.09002446228396 -36.720400559101677 0 0 0 0 10.542577649641316 -332.53358020326095 0 -332.53358020326095 -158.88184867477139 0 0 0 0 -409.68772082601208 -136.83532076238635 0 -136.83532076238635 213.50529174179246 0 0 0 0 -117.94757272384595 44.146026215317306 0 44.146026215317306 -24.5032512877915 0 0 0 0 -250.62010810067295 -29.094099709763668 0 -29.094099709763668 -47.522834754211658 0 0 0 0 -248.00119210811681 -49.995763670971428 0 -49.995763670971428 112.55726669134629 0 0 0 0 -143.08382251611329 -54.883686103303717 0 -54.883686103303717 55.96632790765716 0 0 0 0 -260.3857723853871 26.161287816982053 0 26.161287816982053 -29.638440497631791 0 0 0 0 -329.57721485556976 -14.98734552333076 0 -14.98734552333076 75.231044337936055 0 0 0 0 -153.68191412329907 -156.58838417647053 0 -156.58838417647053 89.394163347741312 0 0 0 0 -12.777664375462336 -131.03989150395893 0 -131.03989150395893 16.419318615659904 0 0 0 0 -31.855333439342189 -25.083606069069162 0 -25.083606069069162 24.673673049424327 0 0 0 0 -145.29233148778439 57.926715686802822 0 57.926715686802822 28.326007956762624 0 0 0 0 -429.25082507674961 40.086189685907584 0 40.086189685907584 78.749712531460318 0 0 0 0 -276.81638655468123 54.426955813009954 0 54.426955813009954 78.048932669010995 0 0 0 0 -280.39453484174737 59.593844233952041 0 59.593844233952041 83.698638765153646 0 0 0 0 -316.95947967749089 -1.4841459115003772 0 -1.4841459115003772 25.611717932748206 0 0 0 0 -109.00124531264896 -12.644441382554128 0 -12.644441382554128 9.3920369037431612 0 0 0 0 -311.63230460457271 -5.217285061386292 0 -5.217285061386292 18.850299694166324 0 0 0 0 -315.38759584394575 -14.680220050186126 0 -14.680220050186126 41.92894903517427 0 0 0 0 -321.86956390157866 -4.032292797500352 0 -4.032292797500352 24.437603607112479 0 0 0 0 -300.7801971010922 -14.357896041184972 0 -14.357896041184972 7.4874712328251007 0 0 0 0 -295.44015926089196 39.683036062743412 0 39.683036062743412 50.206343165822197 0 0 0 0 -412.65742955356836 50.306474908983091 0 50.306474908983091 49.618775693402284 0 0 0 0 -353.68570462941716 -32.254748000947131 0 -32.254748000947131 82.547435289652299 0 0 0 0 -323.13814882011502 -21.710595879788627 0 -21.710595879788627 43.657386253761715 0 0 0 0 -300.52583498893364 -54.622957789635905 0 -54.622957789635905 47.364486541283441 0 0 0 0 -248.86335599943413 -38.809589741847788 0 -38.809589741847788 15.642210876928459 0 0 0 0 -33.992562103917692 -29.205835710677462 0 -29.205835710677462 12.7656590431558 0 0 0 0 -301.27700603395988 -2.9073760151814767 0 -2.9073760151814767 -5.3021914211103649 0 0 0 0 -59.293336336780214 -76.75796407297571 0 -76.75796407297571 6.71540635337551 0 0 0 0 -329.82091672906245 16.400814078392671 0 16.400814078392671 9.8084649882516715 0 0 0 0 -316.35987422172911 10.39699052103424 0 10.39699052103424 -4.1659224800332879 0 0 0 0 -42.104571208768959 -23.725158700235532 0 -23.725158700235532 -3.2240569473621221 0 0 0 0 -80.702161306457128 -44.18601487514411 0 -44.18601487514411 65.017010130222843 0 0 0 0 -232.24907054865616 -20.028363628404122 0 -20.028363628404122 44.091948982495524 0 0 0 0 -21.560819003182743 -3.6910260664081989 0 -3.6910260664081989 3.5488140356056013 0 0 0 0 57.018827198480722 -140.59912784130574 0 -140.59912784130574 70.191966856955332 0 0 0 0 -77.76131786376169 -41.690628741611157 0 -41.690628741611157 16.42292009393271 0 0 0 0 -122.27833732831641 -64.540896618596463 0 -64.540896618596463 -22.600792723755148 0 0 0 0 -23.120940135805029 -19.758362635309624 0 -19.758362635309624 28.386979505069476 0 0 0 0 -96.511797321800259 -20.562450598912619 0 -20.562450598912619 51.061593080793273 0 0 0 0 -126.76593979694007 -4.191567598800475 0 -4.191567598800475 21.494523794317502 0 0 0 0 -173.1725334856892 75.74152483064131 0 75.74152483064131 44.51302548246224 0 0 0 0 -199.55754926922236 -11.307604331952632 0 -11.307604331952632 50.379193989112764 0 0 0 0 -73.493297254150093 -85.469155816594821 0 -85.469155816594821 -45.674258804751616 0 0 0 0 -16.97830678120215 -28.612501500094368 0 -28.612501500094368 18.604731738082197 0 0 0 0 -4.6949034055089243 -21.23767754956603 0 -21.23767754956603 21.455530457300803 0 0 0 0 -192.16732042279182 -50.623923988226238 0 -50.623923988226238 -38.65469417433269 0 0 0 0 35.766297448135447 -37.805246411310236 0 -37.805246411310236 -26.400539365264649 0 0 0 0 -270.18402431649156 104.33808835410082 0 104.33808835410082 36.631600407828955 0 0 0 0 -51.48243958146486 -64.827467755080306 0 -64.827467755080306 149.1568914726372 0 0 0 0 252.84899445745395 -79.276477220084416 0 -79.276477220084416 -18.840599498706069 0 0 0 0 -177.69009982746502 -302.55442832230597 0 -302.55442832230597 -48.965647746232207 0 0 0 0 270.69837447881582 255.98106056966208 0 255.98106056966208 50.494311397987076 0 0 0 0 132.52745214177412 -11.067435245991874 0 -11.067435245991874 -99.741475704660047 0 0 0 0 -128.68542003645052 -121.67482330380943 0 -121.67482330380943 -73.449955687383408 0 0 0 0 26.207873534935061 105.87238608797088 0 105.87238608797088 332.54498406423818 0 0 0 0 291.52613619939075 173.17523652465752 0 173.17523652465752 149.03485523227209 0 0 0 0 -18.751892613207986 -5.9550246755626404 0 -5.9550246755626404 2.4891347643360433 0 0 0 0 616.68461973784724 64.358085071638925 0 64.358085071638925 -174.40132049053454 0 0 0 0 146.36850552231772 -384.86019228864598 0 -384.86019228864598 111.10321633141757 0 0 0 0 754.05898547166726 148.52656213420232 0 148.52656213420232 -123.70866739201301 0 0 0 0 539.38302368595032 578.12559201867361 0 578.12559201867361 566.87722243911048 0 0 0 0 696.83248694983195 32.54227120955602 0 32.54227120955602 135.77765372296471 0 0 0 0 -12.831850143182237 13.673659102983294 0 13.673659102983294 11.406431708339611 0 0 0 0 -34.254652352887206 -53.674157486146669 0 -53.674157486146669 13.089091587865369 0 0 0 0 -25.238633891422069 -46.021692987012557 0 -46.021692987012557 10.333385313520921 0 0 0 0 -58.538457440205093 -36.219144069067625 0 -36.219144069067625 43.692113256838638 0 0 0 0 -66.988674353650367 -31.139711429638055 0 -31.139711429638055 -4.5877552632118439 0 0 0 0 -115.80117128328857 1.8816668488587425 0 1.8816668488587425 47.435105582532287 0 0 0 0 -6.3213997946121196 5.5117134627288351 0 5.5117134627288351 -3.0084001021240869 0 0 0 0 -20.111267076958029 366.84432961805021 0 366.84432961805021 -147.47548363285341 0 0 0 0 -2107.8018326330639 -514.94010490152095 0 -514.94010490152095 25.795892361329493 0 0 0 0 -768.01682825933676 12.0655804672042 0 12.0655804672042 387.01982893583772 0 0 0 0 -557.55824878667772 262.26148291345248 0 262.26148291345248 -409.84133512557401 0 0 0 0 -1072.0507075997011 461.38899334733105 0 461.38899334733105 78.748473432452556 0 0 0 0 -976.21082702180138 -374.61589966261693 0 -374.61589966261693 34.804244231396524 0 0 0 0 -145.22215031087944 -300.46360667052943 0 -300.46360667052943 -477.17783363510716 0 0 0 0 -824.74898963763553 281.38394224150056 0 281.38394224150056 99.057892227843467 0 0 0 0 -341.09760032064514 61.870360423147872 0 61.870360423147872 62.172822380229491 0 0 0 0 -356.17406058419147 -114.69711354685563 0 -114.69711354685563 77.007054425252477 0 0 0 0 -395.9583368247404 -112.6064802046061 0 -112.6064802046061 76.939046413459209 0 0 0 0 -480.97188810896478 4.8904663543785887 0 4.8904663543785887 81.457560408301447 0 0 0 0 -443.96937511513534 45.409704707771652 0 45.409704707771652 60.314657364706591 0 0 0 0 -69.668963167932816 69.471430960526504 0 69.471430960526504 33.813750775312769 0 0 0 0 -461.63524743597372 39.945169385965414 0 39.945169385965414 76.766694321857017 0 0 0 0 -0.76483854975548127 1.4508430933854868 0 1.4508430933854868 0.097860846207773022 0 0 0 0 -122.03236331717198 22.88866022522916 0 22.88866022522916 22.149592873888878 0 0 0 0 -128.76816882553976 25.350869331396893 0 25.350869331396893 40.982897687765217 0 0 0 0 -165.37918043491663 22.159265580799683 0 22.159265580799683 16.466958839084327 0 0 0 0 -127.29723479074892 12.667343919586301 0 12.667343919586301 15.706430067102815 0 0 0 0 -0.82891806939541368 1.9557838948834672 0 1.9557838948834672 -0.047815786795977644 0 0 0 0 -108.69023705395921 15.391732244339167 0 15.391732244339167 16.21894699983045 0 0 0 0 -96.241861911141314 18.746160474912358 0 18.746160474912358 15.756995040319282 0 0 0 0 -110.74793820915511 7.1576674886086948 0 7.1576674886086948 30.755480633931313 0 0 0 0 -127.72228426324 20.667457465035 0 20.667457465035 25.949367156449398 0 0 0 0 -109.85690677569073 25.092738991517422 0 25.092738991517422 14.677018885577809 0 0 0 0 -129.11180107864493 20.913607103168715 0 20.913607103168715 25.906642139778228 0 0 0 0 -104.26760395793099 17.062515073860823 0 17.062515073860823 18.042446409284366 0 0 0 0 -115.72893546347223 37.778758621789279 0 37.778758621789279 53.016052521970778 0 0 0 0 -120.82312716604793 14.538885857028163 0 14.538885857028163 30.86099110737041 0 0 0 0 -118.80792239154107 9.0820590839043689 0 9.0820590839043689 21.0330550273992 0 0 0 0 -123.81694828390027 17.469771207366421 0 17.469771207366421 7.2080860801665949 0 0 0 0 -107.10782532996382 -18.681518522416809 0 -18.681518522416809 -2.5703649556130586 0 0 0 0 -135.20767879165942 -37.339452786666698 0 -37.339452786666698 53.20908961183784 0 0 0 0 -126.30467032575689 -22.70522004152167 0 -22.70522004152167 50.563576294419363 0 0 0 0 -140.61625732986431 -5.888252624009283 0 -5.888252624009283 45.027023385920984 0 0 0 0 -219.55272592703113 4.2121475719231967 0 4.2121475719231967 87.663618229992608 0 0 0 0 -142.2543995269516 7.2939535583714132 0 7.2939535583714132 82.362061364926149 0 0 0 0 -149.26858341105981 149.28368615190743 0 149.28368615190743 -84.674896221611107 0 0 0 0 -123.70771906718437 15.315116389520426 0 15.315116389520426 -8.2912224582250929 0 0 0 0 -157.56661481884657 78.291179807831668 0 78.291179807831668 68.277017891973628 0 0 0 0 -268.80045183945913 -29.591135585131042 0 -29.591135585131042 34.939748672386486 0 0 0 0 -143.783891662315 -24.520398326390023 0 -24.520398326390023 39.082912645205397 0 0 0 0 47.845651666917547 94.098794080982543 0 94.098794080982543 74.455223221973029 0 0 0 0 -0.48040457943399417 1.1742115474235675 0 1.1742115474235675 0.041957892312975531 0 0 0 0 -40.874800748453708 66.471235753506335 0 66.471235753506335 101.14950470015037 0 0 0 0 -98.23378780017083 63.789828155586292 0 63.789828155586292 132.05039812893983 0 0 0 0 -50.366697340180792 8.1453410812417086 0 8.1453410812417086 -1.2544150281769595 0 0 0 0 -80.200269062126608 1.2185502013938958 0 1.2185502013938958 52.685751951376005 0 0 0 0 -54.906324105046224 103.80935073527507 0 103.80935073527507 67.303871271316893 0 0 0 0 59.351543578450219 8.0641432332495242 0 8.0641432332495242 52.937273432766233 0 0 0 0 -12.948830940673361 101.46298069805471 0 101.46298069805471 67.382264631573605 0 0 0 0 -51.490903580539452 12.969294588437606 0 12.969294588437606 25.28514427236405 0 0 0 0 -214.04427762008345 314.90047496411603 0 314.90047496411603 49.537293349308584 0 0 0 0 -78.376299766532611 9.3428978495367119 0 9.3428978495367119 49.603763997825467 0 0 0 0 -60.039671006834453 18.257878847854617 0 18.257878847854617 2.8739207394816288 0 0 0 0 -29.449656246986706 16.453406716695099 0 16.453406716695099 -51.154346307181868 0 0 0 0 170.53628341212607 186.69356310980038 0 186.69356310980038 -144.58494854954824 0 0 0 0 -46.256878830692955 6.6894656625420339 0 6.6894656625420339 19.673187936326933 0 0 0 0 73.269480861046759 31.945885800795622 0 31.945885800795622 12.018218545175841 0 0 0 0 -137.00630558010471 -3.8477922870766719 0 -3.8477922870766719 12.863460138509536 0 0 0 0 579.7093166281702 1013.6108717365387 0 1013.6108717365387 -425.68205753062966 0 0 0 0 -1261.4862095962744 -1989.1424734205086 0 -1989.1424734205086 -1049.1834470030353 0 0 0 0 -281.08448156826489 96.616777261722746 0 96.616777261722746 14.441964619931241 0 0 0 0 -184.98639458004618 96.968320990322354 0 96.968320990322354 -239.07303878935454 0 0 0 0 -203.40447639457852 7.1868118896841224 0 7.1868118896841224 77.612256384480133 0 0 0 0 -247.56420535952202 18.570776378260348 0 18.570776378260348 96.670560927827864 0 0 0 0 -161.53055801690789 -44.464715988372063 0 -44.464715988372063 100.78809489926607 0 0 0 0 -193.58172161062248 -26.525376296592185 0 -26.525376296592185 134.32646990708599 0 0 0 0 -103.50883399369195 -83.762340617055088 0 -83.762340617055088 163.29828492254916 0 0 0 0 -15.84326039282962 0.69376367545486595 0 0.69376367545486595 0.12255379057387739 0 0 0 0 -90.598660005314741 -78.643963393199101 0 -78.643963393199101 88.694044188318003 0 0 0 0 -65.271150296845008 0.82338697486602541 0 0.82338697486602541 42.611026854661759 0 0 0 0 -77.485468696145062 14.513381505316588 0 14.513381505316588 0.99392499022423575 0 0 0 0 -92.149396831526246 10.223258621533205 0 10.223258621533205 75.463423079404492 0 0 0 0 -5.7099471560268285 -295.09113956268118 0 -295.09113956268118 -185.76728556777562 0 0 0 0 -73.323491091563483 15.697112980100428 0 15.697112980100428 72.049252042184889 0 0 0 0 -77.568590372130302 11.591041669235217 0 11.591041669235217 8.954830645028272 0 0 0 0 15.764521151642839 -92.994397026680417 0 -92.994397026680417 466.02025981319184 0 0 0 0 -837.29908817388787 -152.8964520833656 0 -152.8964520833656 1761.8570628749694 0 0 0 0 -37.785759244477958 -869.55162598674315 0 -869.55162598674315 1214.6876849536238 0 0 0 0 -268.35100216001592 356.20158946640004 0 356.20158946640004 -1283.8513111063221 0 0 0 0 -2315.669991882387 8.3740656336194661 0 8.3740656336194661 1256.5702369682513 0 0 0 0 -287.53453753646318 493.9978698614359 0 493.9978698614359 -19.729446972848564 0 0 0 0 -674.12138671774301 165.22280228888849 0 165.22280228888849 -40.406047519830281 0 0 0 0 -2.2444777575873331 -3.5203094235022689 0 -3.5203094235022689 1.9128336632754541 0 0 0 0 -696.47930451862339 -552.4437337931995 0 -552.4437337931995 165.47573257579279 0 0 0 0 -521.11034233760438 222.27045797019491 0 222.27045797019491 -52.696195617927515 0 0 0 0 287.66809165256564 541.35662059515289 0 541.35662059515289 1241.1174841377779 0 0 0 0 661.59213834509865 -713.39742101030424 0 -713.39742101030424 698.60615629354334 0 0 0 0 -75.33298200914777 8.8932985347081228 0 8.8932985347081228 10.597490064697753 0 0 0 0 -11.431951631695028 -8.1349018856374755 0 -8.1349018856374755 19.195543973132324 0 0 0 0 785.88881997145654 196.33280283462045 0 196.33280283462045 -2140.2042388762411 0 0 0 0 2243.2061198525262 -1263.591747302471 0 -1263.591747302471 -1547.5878521829509 0 0 0 0 -505.44344349586754 -1023.1542126283166 0 -1023.1542126283166 1357.495868543084 0 0 0 0 253.26918302368722 -638.97985252428407 0 -638.97985252428407 -392.6079278752859 0 0 0 0 -1556.1613588060318 -794.95624017999353 0 -794.95624017999353 718.6138527923431 0 0 0 0 -888.40426935320284 -223.38415581451318 0 -223.38415581451318 -48.758602385489212 0 0 0 0 -140.6313860284863 -341.10030263555745 0 -341.10030263555745 241.8061153437684 0 0 0 0 254.12988140537345 483.70720850447469 0 483.70720850447469 -73.676474823272656 0 0 0 0 -332.66223200394597 340.44118120997518 0 340.44118120997518 352.05090094382513 0 0 0 0 -9.3996746090960386 6.5597307655973935 0 6.5597307655973935 4.4962187174849362 0 0 0 0 -243.00926167787111 217.61836272040364 0 217.61836272040364 -350.87768119393149 0 0 0 0 -731.19174858069164 80.342148602299858 0 80.342148602299858 3.0949295992149928 0 0 0 0 -214.22059943911154 113.49103401823959 0 113.49103401823959 -24.524393999745371 0 0 0 0 -1320.9794360263768 -942.04950119683599 0 -942.04950119683599 -319.79291195308178 0 0 0 0 250.48842661702133 -150.76019985080947 0 -150.76019985080947 -85.242247335947468 0 0 0 0 -1058.6814992881846 -557.14389373424365 0 -557.14389373424365 -295.89104289683615 0 0 0 0 -1394.166584216 -181.83319398277126 0 -181.83319398277126 169.58467134858984 0 0 0 0 -182.34797049911867 3.7736656384349772 0 3.7736656384349772 -44.848932163233258 0 0 0 0 -289.6194932958897 -102.68254816381841 0 -102.68254816381841 54.286138140692856 0 0 0 0 -266.9168707873032 -6.5700164226691413 0 -6.5700164226691413 344.61890364407373 0 0 0 0 -156.80833487963537 -295.24613232003321 0 -295.24613232003321 239.8257867456723 0 0 0 0 -339.11407359928126 -293.38694549716092 0 -293.38694549716092 60.955096644704099 0 0 0 0 -246.35768107065815 -158.10942749712194 0 -158.10942749712194 35.27334016426903 0 0 0 0 -181.26532705263526 -235.95842016466395 0 -235.95842016466395 -415.12523879207947 0 0 0 0 -46.103182851991733 59.598897832327566 0 59.598897832327566 -207.77165068734394 0 0 0 0 -658.66735337114369 -263.72284470909653 0 -263.72284470909653 0.74994581897954049 0 0 0 0 -11.250151579008588 3.107341691012472 0 3.107341691012472 1.1616089667747076 0 0 0 0 -504.29218122552993 -621.33493482643053 0 -621.33493482643053 -271.87991724913445 0 0 0 0 -9.2624830272451391 0.02907713892302155 0 0.02907713892302155 5.3152649199156059 0 0 0 0 -797.3216053355136 -284.85633196078561 0 -284.85633196078561 70.329362874890649 0 0 0 0 -325.08708127384307 -393.73959785171974 0 -393.73959785171974 -45.22808052682376 0 0 0 0 115.85609212496638 148.50363003982511 0 148.50363003982511 148.00770477701008 0 0 0 0 -23.60145202384308 13.154276399694204 0 13.154276399694204 -5.6942748689730749 0 0 0 0 -20.433946036748239 119.92053414212023 0 119.92053414212023 169.5402270361551 0 0 0 0 76.447291177915758 80.103969525222055 0 80.103969525222055 153.88310878418633 0 0 0 0 -32.386539007347892 49.258244617252785 0 49.258244617252785 173.67435088871935 0 0 0 0 -97.69779845062294 12.197591418353113 0 12.197591418353113 116.01617382071709 0 0 0 0 -133.90951896228944 -32.633299991666718 0 -32.633299991666718 94.306774337792376 0 0 0 0 -78.912806889289641 8.2849944638110173 0 8.2849944638110173 106.34351391650125 0 0 0 0 -65.733509683952434 65.525512762120343 0 65.525512762120343 172.98130050931468 0 0 0 0 29.571936382417334 75.23480851874956 0 75.23480851874956 70.019599758245022 0 0 0 0 -83.514481909980532 36.865954485576367 0 36.865954485576367 129.7185883944876 0 0 0 0 -59.945417116337921 4.5031977623184503 0 4.5031977623184503 63.369644226288074 0 0 0 0 -24.965913952488336 72.327787517073375 0 72.327787517073375 -106.16444858507748 0 0 0 0 -29.668768365532742 -1.572161097321441 0 -1.572161097321441 45.688232594449801 0 0 0 0 -111.7467194107594 -96.635058050283988 0 -96.635058050283988 65.184714219114539 0 0 0 0 -14.297305544030621 3.8518041112598809 0 3.8518041112598809 4.3181194129538163 0 0 0 0 -48.509768584714038 -158.22234368845056 0 -158.22234368845056 -9.3460589750029612 0 0 0 0 -290.20370083939088 -175.74873203114652 0 -175.74873203114652 35.511215489207643 0 0 0 0 -282.62953005215968 -40.362530353621878 0 -40.362530353621878 -110.40012588373065 0 0 0 0 -176.57936630676704 -140.55329636402541 0 -140.55329636402541 -40.716559695818432 0 0 0 0 -125.16960137273418 -204.57827071845395 0 -204.57827071845395 37.618896268522803 0 0 0 0 -16.766732163251618 0.92604992102992689 0 0.92604992102992689 1.1665198340662655 0 0 0 0 -1000.8208335061208 547.36044977405072 0 547.36044977405072 -625.6358523565541 0 0 0 0 -81.769601042600698 -2.6913775093348704 0 -2.6913775093348704 4.6353933638383751 0 0 0 0 313.06941564434965 -203.62835008783168 0 -203.62835008783168 -670.73056395017875 0 0 0 0 -26.009090838395792 -0.020958945193200407 0 -0.020958945193200407 2.7918738431746561 0 0 0 0 -4.708778219212661 -7.8800633506888627 0 -7.8800633506888627 -0.97442687518466797 0 0 0 0 -551.4247750666982 231.85973025068415 0 231.85973025068415 -19.7482743316491 0 0 0 0 -129.49178466396552 -35.386131128433135 0 -35.386131128433135 143.46640102398715 0 0 0 0 -105.68217937727422 65.601228315816485 0 65.601228315816485 0.18882565964850073 0 0 0 0 -63.528897296872401 26.035159641980414 0 26.035159641980414 25.251545905643905 0 0 0 0 -497.83517519009183 407.81193963235182 0 407.81193963235182 29.276801038593021 0 0 0 0 -417.50003203487722 -160.90031261851072 0 -160.90031261851072 -180.05802387743233 0 0 0 0 -35.572207407289568 8.4291337148972048 0 8.4291337148972048 -13.130251209736171 0 0 0 0 -841.76910490127193 -226.08886274577708 0 -226.08886274577708 134.63790032218276 0 0 0 0 -1265.1283862534619 -82.518478441174466 0 -82.518478441174466 53.573508194391934 0 0 0 0 -806.97826322955007 -41.408520598664467 0 -41.408520598664467 -12.552937784543929 0 0 0 0 -1113.0321767742807 53.879123839923004 0 53.879123839923004 12.488698333284901 0 0 0 0 -98.878061464083203 -16.778026286535273 0 -16.778026286535273 1.2656801734503917 0 0 0 0 -2.808385747276958 12.6627312493478 0 12.6627312493478 9.3640463935471239 0 0 0 0 -704.76108632229443 -387.26527318015064 0 -387.26527318015064 106.74574526084052 0 0 0 0 -1148.6256824549491 -248.25766098590611 0 -248.25766098590611 213.35258400919156 0 0 0 0 -723.85509087531318 -322.73497110963103 0 -322.73497110963103 171.72354626912602 0 0 0 0 -28.543132241161629 7.4831804186040642 0 7.4831804186040642 3.332499388571982 0 0 0 0 -62.021256637410261 148.62899596192915 0 148.62899596192915 125.54006513379886 0 0 0 0 -46.068582371910452 -29.247426997295406 0 -29.247426997295406 22.036445848292487 0 0 0 0 -24.178928789457643 6.9527594672482991 0 6.9527594672482991 4.7063719969772677 0 0 0 0 -65.4894427523177 528.54934997296368 0 528.54934997296368 91.421679610055435 0 0 0 0 -188.94756726380729 95.263047401389485 0 95.263047401389485 549.69636485102092 0 0 0 0 -141.86230005417747 56.798854821150599 0 56.798854821150599 397.46889725920846 0 0 0 0 -96.894000251340913 12.628134142959425 0 12.628134142959425 96.098376606986733 0 0 0 0 -82.377201548668666 44.50407495550521 0 44.50407495550521 18.264686122332776 0 0 0 0 -1845.2201654056917 -1089.2505276678985 0 -1089.2505276678985 -7.4025207793993104 0 0 0 0 -113.10129374318819 22.113168430288766 0 22.113168430288766 15.63095525357916 0 0 0 0 -849.74373570707394 -22.396618705626679 0 -22.396618705626679 -177.92559211872185 0 0 0 0 -124.06165507043625 310.13693840529231 0 310.13693840529231 -105.09176417590061 0 0 0 0 -579.69970063469373 -169.65626907553633 0 -169.65626907553633 381.60025149655576 0 0 0 0 -97.278642852055214 19.036227037160288 0 19.036227037160288 11.854325821788757 0 0 0 0 -412.77398156914569 75.806203370762887 0 75.806203370762887 -96.506552943188581 0 0 0 0 -399.56251088675344 88.327925557672643 0 88.327925557672643 -755.15255662367599 0 0 0 0 -1370.4672858661579 430.24708716987243 0 430.24708716987243 -8.7696849768926768 0 0 0 0 -889.14608789965132 -310.56034002158867 0 -310.56034002158867 -386.34618608864548 0 0 0 0 -1493.3356717476127 90.756649440892033 0 90.756649440892033 -23.771198546339292 0 0 0 0 -377.12090317733237 -114.0665722611775 0 -114.0665722611775 -337.97535189522205 0 0 0 0 -376.14315079312109 -92.782341066867446 0 -92.782341066867446 -212.59537071749946 0 0 0 0 -314.13850298040779 -381.43133151820257 0 -381.43133151820257 -444.53822792193387 0 0 0 0 -251.69910505070584 84.063720332325829 0 84.063720332325829 -426.92911940546219 0 0 0 0 51.043214717003139 5.5984665596162131 0 5.5984665596162131 -576.57007407416313 0 0 0 0 -175.48634893496637 -146.40606317586389 0 -146.40606317586389 -678.51020810988121 0 0 0 0 -665.29574781936753 342.4085551031834 0 342.4085551031834 42.785688740663318 0 0 0 0 -726.56753683273564 -19.777805607149276 0 -19.777805607149276 -344.88285718113912 0 0 0 0 -866.80710187670047 571.95221084649165 0 571.95221084649165 -194.19038316185106 0 0 0 0 -911.11248193061328 579.42302454364562 0 579.42302454364562 74.494995868433762 0 0 0 0 -416.41572081272898 398.10844263775653 0 398.10844263775653 -32.151930413490845 0 0 0 0 -1081.4146385963722 674.88989649274617 0 674.88989649274617 196.43956459262336 0 0 0 0 -470.84414985679177 285.44522705657937 0 285.44522705657937 169.01526676231515 0 0 0 0 -63.576440938217274 271.85723188880911 0 271.85723188880911 47.821736279129254 0 0 0 0 -132.01379427900247 304.16352117039605 0 304.16352117039605 -74.094744611806163 0 0 0 0 -208.1546808087005 47.587460928182736 0 47.587460928182736 57.807218885319344 0 0 0 0 -3.6879381980526063 -2.024543671832987 0 -2.024543671832987 3.4569953568227589 0 0 0 0 -719.04655905274922 374.2530692450141 0 374.2530692450141 506.98390809174816 0 0 0 0 -485.48198050749488 -1.254858744237481 0 -1.254858744237481 286.0498239674962 0 0 0 0 340.47724406216003 61.870136968651423 0 61.870136968651423 -26.623021645014887 0 0 0 0 -74.544027093201294 291.53331621132702 0 291.53331621132702 450.27064303468796 0 0 0 0 -71.348938047529373 336.47253293502399 0 336.47253293502399 -283.47940970807485 0 0 0 0 -425.05553252673417 431.26473725786491 0 431.26473725786491 -166.88735907453702 0 0 0 0 -39.678937191187288 43.461539210085903 0 43.461539210085903 -99.932999661449685 0 0 0 0 55.778021325706504 110.5309687367062 0 110.5309687367062 291.03283574167472 0 0 0 0 -31.981212240232708 317.64651188204971 0 317.64651188204971 380.11204594454284 0 0 0 0 -78.139602656678449 13.762016968598992 0 13.762016968598992 0.42498370120069362 0 0 0 0 -75.113514140699408 -6.4163323162820234 0 -6.4163323162820234 102.352316284685 0 0 0 0 -56.40358641531202 -12.830384040164063 0 -12.830384040164063 139.12903880439808 0 0 0 0 -77.294490009022411 14.946770127791751 0 14.946770127791751 125.29917297068096 0 0 0 0 -72.455328127163909 16.586267651497415 0 16.586267651497415 10.414933326427679 0 0 0 0 -214.41214336708799 -164.64153838607672 0 -164.64153838607672 1348.1591558022774 0 0 0 0 -63.411412010899539 7.1096310575669008 0 7.1096310575669008 9.3379477775220732 0 0 0 0 79.109728510404238 99.188101251545277 0 99.188101251545277 69.444090924575903 0 0 0 0 48.592878035575268 -29.944532008893475 0 -29.944532008893475 86.48488254988888 0 0 0 0 -32.475873050589144 19.365741982541067 0 19.365741982541067 56.866845452819689 0 0 0 0 -468.16123037779471 -346.03828046685339 0 -346.03828046685339 500.90987352649836 0 0 0 0 -93.714651026471984 119.62220758459989 0 119.62220758459989 233.43711935266765 0 0 0 0 -229.73875058573321 87.557540402711993 0 87.557540402711993 94.737254343583118 0 0 0 0 -176.22471490927273 -6.0903245077806787 0 -6.0903245077806787 41.903114862179336 0 0 0 0 -183.72048430320865 -71.739757182755056 0 -71.739757182755056 905.1848248922397 0 0 0 0 -132.15914073979366 135.47436647543509 0 135.47436647543509 393.17137315105538 0 0 0 0 -303.30461872962405 446.63117763857281 0 446.63117763857281 498.7043950375737 0 0 0 0 -102.81470332533354 -135.29886665180675 0 -135.29886665180675 920.60903014078576 0 0 0 0 -67.15208362762138 34.657206878243272 0 34.657206878243272 1.327930212657396 0 0 0 0 -95.271381230195402 15.103271491087071 0 15.103271491087071 120.38626395892061 0 0 0 0 -52.920947871054523 -23.55576020323133 0 -23.55576020323133 155.18510657994759 0 0 0 0 -38.287451699143276 -15.573601236510967 0 -15.573601236510967 79.83070146619275 0 0 0 0 -87.673417402911582 30.588955701420673 0 30.588955701420673 74.006636825545684 0 0 0 0 -95.388921783261594 19.919125239953033 0 19.919125239953033 116.0797796732877 0 0 0 0 -101.97945362668713 24.426464744980535 0 24.426464744980535 21.328457532206446 0 0 0 0 -64.651955977053149 3.4476764002795335 0 3.4476764002795335 10.154931977062461 0 0 0 0 -68.942227066945634 8.8803525435954498 0 8.8803525435954498 63.671998801325572 0 0 0 0 -38.588625352058443 12.178995548493731 0 12.178995548493731 17.571752139112505 0 0 0 0 -83.498861303567537 13.173851482920327 0 13.173851482920327 18.246413061233056 0 0 0 0 -85.761584490013774 -20.338931513840521 0 -20.338931513840521 14.984141680419981 0 0 0 0 -57.826362280740454 25.823803171050315 0 25.823803171050315 22.179897738771963 0 0 0 0 -458.4920358884483 -70.326756655727422 0 -70.326756655727422 5.8350836532817993 0 0 0 0 -83.648050070394675 55.370007048148125 0 55.370007048148125 61.590166485420013 0 0 0 0 -157.65930564681912 34.219812927960106 0 34.219812927960106 54.019287404332317 0 0 0 0 -80.676541947570513 70.609896764018231 0 70.609896764018231 61.519887199663117 0 0 0 0 -24.317596944019897 47.881540618531744 0 47.881540618531744 25.38264972593015 0 0 0 0 -46.13828557873785 8.4133565014556098 0 8.4133565014556098 51.812173881155104 0 0 0 0 -77.67754210763087 35.018344344995057 0 35.018344344995057 23.374261408986854 0 0 0 0 -59.152410734328441 18.189792646237322 0 18.189792646237322 -1.1781336107919742 0 0 0 0 -79.64249212708819 31.540480329648062 0 31.540480329648062 17.811315228833791 0 0 0 0 -96.357496972181252 22.56454886125664 0 22.56454886125664 14.838903691373162 0 0 0 0 -76.502863859946956 18.114535781360928 0 18.114535781360928 9.7103399085945057 0 0 0 0 -80.147588766438275 5.2610382286570143 0 5.2610382286570143 -4.4212112287118543 0 0 0 0 -93.951356921184924 11.784262603531829 0 11.784262603531829 11.685097885981122 0 0 0 0 -438.91280013833602 -177.93635971340609 0 -177.93635971340609 25.799854978903568 0 0 0 0 -184.69569022325231 -5.8960923862252912 0 -5.8960923862252912 4.1809565363982983 0 0 0 0 -237.1285509361478 184.40509619727072 0 184.40509619727072 45.712285805233478 0 0 0 0 -60.482675799978551 27.032828917625466 0 27.032828917625466 24.560894831949842 0 0 0 0 -515.09313068588381 -127.6326960201086 0 -127.6326960201086 62.332133447567685 0 0 0 0 -570.56933765797294 -98.808232857772055 0 -98.808232857772055 45.854183389636887 0 0 0 0 -578.67450433153135 -198.49155649344084 0 -198.49155649344084 31.882821673863077 0 0 0 0 -566.35566289245617 -146.04355309299081 0 -146.04355309299081 -15.570644106686814 0 0 0 0 -682.7010359238775 -52.164041591740897 0 -52.164041591740897 53.635202663876953 0 0 0 0 -570.47482358256821 -104.59504881858493 0 -104.59504881858493 -62.954069301398704 0 0 0 0 -612.07001189961011 -224.36868600621619 0 -224.36868600621619 -83.401958478762936 0 0 0 0 -859.68588120301138 -71.066986349629587 0 -71.066986349629587 81.341784076731074 0 0 0 0 -1090.9197307265858 -291.98331867975594 0 -291.98331867975594 -51.754148133923081 0 0 0 0 -71.90604345293022 23.44762088239284 0 23.44762088239284 31.959163357583286 0 0 0 0 -99.014779781908146 -43.409677872281463 0 -43.409677872281463 -34.495268784992732 0 0 0 0 -564.74543393439671 208.929099029996 0 208.929099029996 109.24731190784951 0 0 0 0 -823.41536556095525 -125.41162410938523 0 -125.41162410938523 4.0867427940429479 0 0 0 0 -601.69244059387711 65.359368498308868 0 65.359368498308868 38.874742534847428 0 0 0 0 -754.24758736958756 60.41962531669833 0 60.41962531669833 110.17526985801123 0 0 0 0 -206.97927811201953 54.18436496594768 0 54.18436496594768 -27.372833301196806 0 0 0 0 -551.92545217035513 -110.39919548431953 0 -110.39919548431953 97.063467169587966 0 0 0 0 -177.06875579946791 -202.58922908002205 0 -202.58922908002205 -302.33188768519176 0 0 0 0 -717.59077694697771 19.277806787349618 0 19.277806787349618 76.509534580305058 0 0 0 0 -692.51515840563479 23.056203824407419 0 23.056203824407419 21.453442203102895 0 0 0 0 -665.05357879759686 119.94889777379649 0 119.94889777379649 -155.33038781335199 0 0 0 0 -561.70816711243242 -129.18528672153798 0 -129.18528672153798 -282.6405322454666 0 0 0 0 -577.55078613389924 -103.54720032037721 0 -103.54720032037721 -162.71525187445877 0 0 0 0 -702.83666325302329 -134.48985777149574 0 -134.48985777149574 -140.72117556579542 0 0 0 0 -333.78958571754629 84.867538142025296 0 84.867538142025296 -121.8496386727893 0 0 0 0 -4.3921276881200697 -1.143508154466037 0 -1.143508154466037 -0.22913357946297652 0 0 0 0 -642.12866268493235 149.67697707621301 0 149.67697707621301 -12.462045144882723 0 0 0 0 -424.50400868761244 147.13323918497952 0 147.13323918497952 -64.898932574507853 0 0 0 0 36.59233317093458 27.836029946829512 0 27.836029946829512 -37.480344772160606 0 0 0 0 -361.06379143800586 38.687178775971461 0 38.687178775971461 180.7361636573587 0 0 0 0 -432.14857380367175 -127.53561405921982 0 -127.53561405921982 41.635536743764533 0 0 0 0 -291.60517270999844 -84.359681169511532 0 -84.359681169511532 16.372145206124515 0 0 0 0 -489.71741645369912 -94.43427445965699 0 -94.43427445965699 55.295743320115434 0 0 0 0 -474.9947833826518 -223.89294292599158 0 -223.89294292599158 -44.27405953077141 0 0 0 0 -506.30856201647475 -181.95869586481228 0 -181.95869586481228 -44.038674372119203 0 0 0 0 -555.7868184329127 -94.109473955907561 0 -94.109473955907561 -139.05921400114676 0 0 0 0 -548.38083070491575 -220.07849721292013 0 -220.07849721292013 -77.202934735139934 0 0 0 0 -541.305431029381 -198.6145445530392 0 -198.6145445530392 -49.432853203482409 0 0 0 0 -567.15183917048853 -196.46961304404613 0 -196.46961304404613 -69.696755843272513 0 0 0 0 -537.89763632026734 -236.63527035462448 0 -236.63527035462448 -22.092485402687089 0 0 0 0 -569.88560586153471 -195.21581227717434 0 -195.21581227717434 -0.79115426820135326 0 0 0 0 -611.5403098743991 -212.77627083513971 0 -212.77627083513971 -0.61031995412377427 0 0 0 0 -619.22686346445698 -199.71912612231199 0 -199.71912612231199 57.034198196955913 0 0 0 0 -877.49572963436367 -259.36508379080624 0 -259.36508379080624 43.282860535784494 0 0 0 0 -483.39544679764367 -261.64970261894041 0 -261.64970261894041 -54.765763954053909 0 0 0 0 -603.0014662868598 -245.27843394475588 0 -245.27843394475588 4.7112357790501846 0 0 0 0 -412.15034039900638 -141.79976630014789 0 -141.79976630014789 18.878470574299172 0 0 0 0 -505.71948853117647 -216.36947133825515 0 -216.36947133825515 -15.017102799122313 0 0 0 0 -288.28128999460023 -187.32870605330572 0 -187.32870605330572 -162.47153076029917 0 0 0 0 -524.41144893370802 -350.8192761573755 0 -350.8192761573755 -139.73196780274884 0 0 0 0 -744.3374975828483 -453.79010959312291 0 -453.79010959312291 -148.16500089362489 0 0 0 0 -547.88924856406811 -388.23010710472454 0 -388.23010710472454 -151.32509951513384 0 0 0 0 -325.9352969226311 -377.5420867384646 0 -377.5420867384646 -486.71864096276113 0 0 0 0 -109.44521194719709 -84.503682012887566 0 -84.503682012887566 -77.227385209178919 0 0 0 0 -225.80272022764257 -47.962383613987072 0 -47.962383613987072 -81.701735120113881 0 0 0 0 -90.663442476179455 31.595195188503908 0 31.595195188503908 -9.4751050821526341 0 0 0 0 -100.07327461260138 116.2519753862116 0 116.2519753862116 -22.988523667136405 0 0 0 0 -177.03607971320162 63.290704115695007 0 63.290704115695007 -33.195004251269438 0 0 0 0 -219.79798260812095 -89.671124636613115 0 -89.671124636613115 800.27380388825486 0 0 0 0 -49.403018611075822 10.552266168734604 0 10.552266168734604 14.133188612418962 0 0 0 0 -76.095440733151065 7.8372194133291089 0 7.8372194133291089 -0.7680734462372989 0 0 0 0 -70.156910354431602 0.42194273211316613 0 0.42194273211316613 7.9114007466414478 0 0 0 0 -61.037449236921702 5.8567656584747851 0 5.8567656584747851 10.801500427045848 0 0 0 0 -18.801601363398447 13.353199343104791 0 13.353199343104791 -2.3959277498275586 0 0 0 0 -61.165918782404333 30.345741154070538 0 30.345741154070538 91.166163824946125 0 0 0 0 -235.96982768242015 39.682303556113766 0 39.682303556113766 96.511383769036911 0 0 0 0 -63.072595155594172 147.20012454053676 0 147.20012454053676 81.092840835241986 0 0 0 0 18.872941887733759 71.170177937208337 0 71.170177937208337 22.849996965309401 0 0 0 0 -224.46808322210563 -15.685711846839695 0 -15.685711846839695 -9.0530017345699889 0 0 0 0 -226.72146814858934 16.536115924216915 0 16.536115924216915 36.638700646861253 0 0 0 0 -1.1186177403377542 10.109629747941607 0 10.109629747941607 3.5780588870907319 0 0 0 0 -41.262138608406531 63.696649587401225 0 63.696649587401225 68.617072204634496 0 0 0 0 -15.885107425169736 5.1894688480937106 0 5.1894688480937106 4.3826473965658366 0 0 0 0 -5.9087865274050273 23.741217488341135 0 23.741217488341135 5.0218467801732913 0 0 0 0 -18.456676399102435 9.2244107329188409 0 9.2244107329188409 9.3315166662873708 0 0 0 0 -22.978890427621081 -3.8136461257599876 0 -3.8136461257599876 -8.2202589884439021 0 0 0 0 -8.3645604041109891 -3.0486057332321366 0 -3.0486057332321366 2.5975632809939526 0 0 0 0 -10.660598331072833 11.237296302277173 0 11.237296302277173 -10.322640360795958 0 0 0 0 -98.667734787683003 8.3362951539824763 0 8.3362951539824763 11.811769476099141 0 0 0 0 -63.72249412059665 22.275205077766032 0 22.275205077766032 22.593198800949004 0 0 0 0 16.073734912919463 -56.015905735142951 0 -56.015905735142951 44.316873505137728 0 0 0 0 31.386391523701604 105.89522471540886 0 105.89522471540886 8.202524831827759 0 0 0 0 46.540668474219274 52.550342014777925 0 52.550342014777925 -45.06937537353042 0 0 0 0 -295.8526698720234 -132.32642926716244 0 -132.32642926716244 38.99913565447514 0 0 0 0 -617.60106500910479 101.76432383838892 0 101.76432383838892 39.520869421814496 0 0 0 0 -286.09799538462539 197.2161824785926 0 197.2161824785926 -112.82253985519128 0 0 0 0 -2.8939973974800068 -2.1466983527779711 0 -2.1466983527779711 0.56950836501443991 0 0 0 0 -654.02561840461567 -81.144467860788609 0 -81.144467860788609 -43.138393897244868 0 0 0 0 -479.08401594236057 -120.16868300470946 0 -120.16868300470946 -42.622425014048531 0 0 0 0 -696.80737158171542 -39.799375421652258 0 -39.799375421652258 43.775299148175691 0 0 0 0 -1354.6475256222184 -218.94121756789627 0 -218.94121756789627 114.70151164283288 0 0 0 0 -764.20678260031127 -93.64113791152954 0 -93.64113791152954 139.97662196845522 0 0 0 0 -1727.3496645334926 335.84096616757608 0 335.84096616757608 -41.831557726718529 0 0 0 0 -1407.7138700970681 -1062.7279983358362 0 -1062.7279983358362 -434.76000000977547 0 0 0 0 -8.4625545564809954 -4.2143667022780136 0 -4.2143667022780136 -2.307181281187928 0 0 0 0 -189.01506459148368 -466.70415661723882 0 -466.70415661723882 361.23165004637758 0 0 0 0 -704.08234635373083 244.06668899232091 0 244.06668899232091 -46.868429304421625 0 0 0 0 -146.01636216830229 50.189333756619362 0 50.189333756619362 -85.523124564989757 0 0 0 0 -138.75061563710915 -68.728888005377485 0 -68.728888005377485 -54.550687154169111 0 0 0 0 -22.992742322316815 -9.7132920361724047 0 -9.7132920361724047 -2.4495171725729801 0 0 0 0 -50.675094477410312 4.6892416634364054 0 4.6892416634364054 -9.1496113169159798 0 0 0 0 -2.6374783408246003 71.260426334292333 0 71.260426334292333 272.64831471124353 0 0 0 0 -41.232177822254016 115.4822989663985 0 115.4822989663985 230.76046306213811 0 0 0 0 -25.678855756050325 6.2263989915800266 0 6.2263989915800266 180.52913615762645 0 0 0 0 -25.14032398967538 43.631988008453845 0 43.631988008453845 296.13971142757919 0 0 0 0 -1106.0477002012776 -171.22698297190817 0 -171.22698297190817 1144.7848837017054 0 0 0 0 -46.452963296081634 5.893409188993715 0 5.893409188993715 1.7971292079683794 0 0 0 0 -1309.5484386225289 1098.8411266778919 0 1098.8411266778919 1858.764967260342 0 0 0 0 -42.466680958343204 -33.736373715288209 0 -33.736373715288209 292.55434932367643 0 0 0 0 -52.858496836823178 58.891894811579732 0 58.891894811579732 400.68191439929569 0 0 0 0 -51.783832684277513 51.263433455283604 0 51.263433455283604 269.58822939893616 0 0 0 0 40.1311153039278 -5.3740409844576789 0 -5.3740409844576789 299.33240655428017 0 0 0 0 58.345607079842011 55.277206557562465 0 55.277206557562465 234.16965384997184 0 0 0 0 1432.6652821619355 406.72425010859371 0 406.72425010859371 -632.7584982838365 0 0 0 0 529.97005296593125 -2177.6786874413951 0 -2177.6786874413951 -2321.6639699661173 0 0 0 0 -1221.7305196261732 -2063.6578422628754 0 -2063.6578422628754 -1381.7569197800042 0 0 0 0 -3073.188007530116 -1854.472641534745 0 -1854.472641534745 -1430.8581623031405 0 0 0 0 -30.65451803104952 113.99976529105743 0 113.99976529105743 -246.64101187885024 0 0 0 0 -2736.2272708060191 -1967.3177381597172 0 -1967.3177381597172 -426.69434052449242 0 0 0 0 -16.089698355026258 -7.2001720922970236 0 -7.2001720922970236 2.2212600212087277 0 0 0 0 -246.84215344281984 51.634093534210251 0 51.634093534210251 670.34455392981863 0 0 0 0 -28.562998916480012 -2.6275760868942299 0 -2.6275760868942299 2.4134420015920695 0 0 0 0 -909.9169664629444 1052.7094942250628 0 1052.7094942250628 -430.28690425558966 0 0 0 0 -2580.2360177114315 -623.82153306226337 0 -623.82153306226337 531.4765462578589 0 0 0 0 -953.18667531624669 -263.4081361822291 0 -263.4081361822291 -674.81287750781644 0 0 0 0 -1592.6896299587097 -1413.129515208243 0 -1413.129515208243 -615.88870529976703 0 0 0 0 -580.28840840061093 -28.241093466171094 0 -28.241093466171094 -47.643426441740303 0 0 0 0 -598.85866257676389 -376.1537798113668 0 -376.1537798113668 -1734.9525326774205 0 0 0 0 -36.138263381741126 9.0268806374243695 0 9.0268806374243695 21.147028875006527 0 0 0 0 -27.693022137621995 3.5303397696456074 0 3.5303397696456074 1.6591385593542571 0 0 0 0 -24.408735088619437 -1.0268326184448142 0 -1.0268326184448142 4.0539213496963633 0 0 0 0 45.727418905997183 15.549527672689464 0 15.549527672689464 -114.99851810773842 0 0 0 0 -876.57069435509038 487.5244008070099 0 487.5244008070099 663.77650834148562 0 0 0 0 -40.618139463287662 -44.773281608015942 0 -44.773281608015942 60.581565098647559 0 0 0 0 -31.358910623559495 -33.951899937156696 0 -33.951899937156696 49.446961699255439 0 0 0 0 -28.392928609522642 -101.99942814324304 0 -101.99942814324304 -0.18358308401226364 0 0 0 0 -21.381245224445593 -61.984711781530983 0 -61.984711781530983 75.881303416233337 0 0 0 0 -217.68417358782608 -55.362551064782039 0 -55.362551064782039 72.442932095784471 0 0 0 0 -323.36073598325311 264.522201225895 0 264.522201225895 -77.363959737428132 0 0 0 0 -11.04067709190025 -2.6526137756054737 0 -2.6526137756054737 1.8996825410263951 0 0 0 0 -61.114729552835342 -29.964894925818001 0 -29.964894925818001 313.53197044559533 0 0 0 0 -463.82544127025176 -285.40845511342604 0 -285.40845511342604 -144.05912751957516 0 0 0 0 2.7533611271646805 -180.55491215344688 0 -180.55491215344688 90.44065072938885 0 0 0 0 -28.963257892935303 3.7220324038385684 0 3.7220324038385684 1.0688668427966381 0 0 0 0 160.75012868673366 92.618044571361878 0 92.618044571361878 -48.52857110803069 0 0 0 0 352.71177246008301 -81.901850223803081 0 -81.901850223803081 -1135.646195349311 0 0 0 0 -11.395587313077954 0.79475268221042938 0 0.79475268221042938 0.36872864850836551 0 0 0 0 -349.27333573639044 423.52922373328477 0 423.52922373328477 428.68486093648107 0 0 0 0 -1573.1510454966919 -2243.2356985047954 0 -2243.2356985047954 -1419.7577789798527 0 0 0 0 -2894.3431861472782 -1873.473021952628 0 -1873.473021952628 -135.81775369571619 0 0 0 0 -2087.4846307943226 -1227.7957225438768 0 -1227.7957225438768 -1023.0771213737829 0 0 0 0 -2613.1840949257603 -1028.2943924650722 0 -1028.2943924650722 -1063.2510417484143 0 0 0 0 -2221.8238865502062 -1260.0687361858654 0 -1260.0687361858654 -1999.7876617538409 0 0 0 0 -2602.1594407880912 -990.50065584152583 0 -990.50065584152583 -2031.057486066054 0 0 0 0 -833.89764697640203 -102.54928987406512 0 -102.54928987406512 0.30790713867025277 0 0 0 0 -2541.6553479773575 39.361030352156718 0 39.361030352156718 401.51888256543964 0 0 0 0 -1329.1016075053776 353.23473803617014 0 353.23473803617014 -2028.9700743668577 0 0 0 0 -1743.2532442435586 -641.65989332295214 0 -641.65989332295214 -588.62230879177082 0 0 0 0 -1734.850871247123 -563.18073878577866 0 -563.18073878577866 -156.80539552660946 0 0 0 0 -1510.0144741263939 116.12576459453135 0 116.12576459453135 -277.80900873634982 0 0 0 0 -900.00102081423393 987.47092779099091 0 987.47092779099091 -1338.2238392191643 0 0 0 0 -2732.2171465862775 -481.33025488265571 0 -481.33025488265571 -2372.9143514918992 0 0 0 0 -2104.775537258829 -846.25100832154442 0 -846.25100832154442 -2245.1635437528957 0 0 0 0 -3060.7022353929933 -303.13367531268875 0 -303.13367531268875 -845.7593829900095 0 0 0 0 -972.18452306422114 764.09773099103188 0 764.09773099103188 -512.98909151695489 0 0 0 0 -33.954060710326303 -80.7482198457501 0 -80.7482198457501 -32.547732249796582 0 0 0 0 73.72728435829049 -11.787386610769545 0 -11.787386610769545 -54.032362903696253 0 0 0 0 -145.61029404122382 18.753017646022897 0 18.753017646022897 -51.176598587545044 0 0 0 0 -107.68041456025094 65.868651406205288 0 65.868651406205288 -5.5179377386399437 0 0 0 0 -138.30579602892976 -85.316554171456119 0 -85.316554171456119 -28.805782404767712 0 0 0 0 -303.00063113459328 4.1731262711933539 0 4.1731262711933539 91.465878974464772 0 0 0 0 -211.40673700036132 133.71194530463194 0 133.71194530463194 162.00813516589352 0 0 0 0 1.2051244705730397 0.61314474783341666 0 0.61314474783341666 -2.9397825622899569 0 0 0 0 -387.59591822708171 103.55410551397227 0 103.55410551397227 575.90642205354607 0 0 0 0 -361.51487838797766 -16.361318604176006 0 -16.361318604176006 174.45041371931825 0 0 0 0 -21.495916961971592 2.2020696778603792 0 2.2020696778603792 -1.5753627465344162 0 0 0 0 -286.18117374336543 508.73903077445726 0 508.73903077445726 14.005886136674263 0 0 0 0 26.776642145690857 6.7910194177188146 0 6.7910194177188146 -1226.2145794495068 0 0 0 0 -515.62514760321938 -433.901570169872 0 -433.901570169872 272.48250982549087 0 0 0 0 -585.29999620601302 -345.13462725011982 0 -345.13462725011982 507.25334904770159 0 0 0 0 60.348988584533799 -150.68709937475569 0 -150.68709937475569 -188.88609177430266 0 0 0 0 -9.3661574206005298 0.57035789038182116 0 0.57035789038182116 -0.57835697586809498 0 0 0 0 -232.28513656102587 -330.85696563811979 0 -330.85696563811979 -208.08590487522224 0 0 0 0 -173.91972281596099 88.182107721157308 0 88.182107721157308 31.998271188758054 0 0 0 0 -22.992105326943488 15.181245670180211 0 15.181245670180211 -1.714216556381944 0 0 0 0 36.414357628166272 197.13556645419902 0 197.13556645419902 11.234005686310866 0 0 0 0 -69.925429417660041 21.903931543127442 0 21.903931543127442 -4.097696466658026 0 0 0 0 -61.204772462166147 -53.384408324803189 0 -53.384408324803189 29.66080849273385 0 0 0 0 -117.6477309440088 -938.24237823799285 0 -938.24237823799285 -329.31219891229921 0 0 0 0 120.51210638342309 134.99282446948473 0 134.99282446948473 -248.69497837538665 0 0 0 0 -26.9902739124324 9.2336009810468909 0 9.2336009810468909 1.7838599881295689 0 0 0 0 535.76706878835103 -63.973299612977826 0 -63.973299612977826 -73.110261340958687 0 0 0 0 851.1720228028571 -123.92027665421824 0 -123.92027665421824 -289.72961697827577 0 0 0 0 511.35213837365154 317.94230757984042 0 317.94230757984042 -354.78035746078137 0 0 0 0 -30.80901148400153 -10.872054408066163 0 -10.872054408066163 69.384715352037489 0 0 0 0 -38.918137860987031 10.723440571705012 0 10.723440571705012 2.2252670885537182 0 0 0 0 -70.624427800183184 0.25416639083368864 0 0.25416639083368864 -1.7443004775132067 0 0 0 0 731.67058465088485 158.62865439392408 0 158.62865439392408 157.76027702566353 0 0 0 0 -43.576151539479184 33.468521514037121 0 33.468521514037121 -1.981225334122529 0 0 0 0 -48.84643797328107 25.97811371424336 0 25.97811371424336 -0.48726126775256851 0 0 0 0 -31.178785817988683 18.815551435789075 0 18.815551435789075 1.9249037727050791 0 0 0 0 -66.861286217783345 6.9215049925138317 0 6.9215049925138317 -13.326344040206237 0 0 0 0 -200.62336246971972 98.524736413444771 0 98.524736413444771 52.024843026791359 0 0 0 0 22.696919104550034 149.76398775644282 0 149.76398775644282 -62.006440896076583 0 0 0 0 -172.67832918342901 110.14665946332218 0 110.14665946332218 -32.877126679819412 0 0 0 0 4.4717970658826971 5.8212911557099716 0 5.8212911557099716 -3.7526619525251164 0 0 0 0 25.074356210796395 4.9321179866533384 0 4.9321179866533384 53.903076818513568 0 0 0 0 -168.34832719012047 3.0460189755157216 0 3.0460189755157216 3.1443053664947911 0 0 0 0 -7.3171778414131268 3.6929461843930937 0 3.6929461843930937 1.1585254940907281 0 0 0 0 -103.51197765079269 62.140737953883246 0 62.140737953883246 -8.3159167340317026 0 0 0 0 -26.77115651954955 -11.4953117107192 0 -11.4953117107192 49.194771146754022 0 0 0 0 -12.977406467311084 -46.04603698145695 0 -46.04603698145695 56.44091966755952 0 0 0 0 -13.758391038325499 -40.712102319243527 0 -40.712102319243527 23.167975515792637 0 0 0 0 32.707772362569813 -53.152645729639211 0 -53.152645729639211 0.13803477741099715 0 0 0 0 0.57255978615282288 0.069851600649712964 0 0.069851600649712964 0.72112088565989907 0 0 0 0 -28.242896170471795 36.787562508123358 0 36.787562508123358 -34.030471114748195 0 0 0 0 -144.98722914504469 128.17653151500073 0 128.17653151500073 0.023483787955947376 0 0 0 0 -247.47863900357333 32.219642178292538 0 32.219642178292538 -24.611042518008162 0 0 0 0 -166.7653042102138 106.00612263038734 0 106.00612263038734 -13.921180156888141 0 0 0 0 -158.791380364215 64.693265707546885 0 64.693265707546885 6.2768996296701403 0 0 0 0 -268.35630068375031 63.468715493593635 0 63.468715493593635 63.612195670276719 0 0 0 0 -251.28212144471763 19.945997558755295 0 19.945997558755295 -94.835504807440515 0 0 0 0 -491.3996431805499 38.52901796552505 0 38.52901796552505 68.817523526213904 0 0 0 0 -333.07867278781487 115.12620235019786 0 115.12620235019786 -0.11216978722413705 0 0 0 0 -0.75575941230087196 0.63478988994046404 0 0.63478988994046404 -0.68159871589926624 0 0 0 0 -133.25153610127745 -11.885879172880262 0 -11.885879172880262 0.023915304320259144 0 0 0 0 -149.92941700389292 -6.0833010181457059 0 -6.0833010181457059 5.5228896960088427 0 0 0 0 -119.80229997103743 -12.510284749627653 0 -12.510284749627653 -0.10162720540704601 0 0 0 0 -125.78334069914126 -5.1096495909859989 0 -5.1096495909859989 -0.80727404653056922 0 0 0 0 -23.673389012238005 -5.1632700725098459 0 -5.1632700725098459 0.3317678201240129 0 0 0 0 -132.21895206208865 -28.880304900619912 0 -28.880304900619912 -5.7729768956987968 0 0 0 0 -122.99913901468972 -18.00185542487128 0 -18.00185542487128 6.867938885904973 0 0 0 0 -126.89119001888321 -6.7252410781020728 0 -6.7252410781020728 -6.5764643793962634 0 0 0 0 -138.28852669388561 -6.9885248052849933 0 -6.9885248052849933 -1.7416622330950702 0 0 0 0 -103.34808305691695 1.7999504289057171 0 1.7999504289057171 -9.0397417213238072 0 0 0 0 -92.437749581691605 -38.544905552606458 0 -38.544905552606458 -3.8248479835766034 0 0 0 0 -73.234916878731099 -29.485731711847734 0 -29.485731711847734 -1.7658729760021521 0 0 0 0 -122.4187036803778 -2.4017494060434643 0 -2.4017494060434643 -0.89307464154181559 0 0 0 0 -66.158060269243265 -20.958087301929453 0 -20.958087301929453 2.9379153342500777 0 0 0 0 -112.32421453058487 -53.858692364284479 0 -53.858692364284479 -23.136295585251673 0 0 0 0 -134.58028816842852 -14.106604965880223 0 -14.106604965880223 16.78521967943891 0 0 0 0 -141.67261189145211 -29.221108661503251 0 -29.221108661503251 -6.3650349094677949 0 0 0 0 -26.525492964616973 5.47361419056557 0 5.47361419056557 0.88676555228908205 0 0 0 0 -108.22612138865225 -12.802848994506348 0 -12.802848994506348 6.0827064685334449 0 0 0 0 -75.85535991050574 -27.366113967458801 0 -27.366113967458801 -5.0714457500331269 0 0 0 0 -124.85994305695931 -20.029020689448998 0 -20.029020689448998 -7.9873004519761821 0 0 0 0 -111.15502087314962 -15.944430389987929 0 -15.944430389987929 -15.046402963984498 0 0 0 0 -71.532143574807009 30.739451139299206 0 30.739451139299206 11.502787481614117 0 0 0 0 -126.14206271417061 -23.70202483167995 0 -23.70202483167995 -15.853034789089179 0 0 0 0 -14.255305813243126 7.5723395000202061 0 7.5723395000202061 6.616620982910467 0 0 0 0 -95.193098058291071 -15.630765800790847 0 -15.630765800790847 -1.171426511399023 0 0 0 0 -161.87815662447247 -38.154451933516711 0 -38.154451933516711 9.3759923173909279 0 0 0 0 -126.08485373234726 362.54660316828057 0 362.54660316828057 -1.2264399479151054 0 0 0 0 -8.1964312389551424 -3.3668956457617867 0 -3.3668956457617867 0.5829531400392669 0 0 0 0 25.000058249395806 125.21905088635336 0 125.21905088635336 217.83083267066894 0 0 0 0 -124.9838314429594 128.13540745085197 0 128.13540745085197 384.17300822643654 0 0 0 0 -496.09748604313063 513.80734475085069 0 513.80734475085069 4.8017503943478932 0 0 0 0 -583.11100527047529 43.142747904744112 0 43.142747904744112 549.1987443566228 0 0 0 0 -330.936529093422 -26.534295888077963 0 -26.534295888077963 33.731366803347555 0 0 0 0 -263.43086167547153 271.63792841675058 0 271.63792841675058 310.76568338107199 0 0 0 0 -328.59120128274662 94.96629056532845 0 94.96629056532845 202.73119928843869 0 0 0 0 -211.70267288936884 164.04217898756872 0 164.04217898756872 -7.5416393676857751 0 0 0 0 -2986.287649746213 1611.6301119426698 0 1611.6301119426698 1575.9132278929364 0 0 0 0 -755.23380933393491 578.39831418596441 0 578.39831418596441 994.15389576797361 0 0 0 0 -1191.9030561203108 1311.2304357300773 0 1311.2304357300773 -14.328754910682648 0 0 0 0 -907.12145178191713 120.20850154723757 0 120.20850154723757 698.53873378561843 0 0 0 0 -2000.1292302598595 90.27932625850508 0 90.27932625850508 3410.2307421330829 0 0 0 0 -95.893728208218818 -22.174285531424474 0 -22.174285531424474 -1.1598094822437381 0 0 0 0 -1115.9744459599724 -803.23521097596063 0 -803.23521097596063 397.20514163365749 0 0 0 0 -1028.4401520143147 -433.58517719029845 0 -433.58517719029845 -23.334745870423149 0 0 0 0 -2516.738147758806 -455.43621942832226 0 -455.43621942832226 137.82546935927849 0 0 0 0 -2201.3749134521713 275.39734181376861 0 275.39734181376861 -570.97650744461612 0 0 0 0 -99.669375014568175 -16.604056169172694 0 -16.604056169172694 1.1348724542669044 0 0 0 0 -574.22093399250298 -407.27210255453826 0 -407.27210255453826 102.38098791088669 0 0 0 0 -877.09726791914727 -702.658265355504 0 -702.658265355504 24.31569106446841 0 0 0 0 -560.50196531714755 -156.72892236631742 0 -156.72892236631742 57.966408106347899 0 0 0 0 -397.39647512187366 -603.81747097394782 0 -603.81747097394782 -221.0538874698276 0 0 0 0 -173.4052890339226 -237.38236369069944 0 -237.38236369069944 -49.581896651660941 0 0 0 0 -103.10798628567136 -88.03634344183115 0 -88.03634344183115 103.5641038862633 0 0 0 0 -17.977025798775855 -7.2267776571243019 0 -7.2267776571243019 5.1100107849417604 0 0 0 0 -108.67679515949567 1.124745419899682 0 1.124745419899682 61.122032704206617 0 0 0 0 0.97829874663148075 -128.92398581936914 0 -128.92398581936914 -15.042132026453601 0 0 0 0 4.7636372940833098 -124.22380726684821 0 -124.22380726684821 -449.69338396186504 0 0 0 0 -175.36974948899297 108.79424678989153 0 108.79424678989153 -55.727093593671725 0 0 0 0 -68.035253586429462 -10.119367177248705 0 -10.119367177248705 -74.770133129239639 0 0 0 0 -53.591249994118698 -68.163072025473639 0 -68.163072025473639 -82.417856880878844 0 0 0 0 -894.29102605217486 -1051.7461962732648 0 -1051.7461962732648 -757.53551594710575 0 0 0 0 -10.190869760738565 -8.6363009214048816 0 -8.6363009214048816 -9.2369584874396331 0 0 0 0 144.51022963215655 -284.88812283475681 0 -284.88812283475681 -788.092348433918 0 0 0 0 -3285.6463928128142 -632.04247160437126 0 -632.04247160437126 -156.96970546964565 0 0 0 0 -3559.1177568882413 447.46949331596352 0 447.46949331596352 -129.54336318043516 0 0 0 0 -1843.2467572874011 -20.500542463145052 0 -20.500542463145052 238.45451525276167 0 0 0 0 -2503.9520911913132 -266.77532465411946 0 -266.77532465411946 173.19716200817743 0 0 0 0 -794.94435534043441 -199.39226927897053 0 -199.39226927897053 -83.239606298267063 0 0 0 0 -23.072441020889471 -24.053973747004648 0 -24.053973747004648 -23.915690364668272 0 0 0 0 -1128.1168184444832 644.49261436116922 0 644.49261436116922 -129.75707783644293 0 0 0 0 -1107.9954128289028 -218.60718718306941 0 -218.60718718306941 48.970510780490713 0 0 0 0 -736.14014999279607 224.25458511960596 0 224.25458511960596 89.222894821240516 0 0 0 0 -1460.5816963528923 -146.80957243583407 0 -146.80957243583407 101.1539237684226 0 0 0 0 -26.135827138263267 -95.027312378722854 0 -95.027312378722854 74.391629532491606 0 0 0 0 -81.495168588298839 -0.36560664855346658 0 -0.36560664855346658 -2.1838546201761346 0 0 0 0 33.406027604927658 -42.665918422903815 0 -42.665918422903815 -256.21586861191281 0 0 0 0 -24.226346121713703 -32.739170760603059 0 -32.739170760603059 -38.114280791625589 0 0 0 0 28.304832256180816 -141.38955669553206 0 -141.38955669553206 -96.754593135377945 0 0 0 0 48.817965839312819 -118.11883887299086 0 -118.11883887299086 41.795770526370688 0 0 0 0 -11.706555481946424 2.8447219021698231 0 2.8447219021698231 -1.6446129832125784 0 0 0 0 -53.93583358147589 -57.084465564357743 0 -57.084465564357743 13.701667768242032 0 0 0 0 -162.5325562262733 -121.87235903928467 0 -121.87235903928467 131.59263170619033 0 0 0 0 -3.2044993218150921 -137.72132481661174 0 -137.72132481661174 92.222170187296797 0 0 0 0 -20.154589369310997 -37.490715835442643 0 -37.490715835442643 81.400695307795559 0 0 0 0 -203.18154731672257 -14.438613018974593 0 -14.438613018974593 80.279100158946676 0 0 0 0 -77.435461781162303 46.472808965394506 0 46.472808965394506 70.5851981589974 0 0 0 0 -17.771948139336018 -247.49683533823463 0 -247.49683533823463 239.60316540177519 0 0 0 0 -328.69086573575623 386.77764960465629 0 386.77764960465629 -698.95185611817396 0 0 0 0 -27.778184221882839 96.463787504623724 0 96.463787504623724 -286.19734616046617 0 0 0 0 -6.2269837506978547 1.0113150460018119 0 1.0113150460018119 -0.1199531307270707 0 0 0 0 -8.8590177919786584 11.127923380631188 0 11.127923380631188 -2.6774462145180564 0 0 0 0 -690.06824254448293 20.025691303661915 0 20.025691303661915 533.86590134995276 0 0 0 0 -124.980473988835 103.55947421745168 0 103.55947421745168 77.365420806727343 0 0 0 0 -303.2455211008637 316.69040583334345 0 316.69040583334345 -169.00191009721129 0 0 0 0 15.372237605159171 4.2907764023693744 0 4.2907764023693744 -91.24653052924441 0 0 0 0 -43.309823462419445 133.91612222766616 0 133.91612222766616 -136.81708636419171 0 0 0 0 -2.8443652221758384 60.713628537103432 0 60.713628537103432 -15.883185474889615 0 0 0 0 -13.869520689360797 84.509898341456392 0 84.509898341456392 -17.636756844014599 0 0 0 0 0.42171918522217311 62.571267531361627 0 62.571267531361627 40.656906746362665 0 0 0 0 -91.994108687154949 67.153306974557381 0 67.153306974557381 42.07808467954419 0 0 0 0 0.3902466686849948 13.172859089549092 0 13.172859089549092 38.36843364484821 0 0 0 0 -4.9556197894271463 69.3540580367644 0 69.3540580367644 3.3813325555101983 0 0 0 0 25.602787749259733 66.133805385964479 0 66.133805385964479 -10.749250795744047 0 0 0 0 -1.9272808211392203 0.26955256449350884 0 0.26955256449350884 -0.15333823254729939 0 0 0 0 -16.199569493386662 100.13247517302716 0 100.13247517302716 -216.22307512118323 0 0 0 0 17.900269036676036 93.145649630176194 0 93.145649630176194 -97.139845018764845 0 0 0 0 28.077045275596902 13.251004796126836 0 13.251004796126836 -59.280780459586822 0 0 0 0 -41.34618869741098 155.80823099076724 0 155.80823099076724 4.4328902866582212 0 0 0 0 -34.842052587962826 41.720589999917593 0 41.720589999917593 89.146590840311092 0 0 0 0 -34.312579597826698 44.642651380805091 0 44.642651380805091 -13.980675113655025 0 0 0 0 0.13935076063353335 68.271943820359866 0 68.271943820359866 -3.8129015317899757 0 0 0 0 -16.79357205043317 5.7768219484657806 0 5.7768219484657806 -1.7467618433274339 0 0 0 0 -118.79895322442462 -107.42438351551573 0 -107.42438351551573 -111.91794455003446 0 0 0 0 -21.748655985385994 17.948325867591848 0 17.948325867591848 38.056727323131781 0 0 0 0 -69.94063194617047 -4.392888432053951 0 -4.392888432053951 34.694270641874027 0 0 0 0 -13.738758119261634 1.7388952743220045 0 1.7388952743220045 2.6052287991944354 0 0 0 0 -71.897614541529038 -34.281518747468681 0 -34.281518747468681 -5.1034760689390168 0 0 0 0 -30.979428238622347 7.9321773801163857 0 7.9321773801163857 -3.1890875133808985 0 0 0 0 -63.607191335555399 -28.598780087098021 0 -28.598780087098021 -26.72519046663183 0 0 0 0 -35.568765409116168 -1.4658256825114222 0 -1.4658256825114222 -16.159742275281133 0 0 0 0 -77.207719596096823 5.2686724624594774 0 5.2686724624594774 4.9294882367727553 0 0 0 0 -64.549841445652419 -26.781055533738481 0 -26.781055533738481 -30.211843952633899 0 0 0 0 -73.734692431942676 -40.172936434356643 0 -40.172936434356643 -22.652144469871928 0 0 0 0 -53.56418113327527 12.031286874935404 0 12.031286874935404 -5.5742848146928736 0 0 0 0 -128.24345533913583 -11.786474071107023 0 -11.786474071107023 7.555110181936243 0 0 0 0 -127.68553099692508 -83.657245630819943 0 -83.657245630819943 0.30164890157061564 0 0 0 0 -7.204487379381618 10.726740066643885 0 10.726740066643885 -2.5914955888444968 0 0 0 0 44.071565833033674 -445.82077656031004 0 -445.82077656031004 -314.06853693955509 0 0 0 0 -234.30626783944899 -12.056164328501836 0 -12.056164328501836 59.000485161558572 0 0 0 0 -4527.9077043354773 -2608.0456684971855 0 -2608.0456684971855 -380.64109952805967 0 0 0 0 -27.70608840869437 7.8635733681534958 0 7.8635733681534958 -8.3781309720760309 0 0 0 0 -1776.874396470841 -3027.5961942308477 0 -3027.5961942308477 -3347.808276033325 0 0 0 0 -354.34916193675599 475.91837151291293 0 475.91837151291293 -245.42314921810521 0 0 0 0 -921.10157217973028 424.42691815746207 0 424.42691815746207 -144.53298603233929 0 0 0 0 -1913.2877610104333 -1072.1244238030677 0 -1072.1244238030677 -800.88225884251142 0 0 0 0 -68.147501011714894 27.042854960761233 0 27.042854960761233 -6.2305949827529234 0 0 0 0 -1811.5390154240304 -600.87235205626871 0 -600.87235205626871 -413.95541823649296 0 0 0 0 -2452.0595134214964 -780.30432417448253 0 -780.30432417448253 -388.74084944678242 0 0 0 0 -2421.4026499481697 -1402.5874882203775 0 -1402.5874882203775 -5.8947542723018387 0 0 0 0 -31.336878325082751 5.3227550819745204 0 5.3227550819745204 1.9186844776083907 0 0 0 0 -835.321571273671 -853.83461550503853 0 -853.83461550503853 -772.52298660519773 0 0 0 0 -5492.1423702158936 -1189.8448573886533 0 -1189.8448573886533 659.16390648977563 0 0 0 0 -3989.9985954369768 -206.51272186777766 0 -206.51272186777766 -3.093732165373015 0 0 0 0 -3502.380532757692 78.522106001067428 0 78.522106001067428 186.37459463357914 0 0 0 0 -3210.5392776059161 -669.52115296528632 0 -669.52115296528632 -15.99313530271138 0 0 0 0 -1592.7181582708654 307.07135799246549 0 307.07135799246549 -108.09048164868602 0 0 0 0 -3485.4136538705206 -277.08093303058149 0 -277.08093303058149 270.31696618948911 0 0 0 0 -32.265314311378773 -1.5656772415356102 0 -1.5656772415356102 -3.704698969119161 0 0 0 0 -593.40959849892533 229.78275002457468 0 229.78275002457468 -97.969766586017542 0 0 0 0 -729.36302548802632 256.35364448970267 0 256.35364448970267 -0.48954176408161354 0 0 0 0 -2.3649427858322838 -2.4736816032994966 0 -2.4736816032994966 -2.5383955979760771 0 0 0 0 -740.186775239079 274.0888629720738 0 274.0888629720738 -2.8227426181162514 0 0 0 0 -745.88307837038883 309.77495824188054 0 309.77495824188054 -96.510525364040518 0 0 0 0 -664.30124111754412 332.51067056740374 0 332.51067056740374 -231.55072730003826 0 0 0 0 -102.15935703756963 22.081151919983839 0 22.081151919983839 0.54843182059645801 0 0 0 0 -937.42563278463786 228.78429334210227 0 228.78429334210227 -50.495223091348976 0 0 0 0 -1074.325960184462 -221.91690399773717 0 -221.91690399773717 -186.42586344974501 0 0 0 0 -354.41453778580762 140.30394647186904 0 140.30394647186904 -89.179450034936224 0 0 0 0 -100.80672408708307 23.868061083044935 0 23.868061083044935 2.1548017122430805 0 0 0 0 -445.47030676883878 127.26491384235285 0 127.26491384235285 -16.478435144916659 0 0 0 0 -99.912298079645552 57.292544577594413 0 57.292544577594413 -393.14421346844438 0 0 0 0 -433.34448084913311 87.335765306221703 0 87.335765306221703 -12.679317031900894 0 0 0 0 -391.0260048847631 131.44109906445203 0 131.44109906445203 -37.284487344091758 0 0 0 0 -18.505725104575475 10.860318627563061 0 10.860318627563061 15.630332726073958 0 0 0 0 -380.26354420300413 94.928824689399406 0 94.928824689399406 -37.079283404576842 0 0 0 0 -546.66017162389471 136.80506217399994 0 136.80506217399994 -235.67210529719046 0 0 0 0 -1230.3048681870278 195.97158249770246 0 195.97158249770246 75.511948273139069 0 0 0 0 -31.712204364813857 -2.118733812420686 0 -2.118733812420686 0.45723280860883309 0 0 0 0 -1224.8758691783296 59.726701924105726 0 59.726701924105726 -131.46032849455901 0 0 0 0 -1634.4879889932054 -166.00108394235468 0 -166.00108394235468 -99.137884762974181 0 0 0 0 -1688.3315011433442 -73.105961464002775 0 -73.105961464002775 -114.85646082083758 0 0 0 0 -1443.2475923272796 -183.64918112836568 0 -183.64918112836568 -466.30588366672868 0 0 0 0 -977.68159411696251 -824.60529950064279 0 -824.60529950064279 -237.07359565873276 0 0 0 0 -942.72907052830851 75.827206195911117 0 75.827206195911117 -380.01027233352323 0 0 0 0 -692.53117072321766 297.65154235391941 0 297.65154235391941 0.21975606334448317 0 0 0 0 -759.31188558632857 248.66729159330214 0 248.66729159330214 -24.913381942235674 0 0 0 0 -844.24111319100484 354.49252637573551 0 354.49252637573551 -48.555891841615846 0 0 0 0 -100.67876881487757 23.569909632805491 0 23.569909632805491 0.37463277506538128 0 0 0 0 -510.39323412014346 282.89913940638593 0 282.89913940638593 -40.135659575490571 0 0 0 0 -153.93273762756144 107.64127080549508 0 107.64127080549508 -417.73588843249473 0 0 0 0 -404.81744655522743 -1680.1541076099511 0 -1680.1541076099511 -1115.0892362033887 0 0 0 0 -3529.7558459747816 -2421.8874740415904 0 -2421.8874740415904 -1153.114669293398 0 0 0 0 -3012.4608739471587 -1092.0317845802083 0 -1092.0317845802083 -229.94091890785376 0 0 0 0 -3174.767770739214 -1218.7780484570205 0 -1218.7780484570205 109.06659906882092 0 0 0 0 -4890.1639555897564 181.21207267591149 0 181.21207267591149 431.48720290893107 0 0 0 0 -5831.9574574994185 118.66790332452051 0 118.66790332452051 456.81402450578753 0 0 0 0 -6033.8774440039415 -1163.1828406299815 0 -1163.1828406299815 117.370106312351 0 0 0 0 -89.987382082741476 17.810914281614188 0 17.810914281614188 0.39857118833793115 0 0 0 0 -334.72925583345932 51.064739931188029 0 51.064739931188029 229.80252065388888 0 0 0 0 -7050.0090129899327 2128.11733655135 0 2128.11733655135 -3639.0784108338062 0 0 0 0 53.453180241805967 149.78376535739127 0 149.78376535739127 0.14676623263569025 0 0 0 0 -3912.1109074537426 -6405.4772099107777 0 -6405.4772099107777 -2028.4632306802541 0 0 0 0 -44.271127136994892 1.1554842640995133 0 1.1554842640995133 0.84856822344248362 0 0 0 0 -3641.3572739097581 1026.8610959303555 0 1026.8610959303555 -290.22784238701752 0 0 0 0 511.02769427670864 -4095.4199754207252 0 -4095.4199754207252 -835.0939713288999 0 0 0 0 -44.589443551392492 -15.125522487743297 0 -15.125522487743297 -4.27012510274559 0 0 0 0 -2874.9110685580672 142.7846129168758 0 142.7846129168758 198.3029571387458 0 0 0 0 -1299.8098946435557 978.92643725807307 0 978.92643725807307 -396.96912977082502 0 0 0 0 -2804.1171732290677 -389.653324236039 0 -389.653324236039 46.621940320032081 0 0 0 0 -2656.9580653908342 -138.71378557049377 0 -138.71378557049377 308.24018393051836 0 0 0 0 -2088.0619868228387 -362.98431294973864 0 -362.98431294973864 39.786175122039552 0 0 0 0 -2500.6233563460555 9.6076930504091536 0 9.6076930504091536 -140.45814006914054 0 0 0 0 -2443.6563064000657 148.07585934415556 0 148.07585934415556 192.79344067578194 0 0 0 0 -2295.334130166113 -532.41224484895668 0 -532.41224484895668 -912.82277277618505 0 0 0 0 -2131.7034226445685 -337.73239595830125 0 -337.73239595830125 -236.28576341322966 0 0 0 0 -2258.4560870208952 -321.88968012326387 0 -321.88968012326387 -176.05489079759712 0 0 0 0 -2174.1048977470491 -426.68747570185991 0 -426.68747570185991 -228.46340955902525 0 0 0 0 -2255.3056899680378 -396.05684855720932 0 -396.05684855720932 -120.63420619496418 0 0 0 0 -2400.3879727037784 -471.47900527706912 0 -471.47900527706912 116.31711224506353 0 0 0 0 -2344.2089062598825 -424.33349393172057 0 -424.33349393172057 252.26180874340025 0 0 0 0 -2332.7591799271613 -358.68030413729912 0 -358.68030413729912 75.024211178381393 0 0 0 0 -2190.7092177205486 -207.20313785785402 0 -207.20313785785402 182.71645259358809 0 0 0 0 -2342.1868738793382 -398.52808907455051 0 -398.52808907455051 106.94176085860954 0 0 0 0 -2405.7144457554678 -353.46679862239534 0 -353.46679862239534 104.08246252488206 0 0 0 0 -2374.7510066389223 -348.28602747172522 0 -348.28602747172522 41.31100146097458 0 0 0 0 -2343.0125350229646 -503.16356131391143 0 -503.16356131391143 -104.62283523289898 0 0 0 0 -2257.6951368318405 -379.79800775365516 0 -379.79800775365516 45.724044110899513 0 0 0 0 -2231.0419090308424 -326.84298938252738 0 -326.84298938252738 -102.60572126306846 0 0 0 0 -2327.7752910179624 -274.11860378920744 0 -274.11860378920744 107.01241719786276 0 0 0 0 -2128.8878181144537 -93.294455538891043 0 -93.294455538891043 -44.05398263201414 0 0 0 0 -2387.5935818507569 -229.87538490831037 0 -229.87538490831037 167.15126589939564 0 0 0 0 -2062.1679575684648 185.73242664470519 0 185.73242664470519 370.53650761183508 0 0 0 0 -4.4682154525352189 -3.3617512775995806 0 -3.3617512775995806 -0.83258439014577412 0 0 0 0 -2168.8410389963537 -254.44890815772055 0 -254.44890815772055 -93.243153660854432 0 0 0 0 -1812.2752379469821 158.88939946655165 0 158.88939946655165 5.0590791425889847 0 0 0 0 -2609.5240809953611 17.223776376065864 0 17.223776376065864 -4.7005497703871697 0 0 0 0 -2153.9817437720394 -339.39926321332331 0 -339.39926321332331 -123.08277693533699 0 0 0 0 -2023.8389649203746 -320.50310338036741 0 -320.50310338036741 -162.62442706307377 0 0 0 0 -2119.4545268869988 -242.64265732017719 0 -242.64265732017719 1.3002931651178073 0 0 0 0 -2130.566961612165 -257.17118802218863 0 -257.17118802218863 -32.545172028117122 0 0 0 0 -1954.2634484788432 -292.80540339972526 0 -292.80540339972526 -126.3508837556185 0 0 0 0 -1226.2562477569736 169.85796222023188 0 169.85796222023188 -139.36861295253055 0 0 0 0 -1699.1356806745462 -56.253784892671632 0 -56.253784892671632 -28.657392193279449 0 0 0 0 -1687.376615161862 -70.755346663526637 0 -70.755346663526637 -60.107120658269366 0 0 0 0 -3.7747100750776212 -6.6863516447467646 0 -6.6863516447467646 -2.5114397893683105 0 0 0 0 -336.39392381864309 101.66032250524052 0 101.66032250524052 -72.78649359798851 0 0 0 0 -1091.0664575048577 -8.0983677044917215 0 -8.0983677044917215 -116.86760502514893 0 0 0 0 -1125.2036296434089 1034.4043373966274 0 1034.4043373966274 -393.54341083474992 0 0 0 0 2.1100622907536888 3.620532622607243 0 3.620532622607243 7.0396244483115211 0 0 0 0 -720.58533023789641 578.35807528103351 0 578.35807528103351 -560.72992796684343 0 0 0 0 -1378.1261280727049 692.67950337989362 0 692.67950337989362 -125.30033647191999 0 0 0 0 -608.19886188076634 105.87344365647115 0 105.87344365647115 63.854605801872594 0 0 0 0 -1509.5838924086856 570.23758134880109 0 570.23758134880109 31.173727722322838 0 0 0 0 -181.36064948423882 69.7196598798119 0 69.7196598798119 -175.62459681657219 0 0 0 0 -1076.892425897182 -118.06687260327635 0 -118.06687260327635 -64.975423513544683 0 0 0 0 -1.7782601123519157 1.3591113367494927 0 1.3591113367494927 2.672598248764765 0 0 0 0 -1924.585605993896 463.33041157000798 0 463.33041157000798 68.098752097472925 0 0 0 0 -2322.6925852432178 -147.04975151867848 0 -147.04975151867848 327.95886448344191 0 0 0 0 -1872.2234595419723 681.82619272734564 0 681.82619272734564 290.88786891571181 0 0 0 0 -1994.3852731519728 672.68711681618652 0 672.68711681618652 345.82696938384925 0 0 0 0 -1861.2338304826117 816.19281474663774 0 816.19281474663774 137.27838593053059 0 0 0 0 -1621.6805749843334 782.33734048034603 0 782.33734048034603 -158.29784871784216 0 0 0 0 -2353.2375454366411 1338.8507331852691 0 1338.8507331852691 -40.484546148893401 0 0 0 0 -1866.768255403309 837.32703181188833 0 837.32703181188833 250.07137470822772 0 0 0 0 -2208.6866201967641 1098.4810526742435 0 1098.4810526742435 78.358129660178747 0 0 0 0 -2382.9132999694557 876.08532969750843 0 876.08532969750843 538.26541411441701 0 0 0 0 -2005.6363153648563 462.55906294020042 0 462.55906294020042 897.27387662329556 0 0 0 0 -2130.7749520310754 -11.389012725159596 0 -11.389012725159596 923.59036278156918 0 0 0 0 -5488.2979262968729 -1553.5077955788793 0 -1553.5077955788793 1553.4157528178143 0 0 0 0 -4034.5066658584692 382.52861315622579 0 382.52861315622579 873.03389912492457 0 0 0 0 -5503.1746171694103 1235.9487257523115 0 1235.9487257523115 946.60889040561744 0 0 0 0 -3659.1650771258719 1636.4128888591904 0 1636.4128888591904 -57.273794378602688 0 0 0 0 -3652.2010863824835 1812.7450018213851 0 1812.7450018213851 503.36571532732006 0 0 0 0 -1503.5801459288341 819.24222191245929 0 819.24222191245929 -358.11296657925038 0 0 0 0 -1411.4088984860446 1998.7678978458198 0 1998.7678978458198 -1659.1464817052822 0 0 0 0 -1414.3360234591219 1160.8587878734907 0 1160.8587878734907 -683.36164149160209 0 0 0 0 -546.68340436312428 648.01993129058792 0 648.01993129058792 -1007.2084833947077 0 0 0 0 -544.31152243123506 -19.698088976830036 0 -19.698088976830036 -244.79229557295776 0 0 0 0 -1776.702696340697 3373.1953632446875 0 3373.1953632446875 -4357.4639109811833 0 0 0 0 -5488.3754224557333 2939.4009369781102 0 2939.4009369781102 38.786569972173176 0 0 0 0 -5500.2544221534699 122.95259820635232 0 122.95259820635232 366.12826510072205 0 0 0 0 -383.76429164594447 163.00176525423558 0 163.00176525423558 136.39188395721567 0 0 0 0 -58.069810716230904 -46.703095014538846 0 -46.703095014538846 -26.454462543673426 0 0 0 0 -252.69499054726703 -120.07010309108412 0 -120.07010309108412 340.20016409508207 0 0 0 0 -18.881045646244299 19.962153796845683 0 19.962153796845683 63.140139051657684 0 0 0 0 -3958.4591584646332 790.81264859118403 0 790.81264859118403 -38.000903388146099 0 0 0 0 -5494.5926322448067 1559.2413683749105 0 1559.2413683749105 -315.3541609965136 0 0 0 0 -21.83835597695375 -10.271656688064922 0 -10.271656688064922 -0.23718902355407678 0 0 0 0 -19.662912439830983 -4.7354213166625527 0 -4.7354213166625527 16.459820752983521 0 0 0 0 -154.11452758912355 -145.47904938759282 0 -145.47904938759282 -60.064882063717945 0 0 0 0 -732.47704582493816 165.69042462123377 0 165.69042462123377 -35.845787941996605 0 0 0 0 -1427.8721093452768 -9.827561328673255 0 -9.827561328673255 649.7354988826587 0 0 0 0 -1543.3265191069368 373.95272174337106 0 373.95272174337106 -178.15269868606219 0 0 0 0 -1312.1030170780577 462.17646011853731 0 462.17646011853731 -160.31142841599558 0 0 0 0 -1546.3050249742664 420.83449162712986 0 420.83449162712986 -279.29995532869521 0 0 0 0 -2064.8211718843231 648.19571600336576 0 648.19571600336576 -185.1606230040743 0 0 0 0 -1631.2294577788998 293.01355671794659 0 293.01355671794659 77.692747243649137 0 0 0 0 -1829.8143512189854 518.44178562471279 0 518.44178562471279 132.00035423119522 0 0 0 0 -2195.8040363130203 431.46700721243656 0 431.46700721243656 465.75153603075341 0 0 0 0 -1973.6910601170821 370.49443406571072 0 370.49443406571072 249.11214591066755 0 0 0 0 -2106.3749698244537 265.46673855934722 0 265.46673855934722 172.89962163399468 0 0 0 0 -2529.8829408185702 29.551546220206092 0 29.551546220206092 116.79526038526183 0 0 0 0 -2863.8499985639064 253.43146724363351 0 253.43146724363351 249.52761775835825 0 0 0 0 -3742.0044708752757 -370.50214253196782 0 -370.50214253196782 38.658901382922522 0 0 0 0 -2842.5595371272721 1059.5924735125054 0 1059.5924735125054 -411.06230665036583 0 0 0 0 -5435.7540823056625 1197.5320855635782 0 1197.5320855635782 -409.31991902065312 0 0 0 0 -20.713196783164591 -15.162325848068747 0 -15.162325848068747 -15.38066739212773 0 0 0 0 -72.711541730270255 -1025.6856834427504 0 -1025.6856834427504 -1040.9475879382244 0 0 0 0 -4456.5958051810121 -1125.9151409798178 0 -1125.9151409798178 -940.31926315540841 0 0 0 0 -2687.8123512227321 -785.00029229933489 0 -785.00029229933489 -1854.7733368118597 0 0 0 0 -2388.2557001248497 -724.37244290420472 0 -724.37244290420472 -1173.704460671247 0 0 0 0 -2386.5458676798298 -207.61435319027078 0 -207.61435319027078 -884.85337620710925 0 0 0 0 -2123.8267535831837 -350.89019383927689 0 -350.89019383927689 -646.19638534539399 0 0 0 0 -2900.6448509325637 -559.19006046144 0 -559.19006046144 -376.02929791441602 0 0 0 0 -2861.5505187813105 -509.10786392394539 0 -509.10786392394539 -724.37983805579233 0 0 0 0 -2566.0463716593222 -351.19409389474799 0 -351.19409389474799 -246.99700956939978 0 0 0 0 -2784.5026398933442 -447.1340934236232 0 -447.1340934236232 -3.3841146028134972 0 0 0 0 -2429.8092780229053 -188.87676846894078 0 -188.87676846894078 133.16950656191307 0 0 0 0 -2230.3725719278882 -215.51496848235388 0 -215.51496848235388 95.322914941534236 0 0 0 0 -2542.5981224521965 -341.80966738114739 0 -341.80966738114739 146.93425568338341 0 0 0 0 -2452.8636240160704 -437.65644524447623 0 -437.65644524447623 -27.821444499052632 0 0 0 0 -2445.6578444608858 -635.88550688243731 0 -635.88550688243731 -573.19686100522904 0 0 0 0 -2292.3743796484923 -419.73006082078018 0 -419.73006082078018 -277.98115042734526 0 0 0 0 -2305.0394888320589 -328.09969415831074 0 -328.09969415831074 -224.91295139405725 0 0 0 0 -2317.0076221380295 -360.91943907671407 0 -360.91943907671407 -0.46402922985271289 0 0 0 0 -2281.8183802423737 -245.12030074977145 0 -245.12030074977145 12.476592751840599 0 0 0 0 -2193.3667369666946 -161.71539142902702 0 -161.71539142902702 97.78794608793396 0 0 0 0 -2143.0010872137354 41.899428809272194 0 41.899428809272194 -407.66444461292144 0 0 0 0 -2185.3965107085387 -257.5899965037097 0 -257.5899965037097 -248.43157282475568 0 0 0 0 -1960.4044442562335 -264.58536714149028 0 -264.58536714149028 -798.185965046619 0 0 0 0 -2113.6204709561425 -432.78745992192717 0 -432.78745992192717 -545.32773839522997 0 0 0 0 -2121.8524660787953 -368.83900533857195 0 -368.83900533857195 -587.5938761918801 0 0 0 0 -1997.1791659546507 -357.77373880161292 0 -357.77373880161292 -612.00329939130734 0 0 0 0 -1869.4927146179543 -315.58743670182366 0 -315.58743670182366 -773.3370217049096 0 0 0 0 -1717.7427664517127 72.651821771791333 0 72.651821771791333 -279.31365765133341 0 0 0 0 -1466.1941704673809 160.6095915518822 0 160.6095915518822 -693.819410712847 0 0 0 0 -1875.9712003090099 8.8346041825016073 0 8.8346041825016073 -499.30864062629735 0 0 0 0 -1810.5285722342451 -34.34312317777335 0 -34.34312317777335 -608.33344152976633 0 0 0 0 -1534.113238005626 296.43910051370881 0 296.43910051370881 -290.26319351310576 0 0 0 0 -1177.4499891840424 557.65205021569182 0 557.65205021569182 -413.66267328400227 0 0 0 0 -1112.8945516766689 263.39631236753507 0 263.39631236753507 -508.3569838986117 0 0 0 0 -1322.3518372990839 127.93822209443084 0 127.93822209443084 -560.33460684705778 0 0 0 0 -1678.1705391843716 254.82930308453274 0 254.82930308453274 -524.47439002303327 0 0 0 0 -1953.0823977638065 -340.31834035242036 0 -340.31834035242036 -319.80694216583629 0 0 0 0 -1423.8859111844358 -541.64201427087528 0 -541.64201427087528 -426.48829431204513 0 0 0 0 -2102.6805958227051 -321.09868311469177 0 -321.09868311469177 -294.48427537377381 0 0 0 0 -2133.8749747682159 -867.3249246613475 0 -867.3249246613475 -48.251904193656401 0 0 0 0 -2589.3062130792932 54.038795195433408 0 54.038795195433408 -545.61274514939123 0 0 0 0 -2436.0046291360486 -302.13048567718488 0 -302.13048567718488 -725.47820929473914 0 0 0 0 -2034.2327878080832 -287.04380988240314 0 -287.04380988240314 -953.18559914839989 0 0 0 0 -2027.7908162914246 135.39682161108476 0 135.39682161108476 -735.59325603593152 0 0 0 0 -2766.4670068345658 217.34092636384094 0 217.34092636384094 -1439.4998008673019 0 0 0 0 -4019.1918163462178 -124.39614663686939 0 -124.39614663686939 -323.5742254644174 0 0 0 0 -2980.7187475414248 -1946.1612514859792 0 -1946.1612514859792 -474.18774996776665 0 0 0 0 -2262.2594141919399 -1204.2785492262551 0 -1204.2785492262551 -400.45028831205218 0 0 0 0 -1661.0219106650766 -823.14505080524987 0 -823.14505080524987 -374.80000924659811 0 0 0 0 -2841.3633695438566 -722.60998919444773 0 -722.60998919444773 -43.602491677644139 0 0 0 0 -2514.4335341576661 -719.74420433284786 0 -719.74420433284786 -104.96831430586371 0 0 0 0 -2513.9597377511764 -989.72181563057802 0 -989.72181563057802 85.808783704273537 0 0 0 0 -2609.5433326376806 -501.88631469513427 0 -501.88631469513427 701.91488622009717 0 0 0 0 -2539.9772295157345 -887.35061024811557 0 -887.35061024811557 318.10517335583972 0 0 0 0 -2313.6158646361 -740.60849834177679 0 -740.60849834177679 68.462132775635837 0 0 0 0 -2756.0181599424104 -1018.1674223064979 0 -1018.1674223064979 -77.240995025355915 0 0 0 0 -2314.1849172015009 -759.38377232110338 0 -759.38377232110338 -429.72467409202818 0 0 0 0 -1837.3327585688385 -851.46414696885222 0 -851.46414696885222 -413.10143204068231 0 0 0 0 -4354.6719035700262 -2096.0803019837203 0 -2096.0803019837203 590.84217244988076 0 0 0 0 -2483.881222885786 -422.69928177214706 0 -422.69928177214706 58.077503711910595 0 0 0 0 -2770.4299136493064 -2081.6195142998695 0 -2081.6195142998695 890.57242058139809 0 0 0 0 -5.8394842478623072 -1.1082233236030561 0 -1.1082233236030561 9.4969174369674594 0 0 0 0 -5499.6770426566363 -302.17780199089958 0 -302.17780199089958 337.36305175934757 0 0 0 0 -5307.3412556520489 -272.0144083756943 0 -272.0144083756943 193.70194675170475 0 0 0 0 -7.5329105576319639 0.53412574639469312 0 0.53412574639469312 23.917827032130052 0 0 0 0 -1874.6815355266808 -867.41278421295192 0 -867.41278421295192 -310.7773773132667 0 0 0 0 -1815.9237724596715 -495.80551113696981 0 -495.80551113696981 364.52292060183026 0 0 0 0 -250.81815446303517 -122.71871934115325 0 -122.71871934115325 -695.81916754817667 0 0 0 0 -5499.5761426508197 -104.09677558426583 0 -104.09677558426583 49.784565945354736 0 0 0 0 -4.409845897153045 13.975805031984095 0 13.975805031984095 39.766129645190638 0 0 0 0 -5266.0523769268984 102.12490385347347 0 102.12490385347347 223.65009177901382 0 0 0 0 -52.257967441022629 -3.3613902670554126 0 -3.3613902670554126 -6.7135595827357974 0 0 0 0 -17.01279155111115 0.18163365738746506 0 0.18163365738746506 -31.078463384086717 0 0 0 0 -22.826248790093814 1.7000057175607708 0 1.7000057175607708 -19.629296040076952 0 0 0 0 -9.2663738091068808 -8.7259493643186943 0 -8.7259493643186943 -40.425327775776395 0 0 0 0 -17.648377377612633 2.9218831849784692 0 2.9218831849784692 -36.29390533397418 0 0 0 0 -22.748241899593268 -6.9147196259091288 0 -6.9147196259091288 -43.968734988469805 0 0 0 0 -25.924672679742798 -2.5944164362163065 0 -2.5944164362163065 -30.94696353634788 0 0 0 0 -36.3056822118524 6.466341923811342 0 6.466341923811342 -38.855354818655542 0 0 0 0 -61.429677448089933 -9.264549749928392 0 -9.264549749928392 -32.009623901325085 0 0 0 0 0.25752140663450973 -0.13569927221168854 0 -0.13569927221168854 -6.1596956473555293 0 0 0 0 -36.673876395576372 8.9711715716766776 0 8.9711715716766776 -55.622898872339647 0 0 0 0 -77.527136920019529 23.530122018034461 0 23.530122018034461 5.9896823746678809 0 0 0 0 -125.55387892331055 -56.86495727858437 0 -56.86495727858437 111.06749483445492 0 0 0 0 -119.0916079411254 -80.528291013012449 0 -80.528291013012449 -26.30531491698639 0 0 0 0 -19.221989288911573 -25.854783849635623 0 -25.854783849635623 -21.098880744460075 0 0 0 0 -8.813611405815827 -13.934995641028621 0 -13.934995641028621 -4.0390970421666808 0 0 0 0 -66.044060726613679 9.2709103781480735 0 9.2709103781480735 -18.281205637847961 0 0 0 0 6.9278427811368601 -33.648892039369912 0 -33.648892039369912 -127.06425207866778 0 0 0 0 -15.953489715818705 -22.60812053275319 0 -22.60812053275319 -108.10621622176404 0 0 0 0 -5.2696262071661444 -2.7026440710065458 0 -2.7026440710065458 -0.10744599644002051 0 0 0 0 -59.994719217211241 -34.351590305444006 0 -34.351590305444006 -61.677340835517498 0 0 0 0 0.93407486217864744 -5.0864382049345958 0 -5.0864382049345958 -3.5721918191880491 0 0 0 0 -15.625152983964654 2.6886855396915053 0 2.6886855396915053 -39.350743839774168 0 0 0 0 -327.89492453762796 26.218851550730506 0 26.218851550730506 5.6753078999645368 0 0 0 0 53.802988482086221 -88.334804076036562 0 -88.334804076036562 -65.951247191717812 0 0 0 0 -12.66306584900957 -1.3565347554350424 0 -1.3565347554350424 -0.2331818308468121 0 0 0 0 188.66593459559954 -4.5576405689398598 0 -4.5576405689398598 -114.36014333208004 0 0 0 0 -3.5992203950752355 0.84503936853818828 0 0.84503936853818828 -0.12551414359368263 0 0 0 0 -128.71652041113703 20.062635672232318 0 20.062635672232318 -6.1867031570845938 0 0 0 0 -21.407217320538166 -0.30133272392797927 0 -0.30133272392797927 0.44521171111511149 0 0 0 0 146.95971469805227 -17.675480705453083 0 -17.675480705453083 -112.14139817401883 0 0 0 0 -39.351496237213723 64.358195435957896 0 64.358195435957896 81.420322639358346 0 0 0 0 -24.680017047765432 -9.9189702889589171 0 -9.9189702889589171 -81.313411182928576 0 0 0 0 -31.589750142716753 -3.8312805911855143 0 -3.8312805911855143 2.6141434886037738 0 0 0 0 -33.375400654389523 -12.846413169319021 0 -12.846413169319021 -62.381295892352455 0 0 0 0 -23.488197440572549 -5.2032985217742862 0 -5.2032985217742862 -67.015225307262881 0 0 0 0 -68.54395564092556 -80.779467009399013 0 -80.779467009399013 42.690118609620185 0 0 0 0 -33.445935370546067 -69.403410767254172 0 -69.403410767254172 46.37661504789412 0 0 0 0 -1.7653735149987142 0.29278117213658206 0 0.29278117213658206 -0.057517743755528983 0 0 0 0 -73.422550251183566 4.6975547393412853 0 4.6975547393412853 -57.004770586244376 0 0 0 0 -31.569322464269987 -2.8737629744772129 0 -2.8737629744772129 -6.2022218486286702 0 0 0 0 -161.25750115787378 37.054438218283394 0 37.054438218283394 -42.253882628840074 0 0 0 0 -79.591526475967839 -43.405269659015175 0 -43.405269659015175 42.150357216556586 0 0 0 0 -124.74391802912578 38.568130694347929 0 38.568130694347929 -48.918978599675029 0 0 0 0 8.0324195782341121 -75.291976777783873 0 -75.291976777783873 -0.8231794760995399 0 0 0 0 44.334190187459171 116.03026943839268 0 116.03026943839268 -154.91392525062111 0 0 0 0 -1.2503078530772882 -13.003139017362969 0 -13.003139017362969 -40.934580496938686 0 0 0 0 -48.416803232714301 -128.75152905760297 0 -128.75152905760297 196.80724500764336 0 0 0 0 7.2974466979984811 3.9257009361873543 0 3.9257009361873543 -8.9395389005903283 0 0 0 0 -1.9468565831390947 4.4098441179278556 0 4.4098441179278556 -15.521193973679901 0 0 0 0 61.247561183699872 44.770700888262127 0 44.770700888262127 -44.967326189277969 0 0 0 0 -69.642222382855834 30.458665019174987 0 30.458665019174987 4.2092866791526831 0 0 0 0 -41.478270097839413 39.261915629460418 0 39.261915629460418 -155.5669570900136 0 0 0 0 -17.972643889894243 -12.817855715311907 0 -12.817855715311907 -45.141885112702766 0 0 0 0 -16.744835826364579 -7.4439457168127774 0 -7.4439457168127774 -26.190929635215738 0 0 0 0 -13.722498969058506 -3.4526886534927144 0 -3.4526886534927144 -21.782980332558509 0 0 0 0 -8.5085306191601262 1.8138899558229014 0 1.8138899558229014 -27.719445875904746 0 0 0 0 -24.829049224048504 16.558760542508459 0 16.558760542508459 -76.195994747358782 0 0 0 0 -25.208295749171612 -25.932549621754418 0 -25.932549621754418 -64.414496689234511 0 0 0 0 -55.072254686980159 -28.375337124736234 0 -28.375337124736234 5.7988323707395466 0 0 0 0 -9.0686959780071561 -4.1871826050562504 0 -4.1871826050562504 4.9847544660250236 0 0 0 0 -28.50808571986272 -8.9397810375739937 0 -8.9397810375739937 -70.514730628330653 0 0 0 0 -31.094902478449512 3.6302333573694341 0 3.6302333573694341 -128.37603806437255 0 0 0 0 -23.069017700778204 -11.102434473708854 0 -11.102434473708854 -73.275514492612274 0 0 0 0 -32.908336258609779 -16.699802960141824 0 -16.699802960141824 -50.460604551843176 0 0 0 0 -29.867262872576248 -29.994575693548541 0 -29.994575693548541 -64.615628238982026 0 0 0 0 -1863.1255495089572 -331.77966890465359 0 -331.77966890465359 82.344963897017806 0 0 0 0 -1860.9314474113035 -365.52894590282278 0 -365.52894590282278 244.99295680344949 0 0 0 0 -1858.3592222905718 -411.16150518546692 0 -411.16150518546692 22.251554650801154 0 0 0 0 -1501.8022958116781 -396.68026684722781 0 -396.68026684722781 36.570692264996978 0 0 0 0 -1700.6832794362563 -309.15916502187338 0 -309.15916502187338 62.321539682571938 0 0 0 0 -903.27150864555733 -671.61642890297344 0 -671.61642890297344 -623.79571118461445 0 0 0 0 -60.898630686395336 -112.64900329957618 0 -112.64900329957618 -253.72816778539755 0 0 0 0 -525.50128871019115 -605.81912485967223 0 -605.81912485967223 -316.35523939135419 0 0 0 0 -680.35473823972279 -197.18545993137741 0 -197.18545993137741 -4.9832063463427403 0 0 0 0 -1365.1486514780554 -259.18330814055253 0 -259.18330814055253 30.283810877002907 0 0 0 0 -334.17902818816947 -22.646610848092678 0 -22.646610848092678 -115.7523853887742 0 0 0 0 -530.44852779674693 -326.42083477819574 0 -326.42083477819574 -197.64216836365995 0 0 0 0 -53.380074837245047 -141.81864200967448 0 -141.81864200967448 -203.79469579261865 0 0 0 0 -220.67212468609796 -22.941791896494124 0 -22.941791896494124 -56.454025586257558 0 0 0 0 -1.1996407285413255 2.8458112567002161 0 2.8458112567002161 -1.1164734234591389 0 0 0 0 93.957629567477852 -28.890672243127483 0 -28.890672243127483 -58.493723652765084 0 0 0 0 -618.00686620261695 -526.41735481365708 0 -526.41735481365708 -565.29957800199304 0 0 0 0 338.98389052461425 -149.39633944764887 0 -149.39633944764887 -471.5172055847097 0 0 0 0 -2.7442358714461363 0.077142375982958811 0 0.077142375982958811 -20.57991916172281 0 0 0 0 -1.9625015143896007 0.23615157942311349 0 0.23615157942311349 -3.928523201282637 0 0 0 0 -872.46465739276027 177.04841063895674 0 177.04841063895674 523.96432149395787 0 0 0 0 -1727.9234589290427 -665.4950275560858 0 -665.4950275560858 39.48902148810248 0 0 0 0 -2260.0856724952464 -138.87712023399172 0 -138.87712023399172 -90.736361821290075 0 0 0 0 -1839.3683567542757 398.57075028578629 0 398.57075028578629 -77.094195112421858 0 0 0 0 -609.18046012322884 381.57724490124428 0 381.57724490124428 -371.55204324371994 0 0 0 0 -13.115901650831233 -0.38451843823533594 0 -0.38451843823533594 -5.9259119734647383 0 0 0 0 -693.46368108541355 485.46268575020622 0 485.46268575020622 -225.87917544812444 0 0 0 0 215.7690070529934 -21.885830195921699 0 -21.885830195921699 -199.79456166150931 0 0 0 0 -77.575865545368288 433.44831985263409 0 433.44831985263409 -392.96082369725764 0 0 0 0 237.96246469917241 147.92050445061977 0 147.92050445061977 -355.51847709231879 0 0 0 0 106.61116483289516 336.49479019607315 0 336.49479019607315 -440.99540841679664 0 0 0 0 -90.847975718490488 225.43870645147592 0 225.43870645147592 -328.93801787495431 0 0 0 0 -220.72209392857621 204.72101115257738 0 204.72101115257738 -307.13886886329965 0 0 0 0 -119.98440536293492 103.43470841670683 0 103.43470841670683 -286.40530027130444 0 0 0 0 -547.93598068677238 298.65522186845146 0 298.65522186845146 -202.32246976887745 0 0 0 0 -165.99298824710422 70.423447093853611 0 70.423447093853611 -155.53236927831313 0 0 0 0 -646.08361999814224 174.36298988504882 0 174.36298988504882 -221.15245674102971 0 0 0 0 -790.26623736943657 252.77034503342475 0 252.77034503342475 -275.06229640521451 0 0 0 0 -1641.4632378413226 20.695656945796145 0 20.695656945796145 -260.1333763307739 0 0 0 0 -1063.7018939753179 480.41964428996948 0 480.41964428996948 -236.33053646481767 0 0 0 0 -23.077044053608176 -2.9690334196622725 0 -2.9690334196622725 -3.42958148794105 0 0 0 0 -16.341063058076543 -3.7090858391293295 0 -3.7090858391293295 -27.746393073504805 0 0 0 0 -5.699487618272542 -71.165299059259695 0 -71.165299059259695 8.2404241657045532 0 0 0 0 -7.1707912127667441 -10.361214901872046 0 -10.361214901872046 -26.640309374713688 0 0 0 0 -29.036594709439669 -10.038356675216164 0 -10.038356675216164 -3.1626431851019561 0 0 0 0 -22.127486947750583 -14.562158375935979 0 -14.562158375935979 -13.131779837686526 0 0 0 0 -17.619814655263326 -1.8444998497932374 0 -1.8444998497932374 -24.018298915876585 0 0 0 0 -26.384249561000615 -0.84367089328952716 0 -0.84367089328952716 -13.00808422341197 0 0 0 0 -1.6297109109582379 -7.3730644655402102 0 -7.3730644655402102 -14.039096631293546 0 0 0 0 -7.4571563098049864 -4.4178594340012607 0 -4.4178594340012607 -36.666959529026137 0 0 0 0 -11.476014273153851 -7.7010020648995123 0 -7.7010020648995123 -34.172099856969908 0 0 0 0 -13.391038592754342 -8.8160828894514225 0 -8.8160828894514225 -13.601582377174196 0 0 0 0 -24.702269622590393 11.330511020984886 0 11.330511020984886 -44.160560407169214 0 0 0 0 576.14446692404454 -550.91933600147604 0 -550.91933600147604 535.45543694704793 0 0 0 0 -12.860713157083239 -9.9207670171426798 0 -9.9207670171426798 -17.463911057633219 0 0 0 0 385.90405862141051 188.37486877856509 0 188.37486877856509 -307.38463212643546 0 0 0 0 -38.174488099350128 19.624154435906348 0 19.624154435906348 -33.367813680531981 0 0 0 0 220.85200475210149 201.91554533774706 0 201.91554533774706 57.257290215846297 0 0 0 0 -33.237871051300317 -15.375275810193386 0 -15.375275810193386 -11.227869349094362 0 0 0 0 -42.445784781768452 11.926410290212516 0 11.926410290212516 -27.447871612946301 0 0 0 0 -22.899371258557949 -2.7645901301856384 0 -2.7645901301856384 -22.794706019620207 0 0 0 0 211.86691771486858 -191.23948508895668 0 -191.23948508895668 -214.14042026088464 0 0 0 0 -82.075009071326349 -14.916529646397066 0 -14.916529646397066 -0.37434843165590337 0 0 0 0 -76.42894388147397 4.3764719437330086 0 4.3764719437330086 -4.0098142911101604 0 0 0 0 362.72827588836299 -62.797761923998451 0 -62.797761923998451 -355.25915253164749 0 0 0 0 -85.704847439621517 4.2738855648547656 0 4.2738855648547656 -100.48346638989688 0 0 0 0 -5.4227719299545925 -7.2344431414017549 0 -7.2344431414017549 -19.890792673221672 0 0 0 0 225.44254067458678 52.822546306109871 0 52.822546306109871 -409.96353065989024 0 0 0 0 207.84475286524685 88.345665695664366 0 88.345665695664366 -354.49060476332124 0 0 0 0 107.81885915546445 159.50434906270311 0 159.50434906270311 -391.31162631792085 0 0 0 0 70.205400538252434 -32.057223844572945 0 -32.057223844572945 -268.95802125492992 0 0 0 0 -54.197975380549906 -193.5907043377133 0 -193.5907043377133 102.8166438333119 0 0 0 0 -156.77721586776897 71.648870767538938 0 71.648870767538938 -190.90826678572103 0 0 0 0 -120.75312450695492 -58.905019618559322 0 -58.905019618559322 49.623827311585956 0 0 0 0 72.885880614849157 12.898509173586547 0 12.898509173586547 -149.42151192736651 0 0 0 0 -4.6459054186998401 -80.662321444368928 0 -80.662321444368928 -11.528169982749972 0 0 0 0 -179.14220435967945 -20.075118019383737 0 -20.075118019383737 83.982323198325929 0 0 0 0 -3.733134095881411 -12.53612991652642 0 -12.53612991652642 -32.941249563402209 0 0 0 0 1.6457783825563865 1.2345433624999913 0 1.2345433624999913 -6.6513946672452207 0 0 0 0 -323.64098335689778 134.37553579358962 0 134.37553579358962 -98.757006746080151 0 0 0 0 -348.34715319017414 124.84607979021439 0 124.84607979021439 326.77544128280942 0 0 0 0 -300.39626310882159 353.15274002532942 0 353.15274002532942 44.695347138741454 0 0 0 0 -261.73594721491827 381.63281594881255 0 381.63281594881255 -194.31127784686942 0 0 0 0 -120.51778943072713 109.71223495253389 0 109.71223495253389 -193.1838625638652 0 0 0 0 -510.75227701272524 407.14577413245979 0 407.14577413245979 -278.69369264763691 0 0 0 0 -490.59488512873941 84.857017649589125 0 84.857017649589125 70.410869232895948 0 0 0 0 -0.95248002810234311 -4.0311792626810927 0 -4.0311792626810927 -15.862826533859085 0 0 0 0 -1130.1754817443143 367.12353216700012 0 367.12353216700012 -409.43415163919281 0 0 0 0 -1126.2442211000889 318.50647375232529 0 318.50647375232529 -115.18232208685549 0 0 0 0 -575.4399363687844 394.0988897958282 0 394.0988897958282 -297.39890528789738 0 0 0 0 -600.88553315095487 281.74270017703839 0 281.74270017703839 -50.101074243895027 0 0 0 0 -704.29429867599083 452.93560228164387 0 452.93560228164387 -332.83709562929744 0 0 0 0 -690.14980493643088 300.49637456450455 0 300.49637456450455 -102.32792546574456 0 0 0 0 -1090.1826811432547 500.01466831082075 0 500.01466831082075 -203.947546661562 0 0 0 0 -1093.9820942338265 433.37771742579594 0 433.37771742579594 -527.39100435002251 0 0 0 0 -1046.6193107693252 604.78259125203044 0 604.78259125203044 -312.36846456897501 0 0 0 0 -801.58818073416478 521.56031961971212 0 521.56031961971212 -400.3272924167934 0 0 0 0 -834.6640469566446 449.982716047856 0 449.982716047856 -106.43268150442418 0 0 0 0 -880.71173012032523 535.40913224812732 0 535.40913224812732 -331.63153642628231 0 0 0 0 -1038.0510905975098 593.84415951900905 0 593.84415951900905 -557.39090104100455 0 0 0 0 -639.89630216658406 693.95498266282084 0 693.95498266282084 -532.21988657817224 0 0 0 0 -0.71452847799309893 -0.65759921847930514 0 -0.65759921847930514 -6.1052494903446863 0 0 0 0 -435.46741844784992 -33.748379922051129 0 -33.748379922051129 32.236380690586998 0 0 0 0 -511.91152553827123 285.1004177359502 0 285.1004177359502 -506.69120717824103 0 0 0 0 -618.02570551558165 431.91426217626486 0 431.91426217626486 -361.55407365877556 0 0 0 0 -693.51270028930594 439.92885024464613 0 439.92885024464613 -57.952133032486927 0 0 0 0 -1013.9630942048971 387.50721780760239 0 387.50721780760239 -363.73805763006703 0 0 0 0 -677.49930589229189 130.47371181557807 0 130.47371181557807 -639.00247740538236 0 0 0 0 23.43399105714343 122.8778256785983 0 122.8778256785983 32.479984987823457 0 0 0 0 54.72128138874541 201.65457014460014 0 201.65457014460014 -1098.7294052331247 0 0 0 0 -253.85622000243166 11.142553371904796 0 11.142553371904796 107.02197948356661 0 0 0 0 342.32486979200621 -131.1503876524032 0 -131.1503876524032 -420.13521766739382 0 0 0 0 -0.61665009751249045 -2.0907130846101438 0 -2.0907130846101438 -6.6421971311895076 0 0 0 0 -13.344110409330824 16.177133825199462 0 16.177133825199462 102.43710821239256 0 0 0 0 5.3974891640100395 -34.341440924835979 0 -34.341440924835979 -21.721907834718877 0 0 0 0 274.9232600513933 -282.64656258345917 0 -282.64656258345917 -473.14307127462899 0 0 0 0 -1.5474508670130831 -5.5999010823548474 0 -5.5999010823548474 -16.008278031596529 0 0 0 0 -34.264663485868368 171.25405301694468 0 171.25405301694468 68.134030429898303 0 0 0 0 -4.4171405765871441 -9.4531632447333322 0 -9.4531632447333322 -17.285055409302043 0 0 0 0 -4.3989356186033319 -9.5216646107696761 0 -9.5216646107696761 -18.739163733025926 0 0 0 0 12.458060965203913 8.2688346923241625 0 8.2688346923241625 -31.938259766742931 0 0 0 0 117.62935108016245 -153.09742610680604 0 -153.09742610680604 -34.465965056847608 0 0 0 0 -13.20648818403788 -14.869804831682586 0 -14.869804831682586 -42.687826860108544 0 0 0 0 -21.899927402875619 -0.86792332397726568 0 -0.86792332397726568 -46.700512911065744 0 0 0 0 -37.252249982440844 -1.7372277696445053 0 -1.7372277696445053 -43.801860458090232 0 0 0 0 -15.70116247011174 -0.92749370293722677 0 -0.92749370293722677 -48.930521614760437 0 0 0 0 -31.001327553123701 157.99133201393124 0 157.99133201393124 142.26973203897796 0 0 0 0 151.25869276284357 202.12435193211877 0 202.12435193211877 -73.559128816388693 0 0 0 0 -5.7548819938233997 15.818711107216444 0 15.818711107216444 -57.030796976984774 0 0 0 0 -73.599126088185585 1.2387324665696724 0 1.2387324665696724 -37.007098865137777 0 0 0 0 -39.254038858227432 -7.6882257797842612 0 -7.6882257797842612 -53.419913822221588 0 0 0 0 -84.379636847603251 15.34283040759874 0 15.34283040759874 -52.869226603173047 0 0 0 0 -31.707721735641826 17.554536073017516 0 17.554536073017516 -46.63191815222126 0 0 0 0 -26.129353445750894 43.122313437914272 0 43.122313437914272 -279.71979161827949 0 0 0 0 -27.193654690330732 117.68321559887227 0 117.68321559887227 73.159505670208091 0 0 0 0 9.561963240194018 210.20246212009624 0 210.20246212009624 48.11891937015389 0 0 0 0 529.12580856663408 44.464734380870141 0 44.464734380870141 -255.17256790052579 0 0 0 0 -13.692495706054615 -99.977839313885852 0 -99.977839313885852 -378.87264083167975 0 0 0 0 -1.1721060639855452 7.2822844910839137 0 7.2822844910839137 -30.18609498110964 0 0 0 0 -45.179131547309225 -12.636328487565152 0 -12.636328487565152 -20.956677834608399 0 0 0 0 -13.007486003902841 -12.783160937797987 0 -12.783160937797987 -21.64427328236593 0 0 0 0 -310.57585798709624 -61.805051151517205 0 -61.805051151517205 -50.270383614475804 0 0 0 0 -0.032912339798144785 5.2088013846733361 0 5.2088013846733361 -6.7089300377709904 0 0 0 0 -216.65503503574291 -106.87557308749638 0 -106.87557308749638 22.698382124570344 0 0 0 0 1739.168715285603 434.48446454596706 0 434.48446454596706 408.27935408013582 0 0 0 0 -123.14614665898262 -227.7486225272005 0 -227.7486225272005 174.83757165291081 0 0 0 0 -778.86178102710983 -647.04816310960814 0 -647.04816310960814 368.69016563143646 0 0 0 0 33.319835485657677 -160.14174166377416 0 -160.14174166377416 -1660.0203277430228 0 0 0 0 -804.4647533307334 -1080.1691444140019 0 -1080.1691444140019 -716.75500611095777 0 0 0 0 280.07131677418874 -1292.1920728314337 0 -1292.1920728314337 -180.4831494669279 0 0 0 0 -61.384874446695903 349.93205601517184 0 349.93205601517184 -813.12483816747954 0 0 0 0 -1.9307989037154982 -5.8930417310274947 0 -5.8930417310274947 -5.2855517415286926 0 0 0 0 -212.10036476507958 307.94481197957884 0 307.94481197957884 -105.1062904443188 0 0 0 0 -1.6973371116732032 -4.6265879381237767 0 -4.6265879381237767 -24.959489431461254 0 0 0 0 59.268005026839091 454.93991847933682 0 454.93991847933682 -1633.6613692277483 0 0 0 0 12.568628564869869 -829.14601501627294 0 -829.14601501627294 -981.87024075237059 0 0 0 0 -391.82905948773259 335.60942120543518 0 335.60942120543518 -485.82126061774625 0 0 0 0 524.17577470884135 845.30089449413651 0 845.30089449413651 -1356.0429138291424 0 0 0 0 -1689.654775377363 422.3104437450047 0 422.3104437450047 889.61570262882378 0 0 0 0 15.065864497155417 -255.56686575197762 0 -255.56686575197762 259.51807024570945 0 0 0 0 -41.547919195815552 1.5084474518376361 0 1.5084474518376361 -0.58163790603825127 0 0 0 0 1559.645948152116 10.670783049221939 0 10.670783049221939 -987.92564975031621 0 0 0 0 86.772372255050868 -91.320777365537424 0 -91.320777365537424 -94.450176045020271 0 0 0 0 -5.142587516854249 -6.3500554598421388 0 -6.3500554598421388 -13.458848890140475 0 0 0 0 117.63519462047407 -123.35927810037373 0 -123.35927810037373 24.067190634370462 0 0 0 0 -8.8008418610748436 -17.897805978227609 0 -17.897805978227609 6.792703449482496 0 0 0 0 101.02577040348842 -108.1311291106438 0 -108.1311291106438 70.499424848800686 0 0 0 0 25.186941268853843 -113.38763848587843 0 -113.38763848587843 156.25807297112885 0 0 0 0 65.595374485470529 -113.19011200487049 0 -113.19011200487049 -105.35449935879171 0 0 0 0 12.917054633362568 -186.17494577362612 0 -186.17494577362612 80.917936078596711 0 0 0 0 74.835631400448619 -186.61879466735152 0 -186.61879466735152 -102.07157274163781 0 0 0 0 114.4389958374959 -37.547594726979611 0 -37.547594726979611 -135.5736523771721 0 0 0 0 115.12402573254076 -51.688967376164797 0 -51.688967376164797 19.086490643323373 0 0 0 0 209.20828166484716 -8.0003175835616247 0 -8.0003175835616247 -103.81609680793618 0 0 0 0 -1017.4514289112121 153.83763664404955 0 153.83763664404955 -24.70557343596758 0 0 0 0 -128.19524673846263 -211.74836217400104 0 -211.74836217400104 -537.18498324879909 0 0 0 0 -125.1065007221041 -170.97005135926139 0 -170.97005135926139 -95.170725521337545 0 0 0 0 69.358546920426306 -198.53939517312642 0 -198.53939517312642 28.318016417393437 0 0 0 0 -160.12385679782892 131.15327930607305 0 131.15327930607305 253.48359798261026 0 0 0 0 -68.590299176692497 -66.63570340071135 0 -66.63570340071135 23.861425045401973 0 0 0 0 -47.103144692869705 0.41859920885373114 0 0.41859920885373114 1.424896364856761 0 0 0 0 -496.02374172366399 -132.60154524241352 0 -132.60154524241352 651.71659889116415 0 0 0 0 18.696437252569012 -572.18683347417323 0 -572.18683347417323 314.75882508278431 0 0 0 0 -27.181891642983828 451.35179565861159 0 451.35179565861159 -803.07898965242259 0 0 0 0 125.54386418966169 426.10973702530737 0 426.10973702530737 -833.30045759894847 0 0 0 0 406.78302784822881 42.398053629336843 0 42.398053629336843 -663.56606483530857 0 0 0 0 -413.6329179792956 -94.411157369551432 0 -94.411157369551432 -548.07451731519382 0 0 0 0 -612.29467944646603 149.19405589667261 0 149.19405589667261 -651.39757367132586 0 0 0 0 -1616.0978003144119 -90.756011498365069 0 -90.756011498365069 -113.3885974939526 0 0 0 0 -630.83297696458612 -541.66785148678423 0 -541.66785148678423 23.783347572880757 0 0 0 0 -1258.8954335874587 1230.6117006958652 0 1230.6117006958652 -815.59084413194864 0 0 0 0 -20.464893488281177 0.65611585799521777 0 0.65611585799521777 -0.40300129138837992 0 0 0 0 -1020.7646171654596 922.68743691213876 0 922.68743691213876 -584.69473966452597 0 0 0 0 -1857.9650786170077 932.19311119567169 0 932.19311119567169 -526.11183179141074 0 0 0 0 -1324.557354428267 577.38188439961118 0 577.38188439961118 -291.05584119379955 0 0 0 0 -1069.5033524285973 727.81287033065507 0 727.81287033065507 -1434.0193701908006 0 0 0 0 -2060.2551131745568 55.436208006624042 0 55.436208006624042 -782.3377894114567 0 0 0 0 -1034.3218793566593 542.21870255100407 0 542.21870255100407 -541.60571503913422 0 0 0 0 -4.7890299608552596 0.38424742016110613 0 0.38424742016110613 -0.23993391358468055 0 0 0 0 -426.37984401866561 828.06002882134271 0 828.06002882134271 -472.11358008253234 0 0 0 0 -723.24222695086064 -170.71411498408887 0 -170.71411498408887 346.47444478988382 0 0 0 0 -83.461644350012648 -101.00147859877552 0 -101.00147859877552 -288.87709715382312 0 0 0 0 -1039.485861127745 691.71326014149349 0 691.71326014149349 -401.01068881863284 0 0 0 0 -1199.2238850253561 611.35669734962244 0 611.35669734962244 185.81888015994809 0 0 0 0 -824.01189885547888 934.63693458112198 0 934.63693458112198 276.16434613797469 0 0 0 0 -255.31482838920783 181.83754561892857 0 181.83754561892857 656.43985655634901 0 0 0 0 -173.59042626089649 -322.6452353148299 0 -322.6452353148299 1097.7145693986536 0 0 0 0 -809.47101613641803 48.086022287169655 0 48.086022287169655 655.11790886086692 0 0 0 0 -408.78936200190219 -298.33930650169134 0 -298.33930650169134 1202.4476234769097 0 0 0 0 25.401098216418177 71.491011352865712 0 71.491011352865712 424.27015570092578 0 0 0 0 -1101.8706099118863 627.86370313777797 0 627.86370313777797 -134.43907949427285 0 0 0 0 298.49395820233622 156.0946479804914 0 156.0946479804914 -145.29778999206371 0 0 0 0 -2231.6666736724146 1176.5932944565102 0 1176.5932944565102 25.564781708082592 0 0 0 0 -1630.9106717741524 1232.1563886168847 0 1232.1563886168847 29.739179796040968 0 0 0 0 -1843.769600062049 740.15854089120671 0 740.15854089120671 275.97222126741519 0 0 0 0 -1495.5591793329222 954.61956501916404 0 954.61956501916404 671.52065581799366 0 0 0 0 -1449.3543265591725 1067.1144752983241 0 1067.1144752983241 292.12535455236412 0 0 0 0 -1682.7350286404544 1071.1179753309684 0 1071.1179753309684 367.10534612256595 0 0 0 0 -1701.1144545997231 541.33211508405748 0 541.33211508405748 158.38202315936718 0 0 0 0 -942.96784562771791 283.91801429889983 0 283.91801429889983 202.11447819464297 0 0 0 0 -2245.6569482918967 1148.4552422075999 0 1148.4552422075999 762.98328859709227 0 0 0 0 -2891.5646978067052 -432.97937594458784 0 -432.97937594458784 -60.092077984363186 0 0 0 0 -1323.2690743328858 1115.7247036598428 0 1115.7247036598428 402.38618114335452 0 0 0 0 -478.58533489446563 -956.04084038799238 0 -956.04084038799238 -928.09361302942148 0 0 0 0 -31.388886354910596 -3.8503822268679815 0 -3.8503822268679815 -0.390308064918581 0 0 0 0 -835.25501562475984 -706.09828178995497 0 -706.09828178995497 275.08384224069653 0 0 0 0 -1409.8602258026804 -1311.508187811774 0 -1311.508187811774 -342.36050906076588 0 0 0 0 -2838.7071257283533 754.773344300075 0 754.773344300075 -100.53461999764187 0 0 0 0 -162.37645575666102 239.43142114936927 0 239.43142114936927 1568.9124353363577 0 0 0 0 -327.38321703365727 249.08740618409331 0 249.08740618409331 813.22355189750488 0 0 0 0 -74.465662541961308 -10.903124193171813 0 -10.903124193171813 1.740325265188944 0 0 0 0 -477.8496411909 -385.0970775364068 0 -385.0970775364068 2184.393381692501 0 0 0 0 584.04638890404021 -646.10492797164989 0 -646.10492797164989 952.11855257160812 0 0 0 0 809.98529318490182 142.38309902814808 0 142.38309902814808 680.29407765450753 0 0 0 0 -151.93353373464197 1063.6920796682473 0 1063.6920796682473 390.01488445203051 0 0 0 0 293.26097256882349 749.13425547261613 0 749.13425547261613 376.2297058840108 0 0 0 0 -590.27298396348488 565.65471489229765 0 565.65471489229765 726.38990408393602 0 0 0 0 -480.50052011775551 -644.44513649963596 0 -644.44513649963596 -465.37744820286059 0 0 0 0 -272.74837655930605 -236.60825078020412 0 -236.60825078020412 57.306574353111046 0 0 0 0 290.40087303475593 -287.86978418255967 0 -287.86978418255967 -347.54769815522468 0 0 0 0 -339.18515361018217 -253.84910069390497 0 -253.84910069390497 181.93999526856919 0 0 0 0 -19.623774270803551 15.340063039194092 0 15.340063039194092 631.2427098336791 0 0 0 0 -3.8052377650502649 -3.9834232921359742 0 -3.9834232921359742 1.6834334282039563 0 0 0 0 -399.75626453579753 -358.03349009364456 0 -358.03349009364456 25.347682919147019 0 0 0 0 -543.34551784334326 -70.49025621009099 0 -70.49025621009099 25.805236838242763 0 0 0 0 -673.34055337673635 -360.31166303228338 0 -360.31166303228338 162.97537745171621 0 0 0 0 -838.04771208718012 -312.51716226511462 0 -312.51716226511462 -321.55820764215207 0 0 0 0 -99.206163492299595 -20.067187726716732 0 -20.067187726716732 -0.76054603245716212 0 0 0 0 -333.9268344085649 -505.54689405443622 0 -505.54689405443622 -321.84349900011813 0 0 0 0 25.782009442722483 -272.0923271372742 0 -272.0923271372742 -547.69527310596118 0 0 0 0 -548.87229567036411 48.394296516042445 0 48.394296516042445 116.37779148590306 0 0 0 0 -820.09512804490805 -530.83180807801727 0 -530.83180807801727 233.4874636300973 0 0 0 0 -1757.3980452737887 -474.17388773607684 0 -474.17388773607684 1386.6820773665829 0 0 0 0 -99.391898180999988 -15.620974931274299 0 -15.620974931274299 -0.080217193562657468 0 0 0 0 -1168.0602095995418 159.09958378785788 0 159.09958378785788 -233.3925180498334 0 0 0 0 -969.89533162388398 289.04625732188651 0 289.04625732188651 -366.95446259567848 0 0 0 0 -729.26103204249375 -549.59504351178543 0 -549.59504351178543 -63.507567598093374 0 0 0 0 -856.36236168343748 -202.68843088306153 0 -202.68843088306153 -769.15606370856904 0 0 0 0 -347.33901272530784 280.26171718236924 0 280.26171718236924 -680.63063597372627 0 0 0 0 -99.706795532378663 -8.0740005014152914 0 -8.0740005014152914 0.15091718155361769 0 0 0 0 -817.53839332280768 -38.948798594291418 0 -38.948798594291418 1062.825683931258 0 0 0 0 -306.97389470716007 559.94932551196769 0 559.94932551196769 -128.16482954581613 0 0 0 0 -97.301100768885817 -4.5537479675100334 0 -4.5537479675100334 -0.57454464209004152 0 0 0 0 -90.957658439292572 124.56760969246159 0 124.56760969246159 -540.83730859741195 0 0 0 0 12.501778797119186 171.26539984591551 0 171.26539984591551 7.4535473240685199 0 0 0 0 -9.9556043100747047 229.58865476931601 0 229.58865476931601 -34.964124938773068 0 0 0 0 -192.93863591906847 224.91181909705807 0 224.91181909705807 625.27789571930577 0 0 0 0 23.200799156315043 204.19629860743586 0 204.19629860743586 -82.952800130294236 0 0 0 0 53.90771714845323 170.42758684970698 0 170.42758684970698 -45.836946704928891 0 0 0 0 55.332307577358733 172.86861119830189 0 172.86861119830189 -41.79068650607158 0 0 0 0 156.99655756758875 15.413920246254776 0 15.413920246254776 -11.980012579067704 0 0 0 0 116.60886734660517 41.148602047016098 0 41.148602047016098 -25.531505942614587 0 0 0 0 83.582422513943129 -29.74886513100143 0 -29.74886513100143 -460.80018444694377 0 0 0 0 81.991676700679818 -41.600601957199416 0 -41.600601957199416 -114.85705007170171 0 0 0 0 118.08537221705137 72.71403849549543 0 72.71403849549543 -303.1429032189958 0 0 0 0 -191.56429534400377 81.197499119373362 0 81.197499119373362 -246.76675131180764 0 0 0 0 -335.55568271115771 293.52188470663975 0 293.52188470663975 -538.91833862824922 0 0 0 0 -558.67158823607315 -206.23492939501728 0 -206.23492939501728 -1205.6470685243371 0 0 0 0 21.564585316806188 133.34644074709098 0 133.34644074709098 -359.23608802439685 0 0 0 0 -1305.6473710858991 -3427.4226011905839 0 -3427.4226011905839 -5483.2278932288355 0 0 0 0 -5492.8750812299331 -3990.9589551198301 0 -3990.9589551198301 -1771.6996441000674 0 0 0 0 -137.10531263519078 -1573.8483337335228 0 -1573.8483337335228 -2979.5339053888056 0 0 0 0 -2037.8739977991499 -3489.7480928422242 0 -3489.7480928422242 -2068.1289430797574 0 0 0 0 -1054.3163041358785 -2554.7789527324067 0 -2554.7789527324067 -1194.4252706461618 0 0 0 0 -758.64328967936308 -2534.1400658132056 0 -2534.1400658132056 -1194.3958525518819 0 0 0 0 -2738.0731663410588 -1929.1282077862497 0 -1929.1282077862497 -304.04039568745043 0 0 0 0 -5487.5327301132711 -2751.5239269764838 0 -2751.5239269764838 511.72537604615445 0 0 0 0 -2386.2398388197616 -107.86029005651449 0 -107.86029005651449 2765.2450742632059 0 0 0 0 -2620.4711870014653 -3765.1673057470962 0 -3765.1673057470962 -1731.2199458333673 0 0 0 0 -18.979758104842546 -10.717770576841446 0 -10.717770576841446 3.5281881508087016 0 0 0 0 -5491.1822949867455 -3182.470687727392 0 -3182.470687727392 1396.5369664453913 0 0 0 0 -413.57275943904824 -1556.7491400124479 0 -1556.7491400124479 443.10446198202158 0 0 0 0 -18.46430491733247 -9.176060810947952 0 -9.176060810947952 3.4340538476650142 0 0 0 0 -1528.8350031414011 -3197.209675604985 0 -3197.209675604985 -1631.0711525790805 0 0 0 0 -1511.2440603455125 632.44893875603975 0 632.44893875603975 2834.365894265291 0 0 0 0 -2785.6705323269853 -1352.79675696496 0 -1352.79675696496 1179.8579824619806 0 0 0 0 -2760.9763837568426 -1434.4544693735493 0 -1434.4544693735493 -2.4224721880868856 0 0 0 0 -1335.8022067923666 -629.74552402448887 0 -629.74552402448887 -407.85657831896845 0 0 0 0 -2700.1153559825361 -1876.2673053138215 0 -1876.2673053138215 -377.72183114817699 0 0 0 0 -638.7000237711618 -1028.3634400328274 0 -1028.3634400328274 -105.68685500136257 0 0 0 0 -95.023305067647016 -392.75873688828051 0 -392.75873688828051 -404.50542904376971 0 0 0 0 -1464.3923317337903 -2280.6330365294634 0 -2280.6330365294634 -1224.8808417098539 0 0 0 0 -172.95114749386266 -1128.9984037213135 0 -1128.9984037213135 -147.9049843416301 0 0 0 0 -538.40967699493194 263.6354511766217 0 263.6354511766217 1389.2965884840569 0 0 0 0 -150.99717778684862 -115.38546422407006 0 -115.38546422407006 998.93114872071351 0 0 0 0 191.12718490754196 -303.16176117042869 0 -303.16176117042869 1070.7194979678206 0 0 0 0 -41.519419453441515 75.264378859021463 0 75.264378859021463 291.34970223938717 0 0 0 0 -1154.216608428731 -852.44304676810839 0 -852.44304676810839 -164.22323222828479 0 0 0 0 -5.822820167103373 -3.4641646038585634 0 -3.4641646038585634 1.4754682382417574 0 0 0 0 -1630.178927954883 -1276.5956994213095 0 -1276.5956994213095 -670.63329160607293 0 0 0 0 -1080.8958653166192 -408.04804058994046 0 -408.04804058994046 -415.36580138146383 0 0 0 0 -833.38860990875401 -575.85314730797018 0 -575.85314730797018 -325.62636597549755 0 0 0 0 152.57067257205927 -91.348248989351134 0 -91.348248989351134 -320.12119460902323 0 0 0 0 -372.91147045187245 328.44595590060976 0 328.44595590060976 -548.34672444748048 0 0 0 0 -877.44490412528103 220.86034168790758 0 220.86034168790758 -563.09660621512728 0 0 0 0 111.92218010265788 -147.51518818567888 0 -147.51518818567888 -218.23802711889158 0 0 0 0 -145.93557532975683 -21.432434707549874 0 -21.432434707549874 513.46885117633178 0 0 0 0 -581.37408598814363 181.54394583664862 0 181.54394583664862 609.75853353468597 0 0 0 0 -9.9064702126127031 -1.2350699406080885 0 -1.2350699406080885 1.2473950589517089 0 0 0 0 206.62983394408366 -66.92074866309963 0 -66.92074866309963 -15.574623053230937 0 0 0 0 -158.64640181910249 237.76335161823269 0 237.76335161823269 815.32695398951819 0 0 0 0 191.79740831717208 47.977385280586532 0 47.977385280586532 887.48218057214694 0 0 0 0 -136.70590366988472 74.769450961826806 0 74.769450961826806 1428.9704789839723 0 0 0 0 214.5126566326071 -155.35667459940163 0 -155.35667459940163 552.17020778436552 0 0 0 0 -156.15748523283401 -109.57373510805371 0 -109.57373510805371 1021.3599009009695 0 0 0 0 352.55241625453345 -118.54933647358621 0 -118.54933647358621 1020.5683378772144 0 0 0 0 -91.504835494475458 -16.624540433779796 0 -16.624540433779796 1.0457057459000727 0 0 0 0 -138.53571307057427 -292.33133898060476 0 -292.33133898060476 1768.2095760781717 0 0 0 0 -69.371292581337912 -47.652299521841087 0 -47.652299521841087 520.69416276460765 0 0 0 0 -218.61039242972038 118.00180278211246 0 118.00180278211246 510.99265738485894 0 0 0 0 6.3945790011639474 -56.276117530898205 0 -56.276117530898205 351.11158060380183 0 0 0 0 -50.283012393272656 -114.02452848835105 0 -114.02452848835105 449.06440844570943 0 0 0 0 -6.1865832993269976 -3.8252819849967459 0 -3.8252819849967459 1.9151487393846354 0 0 0 0 -10.12561387311689 210.01872076981633 0 210.01872076981633 123.16359664987658 0 0 0 0 -13.962649377775961 27.613642292820487 0 27.613642292820487 408.84136498501937 0 0 0 0 51.691074126501917 -204.29703757791185 0 -204.29703757791185 48.801336341661454 0 0 0 0 -54.825477854043129 -171.86364044284619 0 -171.86364044284619 -134.65823630262025 0 0 0 0 -17.780999194335891 24.748307166413269 0 24.748307166413269 -430.0239342414211 0 0 0 0 -1560.8060851955888 -235.38735245217038 0 -235.38735245217038 1054.7349264827521 0 0 0 0 -97.479421394470251 -17.200853681678129 0 -17.200853681678129 -0.14621044281019432 0 0 0 0 410.79419302492533 -44.886002461525948 0 -44.886002461525948 -90.929050359442613 0 0 0 0 97.602784578437422 209.93955418409251 0 209.93955418409251 -33.778968786507903 0 0 0 0 -156.53106678513723 -112.49913433102233 0 -112.49913433102233 220.61249603838087 0 0 0 0 47.518399387947284 5.0951771572115376 0 5.0951771572115376 -288.44388788454398 0 0 0 0 -87.780143939777588 -11.925637970053957 0 -11.925637970053957 0.0062448850911004938 0 0 0 0 -221.52342794032302 164.0903267343374 0 164.0903267343374 730.48294123042615 0 0 0 0 36.990185844668304 79.854242164768294 0 79.854242164768294 161.19338654064495 0 0 0 0 -98.304159519255336 80.742666390940357 0 80.742666390940357 450.41648615174665 0 0 0 0 20.070440767325636 135.73788128969818 0 135.73788128969818 286.60774017846103 0 0 0 0 -169.08131190953281 6.7326211587725879 0 6.7326211587725879 192.25939810173156 0 0 0 0 -146.61637682015498 -7.4997923435219036 0 -7.4997923435219036 -89.731791495657035 0 0 0 0 19.976034227947821 -72.73345703082714 0 -72.73345703082714 76.115980079095095 0 0 0 0 -3.1073680705994491 -2.640704188934043 0 -2.640704188934043 1.1182733892093257 0 0 0 0 -190.44793206902978 155.54247858052514 0 155.54247858052514 343.82972877219458 0 0 0 0 -311.72307959343743 -146.15895807827894 0 -146.15895807827894 549.53643832351122 0 0 0 0 -95.309497885146186 -21.432389496098065 0 -21.432389496098065 0.63630510593587308 0 0 0 0 -544.77914241609687 -118.67691700242494 0 -118.67691700242494 1929.8810070640475 0 0 0 0 -80.076485676028824 -48.457741290755223 0 -48.457741290755223 613.01962900957506 0 0 0 0 -78.922185738752916 -24.642193609175166 0 -24.642193609175166 -0.87567666756011464 0 0 0 0 -906.09792532296706 -891.33842497589285 0 -891.33842497589285 1092.4502244479772 0 0 0 0 176.9667300608271 -149.32619679009969 0 -149.32619679009969 160.55570469877907 0 0 0 0 -8.9306683437389438 84.756122164640857 0 84.756122164640857 131.3798509817675 0 0 0 0 -46.936117134100641 -121.69245403297759 0 -121.69245403297759 36.179586669960031 0 0 0 0 -73.199235273054455 -8.8630529356754852 0 -8.8630529356754852 -0.04226956528976647 0 0 0 0 -40.231747487570829 29.023461271085125 0 29.023461271085125 235.32786816938437 0 0 0 0 -58.440177124044567 7.6853596016782149 0 7.6853596016782149 321.40932113439158 0 0 0 0 -44.311368839786155 57.557102035190496 0 57.557102035190496 195.3581907099117 0 0 0 0 -21.816788845360861 -7.5879767906528741 0 -7.5879767906528741 240.9747903129886 0 0 0 0 -67.35994236721308 69.861582400187672 0 69.861582400187672 232.10888158445641 0 0 0 0 -72.249476467113709 117.35740908475873 0 117.35740908475873 223.90203624374089 0 0 0 0 -54.032234580081422 49.678851087500789 0 49.678851087500789 215.25053644276613 0 0 0 0 -22.693831210452572 83.045959127062417 0 83.045959127062417 57.339981275858236 0 0 0 0 -58.839087250185884 -7.7349086447970432 0 -7.7349086447970432 0.16339125254993411 0 0 0 0 5.967753336437454 4.1923428258942295 0 4.1923428258942295 -134.99503289421853 0 0 0 0 -124.88303799355708 112.85882379605113 0 112.85882379605113 104.77485146309164 0 0 0 0 -22.611712591714038 -15.007131851084409 0 -15.007131851084409 -8.1788678557800516 0 0 0 0 103.78474251674197 -58.317226648852539 0 -58.317226648852539 -49.414996291216482 0 0 0 0 90.078104156535119 -4.3073373837064679 0 -4.3073373837064679 -208.24677289490512 0 0 0 0 51.96877296770981 151.30470232670592 0 151.30470232670592 54.492889944353578 0 0 0 0 44.818375770742932 217.58680486996795 0 217.58680486996795 -331.82571367208175 0 0 0 0 -58.062151210469892 150.99091708966171 0 150.99091708966171 162.09975302375523 0 0 0 0 32.312984834279632 82.727761747803243 0 82.727761747803243 176.33342270364165 0 0 0 0 -15.074664566840511 156.09917524227387 0 156.09917524227387 72.950009208399479 0 0 0 0 -76.677416393737076 265.02956456470758 0 265.02956456470758 101.69383872930402 0 0 0 0 -748.17147776501952 417.8517034843166 0 417.8517034843166 -226.59037074235354 0 0 0 0 -11.185434395811484 -4.1677560698108849 0 -4.1677560698108849 -0.2208873748565009 0 0 0 0 -133.46817347879551 -1147.9149231885624 0 -1147.9149231885624 464.05238508374578 0 0 0 0 -246.90676916288066 449.30571659826251 0 449.30571659826251 139.73691327097836 0 0 0 0 -4806.5942035507614 -1223.6170263836952 0 -1223.6170263836952 479.31954646505574 0 0 0 0 -5489.8322867958304 -488.48575130267449 0 -488.48575130267449 248.41267271987684 0 0 0 0 -1643.0192865014542 -889.29295496631767 0 -889.29295496631767 -510.61415788151163 0 0 0 0 -6.5528319720154684 -6.8361923787646175 0 -6.8361923787646175 -3.9058973960642298 0 0 0 0 -2774.8521228621394 -955.28513106723756 0 -955.28513106723756 -133.78250507406261 0 0 0 0 -4809.7444198310332 511.0416853493428 0 511.0416853493428 455.56924140729456 0 0 0 0 -2281.6160863374535 1091.4353096208667 0 1091.4353096208667 249.65096454231326 0 0 0 0 -32.30250905320645 -328.29307361990158 0 -328.29307361990158 440.60993433105233 0 0 0 0 -12.684407560154739 -6.2065521536153767 0 -6.2065521536153767 -2.5282940686668525 0 0 0 0 -5498.8980967558309 1877.4831227015472 0 1877.4831227015472 141.66614478047521 0 0 0 0 -244.04362559043511 57.011528090704971 0 57.011528090704971 111.79861311719191 0 0 0 0 176.44698820450867 264.83724343587267 0 264.83724343587267 101.65586937815385 0 0 0 0 -31.765489202560474 -16.138161384794216 0 -16.138161384794216 -5.5907709104425081 0 0 0 0 -913.96698879457836 109.41357578398632 0 109.41357578398632 613.29455161648218 0 0 0 0 -5404.4663230757287 -1586.7360117782778 0 -1586.7360117782778 166.0389532167415 0 0 0 0 -3022.4114350990858 1948.3357207364352 0 1948.3357207364352 -275.59491342137903 0 0 0 0 -5491.7641229947512 295.02808810521134 0 295.02808810521134 1173.0562872694295 0 0 0 0 -1559.4724377842504 -405.13713468510599 0 -405.13713468510599 415.89724997007136 0 0 0 0 -1038.4006104050713 597.13555824436139 0 597.13555824436139 58.425915700077795 0 0 0 0 255.10651443768438 -250.33809327332574 0 -250.33809327332574 -612.205038198681 0 0 0 0 352.83493115567126 17.635407621356876 0 17.635407621356876 -139.52102083954378 0 0 0 0 -583.21314109773812 -351.34020052742312 0 -351.34020052742312 213.42349978628909 0 0 0 0 -125.857631198327 1037.8285674400113 0 1037.8285674400113 -930.6001964359474 0 0 0 0 -5471.7328391096462 -172.44086956192987 0 -172.44086956192987 387.21361156135583 0 0 0 0 -9.9967702440111594 5.9521007765335305 0 5.9521007765335305 -5.1863309293080846 0 0 0 0 -14.649888318727861 1.1258219708084951 0 1.1258219708084951 -2.5009813580915137 0 0 0 0 -91.711635966043104 179.06129697869426 0 179.06129697869426 -390.27395003238507 0 0 0 0 -1613.258820595529 -1095.533439449968 0 -1095.533439449968 -773.9095783932363 0 0 0 0 -5497.9527824616143 1120.7768621004932 0 1120.7768621004932 763.99404953027135 0 0 0 0 -5484.6053715186954 1123.9808532771865 0 1123.9808532771865 762.06461954517818 0 0 0 0 -144.63390913241892 125.18525865331503 0 125.18525865331503 289.33135211643366 0 0 0 0 -124.65866296101012 106.08395704239774 0 106.08395704239774 270.22895949713302 0 0 0 0 -114.16861643935954 151.15216879941221 0 151.15216879941221 304.69464724562999 0 0 0 0 -118.20118288709637 128.77671947929022 0 128.77671947929022 244.61460051022459 0 0 0 0 -53.071759515834856 203.77617664563286 0 203.77617664563286 255.03067288646707 0 0 0 0 -206.86971879468183 298.7746246809283 0 298.7746246809283 439.73025327482725 0 0 0 0 -204.20879856566899 127.91155687541232 0 127.91155687541232 536.64205875661855 0 0 0 0 -27.209160370144915 -0.6554852780176148 0 -0.6554852780176148 -0.85425559745801705 0 0 0 0 -36.67763635153824 -119.6737950813523 0 -119.6737950813523 420.04822764114459 0 0 0 0 -73.121288283509784 21.132472541896732 0 21.132472541896732 17.47913663572217 0 0 0 0 -9.5805695312446915 18.353074620466487 0 18.353074620466487 21.740827079633618 0 0 0 0 -63.050451375282137 -35.183234328928847 0 -35.183234328928847 100.82796951294029 0 0 0 0 -104.44189836676014 11.082686229408637 0 11.082686229408637 461.922523528282 0 0 0 0 -45.552026770548693 25.977003047846935 0 25.977003047846935 0.69641416758504426 0 0 0 0 -52.841875320695181 -139.10527051855775 0 -139.10527051855775 133.83831183101847 0 0 0 0 -29.100090076518086 10.878872339303305 0 10.878872339303305 -4.6070319089150082 0 0 0 0 -61.195916820778166 31.72251692135292 0 31.72251692135292 3.9609119333774743 0 0 0 0 -46.418358945898945 -27.133992403344109 0 -27.133992403344109 -36.652636214748782 0 0 0 0 -23.11231472361176 11.926695436249418 0 11.926695436249418 -6.4834940494179083 0 0 0 0 -11.277946173452264 8.9560912979743605 0 8.9560912979743605 -3.9371017576003196 0 0 0 0 -161.10450824918371 538.53285614074616 0 538.53285614074616 365.99654659044262 0 0 0 0 -279.35667915394151 55.576217800679387 0 55.576217800679387 50.46395052929438 0 0 0 0 -0.63905586740054332 -1.3609127461716 0 -1.3609127461716 0.10851586968722593 0 0 0 0 702.75798537766059 -0.85225291433039274 0 -0.85225291433039274 -141.66652225261896 0 0 0 0 -116.88031494126335 166.03780303378426 0 166.03780303378426 231.55091808937141 0 0 0 0 346.30078275340929 49.788629721535017 0 49.788629721535017 255.90632490150438 0 0 0 0 113.29066124818928 -9.3111384480412198 0 -9.3111384480412198 2.3873195593014316 0 0 0 0 -3.8394973667109298 -86.896722656639554 0 -86.896722656639554 203.39066728971193 0 0 0 0 43.769130633052555 5.8560477778613063 0 5.8560477778613063 -18.40310587402243 0 0 0 0 -78.741165286257583 9.9921759575369293 0 9.9921759575369293 3.641817018639514 0 0 0 0 -140.24690876406748 180.95732207138167 0 180.95732207138167 36.367226879302962 0 0 0 0 -15.353486716534022 7.8329520797108056 0 7.8329520797108056 -0.74004585273325219 0 0 0 0 4.5789670648141509 13.838505106517312 0 13.838505106517312 -3.6510704207485998 0 0 0 0 -107.64575734159735 -22.525438721753403 0 -22.525438721753403 132.70786555634186 0 0 0 0 -136.77366631562472 93.242444510241057 0 93.242444510241057 286.12778796550811 0 0 0 0 -243.8948251195834 37.877300860956666 0 37.877300860956666 269.05382178978289 0 0 0 0 -43.578575996754807 33.502976117894605 0 33.502976117894605 180.6029838939503 0 0 0 0 -43.501858122588601 105.01127146821887 0 105.01127146821887 262.11368581567444 0 0 0 0 -13.51149176290906 -6.7340438776281886 0 -6.7340438776281886 7.0285448282516487 0 0 0 0 -77.360571322844407 65.436898394913783 0 65.436898394913783 234.5516841963281 0 0 0 0 -80.578604521026136 51.415845701322951 0 51.415845701322951 234.81230660138618 0 0 0 0 -79.582856303197332 66.828769423907943 0 66.828769423907943 235.27574485809396 0 0 0 0 -110.36645786388544 94.233816953239966 0 94.233816953239966 236.18160164971263 0 0 0 0 -54.25441445352044 89.244741985368194 0 89.244741985368194 236.44612312981917 0 0 0 0 -104.27016605535755 108.59613140277452 0 108.59613140277452 269.44792551705018 0 0 0 0 -149.27047381238299 55.469511450438006 0 55.469511450438006 253.40059446650093 0 0 0 0 -84.450221821607556 65.962086434084881 0 65.962086434084881 255.05080955359199 0 0 0 0 -55.126170060409734 7.1711636945319519 0 7.1711636945319519 -0.13328826987113473 0 0 0 0 -382.29571604655939 -4.2029646094888449 0 -4.2029646094888449 -18.035762670799286 0 0 0 0 -66.89845553424675 20.171844565008769 0 20.171844565008769 175.89699415095538 0 0 0 0 -29.226600222151319 60.554929958389607 0 60.554929958389607 172.85119771984728 0 0 0 0 -56.495190458350407 96.383151631246506 0 96.383151631246506 238.76769198352281 0 0 0 0 -1.1788149967085175 -6.367886640809779 0 -6.367886640809779 -13.622059417881831 0 0 0 0 -943.91485578468337 71.452952589719587 0 71.452952589719587 49.331399572547525 0 0 0 0 -223.35615231143697 -1039.7078752365935 0 -1039.7078752365935 -55.944203763882797 0 0 0 0 -182.92664210939984 -84.542420735431733 0 -84.542420735431733 -702.82682746367959 0 0 0 0 -67.631787520360376 1260.4703176543553 0 1260.4703176543553 -678.87301795530311 0 0 0 0 -833.85350890210248 -342.71518542652393 0 -342.71518542652393 -29.560226313968997 0 0 0 0 -0.91105083775283191 -1.1041723172218454 0 -1.1041723172218454 -2.2407362809759057 0 0 0 0 -544.63381467921135 -90.648200336102946 0 -90.648200336102946 -0.093717138561714819 0 0 0 0 -440.61051733426484 109.26117630486056 0 109.26117630486056 -37.236354256763661 0 0 0 0 0.50823972560218067 3.7230590987528132 0 3.7230590987528132 -10.348179776390394 0 0 0 0 -14.286842698775217 -38.894377114571625 0 -38.894377114571625 -93.719532128475294 0 0 0 0 25.934632336009599 31.574170855978878 0 31.574170855978878 -75.123765976748473 0 0 0 0 -75.893739381968771 -13.803045178496632 0 -13.803045178496632 -1.038467628588478 0 0 0 0 -486.89628995496241 -62.373301031299434 0 -62.373301031299434 14.134568358957495 0 0 0 0 -157.96734909882434 -140.21611802416544 0 -140.21611802416544 -117.46851820353368 0 0 0 0 -187.16493248835104 5.0982707648706764 0 5.0982707648706764 -51.535259986902929 0 0 0 0 -211.00472559268746 99.64882949288085 0 99.64882949288085 -208.63376515589243 0 0 0 0 -23.642923636650178 -16.48970423959522 0 -16.48970423959522 -33.179635193980133 0 0 0 0 -60.992133165636005 885.08134581440231 0 885.08134581440231 138.80648514743007 0 0 0 0 -21.582014001486428 -9.396994412271205 0 -9.396994412271205 4.7658546272341766 0 0 0 0 -103.21904554911816 -17.890653031816328 0 -17.890653031816328 237.22094737753309 0 0 0 0 -104.9092174489233 -88.133989524819299 0 -88.133989524819299 133.82702043942936 0 0 0 0 98.772690589092235 -77.957071284448375 0 -77.957071284448375 76.929811883600905 0 0 0 0 158.57548676811712 -225.18881880461095 0 -225.18881880461095 -245.68543158437478 0 0 0 0 112.00996437272261 -366.39535621437972 0 -366.39535621437972 -338.81190319277039 0 0 0 0 129.38517767558551 -305.25972477790629 0 -305.25972477790629 -129.81473628221102 0 0 0 0 617.41586184463813 -6.5199246960501114 0 -6.5199246960501114 -256.66867012304704 0 0 0 0 -33.797659004256474 0.79096759445890186 0 0.79096759445890186 0.46734834719127571 0 0 0 0 -17.84220421328007 -2.7817583297147133 0 -2.7817583297147133 1.643292597697948 0 0 0 0 -172.89514134894853 -336.75111812339583 0 -336.75111812339583 350.82424667611377 0 0 0 0 30.385493943900656 20.426398709199361 0 20.426398709199361 124.79228166254825 0 0 0 0 -77.877228176344943 -152.46474304396224 0 -152.46474304396224 -41.055966978034121 0 0 0 0 -70.573126173963828 22.289317203841733 0 22.289317203841733 232.0723902585143 0 0 0 0 1518.9169572051032 105.61463046306017 0 105.61463046306017 -756.99422287895936 0 0 0 0 -309.24044665856491 -501.89448371987345 0 -501.89448371987345 -677.26713862872248 0 0 0 0 -951.05767890089191 -160.5746513661843 0 -160.5746513661843 -244.61502816286225 0 0 0 0 -6.6499290710483479 -3.7401989303122019 0 -3.7401989303122019 0.85423967062633033 0 0 0 0 -66.77977766400636 -126.3643829588994 0 -126.3643829588994 -248.42168199326807 0 0 0 0 -446.97491748505854 -234.86085529184538 0 -234.86085529184538 175.517156812346 0 0 0 0 -99.761364338000931 -317.42798613592845 0 -317.42798613592845 -226.16615287847162 0 0 0 0 -92.236499763574102 -263.22102425417688 0 -263.22102425417688 -102.76123427331004 0 0 0 0 -706.0463222937542 -334.14986952396248 0 -334.14986952396248 -8.2464524843271647 0 0 0 0 -384.46302355813532 20.13015408159481 0 20.13015408159481 252.23512205471525 0 0 0 0 -11.535660231819605 -1.5930204942940467 0 -1.5930204942940467 0.23756392754333455 0 0 0 0 -912.04781269891464 -114.52280918976396 0 -114.52280918976396 -140.82915949432618 0 0 0 0 -1719.5866579422145 -470.58127984389012 0 -470.58127984389012 -674.15637548764153 0 0 0 0 -625.402887551194 -286.92776465016027 0 -286.92776465016027 -231.97813953709237 0 0 0 0 -553.82432621980843 -212.14018498061478 0 -212.14018498061478 -907.22330351980031 0 0 0 0 -593.46317451113646 -2.8191042002105746 0 -2.8191042002105746 -88.181725585729964 0 0 0 0 -734.22239874684419 -261.75694421763109 0 -261.75694421763109 342.61919136458164 0 0 0 0 -735.0452118689409 -318.69929292159236 0 -318.69929292159236 703.32458383731682 0 0 0 0 -763.36457662584144 -570.24364983377018 0 -570.24364983377018 446.88789466633534 0 0 0 0 -642.29219053794077 -465.53591194467117 0 -465.53591194467117 272.10573897196628 0 0 0 0 -2255.9231430973846 1156.7336015354476 0 1156.7336015354476 348.41419290317754 0 0 0 0 -1722.1206323320075 -1164.228922668728 0 -1164.228922668728 -176.95266804141284 0 0 0 0 -561.63874529695568 -583.154688933118 0 -583.154688933118 -138.4745612203551 0 0 0 0 -281.59569589371313 -242.98313525383628 0 -242.98313525383628 269.99068329616512 0 0 0 0 -112.21643646318262 -113.67580041928341 0 -113.67580041928341 140.27282143789125 0 0 0 0 -49.680409252370566 -29.217021005146464 0 -29.217021005146464 12.528925782441974 0 0 0 0 24.914656401138927 -79.606282608232505 0 -79.606282608232505 -186.80667070276422 0 0 0 0 -237.27773551298014 -696.09509746170306 0 -696.09509746170306 -1013.5529245765247 0 0 0 0 -17.798577400013983 -7.351390950380285 0 -7.351390950380285 -4.0985203654298417 0 0 0 0 -856.56900466268416 1241.0087612768111 0 1241.0087612768111 -1438.2542504564899 0 0 0 0 -1204.2923592705883 1416.0304335836215 0 1416.0304335836215 229.69442896410874 0 0 0 0 -1600.6569346648248 239.23534763500083 0 239.23534763500083 237.96422187553617 0 0 0 0 -664.59645186758644 720.47893368419227 0 720.47893368419227 -57.063962516987885 0 0 0 0 -28.9181312312746 0.37980224907854776 0 0.37980224907854776 8.0717543905041538 0 0 0 0 -901.17366509504973 533.47479392746368 0 533.47479392746368 375.51792699297403 0 0 0 0 -241.09772370578503 286.72971241801224 0 286.72971241801224 -833.62364250076371 0 0 0 0 -841.42477062901162 497.22328346708014 0 497.22328346708014 -959.86549434035624 0 0 0 0 78.200037014146801 -114.7256393756611 0 -114.7256393756611 -42.051600891529461 0 0 0 0 -87.477702042172126 -48.254522494295955 0 -48.254522494295955 26.255331243076697 0 0 0 0 -598.7356362620576 -329.35991584366701 0 -329.35991584366701 80.207047237408915 0 0 0 0 -190.60972185526771 77.844301264718524 0 77.844301264718524 -36.890236765750615 0 0 0 0 -108.45920983088581 120.06879613971546 0 120.06879613971546 -56.145879888919808 0 0 0 0 -277.36515386409155 -469.81202106062165 0 -469.81202106062165 414.38219736362942 0 0 0 0 56.972880322326091 -261.9388795350244 0 -261.9388795350244 -146.16184123078529 0 0 0 0 -208.53773270280362 -121.1091389415451 0 -121.1091389415451 46.972976813028708 0 0 0 0 -84.528621431166442 -72.389938660071337 0 -72.389938660071337 1.3180856256888909 0 0 0 0 -180.99074592221223 -168.81181001781385 0 -168.81181001781385 -442.44559464538088 0 0 0 0 -718.74591246775526 -232.90246817311709 0 -232.90246817311709 -37.784862104426793 0 0 0 0 -415.15627252964441 157.14101831612834 0 157.14101831612834 -198.09256371077845 0 0 0 0 -180.56152683027176 66.054430620244375 0 66.054430620244375 -191.43066162327705 0 0 0 0 -649.83241845617886 -143.13747418481853 0 -143.13747418481853 -136.22932308371242 0 0 0 0 -366.29251078966263 -373.29818757869748 0 -373.29818757869748 -399.74848350447519 0 0 0 0 -296.14251448902542 -235.66951582886418 0 -235.66951582886418 -253.89938530910786 0 0 0 0 -16.505829086036641 11.666916993215004 0 11.666916993215004 1.2865461954171931 0 0 0 0 -147.99604069736597 -210.9130538647205 0 -210.9130538647205 -539.40875047088366 0 0 0 0 -667.59608528085914 102.01455586599866 0 102.01455586599866 -3.3351866216262351 0 0 0 0 -420.98575762433029 -168.84109912445183 0 -168.84109912445183 -30.059808587727161 0 0 0 0 -58.000351328519727 43.864618072177649 0 43.864618072177649 -4.8871983025377794 0 0 0 0 -357.69447583244619 102.71905610895811 0 102.71905610895811 -37.143540442358244 0 0 0 0 -243.04005879584292 -53.383334329013451 0 -53.383334329013451 -3.3234161213163134 0 0 0 0 -332.73052840110358 -94.689092489812992 0 -94.689092489812992 26.929588419117863 0 0 0 0 -310.68680918992868 -212.14154346782107 0 -212.14154346782107 -13.660102745334825 0 0 0 0 -94.238600451553523 -72.725840535705231 0 -72.725840535705231 -13.145432760731108 0 0 0 0 -266.72173802562156 -1971.4866186184556 0 -1971.4866186184556 -995.86179155589707 0 0 0 0 -187.17445225013944 68.176809022163752 0 68.176809022163752 -56.172543944748213 0 0 0 0 -71.626641597238006 43.795046675974234 0 43.795046675974234 -16.230910813223744 0 0 0 0 -263.10424700385647 -28.308912020583648 0 -28.308912020583648 13.718582404008885 0 0 0 0 -217.63947797536821 -42.655480279725452 0 -42.655480279725452 13.249904575313849 0 0 0 0 -92.765088426556758 -96.688386385638751 0 -96.688386385638751 -44.756512238756841 0 0 0 0 -217.32396733182395 -44.954872229970533 0 -44.954872229970533 1.310124984626782 0 0 0 0 -167.26545508328854 -11.976797677189097 0 -11.976797677189097 -21.294957191739741 0 0 0 0 -147.78721631184453 -69.744880054285659 0 -69.744880054285659 1.6312949666466565 0 0 0 0 -133.88345116509572 -39.321854683481433 0 -39.321854683481433 17.106344740405802 0 0 0 0 -98.156379407854388 -20.472583695990281 0 -20.472583695990281 -4.5198194661511844 0 0 0 0 -215.17556551694361 -42.322662709973883 0 -42.322662709973883 -12.670513341249716 0 0 0 0 -230.52404924633811 -30.866511831278785 0 -30.866511831278785 4.0907162961352697 0 0 0 0 -200.37634664166762 -20.088510955249149 0 -20.088510955249149 -5.5723853098925247 0 0 0 0 -236.14276268526737 -19.039722356952325 0 -19.039722356952325 -64.234160974291626 0 0 0 0 -100.86514671034799 -23.296805296847339 0 -23.296805296847339 -0.72780681153459259 0 0 0 0 -185.10671974316756 -78.305057382905488 0 -78.305057382905488 -30.270990664242163 0 0 0 0 -22.733995885542118 -3.6292648213448864 0 -3.6292648213448864 2.0587474957875678 0 0 0 0 -68.074428891967727 -60.278113701076563 0 -60.278113701076563 -366.50883303699175 0 0 0 0 -218.64129200095368 -259.33849700894666 0 -259.33849700894666 -93.638198746842136 0 0 0 0 -221.8451168976444 -175.38680766172843 0 -175.38680766172843 -208.70188235335308 0 0 0 0 -192.83735628727663 -157.67066113879582 0 -157.67066113879582 -237.50193379820303 0 0 0 0 -269.13567728655835 -159.83475368978816 0 -159.83475368978816 -20.38447204599197 0 0 0 0 -206.78696413445141 -108.44609185724994 0 -108.44609185724994 21.719106424017809 0 0 0 0 -177.73556309450578 -44.459683971309914 0 -44.459683971309914 -79.652661001479828 0 0 0 0 -163.0019854803395 -0.86343942128939943 0 -0.86343942128939943 -40.003101914971012 0 0 0 0 -156.97067417034668 -2.2448748494493884 0 -2.2448748494493884 -29.898393032288141 0 0 0 0 -169.73276704618229 -18.730484564378798 0 -18.730484564378798 -16.565295764078655 0 0 0 0 -97.772380578971934 67.916188360433807 0 67.916188360433807 52.55124365476172 0 0 0 0 -324.37050766020184 -103.0527415271622 0 -103.0527415271622 209.9161700493496 0 0 0 0 -343.51795028774632 -110.91925793510313 0 -110.91925793510313 207.79001735267866 0 0 0 0 -4743.8288907510323 -1131.6261294666717 0 -1131.6261294666717 -278.62005422742232 0 0 0 0 -18.91120287246865 28.543327850130517 0 28.543327850130517 -14.492466969537983 0 0 0 0 -29.917478678917178 219.67167019404769 0 219.67167019404769 282.13467455971204 0 0 0 0 -5496.5774836621704 -879.46362759577619 0 -879.46362759577619 535.92082014638731 0 0 0 0 -3507.7212314469325 -496.42058310944276 0 -496.42058310944276 445.15459913795974 0 0 0 0 -4457.4233646100183 1584.2707967315985 0 1584.2707967315985 -458.66780632863555 0 0 0 0 -5502.0226525393809 266.29414417008832 0 266.29414417008832 -972.68177428917215 0 0 0 0 -5558.6113268798545 359.2371116169345 0 359.2371116169345 461.89907486533343 0 0 0 0 -2496.8061145536803 980.89002212799346 0 980.89002212799346 -513.03988255376817 0 0 0 0 -36.206560955056936 34.177162391527759 0 34.177162391527759 -15.345670680119659 0 0 0 0 -29.319037709807162 -27.240281952314263 0 -27.240281952314263 -37.624482531332433 0 0 0 0 476.94988193187055 394.88870022101173 0 394.88870022101173 -769.21628128125747 0 0 0 0 -18.273616560735832 6.1186586827680358 0 6.1186586827680358 -14.782476908264902 0 0 0 0 -758.9749041021023 -1134.5446163545687 0 -1134.5446163545687 -240.65056880488052 0 0 0 0 -3354.2764757766672 -1113.6847819174964 0 -1113.6847819174964 196.86283870718628 0 0 0 0 -23.948583570165162 3.6751329375805444 0 3.6751329375805444 -4.9522526445845054 0 0 0 0 -5466.9975143395786 851.28763043122763 0 851.28763043122763 132.37509627453704 0 0 0 0 -106.140181210425 -146.2314293732245 0 -146.2314293732245 69.499560308199761 0 0 0 0 -99.239155737635883 -148.43735883584441 0 -148.43735883584441 -240.90549138922779 0 0 0 0 -800.34972524538898 313.17828084046005 0 313.17828084046005 23.958810096440629 0 0 0 0 -850.02737383447675 -110.17934475601487 0 -110.17934475601487 -109.35379156130165 0 0 0 0 -879.00868527566126 198.36036994849997 0 198.36036994849997 -95.364300696425744 0 0 0 0 -233.62732161048916 136.46228385829636 0 136.46228385829636 -161.81311728943615 0 0 0 0 -36.118939679974574 16.213026081826683 0 16.213026081826683 -137.30800576648744 0 0 0 0 -158.76880020287354 -38.44024367924203 0 -38.44024367924203 77.499424125184305 0 0 0 0 -87.189755349315931 -31.073252315829034 0 -31.073252315829034 -11.703550944189578 0 0 0 0 -15.245120726631285 -54.670929429173611 0 -54.670929429173611 -17.98840390987607 0 0 0 0 -96.35861915962596 45.241266978190652 0 45.241266978190652 48.688178669121044 0 0 0 0 -127.75977083705448 42.410704137405858 0 42.410704137405858 104.1517477516486 0 0 0 0 -64.014366165630207 -28.837801452238931 0 -28.837801452238931 -10.654719785021518 0 0 0 0 -138.25081900336227 -53.230969175332348 0 -53.230969175332348 369.62365736020251 0 0 0 0 -97.577460442778829 171.23601050743446 0 171.23601050743446 197.2011889181511 0 0 0 0 56.273972332131962 227.53497373997106 0 227.53497373997106 -57.635058128996775 0 0 0 0 -225.76443312507035 207.62105020835435 0 207.62105020835435 199.27534553442183 0 0 0 0 -178.53772962014045 -24.607186972168165 0 -24.607186972168165 48.236747187379365 0 0 0 0 -264.87234869927124 11.670047185461428 0 11.670047185461428 218.14261372515102 0 0 0 0 -339.72715093215811 268.15683384351985 0 268.15683384351985 11.402407116024733 0 0 0 0 -139.64574882998113 -274.03011652092715 0 -274.03011652092715 762.97527978203516 0 0 0 0 -107.82806249288842 53.841103965683146 0 53.841103965683146 219.51953340006878 0 0 0 0 -46.895982688746955 -17.612844539265488 0 -17.612844539265488 -3.7695157041367819 0 0 0 0 -863.33370558011666 62.129410531084091 0 62.129410531084091 142.92030712078292 0 0 0 0 117.78439585698652 206.01647846680771 0 206.01647846680771 151.36591432405811 0 0 0 0 -270.75570115134587 -180.28035152044819 0 -180.28035152044819 -61.021696619907971 0 0 0 0 1153.4083428201848 2280.5402214495789 0 2280.5402214495789 101.41349313441424 0 0 0 0 -312.93195664442828 -996.61987800877 0 -996.61987800877 1022.3164977621898 0 0 0 0 -1326.3724107632734 -160.96084823468891 0 -160.96084823468891 565.2666985110377 0 0 0 0 -1483.0439949387364 194.2426286289126 0 194.2426286289126 -235.97409191250165 0 0 0 0 -5645.5538655696 231.05053421038951 0 231.05053421038951 1564.8350706423389 0 0 0 0 -1231.7346608977386 360.5750702605053 0 360.5750702605053 -372.22059244779803 0 0 0 0 -166.02344111266575 171.66505489756878 0 171.66505489756878 -617.66020195715021 0 0 0 0 404.78375533506187 1608.1267433580747 0 1608.1267433580747 874.68757205633415 0 0 0 0 1.2367856397031574 -5.7841045029466898 0 -5.7841045029466898 14.986856193462085 0 0 0 0 -1574.7005957137844 -8.9321913722752697 0 -8.9321913722752697 -31.824287624804128 0 0 0 0 -1381.6759659840027 674.3324164867189 0 674.3324164867189 -866.30311591584916 0 0 0 0 -859.38757352287394 80.272161351561863 0 80.272161351561863 -222.57794245361129 0 0 0 0 -17.37121418261836 -6.0703831592084967 0 -6.0703831592084967 -1.0434153292516477 0 0 0 0 -281.38591873288533 -304.30213121151712 0 -304.30213121151712 -134.83902442218687 0 0 0 0 -339.78185157501866 -145.00488168779975 0 -145.00488168779975 -516.62490578675931 0 0 0 0 -247.16523084663277 -313.17996517235423 0 -313.17996517235423 -361.24938101530552 0 0 0 0 -552.95850590649934 -390.08468976083452 0 -390.08468976083452 -49.68051575053488 0 0 0 0 65.54928005446709 -338.65813341419471 0 -338.65813341419471 212.25039517134701 0 0 0 0 -238.81975030578906 -136.40731405914812 0 -136.40731405914812 77.984449525155924 0 0 0 0 -483.37919860197144 -273.15145246336169 0 -273.15145246336169 243.17968493540957 0 0 0 0 -294.93144496623609 -356.65160697691636 0 -356.65160697691636 -107.91483173908773 0 0 0 0 -414.41180552924197 -92.799273995163276 0 -92.799273995163276 246.78545212256449 0 0 0 0 23.79920444975869 171.25276889129373 0 171.25276889129373 459.85559737302447 0 0 0 0 -383.04174748430523 -252.85990030753555 0 -252.85990030753555 545.56559799643765 0 0 0 0 13.684206814388091 -23.353038385757671 0 -23.353038385757671 45.577008517183401 0 0 0 0 -295.534007934908 -200.16042812146452 0 -200.16042812146452 148.17453790628133 0 0 0 0 -225.09328699644539 -34.122922286547691 0 -34.122922286547691 -74.045962350316131 0 0 0 0 -410.08594816579716 -190.76555641453797 0 -190.76555641453797 4.8902671595737957 0 0 0 0 -968.13710608362453 -287.80328033545038 0 -287.80328033545038 69.351546366636285 0 0 0 0 -1054.9496248006544 257.43165036384062 0 257.43165036384062 -44.139358857348725 0 0 0 0 -652.23294619283115 96.507446379682278 0 96.507446379682278 -16.304773614263468 0 0 0 0 -781.69555739880161 -125.82236297792861 0 -125.82236297792861 176.01521802750722 0 0 0 0 -454.82112304372276 -171.84298464889889 0 -171.84298464889889 409.78538028480034 0 0 0 0 -433.6229824074162 -139.31185841438264 0 -139.31185841438264 58.401018309701612 0 0 0 0 -87.626913325031637 -120.8984215103668 0 -120.8984215103668 147.0499758220576 0 0 0 0 6.9155672438804174 -53.373949442443333 0 -53.373949442443333 84.420939024039114 0 0 0 0 -61.161288486619014 4.5678025414017611 0 4.5678025414017611 122.11087893751869 0 0 0 0 -68.526608861684508 -38.933362908165691 0 -38.933362908165691 24.521961779235426 0 0 0 0 2.215788868474192 -151.0216110234087 0 -151.0216110234087 23.01060569222463 0 0 0 0 -38.391832388197145 -227.37456723525179 0 -227.37456723525179 197.46103459999358 0 0 0 0 -219.81045112129505 -325.03709025267017 0 -325.03709025267017 208.59028505164042 0 0 0 0 -138.02271424198878 8.779805274226085 0 8.779805274226085 56.11622800247207 0 0 0 0 139.74490834009339 614.59472697449382 0 614.59472697449382 -166.73975055497067 0 0 0 0 -768.45989824548087 -129.7642992084975 0 -129.7642992084975 193.98990958560353 0 0 0 0 -862.50926880593761 934.86937660969124 0 934.86937660969124 -250.18981578334342 0 0 0 0 -209.46291653339722 356.01286583121077 0 356.01286583121077 -583.33701138229071 0 0 0 0 -15.916866418159316 -10.666257524102207 0 -10.666257524102207 -443.86565748528301 0 0 0 0 -453.52635017089233 128.84372722551234 0 128.84372722551234 -351.28374937830176 0 0 0 0 -463.13371250142245 144.99409259105013 0 144.99409259105013 -149.19120141327721 0 0 0 0 -1004.9896503754571 424.60715373018417 0 424.60715373018417 -269.08707194715993 0 0 0 0 -3.798880687611927 -6.9672856443284772 0 -6.9672856443284772 -4.2052015775888592 0 0 0 0 -993.39783889516184 135.21139811822809 0 135.21139811822809 249.44970130637694 0 0 0 0 -550.22873916260869 42.459736105670032 0 42.459736105670032 -202.53506737598673 0 0 0 0 -148.16383668011883 12.69807212440328 0 12.69807212440328 47.767740825640004 0 0 0 0 -670.91840114985098 -158.24655513041398 0 -158.24655513041398 223.09590385387764 0 0 0 0 -270.48470364412515 -208.36483639672042 0 -208.36483639672042 -85.365169660029096 0 0 0 0 -146.4801363217654 11.684377219733946 0 11.684377219733946 46.247482805003813 0 0 0 0 -473.6865229394507 -3.2509838717787147 0 -3.2509838717787147 -283.0773518590089 0 0 0 0 -353.7305553132087 48.651383905042167 0 48.651383905042167 -288.90440629739294 0 0 0 0 -731.06160921473042 128.71084909832257 0 128.71084909832257 -208.42741055843874 0 0 0 0 -476.84920600047246 -34.10892828258784 0 -34.10892828258784 -104.19910664427152 0 0 0 0 -142.09060710252763 6.365136676427845 0 6.365136676427845 48.39263449131154 0 0 0 0 -33.40952262246595 -2.5159098115856082 0 -2.5159098115856082 -24.089533957019086 0 0 0 0 -147.23494716639834 -9.7792863105569268 0 -9.7792863105569268 -25.564415173712405 0 0 0 0 -473.52473645943974 -56.863808318737938 0 -56.863808318737938 -76.252604010338473 0 0 0 0 -190.97268725906906 37.888859615877209 0 37.888859615877209 7.0638493406077032 0 0 0 0 -400.31063383410401 -48.786979970217267 0 -48.786979970217267 257.61679433211373 0 0 0 0 -84.496104794510586 -9.966792100361241 0 -9.966792100361241 15.82549395960687 0 0 0 0 -138.40692666391988 34.293684275290616 0 34.293684275290616 -52.376676965017396 0 0 0 0 -628.66522008859101 -36.464396733700596 0 -36.464396733700596 -7.7614350415533409 0 0 0 0 -888.45890953985509 12.00662535533138 0 12.00662535533138 115.27007988946025 0 0 0 0 -215.8937883665858 33.028614647667609 0 33.028614647667609 -4.8701020086373319 0 0 0 0 -2.1392418291205431 -10.946279775618812 0 -10.946279775618812 -10.091688221928315 0 0 0 0 -109.96078884224698 35.132743862865937 0 35.132743862865937 -57.691646622695771 0 0 0 0 -151.61995975365789 23.774498287362803 0 23.774498287362803 -39.814721142543931 0 0 0 0 -3.4357322523901779 -4.9756159034613887 0 -4.9756159034613887 -2.2779764673080791 0 0 0 0 -752.03735036754506 60.884458026533252 0 60.884458026533252 -72.690727131270251 0 0 0 0 -1265.7496502043978 128.70492541298654 0 128.70492541298654 64.789452244882341 0 0 0 0 -137.07897077933376 -1.2914031338591485 0 -1.2914031338591485 -12.559753387715318 0 0 0 0 -34.037809974717675 5.4093622167456488 0 5.4093622167456488 -60.296603839964064 0 0 0 0 -38.554779007158054 19.934631658775018 0 19.934631658775018 -13.471610306446784 0 0 0 0 -95.553342187569797 -2.0116020828186265 0 -2.0116020828186265 -6.6331024609971792 0 0 0 0 -49.775570516438165 35.966431129128978 0 35.966431129128978 -50.172807367086534 0 0 0 0 -14.760358152427965 26.467674454394761 0 26.467674454394761 -15.867456590038692 0 0 0 0 -99.23763592621799 11.151704536494435 0 11.151704536494435 -12.852284322980267 0 0 0 0 -88.743031566640639 18.216847634188753 0 18.216847634188753 -18.75302109551285 0 0 0 0 -75.978436270776001 13.999312410661105 0 13.999312410661105 -20.353992738129818 0 0 0 0 -128.49352249578988 -2.0601173963118526 0 -2.0601173963118526 9.1503834435497993 0 0 0 0 -126.20481288966585 38.633088230798421 0 38.633088230798421 -25.924252319364314 0 0 0 0 -31.398677270927408 27.241286742209361 0 27.241286742209361 -15.687834002442415 0 0 0 0 -58.412067891164043 22.869919067818955 0 22.869919067818955 -12.266098905936815 0 0 0 0 -59.512006481632852 20.37870030502927 0 20.37870030502927 -17.882615885457199 0 0 0 0 -73.235011478183878 26.179143510898029 0 26.179143510898029 -10.799272975498752 0 0 0 0 -67.812349097346669 36.576231624480897 0 36.576231624480897 -19.927702441435031 0 0 0 0 -70.398777229478583 28.221432007927433 0 28.221432007927433 -9.4310590885279453 0 0 0 0 -71.134646091743889 29.29456971774016 0 29.29456971774016 -10.982784984040336 0 0 0 0 -53.186999144472793 27.589421951309305 0 27.589421951309305 -15.449918095748217 0 0 0 0 -63.895537402814625 66.530163249333327 0 66.530163249333327 -17.853044306611991 0 0 0 0 -45.43387851366451 32.098192815288257 0 32.098192815288257 -19.478756356780401 0 0 0 0 -45.660932021886765 18.334014782383747 0 18.334014782383747 8.2044120167010988 0 0 0 0 -10.108029416021758 14.039261944184988 0 14.039261944184988 -1.0788439507435292 0 0 0 0 -78.564106544111837 42.700487484715495 0 42.700487484715495 -10.924897961951501 0 0 0 0 -80.043449158618614 35.484420827436679 0 35.484420827436679 6.0923473262992047 0 0 0 0 -59.895630008948501 21.76545646073464 0 21.76545646073464 4.4206244184424577 0 0 0 0 -78.091832072732359 34.212122082462884 0 34.212122082462884 -2.25425180712773 0 0 0 0 -78.476371455946719 31.934036380442194 0 31.934036380442194 -9.8756496584628621 0 0 0 0 -80.047964591958589 32.801252754884445 0 32.801252754884445 -2.3164963926183191 0 0 0 0 -83.756961211221096 28.298291599269305 0 28.298291599269305 -10.69586699379397 0 0 0 0 -31.853822104225856 24.621152037528191 0 24.621152037528191 -4.2058250619793398 0 0 0 0 -25.184530447683528 31.877374737520313 0 31.877374737520313 -8.9248155884884 0 0 0 0 -23.642551801311249 16.57855710266827 0 16.57855710266827 -0.42585608274191777 0 0 0 0 -30.82034451600952 17.978704465403396 0 17.978704465403396 -10.31453815496592 0 0 0 0 -46.125962059198145 38.201357853457182 0 38.201357853457182 10.590554090145815 0 0 0 0 -45.885184706208747 28.204996760899121 0 28.204996760899121 -5.5693596845085267 0 0 0 0 -47.998420661220734 30.640678828442105 0 30.640678828442105 1.6040456393529894 0 0 0 0 -21.491476980576408 21.219329989626203 0 21.219329989626203 3.4169791720582907 0 0 0 0 -34.04385487719901 26.259480309128776 0 26.259480309128776 -2.1880087541558169 0 0 0 0 -18.048968360693266 47.273596568952314 0 47.273596568952314 1.5177037081029994 0 0 0 0 -30.087048642088227 22.845578145995397 0 22.845578145995397 -9.6695780969797163 0 0 0 0 9.1113750392360089 47.642579100818693 0 47.642579100818693 -72.553918084505312 0 0 0 0 -55.073308272103986 90.151724319049663 0 90.151724319049663 -95.26343605206057 0 0 0 0 -31.639881098651614 21.029268547259147 0 21.029268547259147 11.686651121091256 0 0 0 0 -30.502140217406122 37.313411862545763 0 37.313411862545763 4.9273863964949669 0 0 0 0 -28.697998116065719 32.031784799756679 0 32.031784799756679 -18.56234371057235 0 0 0 0 -21.794921648558308 10.254643720586206 0 10.254643720586206 17.66150943326511 0 0 0 0 -27.551718568698561 23.549749905831504 0 23.549749905831504 -9.2435260123529588 0 0 0 0 -9.1939607838138251 4.6904360714646849 0 4.6904360714646849 -1.6008705807592634 0 0 0 0 -57.089725111469306 25.511040683841657 0 25.511040683841657 -7.3698902160940634 0 0 0 0 -57.95640710173393 88.358581525433692 0 88.358581525433692 -71.76058189745163 0 0 0 0 -148.88326141132347 60.407082884884403 0 60.407082884884403 71.228272380920316 0 0 0 0 -6.34048158513529 10.696966848278315 0 10.696966848278315 7.6816340098827851 0 0 0 0 -76.113305623224733 92.582429200347633 0 92.582429200347633 95.054497800727404 0 0 0 0 -19.852150130420341 -68.258829088170387 0 -68.258829088170387 106.83444301633074 0 0 0 0 0.091778922927375106 0.27453767319949218 0 0.27453767319949218 1.455509585895328 0 0 0 0 -94.292526481858658 20.946419000660171 0 20.946419000660171 -6.9343094774768588 0 0 0 0 -83.955508376035141 33.088810613256555 0 33.088810613256555 -5.0032593575951978 0 0 0 0 -62.866521227555495 25.70724085657821 0 25.70724085657821 -5.6046682126425367 0 0 0 0 -60.853450173864985 28.95852966523853 0 28.95852966523853 -3.3120133766660729 0 0 0 0 -71.999214632338408 19.870290064219262 0 19.870290064219262 8.3176693408604478 0 0 0 0 -41.896644980133715 4.9265961306873578 0 4.9265961306873578 10.275688950292533 0 0 0 0 -61.911634426203818 25.638061392843724 0 25.638061392843724 -16.268673292743188 0 0 0 0 -64.592075817785371 21.86926848810117 0 21.86926848810117 3.5747736106468437 0 0 0 0 -36.056174405646956 1.8597633164835896 0 1.8597633164835896 14.830500417180616 0 0 0 0 -47.228075626224189 9.2299183598296874 0 9.2299183598296874 13.179744822963881 0 0 0 0 -112.26367651534383 28.149041709168159 0 28.149041709168159 -24.386902681031643 0 0 0 0 -112.38938369288371 29.872916844029987 0 29.872916844029987 -4.021758431752005 0 0 0 0 -48.65655602742418 16.661965698760767 0 16.661965698760767 20.249651477419157 0 0 0 0 -95.920562626295691 -13.519914840851868 0 -13.519914840851868 17.15116579209181 0 0 0 0 -75.762224466162479 4.2279734170347751 0 4.2279734170347751 8.1619583149486061 0 0 0 0 -78.775303179922048 -17.6658860468292 0 -17.6658860468292 9.9095466499902614 0 0 0 0 -104.86848730163183 -12.739625985621842 0 -12.739625985621842 16.857199377155212 0 0 0 0 -99.084816600116028 -15.198111276244845 0 -15.198111276244845 1.8086491608523545 0 0 0 0 -31.521041947565266 25.155246916180559 0 25.155246916180559 12.316109800460897 0 0 0 0 -97.991250954357383 8.0557048503405895 0 8.0557048503405895 15.508958646658357 0 0 0 0 -93.766334998646926 -1.4361667827406563 0 -1.4361667827406563 18.249238107954852 0 0 0 0 -89.443766623429838 13.5115436795204 0 13.5115436795204 7.3781353920967376 0 0 0 0 -63.51656169071336 -21.605282580212908 0 -21.605282580212908 6.4479844643127695 0 0 0 0 -38.649607567553176 -10.763989165056955 0 -10.763989165056955 14.460957112256438 0 0 0 0 -70.899935813125424 6.2616554929812551 0 6.2616554929812551 25.617827996469344 0 0 0 0 -72.468448994302889 10.504541678674286 0 10.504541678674286 24.769844562331855 0 0 0 0 -86.588173420553389 14.378087339015856 0 14.378087339015856 38.20717148859265 0 0 0 0 -38.152007735578565 33.046153314941257 0 33.046153314941257 19.883645777010656 0 0 0 0 -42.612231878096765 11.076334712803749 0 11.076334712803749 11.026595137759264 0 0 0 0 -56.974457442549465 16.50099887000124 0 16.50099887000124 9.3906999442024244 0 0 0 0 -19.757780378483151 6.3011860033380103 0 6.3011860033380103 10.881685480277131 0 0 0 0 -81.949839269287622 9.3941606925504857 0 9.3941606925504857 15.093613605271457 0 0 0 0 -136.4308913716377 2.7589166923103221 0 2.7589166923103221 47.082869328161905 0 0 0 0 -23.194806735376915 52.648044656053571 0 52.648044656053571 -16.610232521359649 0 0 0 0 -20.297758234860094 10.130597326687957 0 10.130597326687957 6.6456695863732129 0 0 0 0 -70.951885112150194 -0.46043645538247802 0 -0.46043645538247802 4.703653119118826 0 0 0 0 -52.783043153125618 94.066431548953005 0 94.066431548953005 -47.974135926282543 0 0 0 0 -45.64543639369731 43.620732398800101 0 43.620732398800101 -37.403061702014611 0 0 0 0 -51.245704361394019 52.011834750287562 0 52.011834750287562 1.8586460630631336 0 0 0 0 -57.318082447392044 43.513018830957662 0 43.513018830957662 20.655349837052199 0 0 0 0 -47.103563219037824 45.26166502601518 0 45.26166502601518 1.05455669219009 0 0 0 0 -37.87737611454213 64.275138298661659 0 64.275138298661659 1.9164244301887408 0 0 0 0 -76.221405284879438 58.919080440430662 0 58.919080440430662 1.9573039738388616 0 0 0 0 -100.05293415178312 66.623957321730813 0 66.623957321730813 44.961930197478068 0 0 0 0 -63.672776063838889 34.926091041359889 0 34.926091041359889 -5.8635359229946893 0 0 0 0 -93.571755584111088 43.161998420427153 0 43.161998420427153 40.882810657818482 0 0 0 0 -43.836144183100259 57.141379493976729 0 57.141379493976729 23.378196940640919 0 0 0 0 -58.846242921511916 30.061345752160584 0 30.061345752160584 -7.0854229862931 0 0 0 0 -30.73947618330476 67.606701252893913 0 67.606701252893913 50.86890472072082 0 0 0 0 -27.914797008961614 54.239700026279991 0 54.239700026279991 28.317873754007792 0 0 0 0 -9.6415929958238848 62.921095592504287 0 62.921095592504287 28.829554309569289 0 0 0 0 -33.500624211727882 80.002294449317958 0 80.002294449317958 18.719891984878814 0 0 0 0 -138.22502904414796 41.633624275039921 0 41.633624275039921 15.656090598616288 0 0 0 0 -305.26373125924147 269.71432620752466 0 269.71432620752466 116.22535932608207 0 0 0 0 -7.3933536677564646 25.584663500848279 0 25.584663500848279 15.907768455329451 0 0 0 0 -150.00550408023992 55.071191448441368 0 55.071191448441368 22.821597522971388 0 0 0 0 178.96203476609662 294.07085341178703 0 294.07085341178703 -393.82448940135191 0 0 0 0 -160.8042300590896 -28.454093337016957 0 -28.454093337016957 325.38736124454931 0 0 0 0 -72.321949294031583 128.62783584427558 0 128.62783584427558 3.0693354067138898 0 0 0 0 -0.67642817892192397 -87.99645014285386 0 -87.99645014285386 263.71690152303381 0 0 0 0 -151.75819988052535 8.2122457758588325 0 8.2122457758588325 36.646405575612107 0 0 0 0 -11.932528900302657 0.58396968336873556 0 0.58396968336873556 3.8403249410694151 0 0 0 0 -7.1810655158167265 5.2083543251991529 0 5.2083543251991529 1.9314870797558883 0 0 0 0 -4.0176427179655576 27.085229531947476 0 27.085229531947476 34.014438208644627 0 0 0 0 -100.14332529966487 70.365538012059005 0 70.365538012059005 9.4885110841837559 0 0 0 0 -133.24082184820509 65.26055414189841 0 65.26055414189841 49.325783843862155 0 0 0 0 -368.94723896697906 -24.655411382559247 0 -24.655411382559247 116.49349703400159 0 0 0 0 71.164702517271508 -385.68173517565629 0 -385.68173517565629 318.32909239758101 0 0 0 0 -146.26688895363986 219.53829186606345 0 219.53829186606345 -104.55819651495722 0 0 0 0 -157.61239452241352 198.30848199737056 0 198.30848199737056 122.15584673587364 0 0 0 0 -50.729542887422213 178.0918617270745 0 178.0918617270745 -122.73393973091061 0 0 0 0 -20.492139401421809 -208.34351148482347 0 -208.34351148482347 399.05729578025876 0 0 0 0 -501.0532977619805 248.79612044295027 0 248.79612044295027 493.76777809636042 0 0 0 0 -185.64157723075732 78.558876396173218 0 78.558876396173218 143.66586300408926 0 0 0 0 -95.230578784507088 38.632718988255874 0 38.632718988255874 107.32579687919497 0 0 0 0 -6.2206708934901869 22.960165389892655 0 22.960165389892655 38.936845141750531 0 0 0 0 -54.705366483078251 49.288708027127086 0 49.288708027127086 13.047720802035769 0 0 0 0 -173.84244012883073 153.28676740727019 0 153.28676740727019 51.437366592035687 0 0 0 0 -54.146735861315392 41.521536702587127 0 41.521536702587127 16.906763578972914 0 0 0 0 -39.038713801033737 70.106624753551387 0 70.106624753551387 62.426396442587588 0 0 0 0 -51.669302733107536 33.391874803871723 0 33.391874803871723 7.6810132754691534 0 0 0 0 -44.422342229757078 43.775432702063284 0 43.775432702063284 14.675973562323634 0 0 0 0 -43.628685422641865 46.217319984397363 0 46.217319984397363 13.785393720879711 0 0 0 0 -52.251539412889542 43.987731084098414 0 43.987731084098414 15.424005686536475 0 0 0 0 -50.234842016003313 41.834268529157725 0 41.834268529157725 13.415367223411522 0 0 0 0 -55.357467525076572 51.24639407804716 0 51.24639407804716 12.255924610316924 0 0 0 0 -49.562558268477005 53.727056492212796 0 53.727056492212796 -4.2781051391393703 0 0 0 0 -51.143896840651678 84.085084376164218 0 84.085084376164218 10.957105041790783 0 0 0 0 -44.737464233258834 43.903854963184131 0 43.903854963184131 14.654800426795191 0 0 0 0 -48.90014624841988 19.395005659282312 0 19.395005659282312 3.8331719074944957 0 0 0 0 -43.086807484991823 46.635365513489432 0 46.635365513489432 19.174271767358732 0 0 0 0 -36.427292895232995 36.292103737544721 0 36.292103737544721 18.639576983086044 0 0 0 0 -7.6713939799225983 14.419409037429116 0 14.419409037429116 27.685536595695414 0 0 0 0 -66.360791010447088 71.259672290815274 0 71.259672290815274 -600.89354771298895 0 0 0 0 403.01949034705672 -2468.6497364173338 0 -2468.6497364173338 681.20251389941768 0 0 0 0 130.12417181294222 1689.491229292038 0 1689.491229292038 92.121859997299907 0 0 0 0 -14.10144073538067 -1.4678309644569048 0 -1.4678309644569048 -2.2674412950366616 0 0 0 0 -1917.2352101458928 1923.8108491008516 0 1923.8108491008516 113.25792351507243 0 0 0 0 -4218.5860788459886 -2513.1152907649007 0 -2513.1152907649007 684.4635164854717 0 0 0 0 -690.1813273943626 -1112.2614925826601 0 -1112.2614925826601 -1183.1420587192338 0 0 0 0 -3190.802662269356 798.01891724602501 0 798.01891724602501 761.86860627907117 0 0 0 0 -1104.7299970260174 -417.50411507359331 0 -417.50411507359331 211.68032297298578 0 0 0 0 -3343.1138588514445 -985.28869269057395 0 -985.28869269057395 87.217360072392694 0 0 0 0 1058.1975089022371 274.23378739126883 0 274.23378739126883 -412.79305074226522 0 0 0 0 -213.96982271667139 -449.12491475616707 0 -449.12491475616707 -135.53364428801069 0 0 0 0 -241.82804821019181 -145.36240979771173 0 -145.36240979771173 93.76424684106405 0 0 0 0 1.2625540389555496 -0.75623419222941557 0 -0.75623419222941557 -0.026371159832525137 0 0 0 0 -168.27201122223596 25.028824782757511 0 25.028824782757511 465.14665198305011 0 0 0 0 -69.060420970408813 80.41844179758391 0 80.41844179758391 211.5720271263217 0 0 0 0 -1853.935233226588 1007.9603598552858 0 1007.9603598552858 335.43975658875752 0 0 0 0 -2447.5855793253959 664.4980097836451 0 664.4980097836451 366.23340299345364 0 0 0 0 -601.44949829160942 89.12755372432548 0 89.12755372432548 456.1964474922006 0 0 0 0 -67.94182434297727 62.910619339014374 0 62.910619339014374 42.019573370606849 0 0 0 0 -37.090033291786767 -17.77566320173878 0 -17.77566320173878 -9.3938224783923943 0 0 0 0 -79.104675056723863 40.327954805743502 0 40.327954805743502 14.36097549179442 0 0 0 0 -55.008957679610575 34.490582452106779 0 34.490582452106779 -16.52138985597329 0 0 0 0 -26.379411409187014 -110.86977053519331 0 -110.86977053519331 63.059956547168895 0 0 0 0 166.57534995333094 -16.459447288128558 0 -16.459447288128558 -61.679592006317762 0 0 0 0 -79.118856062801342 13.264487002085048 0 13.264487002085048 -21.266635149979265 0 0 0 0 -62.149044196523562 43.547821557034126 0 43.547821557034126 -20.023619646589641 0 0 0 0 145.24010362031004 121.06911540597139 0 121.06911540597139 -27.812033798312768 0 0 0 0 38.661940312675142 89.509335671659755 0 89.509335671659755 -20.098127062594585 0 0 0 0 1.8082046460682051 18.346120020939811 0 18.346120020939811 -1.8265053149483581 0 0 0 0 -28.148420986451129 34.84076019285385 0 34.84076019285385 -7.4454352878665304 0 0 0 0 -56.055768374772015 -12.697209796422612 0 -12.697209796422612 15.701528034006515 0 0 0 0 -9.5629844023928854 -79.006455191424038 0 -79.006455191424038 -80.838917443723403 0 0 0 0 -2.533452912554587 -3.6498784146747711 0 -3.6498784146747711 3.9175801037202973 0 0 0 0 -63.529532443544667 77.710877450202133 0 77.710877450202133 73.035259085975213 0 0 0 0 -29.414254197758762 1.5986437864495784 0 1.5986437864495784 8.4585569472169961 0 0 0 0 -41.138567558627983 10.036422396525097 0 10.036422396525097 88.761668569716221 0 0 0 0 -33.407379307800511 41.204025954656458 0 41.204025954656458 10.794734129352037 0 0 0 0 -25.877963462599844 21.282755050941176 0 21.282755050941176 -12.22689488967068 0 0 0 0 -38.077134926484973 51.380796761539273 0 51.380796761539273 14.867443502193964 0 0 0 0 -29.604261696205171 24.449563555111204 0 24.449563555111204 -15.115671055037863 0 0 0 0 -2037.2639634891475 915.38022045630078 0 915.38022045630078 299.560798489234 0 0 0 0 -62.242487422676277 80.270465737283985 0 80.270465737283985 39.875699481777701 0 0 0 0 0.86403914972623319 3.2524831372487384 0 3.2524831372487384 -0.19645933525482562 0 0 0 0 -38.016861707423232 29.499913806637551 0 29.499913806637551 -46.160768906696831 0 0 0 0 -88.121673169665883 17.302416194425859 0 17.302416194425859 8.2948597801387223 0 0 0 0 -34.649421042187896 19.413443322654985 0 19.413443322654985 4.7248085925634769 0 0 0 0 -40.036689731810839 26.318680025181493 0 26.318680025181493 -4.1243470187346247 0 0 0 0 -143.37561964408451 -235.68751083939196 0 -235.68751083939196 35.750647659722745 0 0 0 0 28.083514965619543 115.80778498086738 0 115.80778498086738 -95.316431077917855 0 0 0 0 -31.559209246817204 -2.0992612276382374 0 -2.0992612276382374 9.150568984620989 0 0 0 0 -41.44460949738459 -7.8039677534147813 0 -7.8039677534147813 -28.409284448505787 0 0 0 0 -45.496605573876877 -8.4549868311914906 0 -8.4549868311914906 7.927674524550639 0 0 0 0 1.9434328473000519 9.2379403879544988 0 9.2379403879544988 -6.3003996314995767 0 0 0 0 -1368.085553618952 851.5695329306327 0 851.5695329306327 -540.8718840463207 0 0 0 0 -1719.4546717643716 910.99275999974998 0 910.99275999974998 -335.70105202134437 0 0 0 0 -1871.8414645503544 504.1093178133151 0 504.1093178133151 -204.07305585469385 0 0 0 0 -1124.9242681421892 940.93892334797056 0 940.93892334797056 40.517677244724837 0 0 0 0 -952.78438132346673 368.46203962393884 0 368.46203962393884 -96.504350440095095 0 0 0 0 -1049.0836960612814 624.00913289936943 0 624.00913289936943 -288.41877002170077 0 0 0 0 -1552.4676269323663 722.81000369979142 0 722.81000369979142 -335.10731171888347 0 0 0 0 -1284.0664627381134 515.68672221645477 0 515.68672221645477 -276.1448114168752 0 0 0 0 -925.7612211817941 254.46738916714276 0 254.46738916714276 -288.46957035505966 0 0 0 0 -1352.5579521145028 351.74517542172589 0 351.74517542172589 -265.19114533161428 0 0 0 0 -772.05248118466261 -118.48567863842436 0 -118.48567863842436 -232.97428907233007 0 0 0 0 -1220.4207912675556 -62.478124363355619 0 -62.478124363355619 -215.76819210821213 0 0 0 0 -1038.9467729917942 59.539769227363195 0 59.539769227363195 -163.02990365863297 0 0 0 0 -840.61257776527418 231.39389034240185 0 231.39389034240185 -80.062785322123091 0 0 0 0 -561.61005436497726 35.91659962732956 0 35.91659962732956 -163.7271545751949 0 0 0 0 -896.1703386550671 161.92646060696416 0 161.92646060696416 -160.05397635824738 0 0 0 0 -587.70006746036916 607.02576427238932 0 607.02576427238932 49.223979602802501 0 0 0 0 -569.56069481370366 15.006345329954996 0 15.006345329954996 15.520027129576192 0 0 0 0 -496.49361234249955 211.75138422582677 0 211.75138422582677 206.06570507040487 0 0 0 0 -263.70747002105054 340.36836257740106 0 340.36836257740106 618.98617921259574 0 0 0 0 -194.52748233634702 -42.070654026525517 0 -42.070654026525517 351.9033343955216 0 0 0 0 -338.74875648300804 -35.888452406637043 0 -35.888452406637043 730.58649434344625 0 0 0 0 -195.14825141446272 1267.3519603189043 0 1267.3519603189043 189.08058380832881 0 0 0 0 -274.14176642715756 516.72270781764882 0 516.72270781764882 430.85898584429742 0 0 0 0 -2111.6673341291098 1357.2009892296182 0 1357.2009892296182 743.6602328503127 0 0 0 0 -1729.1906930136356 1163.4816764638754 0 1163.4816764638754 376.06835987215163 0 0 0 0 -1660.7571682024768 901.29520910431199 0 901.29520910431199 221.00238777269988 0 0 0 0 -2063.1054474838311 1099.4233082817755 0 1099.4233082817755 799.30687788532941 0 0 0 0 -468.61022615357797 287.78920004062547 0 287.78920004062547 205.10809857752247 0 0 0 0 -644.93663948350058 -403.02322945693095 0 -403.02322945693095 -145.97796502177692 0 0 0 0 -512.54411260359848 -420.32538739433357 0 -420.32538739433357 -215.6692517548272 0 0 0 0 -441.68958969617233 -342.49862332219755 0 -342.49862332219755 -147.37168411887023 0 0 0 0 -502.6251138226271 -429.68793159071765 0 -429.68793159071765 -216.32565044931562 0 0 0 0 -538.71817167028712 -468.48786924468277 0 -468.48786924468277 -251.61980945497544 0 0 0 0 -525.03441810804816 -425.80121476925842 0 -425.80121476925842 -173.39487555958658 0 0 0 0 -479.39598293929339 -458.99327658771108 0 -458.99327658771108 -210.12823417970139 0 0 0 0 -637.64532837411571 -367.28354545321508 0 -367.28354545321508 -195.26222732760016 0 0 0 0 -439.52741098296792 -334.46722526176382 0 -334.46722526176382 -190.78623726898422 0 0 0 0 -609.902232255954 -358.59511121796504 0 -358.59511121796504 -278.24453392864598 0 0 0 0 -607.91643316671798 -337.99585959498563 0 -337.99585959498563 -235.42834528703497 0 0 0 0 -794.72880950779108 -108.71019565830693 0 -108.71019565830693 -157.62777492990881 0 0 0 0 -637.58156666920877 -378.48301324855584 0 -378.48301324855584 -239.8069337365323 0 0 0 0 -646.53875371620143 -200.75282022018052 0 -200.75282022018052 -118.80260928148709 0 0 0 0 -482.41635629338089 -86.110123272411329 0 -86.110123272411329 -40.633920699264308 0 0 0 0 -353.15934331045219 -194.54198728726249 0 -194.54198728726249 22.382572186841571 0 0 0 0 -399.05883991997325 -33.752938595273008 0 -33.752938595273008 302.93558213005326 0 0 0 0 -182.13208388595922 115.32089439481388 0 115.32089439481388 255.04155660340052 0 0 0 0 -260.36402667594075 -228.43185355717696 0 -228.43185355717696 -67.882150245810408 0 0 0 0 -334.90230705678368 -160.82132302730588 0 -160.82132302730588 79.922296388783252 0 0 0 0 -432.39596178149259 -265.63553001097353 0 -265.63553001097353 -27.907580337134277 0 0 0 0 -471.01525729474872 -359.98637870354776 0 -359.98637870354776 -135.69588929908605 0 0 0 0 -348.62098611101783 -370.16236250453926 0 -370.16236250453926 -189.74301200246373 0 0 0 0 -447.3944433150391 -408.95136419562914 0 -408.95136419562914 -151.87930401209996 0 0 0 0 -340.85635523637029 -421.56479819719743 0 -421.56479819719743 -358.75145362826515 0 0 0 0 -200.99357492984564 -245.18181087934136 0 -245.18181087934136 -204.49174597108504 0 0 0 0 -548.38848581753791 -551.38616836824076 0 -551.38616836824076 -563.96977368637727 0 0 0 0 -498.66442309774811 -409.56645870657576 0 -409.56645870657576 -208.41138268380382 0 0 0 0 -747.08996484300724 -315.64533326149899 0 -315.64533326149899 -390.42739631014592 0 0 0 0 -561.45829038764987 -511.20338650451822 0 -511.20338650451822 -212.17737385110104 0 0 0 0 -422.32092972628288 -444.90726270538926 0 -444.90726270538926 -270.35996881750725 0 0 0 0 -270.06118221644283 26.896485780598596 0 26.896485780598596 -553.31582110646832 0 0 0 0 -519.76323081542159 542.17544092194476 0 542.17544092194476 -173.78469624883473 0 0 0 0 -456.16211610890423 308.65933599964228 0 308.65933599964228 644.87209387349503 0 0 0 0 27.334126849067616 314.90225756579093 0 314.90225756579093 18.470126909967803 0 0 0 0 -364.11530094542741 123.56405777821146 0 123.56405777821146 108.06814584571475 0 0 0 0 -277.21739906014227 -50.950688904243179 0 -50.950688904243179 -216.71351551703219 0 0 0 0 -322.88322451257045 -278.86177321989999 0 -278.86177321989999 -661.56431744117981 0 0 0 0 -142.73881773477211 159.8034843050954 0 159.8034843050954 239.71942565942118 0 0 0 0 -132.70635418878555 -124.44289883853253 0 -124.44289883853253 -199.73585763295523 0 0 0 0 40.166734154603915 482.01307871933079 0 482.01307871933079 487.47799283100903 0 0 0 0 45.723168004471518 184.44470451356574 0 184.44470451356574 109.55222979703103 0 0 0 0 -62.705682534222433 315.12213730203621 0 315.12213730203621 -28.00403159709731 0 0 0 0 -48.173766295326004 483.22029613271252 0 483.22029613271252 443.04697689739623 0 0 0 0 309.72345613996731 318.00689979326125 0 318.00689979326125 516.22874164228779 0 0 0 0 111.59489062042849 694.71910180117629 0 694.71910180117629 769.28315787551037 0 0 0 0 112.85651629650602 483.68240393683845 0 483.68240393683845 473.95489422055834 0 0 0 0 -168.65382372763997 585.08764089836404 0 585.08764089836404 1100.8882877926662 0 0 0 0 37.159777800379743 701.42397828128742 0 701.42397828128742 862.79965495323268 0 0 0 0 -130.83003210343668 489.56334344415973 0 489.56334344415973 927.96237814058622 0 0 0 0 3.2352479258261155 515.54563284000506 0 515.54563284000506 581.42077860816426 0 0 0 0 -105.99412910987667 401.51288160684817 0 401.51288160684817 624.86466593400655 0 0 0 0 -92.269259273007265 3.8615704830899631 0 3.8615704830899631 -36.441009279342325 0 0 0 0 -280.58953643457971 114.84044621534895 0 114.84044621534895 477.69096009537498 0 0 0 0 10.674786010220487 220.83467408631986 0 220.83467408631986 156.85258118696038 0 0 0 0 -79.623000851655888 325.51349887298602 0 325.51349887298602 389.29699720954159 0 0 0 0 -259.79411225551121 371.26380515603068 0 371.26380515603068 858.46848552249503 0 0 0 0 -171.20433617807157 415.42754399242494 0 415.42754399242494 699.05626599886091 0 0 0 0 -258.04874331763676 618.45452443782142 0 618.45452443782142 1170.0666218292681 0 0 0 0 -79.941642573430727 558.73354049554473 0 558.73354049554473 800.05611629212626 0 0 0 0 -204.555802991571 136.50167515467365 0 136.50167515467365 -104.55306310343076 0 0 0 0 -201.34949981549289 128.64706754437975 0 128.64706754437975 -172.5424799401444 0 0 0 0 52.192945534171486 73.599551418027204 0 73.599551418027204 -539.79647160981403 0 0 0 0 266.66604335372176 -14.041307381563456 0 -14.041307381563456 -515.02001914435141 0 0 0 0 -16.652939340907324 -96.419901841330557 0 -96.419901841330557 -535.30134904014994 0 0 0 0 -403.85556209241076 -27.752273814528962 0 -27.752273814528962 -243.00144477764843 0 0 0 0 -298.49985429983644 137.49184292799691 0 137.49184292799691 -397.32919699974991 0 0 0 0 1.6944127120645902 1.739249871903759 0 1.739249871903759 0.030250414600470066 0 0 0 0 -230.08496783742339 9.593753609844498 0 9.593753609844498 -164.39789447123621 0 0 0 0 -298.76762435095225 -309.48374820974459 0 -309.48374820974459 -493.67296437943378 0 0 0 0 -333.52883558524263 145.32802200486549 0 145.32802200486549 -53.640155883687839 0 0 0 0 85.841587914401316 922.84257954146051 0 922.84257954146051 1179.0482737658763 0 0 0 0 -83.984869591877853 21.366926199241007 0 21.366926199241007 1.6082536011796549 0 0 0 0 -11.589835368067725 -47.32117837183614 0 -47.32117837183614 -5.2328389048343524 0 0 0 0 652.29928016654048 671.97146115938085 0 671.97146115938085 741.18330456307558 0 0 0 0 22.43490150886646 555.23825174020749 0 555.23825174020749 772.39265667712971 0 0 0 0 515.25185305337982 124.92592681454698 0 124.92592681454698 1135.503233492298 0 0 0 0 -177.3042160303321 318.93962870467658 0 318.93962870467658 1791.3820817359156 0 0 0 0 -150.6478240513934 -221.6415802160318 0 -221.6415802160318 -185.58928465465942 0 0 0 0 -14.25233537551685 -176.93635021627779 0 -176.93635021627779 -263.40592222607302 0 0 0 0 70.794661087616987 -84.645324628024355 0 -84.645324628024355 -205.41071472491603 0 0 0 0 -22.879282595204131 -20.400105774540862 0 -20.400105774540862 -69.109851353710837 0 0 0 0 -53.243834283653996 -36.639142267711577 0 -36.639142267711577 -60.543018417325584 0 0 0 0 -218.92582675465383 928.98859744810761 0 928.98859744810761 1738.449597571991 0 0 0 0 34.041581422723539 -79.333321072038416 0 -79.333321072038416 -108.60285934531566 0 0 0 0 -5.4584557448711593 -10.966915460139901 0 -10.966915460139901 -13.501373858576422 0 0 0 0 -74.227933376485936 -1.0155205465337431 0 -1.0155205465337431 1.644175916256728 0 0 0 0 252.09021416178075 975.78368164369385 0 975.78368164369385 1183.13651593338 0 0 0 0 -85.811197538328997 414.40362269646721 0 414.40362269646721 819.48797400631884 0 0 0 0 -216.02445109369182 542.93207959356732 0 542.93207959356732 1049.3945291673008 0 0 0 0 -259.90234277428272 743.58481602866777 0 743.58481602866777 1389.7057530986131 0 0 0 0 -265.33879852179234 703.20817334668027 0 703.20817334668027 1186.0495954555372 0 0 0 0 -113.49355722644123 409.25305082762679 0 409.25305082762679 563.92945216002408 0 0 0 0 -90.777105531581583 194.82466696507026 0 194.82466696507026 1161.3001837987977 0 0 0 0 -444.65408097491854 548.23023994399045 0 548.23023994399045 1075.9326731761757 0 0 0 0 622.498261461634 1067.441553454777 0 1067.441553454777 -646.09773745289931 0 0 0 0 340.5378057932212 -1706.9004008392485 0 -1706.9004008392485 -1097.6307773292574 0 0 0 0 -1441.0641248895699 -469.86909781285976 0 -469.86909781285976 -456.3202658646253 0 0 0 0 -2774.8471468977841 -1098.4095295775369 0 -1098.4095295775369 -299.72664591364992 0 0 0 0 -2657.6416494742298 -765.11693489880781 0 -765.11693489880781 -212.21006544105603 0 0 0 0 -3874.9223733754552 -1215.6362374953769 0 -1215.6362374953769 24.176666157745785 0 0 0 0 -4014.9112699243215 -793.52452686963989 0 -793.52452686963989 -27.80793707655971 0 0 0 0 -18.772198768500211 7.4403243060965991 0 7.4403243060965991 3.4502834159963598 0 0 0 0 -5339.0493184742481 -21.644805031126452 0 -21.644805031126452 -85.555933635136284 0 0 0 0 -2688.066019892005 -1736.3796733319068 0 -1736.3796733319068 39.775512869218801 0 0 0 0 -2974.3124907262863 -2712.3700263240034 0 -2712.3700263240034 -157.85180980089717 0 0 0 0 -47.221436007707268 10.085006489980193 0 10.085006489980193 0.27320186667822277 0 0 0 0 -4297.8804522962164 -1827.0391627408771 0 -1827.0391627408771 -432.76956404637895 0 0 0 0 -66.624558952589723 1658.771161209233 0 1658.771161209233 783.04192232108426 0 0 0 0 -5255.0300713733914 -1362.2960595375507 0 -1362.2960595375507 480.40098194174243 0 0 0 0 233.50414556764872 -148.22876011553416 0 -148.22876011553416 956.98075978493762 0 0 0 0 -438.02063252823245 213.28248060425904 0 213.28248060425904 1121.321492520221 0 0 0 0 -75.38459949035132 529.85633326263087 0 529.85633326263087 946.85166649272287 0 0 0 0 -441.82316933800757 537.52176951410456 0 537.52176951410456 2008.517991403578 0 0 0 0 -407.7287476492038 122.01957858718561 0 122.01957858718561 686.73034785078744 0 0 0 0 -281.80715662303191 327.12748571275279 0 327.12748571275279 1020.8913758636445 0 0 0 0 -23.256664486769296 696.7024774069705 0 696.7024774069705 143.16526736293963 0 0 0 0 -94.187278061489252 27.668072907661966 0 27.668072907661966 -3.838585761678452 0 0 0 0 463.79939665679558 304.03770232369152 0 304.03770232369152 -458.45963180218678 0 0 0 0 -93.931230571089586 28.231398420632608 0 28.231398420632608 -2.6010437493278573 0 0 0 0 -675.07154149041889 1396.9142373469494 0 1396.9142373469494 1326.6222552100116 0 0 0 0 -419.5569120815635 -89.343532719554787 0 -89.343532719554787 501.7156659793236 0 0 0 0 -845.71164117107037 658.89775210608786 0 658.89775210608786 -414.67628421767949 0 0 0 0 -138.6175054813657 -82.565220699987094 0 -82.565220699987094 -1074.990144975447 0 0 0 0 -349.55742821433887 379.17704309747751 0 379.17704309747751 -422.07372635295178 0 0 0 0 -1504.6854983553039 -252.69411452648455 0 -252.69411452648455 -675.29590747911425 0 0 0 0 93.355367984535405 145.27547767096621 0 145.27547767096621 -737.47287221340775 0 0 0 0 23.560355976584106 328.23808945353085 0 328.23808945353085 -386.3435464504164 0 0 0 0 -412.84642255049766 88.006485920694104 0 88.006485920694104 -598.59778386198741 0 0 0 0 -505.2899668913351 65.346935756982219 0 65.346935756982219 -385.05863926132224 0 0 0 0 54.052888950081979 28.016018704116505 0 28.016018704116505 -744.29141532568792 0 0 0 0 53.760705298536777 28.489195843392736 0 28.489195843392736 -471.25104224018833 0 0 0 0 -409.40278497162217 112.43682962241292 0 112.43682962241292 -791.7727602552477 0 0 0 0 -504.73979970425353 126.01921342232708 0 126.01921342232708 -510.81824372194751 0 0 0 0 -1293.1910113501326 -320.65534114514412 0 -320.65534114514412 -670.5143372237012 0 0 0 0 -1459.8138137048918 196.87365139278882 0 196.87365139278882 -515.12507504301902 0 0 0 0 -1746.96219355219 -10.360166790489529 0 -10.360166790489529 -419.03761947667226 0 0 0 0 -2322.4417227070226 -36.020284507940232 0 -36.020284507940232 -293.12070668152592 0 0 0 0 -2885.7753337844761 922.57923292664464 0 922.57923292664464 -449.94590713696743 0 0 0 0 -3300.2357311010492 -276.95803592622178 0 -276.95803592622178 -419.27310969213977 0 0 0 0 -1520.5078521021969 -175.96900461768382 0 -175.96900461768382 -1030.3692324798012 0 0 0 0 -3907.3124396850208 -1417.9674273360351 0 -1417.9674273360351 -844.53438927254683 0 0 0 0 -1357.689550627987 -105.30636797752049 0 -105.30636797752049 -1703.3868897438515 0 0 0 0 1146.1570522678503 -1180.2395514615 0 -1180.2395514615 -265.60076531682353 0 0 0 0 -8.2462491719498665 -7.2930267868983636 0 -7.2930267868983636 -2.320499208539708 0 0 0 0 -13.760961442076223 629.88591291781631 0 629.88591291781631 -261.95971740101413 0 0 0 0 -5594.1417145252381 814.66411316299082 0 814.66411316299082 13.628854566271912 0 0 0 0 -2909.4917005748048 -871.56253546846892 0 -871.56253546846892 -635.55528402954951 0 0 0 0 -3507.5698019469583 -2485.7399068399136 0 -2485.7399068399136 -153.64206451720293 0 0 0 0 -29.919542313021299 -15.324473411992393 0 -15.324473411992393 -5.5995081454327931 0 0 0 0 -2502.1450852383714 725.2815448924448 0 725.2815448924448 -356.26375939916943 0 0 0 0 -2524.8484500851846 764.26901158505098 0 764.26901158505098 -422.55259266480425 0 0 0 0 -2634.1695097342563 262.44228034562639 0 262.44228034562639 -44.5646392328199 0 0 0 0 -2294.5031713391245 695.95199370650016 0 695.95199370650016 -722.43090625384502 0 0 0 0 -2500.4405344376501 318.90314199631757 0 318.90314199631757 -522.61574859761095 0 0 0 0 -2062.8146313068137 506.72115521465093 0 506.72115521465093 -470.27039476737991 0 0 0 0 -1907.5531764368498 1540.0642822351992 0 1540.0642822351992 -926.34133761795965 0 0 0 0 -2493.652807326067 1782.4301438410293 0 1782.4301438410293 -963.62698120871937 0 0 0 0 -3.0059637192318576 -0.21976758815989683 0 -0.21976758815989683 -4.5046336040008725 0 0 0 0 -2398.1722381772997 780.35716292705547 0 780.35716292705547 -323.52313150694681 0 0 0 0 -3243.387225999395 1070.2016383057526 0 1070.2016383057526 -392.8880708552897 0 0 0 0 -1884.6644315878254 947.18884197342118 0 947.18884197342118 -528.84240078297444 0 0 0 0 -1893.1594475303718 694.42998290110154 0 694.42998290110154 -347.02447389241934 0 0 0 0 -2172.2377356629004 788.38985787728234 0 788.38985787728234 -354.17397629098195 0 0 0 0 -1708.3945404000624 388.97106248931959 0 388.97106248931959 -354.15767261973815 0 0 0 0 -2009.0906132005639 321.98918485829654 0 321.98918485829654 -332.2692475046133 0 0 0 0 -1737.1632706425287 327.46512687371126 0 327.46512687371126 -273.45756038189575 0 0 0 0 -1371.7264373909129 267.85651123796924 0 267.85651123796924 -336.20476155746837 0 0 0 0 -1498.7011439401613 515.01737659289574 0 515.01737659289574 -386.64245143520384 0 0 0 0 -1755.2227554176477 652.5214561473573 0 652.5214561473573 -445.21909680588578 0 0 0 0 -1390.4053711073793 112.1803805572963 0 112.1803805572963 -280.8914048331817 0 0 0 0 -1264.2995796069699 -172.74936423246436 0 -172.74936423246436 -135.17874416678023 0 0 0 0 -1215.8005182527122 -58.657537579281779 0 -58.657537579281779 -222.64741650386986 0 0 0 0 -1654.3293274395473 231.42090905800433 0 231.42090905800433 -350.81184329951066 0 0 0 0 -1629.2426852447134 51.850920586052098 0 51.850920586052098 -242.8783629430327 0 0 0 0 -1498.8193871558451 -94.632639153310265 0 -94.632639153310265 -231.31502128953434 0 0 0 0 -1339.5237316953608 117.96042149142886 0 117.96042149142886 -396.37807547904595 0 0 0 0 -1958.6179079682988 437.12100927740175 0 437.12100927740175 -454.54193476409637 0 0 0 0 -1864.087360516738 153.919272124489 0 153.919272124489 -342.68719319404772 0 0 0 0 -2654.2866113743803 613.328861846172 0 613.328861846172 -378.17161379590834 0 0 0 0 -2231.7106606902134 381.88660037257432 0 381.88660037257432 -277.71861263980827 0 0 0 0 -1836.6898396509896 227.46512940397042 0 227.46512940397042 -307.6000258379463 0 0 0 0 -1720.6243656096822 -23.765847832798045 0 -23.765847832798045 -327.7662529403533 0 0 0 0 -819.89339087934059 -202.96403550277319 0 -202.96403550277319 -516.31920841663623 0 0 0 0 -569.05035642450093 -278.24023779155323 0 -278.24023779155323 -182.83964513220599 0 0 0 0 -543.38120837777387 147.81116198363634 0 147.81116198363634 -121.90876569029206 0 0 0 0 -1376.2990294574483 -44.253380617803487 0 -44.253380617803487 -104.9030681166405 0 0 0 0 -194.93552332519175 -32.662188326896285 0 -32.662188326896285 -415.8438257532498 0 0 0 0 80.845719196369828 244.92031548384693 0 244.92031548384693 -213.15323096561769 0 0 0 0 -201.24608308659299 -335.18158557407878 0 -335.18158557407878 448.75351869508268 0 0 0 0 473.96627038269799 63.425789693458682 0 63.425789693458682 -68.743057444124133 0 0 0 0 -308.11589666235704 -55.275943339971491 0 -55.275943339971491 -144.64212527442578 0 0 0 0 -629.45820242567788 -283.13047929441018 0 -283.13047929441018 151.81945003068358 0 0 0 0 -103.03125654021278 -206.92165035265498 0 -206.92165035265498 -112.20922711981984 0 0 0 0 -122.17393930876506 -115.29474969042508 0 -115.29474969042508 6.0626324027216469 0 0 0 0 -966.1193877535552 -206.94204151738086 0 -206.94204151738086 -304.17460057573771 0 0 0 0 -1201.508924895239 16.789636071338464 0 16.789636071338464 -241.16100709243619 0 0 0 0 -902.72618801450153 -71.160153995005203 0 -71.160153995005203 -20.334885262105672 0 0 0 0 -625.58995760709513 -276.33544098025959 0 -276.33544098025959 -214.38236641742878 0 0 0 0 -934.90994706919446 -175.79298074213511 0 -175.79298074213511 -235.56281932330239 0 0 0 0 -954.50399140407535 -181.01864707859568 0 -181.01864707859568 -49.473194015379704 0 0 0 0 -779.39921904171206 -386.56430974582145 0 -386.56430974582145 -93.818703539302533 0 0 0 0 -638.77602886740715 -290.06327332343335 0 -290.06327332343335 -98.081958007336652 0 0 0 0 -755.58087781623544 -321.38417032252073 0 -321.38417032252073 -144.9074705243911 0 0 0 0 -952.87290876869884 -197.85546828579754 0 -197.85546828579754 -148.25463066409066 0 0 0 0 -621.60327567219792 -322.99757495902304 0 -322.99757495902304 -45.785073582123914 0 0 0 0 -173.9982841202891 -10.32663480123756 0 -10.32663480123756 -6.3664142372163042 0 0 0 0 -1127.7611443846035 -367.46513770618913 0 -367.46513770618913 -31.988822636377336 0 0 0 0 -2.3084238312924583 -4.2034159953903121 0 -4.2034159953903121 -8.9708101763433419 0 0 0 0 -804.19324204693112 -178.40548441160172 0 -178.40548441160172 73.168474118716404 0 0 0 0 -647.94522135256739 -441.856852954646 0 -441.856852954646 -184.06283152774995 0 0 0 0 -857.85891104117763 -623.58931400574284 0 -623.58931400574284 -381.45891421368651 0 0 0 0 -758.43792455554467 -332.9734140348105 0 -332.9734140348105 -169.90704044832455 0 0 0 0 -701.92157080079051 -423.26963486046952 0 -423.26963486046952 -73.637661048587688 0 0 0 0 -633.20162317784707 -392.60530842275011 0 -392.60530842275011 -263.90337427541454 0 0 0 0 -640.36038255913445 -408.50530273083677 0 -408.50530273083677 -195.1166348632637 0 0 0 0 -570.63918423658106 -315.92808485838486 0 -315.92808485838486 -171.55071470295297 0 0 0 0 -723.20179329692473 -231.4597403894204 0 -231.4597403894204 -110.60367988930739 0 0 0 0 -722.90515376710573 -178.42162670912558 0 -178.42162670912558 29.047261039198929 0 0 0 0 -927.92581925913692 -127.10863383086689 0 -127.10863383086689 -143.93076636546812 0 0 0 0 -1084.9920802452907 -35.131352807038638 0 -35.131352807038638 -120.26704178614273 0 0 0 0 -788.16259738673853 -20.472822731677979 0 -20.472822731677979 -131.17663187688959 0 0 0 0 -955.9129351900192 -50.05420295712247 0 -50.05420295712247 50.978027119421427 0 0 0 0 -946.40458514468082 333.85171242207639 0 333.85171242207639 -356.26955975660167 0 0 0 0 -820.32103448497583 -43.463089673331979 0 -43.463089673331979 -212.2752107297747 0 0 0 0 -962.09803739878407 174.75909364460676 0 174.75909364460676 -399.59536123131147 0 0 0 0 -1258.2929391696525 208.93411580985958 0 208.93411580985958 -287.97961420017964 0 0 0 0 -1163.5011052560531 458.38432659953423 0 458.38432659953423 -640.40241089196206 0 0 0 0 -1636.0552087897304 697.43757722271584 0 697.43757722271584 -509.06275366545015 0 0 0 0 -1534.0564978883049 570.92664886474813 0 570.92664886474813 -448.50832235313646 0 0 0 0 -1613.3805125086365 426.71160758908445 0 426.71160758908445 -376.08051316021738 0 0 0 0 -1235.8323697676751 289.4217826725926 0 289.4217826725926 -435.90217366379875 0 0 0 0 -1469.4002652441814 183.07974237547842 0 183.07974237547842 -287.70440476609292 0 0 0 0 -1184.1226482210568 -8.422660801358461 0 -8.422660801358461 -245.36742490624601 0 0 0 0 -944.19820921980136 -213.02460354670984 0 -213.02460354670984 -201.54074885794194 0 0 0 0 -1238.7147986368545 -55.388975673027744 0 -55.388975673027744 -181.55896799228503 0 0 0 0 -887.95146258076056 -120.59535892789245 0 -120.59535892789245 -212.92602406139486 0 0 0 0 -1163.276973347085 13.827373956866722 0 13.827373956866722 -221.6208534361067 0 0 0 0 -85.803542154135357 -151.67245815906813 0 -151.67245815906813 -50.076735931434087 0 0 0 0 -118.96584671075834 -131.73785033758062 0 -131.73785033758062 -20.540205848162941 0 0 0 0 -97.988435112288244 -86.9053504959561 0 -86.9053504959561 -38.24915702124008 0 0 0 0 -61.847101520821944 -49.505203737436332 0 -49.505203737436332 -41.394871370950405 0 0 0 0 15.108875890560739 -131.85367818120176 0 -131.85367818120176 -123.2280696930502 0 0 0 0 -158.53123814305945 -190.63928048134949 0 -190.63928048134949 -38.948537211006169 0 0 0 0 -62.389538186256686 -144.25520382672403 0 -144.25520382672403 -149.16291194299265 0 0 0 0 14.850494812555553 -128.33035952016633 0 -128.33035952016633 -146.53852977246788 0 0 0 0 -24.144144890064126 -184.71283527889227 0 -184.71283527889227 -40.180414700462279 0 0 0 0 -85.452859669974714 -148.31686395567226 0 -148.31686395567226 -17.968476396034475 0 0 0 0 -59.773324718770837 -51.047336089354751 0 -51.047336089354751 -40.307880059867735 0 0 0 0 -105.07399156360225 -31.453840880933058 0 -31.453840880933058 3.0609699910346535 0 0 0 0 -161.0269073122181 -117.76856769111328 0 -117.76856769111328 7.5965666925003461 0 0 0 0 -572.70020383922929 -151.46663515567616 0 -151.46663515567616 -51.525465393006016 0 0 0 0 -194.1547762986811 -254.73739878395918 0 -254.73739878395918 -154.24768918624613 0 0 0 0 -196.02102766880398 -132.13282961334062 0 -132.13282961334062 -188.84923139408056 0 0 0 0 -302.83703874853745 -8.7484275509050349 0 -8.7484275509050349 19.789028765204421 0 0 0 0 -0.85642820418344456 -1.5830212809927815 0 -1.5830212809927815 -2.6003403708787687 0 0 0 0 122.08899799680512 123.79740386409321 0 123.79740386409321 -371.74813572061612 0 0 0 0 238.57186315537592 -245.0978474269541 0 -245.0978474269541 -37.37867686626123 0 0 0 0 0.93818419921588969 -5.4619387669354893 0 -5.4619387669354893 -3.8708903571767479 0 0 0 0 -105.45714295767721 -36.211327990808968 0 -36.211327990808968 -2.2640118951785553 0 0 0 0 -2.3628344079684069 -6.7391723845247 0 -6.7391723845247 -5.0256518323314765 0 0 0 0 31.441469872661401 -90.445914305040787 0 -90.445914305040787 136.00209670671757 0 0 0 0 -10.764136024442177 -14.508546672886986 0 -14.508546672886986 11.090436887113693 0 0 0 0 -41.789998330747039 -28.676581166620963 0 -28.676581166620963 0.18598553220726899 0 0 0 0 58.096743230609718 -164.6426187336674 0 -164.6426187336674 -135.11626370618251 0 0 0 0 11.436074347121576 -68.074526638848738 0 -68.074526638848738 -6.3154743693139608 0 0 0 0 6.1288279532591332 -56.164148798148631 0 -56.164148798148631 18.103085513072074 0 0 0 0 -3.7065683275044847 -13.255014646268837 0 -13.255014646268837 -23.41857024899565 0 0 0 0 -45.272692992959492 -12.469882725059051 0 -12.469882725059051 120.79545217323994 0 0 0 0 -33.584408262915986 21.11772580421075 0 21.11772580421075 -27.681752826338197 0 0 0 0 90.242954088809711 -25.268387335006537 0 -25.268387335006537 -334.25862043284633 0 0 0 0 130.26863724087525 58.903660966615462 0 58.903660966615462 -329.29242206643539 0 0 0 0 -39.768632984472788 145.88569919476504 0 145.88569919476504 -104.63568736409616 0 0 0 0 5.1197292668672887 -1.7988935099154943 0 -1.7988935099154943 -5.1752100224407513 0 0 0 0 -15.010576896134808 -89.841090324515335 0 -89.841090324515335 -77.281592935160916 0 0 0 0 132.03337102894153 -56.523071873713853 0 -56.523071873713853 -137.73063225136684 0 0 0 0 -110.48015183387906 -113.13550476720411 0 -113.13550476720411 -33.796288031708173 0 0 0 0 29.58406402387984 -26.44404921415477 0 -26.44404921415477 -29.664627322257211 0 0 0 0 -13.122152738083884 -14.175191106705524 0 -14.175191106705524 -3.18485251873701 0 0 0 0 -1.2145227065630024 -71.267067091408762 0 -71.267067091408762 -38.194320639146554 0 0 0 0 -20.886644216509012 -139.71562239406489 0 -139.71562239406489 -52.879858240387875 0 0 0 0 -46.656052230508067 -105.72201348990893 0 -105.72201348990893 8.7693331486373154 0 0 0 0 -50.101792828299857 -54.688374101591108 0 -54.688374101591108 -39.93131552321983 0 0 0 0 -21.529795549395203 -123.18289421115537 0 -123.18289421115537 -75.17751422356605 0 0 0 0 -50.37110199037852 -129.6328929748488 0 -129.6328929748488 -73.219062014666179 0 0 0 0 -24.316015297590639 -78.555703399735876 0 -78.555703399735876 -118.49816937953335 0 0 0 0 -10.577607439969142 -106.30650124100043 0 -106.30650124100043 -132.89156861444462 0 0 0 0 5.7646038788447669 -8.8973745798963861 0 -8.8973745798963861 -10.247975425999126 0 0 0 0 19.594622067591658 -15.17519222195541 0 -15.17519222195541 -31.270873639624782 0 0 0 0 -3.1359177573976922 -68.960281402839883 0 -68.960281402839883 -209.4010370840906 0 0 0 0 -73.810702768489136 -137.72071212988112 0 -137.72071212988112 -122.04346081182439 0 0 0 0 -98.749519467295613 -144.04656240896929 0 -144.04656240896929 -203.19925960499859 0 0 0 0 -5.4019797924847808 -114.31888120041367 0 -114.31888120041367 -324.39156027613444 0 0 0 0 -75.435257178542088 -157.60132861852344 0 -157.60132861852344 -213.63377479455312 0 0 0 0 -136.01326869194963 -156.75092367523143 0 -156.75092367523143 -127.67329406754561 0 0 0 0 -158.95416918750198 -191.22189855373017 0 -191.22189855373017 -112.83723895984531 0 0 0 0 -53.850808716482788 -146.79689644044402 0 -146.79689644044402 -130.56366251234704 0 0 0 0 -117.05380848058121 -153.81455235404405 0 -153.81455235404405 -45.87394646408552 0 0 0 0 -155.4302635656295 -153.35114240259429 0 -153.35114240259429 -29.363041318554679 0 0 0 0 -118.79051526479452 -162.95000873029221 0 -162.95000873029221 -93.921366212634894 0 0 0 0 -80.891755109520091 -36.965721876581483 0 -36.965721876581483 -65.309230156117337 0 0 0 0 -191.93782729897794 -323.01229505629453 0 -323.01229505629453 -118.58504950498173 0 0 0 0 -52.199244733761589 -393.39448059745064 0 -393.39448059745064 -83.496220627318962 0 0 0 0 -12.117902867457687 -6.2943008360025274 0 -6.2943008360025274 -10.192303061465985 0 0 0 0 -92.619514516067284 25.823685979609763 0 25.823685979609763 -107.68186817057904 0 0 0 0 -59.536307562157162 -16.604937034016984 0 -16.604937034016984 -69.016644864458613 0 0 0 0 -25.812683248053901 -9.0467184636907803 0 -9.0467184636907803 6.7334314904556223 0 0 0 0 -33.818517469899234 -58.562084236871669 0 -58.562084236871669 -55.447421237140588 0 0 0 0 -85.782448244834086 -123.66507623560938 0 -123.66507623560938 -283.47282698237723 0 0 0 0 -1.4000055585892142 3.8808274395862288 0 3.8808274395862288 2.0780323651776733 0 0 0 0 -23.819203740712908 -29.036783523477709 0 -29.036783523477709 -11.736931142549999 0 0 0 0 -21.467758244165452 -34.698366215668671 0 -34.698366215668671 -45.164347713786469 0 0 0 0 -268.47831872877578 -93.679071215654403 0 -93.679071215654403 -307.67509205598799 0 0 0 0 58.589158318092814 -195.94620935495459 0 -195.94620935495459 -121.7571323773891 0 0 0 0 -104.92522690605256 -289.02125824569521 0 -289.02125824569521 -135.42576110672599 0 0 0 0 152.08049491803467 -195.33361134077359 0 -195.33361134077359 -365.90214112025751 0 0 0 0 -191.01645561611804 -139.18709760322145 0 -139.18709760322145 -367.90093073334356 0 0 0 0 65.16133891017671 -168.13227261467114 0 -168.13227261467114 -547.22527151234135 0 0 0 0 -88.052840340242255 -312.90501408397358 0 -312.90501408397358 -67.309270044524965 0 0 0 0 29.082920137640031 -65.668981292086755 0 -65.668981292086755 -606.33545788885567 0 0 0 0 111.47161150611282 -235.97223207370007 0 -235.97223207370007 16.130827254608448 0 0 0 0 -81.043126564589102 -41.705276804226308 0 -41.705276804226308 -15.054232246232941 0 0 0 0 -818.27144254861196 -922.41116523208166 0 -922.41116523208166 519.44918619235068 0 0 0 0 -89.272451595015085 -35.606244906981154 0 -35.606244906981154 -9.6291621400859277 0 0 0 0 -65.421651733295221 71.791583545792491 0 71.791583545792491 -124.72109690416983 0 0 0 0 203.75667059770421 -72.076544056739294 0 -72.076544056739294 -281.51496719863508 0 0 0 0 -193.41774141000496 -372.58021419873057 0 -372.58021419873057 -759.16500571059669 0 0 0 0 44.819452279209145 85.020429688265494 0 85.020429688265494 -1156.2687549802986 0 0 0 0 -19.944955948047209 8.9118196260110381 0 8.9118196260110381 -536.91284824107242 0 0 0 0 -152.16148267235985 -13.917890158428236 0 -13.917890158428236 887.4070119825119 0 0 0 0 -200.72584207433465 -76.912374469746737 0 -76.912374469746737 62.15762380932938 0 0 0 0 70.637076660292223 -365.4469952122181 0 -365.4469952122181 -248.9026944582447 0 0 0 0 -152.6207766917214 -295.50947308257128 0 -295.50947308257128 252.83859418209795 0 0 0 0 436.4008227056911 -239.27615052766214 0 -239.27615052766214 253.74793970545397 0 0 0 0 -292.46843511960469 -840.44073721653876 0 -840.44073721653876 336.00086861593445 0 0 0 0 -61.20824345108673 -28.90055468892011 0 -28.90055468892011 -9.9300589655895344 0 0 0 0 -331.58418353195884 49.304060469557953 0 49.304060469557953 -373.48009995228131 0 0 0 0 634.3761746964301 -736.10082282771691 0 -736.10082282771691 -675.01044574209845 0 0 0 0 -729.47320233541541 -97.855917649922048 0 -97.855917649922048 -138.7003926848738 0 0 0 0 -462.58203993451389 743.0021987443306 0 743.0021987443306 94.547408499958692 0 0 0 0 83.568412876949878 180.46197927077446 0 180.46197927077446 174.06351953395642 0 0 0 0 -211.58626595055102 131.49403615625306 0 131.49403615625306 681.11600856846235 0 0 0 0 -86.658940767116292 -144.81324495586023 0 -144.81324495586023 270.36519512131508 0 0 0 0 -81.5393644083521 -35.630188384867232 0 -35.630188384867232 -12.399306040783568 0 0 0 0 -152.5735736682982 -327.67895068436474 0 -327.67895068436474 555.87572001444823 0 0 0 0 -21.913839869652293 -579.76899409875159 0 -579.76899409875159 633.32784459555478 0 0 0 0 212.50358813848288 -343.70586126896887 0 -343.70586126896887 -65.441979355352032 0 0 0 0 -112.00043619497956 -53.97037431172248 0 -53.97037431172248 21.947081130041624 0 0 0 0 -175.46195993576112 33.983150847823708 0 33.983150847823708 186.20431182528046 0 0 0 0 16.554964671755442 136.84448787012661 0 136.84448787012661 198.89446569267966 0 0 0 0 -96.214557311002864 2.9200204854387266 0 2.9200204854387266 137.23820615656587 0 0 0 0 -94.18444354183157 74.191198328193423 0 74.191198328193423 194.50309692928568 0 0 0 0 -144.03229427601036 -31.980148097281926 0 -31.980148097281926 112.58216648010784 0 0 0 0 -127.34965397754422 -35.383778734303633 0 -35.383778734303633 97.177173242380377 0 0 0 0 -93.63622390065575 11.481054858159041 0 11.481054858159041 123.10552631901737 0 0 0 0 -133.17096021649195 -55.657517684023333 0 -55.657517684023333 62.070279378349369 0 0 0 0 -135.92588213636191 -33.325898216844507 0 -33.325898216844507 98.659003011722234 0 0 0 0 -137.21618678052619 -62.142072497495974 0 -62.142072497495974 42.718491558178357 0 0 0 0 -143.95056068303529 -69.000224337934924 0 -69.000224337934924 67.948569757940277 0 0 0 0 -135.82151739695109 -19.85600382341363 0 -19.85600382341363 6.1115879837398097 0 0 0 0 -232.68420112052263 -55.862695659468955 0 -55.862695659468955 43.729873457716167 0 0 0 0 -526.15577492664306 -131.48500760643174 0 -131.48500760643174 386.62559192498156 0 0 0 0 -85.209455282626095 -37.443533930588003 0 -37.443533930588003 -14.7476450100982 0 0 0 0 -94.39298842551338 -24.507524890756894 0 -24.507524890756894 -5.7903297873099522 0 0 0 0 -908.99037918785143 246.67275918421774 0 246.67275918421774 -34.645752272504978 0 0 0 0 -705.10425571440283 257.80499373697512 0 257.80499373697512 -460.01862826582919 0 0 0 0 -551.78231427189894 -166.49612365760049 0 -166.49612365760049 55.745880249149046 0 0 0 0 -553.34119854872097 168.49429525232003 0 168.49429525232003 93.912836584331671 0 0 0 0 -598.83740136155393 -222.60337428116418 0 -222.60337428116418 29.849078466698614 0 0 0 0 -723.01921712288004 -141.5247185392663 0 -141.5247185392663 448.51877866815948 0 0 0 0 -630.5851981181986 -265.72329890333003 0 -265.72329890333003 283.60070177974376 0 0 0 0 -857.23740044717306 -42.171433795485882 0 -42.171433795485882 936.33379009249256 0 0 0 0 -313.26688069677039 -114.27153845564499 0 -114.27153845564499 -218.93122419755605 0 0 0 0 -549.8463113634516 -457.3217488036089 0 -457.3217488036089 -647.03337813459802 0 0 0 0 -171.35296318678593 626.63284125180417 0 626.63284125180417 -246.68850519122861 0 0 0 0 -802.10700894634647 -96.062921054750404 0 -96.062921054750404 -448.1612924922083 0 0 0 0 -798.065678490339 285.79155751408314 0 285.79155751408314 -482.66838566666047 0 0 0 0 -410.03713908254576 204.26926795183863 0 204.26926795183863 -539.03507291088363 0 0 0 0 -215.36689639108954 -282.10117585674197 0 -282.10117585674197 -403.73003054139554 0 0 0 0 -341.93942553327361 314.36028531977809 0 314.36028531977809 -1184.2730404465246 0 0 0 0 -699.58584810117463 -109.68031571644406 0 -109.68031571644406 -618.47224482316324 0 0 0 0 -92.795953618652092 -29.059466510981871 0 -29.059466510981871 -7.5576814194706907 0 0 0 0 -457.83765098841832 319.90063228222789 0 319.90063228222789 52.769999738677143 0 0 0 0 -676.79174073283502 -15.62888181064227 0 -15.62888181064227 305.35650362538036 0 0 0 0 -727.76322588821313 304.29428118721432 0 304.29428118721432 375.24302962418369 0 0 0 0 -312.95013067458785 -196.76318119281859 0 -196.76318119281859 -46.344284197595698 0 0 0 0 -78.590464214343228 -430.0219117227316 0 -430.0219117227316 263.8837719050307 0 0 0 0 -339.55810369352548 -2.1882537729416072 0 -2.1882537729416072 329.49909544591719 0 0 0 0 -776.26677241566358 -638.11524152465608 0 -638.11524152465608 290.62541950502055 0 0 0 0 -260.94542244650802 -598.33440383664856 0 -598.33440383664856 1238.456816118497 0 0 0 0 383.57156852597109 -507.77937437993205 0 -507.77937437993205 428.46423917531752 0 0 0 0 -22.405738944324185 -10.515377155484764 0 -10.515377155484764 -4.9153295908324655 0 0 0 0 -865.53568587686459 13.250569077130422 0 13.250569077130422 952.92961927972374 0 0 0 0 91.281108276489249 352.51682784919853 0 352.51682784919853 457.93587241539717 0 0 0 0 -1029.4253301467206 -768.38122469844654 0 -768.38122469844654 -896.759290848815 0 0 0 0 -1095.6818383099089 -339.65037335012858 0 -339.65037335012858 443.95217638733084 0 0 0 0 -825.87521044802997 -40.168556346403875 0 -40.168556346403875 -99.431523258726884 0 0 0 0 -889.50065558881761 45.579859568992106 0 45.579859568992106 37.390191565315035 0 0 0 0 -481.36892736150912 33.794310205347756 0 33.794310205347756 -235.85334494207927 0 0 0 0 -368.87186034647311 -185.5365410406539 0 -185.5365410406539 -605.94847671464595 0 0 0 0 -537.2473376992566 -129.08679821381702 0 -129.08679821381702 -85.016946464140574 0 0 0 0 -205.44562912631227 227.81688278795946 0 227.81688278795946 -155.71362473788236 0 0 0 0 -135.43752335663157 116.23050488167837 0 116.23050488167837 -325.81845964093009 0 0 0 0 -243.44065797573785 184.11306989026912 0 184.11306989026912 -175.32185995931832 0 0 0 0 -19.313179289425051 -0.63164201578925372 0 -0.63164201578925372 -4.8578533276041753 0 0 0 0 -85.923402358737803 78.891941344245652 0 78.891941344245652 86.757417193369292 0 0 0 0 -292.78414212304051 63.945894098938879 0 63.945894098938879 -252.30509829475432 0 0 0 0 -486.00799619966574 -45.166239422436149 0 -45.166239422436149 -248.51742748992183 0 0 0 0 -321.39645326515165 90.516066416555532 0 90.516066416555532 -154.27445990021261 0 0 0 0 -26.197314719872452 2.6498237296899987 0 2.6498237296899987 19.031922394840791 0 0 0 0 -509.30947695779469 96.301459513862028 0 96.301459513862028 208.65108896451079 0 0 0 0 -95.522795018191175 -21.349952751542908 0 -21.349952751542908 -3.8052768249406648 0 0 0 0 -257.53629773617286 777.18212783127638 0 777.18212783127638 -476.05647639645213 0 0 0 0 -2188.7596999975358 -251.3759477501244 0 -251.3759477501244 -830.88305584985392 0 0 0 0 -1618.683913932502 1818.3652049149223 0 1818.3652049149223 -3029.6413215275461 0 0 0 0 -2323.2144005813607 1514.7101159041113 0 1514.7101159041113 154.45393360100206 0 0 0 0 -886.80667020062538 637.83025614081544 0 637.83025614081544 -1144.7745807695865 0 0 0 0 294.16927403665704 -865.14505878473642 0 -865.14505878473642 -728.59209168329107 0 0 0 0 -1162.9345088820664 753.90549156976249 0 753.90549156976249 375.24090044270815 0 0 0 0 51.536307007176219 608.58304840834558 0 608.58304840834558 -986.05012747810838 0 0 0 0 -724.23067090132827 388.61962436749309 0 388.61962436749309 709.662485791172 0 0 0 0 -19.346961082771372 12.76793232824042 0 12.76793232824042 -6.1433592788472211 0 0 0 0 -255.92820904540713 1050.5417342240357 0 1050.5417342240357 -1598.9723976145247 0 0 0 0 -549.33234173686651 -222.77520016253038 0 -222.77520016253038 -68.394538174316949 0 0 0 0 -1381.3857510166345 1317.556027361431 0 1317.556027361431 -742.2695479420895 0 0 0 0 -371.49215307708801 601.87140826374889 0 601.87140826374889 -494.52761283024051 0 0 0 0 -73.331669015903259 5.3237710153869102 0 5.3237710153869102 4.6979661985335568 0 0 0 0 -1101.5316026429573 613.15934049162115 0 613.15934049162115 164.77049731562465 0 0 0 0 -74.383502379176207 1501.945623686117 0 1501.945623686117 -2457.6392381134397 0 0 0 0 -294.05966466582322 744.53676868603179 0 744.53676868603179 -935.86017618435767 0 0 0 0 -365.75197945780019 -171.67230027361313 0 -171.67230027361313 142.40155088573374 0 0 0 0 -27.453191200192549 8.073462341490675 0 8.073462341490675 1.3732967595782402 0 0 0 0 -51.304796555363282 135.5205491718807 0 135.5205491718807 -76.910371505084186 0 0 0 0 0.77451965754622165 -1.015405500315282 0 -1.015405500315282 -1.7855286432871367 0 0 0 0 49.088982664885407 2.9062048616165157 0 2.9062048616165157 -138.33661529096753 0 0 0 0 -1429.9561554314278 460.59850962086284 0 460.59850962086284 44.091948339048201 0 0 0 0 -526.57666462214547 178.90312701940184 0 178.90312701940184 57.358915219343544 0 0 0 0 -145.01133438784746 269.43776751230462 0 269.43776751230462 -1485.6152111725469 0 0 0 0 -963.93776941558099 1058.3603126939745 0 1058.3603126939745 -622.84629886630501 0 0 0 0 -87.62264163682994 65.243590637360285 0 65.243590637360285 -602.17916299286571 0 0 0 0 -38.511978526599705 213.12274693856762 0 213.12274693856762 -453.31786531972489 0 0 0 0 -339.00807765382342 561.28466334148288 0 561.28466334148288 -265.9750924862783 0 0 0 0 -451.57342439328204 407.50556148974829 0 407.50556148974829 -369.44690150844326 0 0 0 0 305.68220370024937 174.98258929022086 0 174.98258929022086 -465.01472353713871 0 0 0 0 -188.14459793653805 300.11130396469173 0 300.11130396469173 2.3625378682531846 0 0 0 0 -81.878834161216218 -51.680284819500912 0 -51.680284819500912 90.76645259641964 0 0 0 0 3.9847229291496546 3.280363836245666 0 3.280363836245666 -3.9686021380597918 0 0 0 0 196.59336111422454 52.906880854715155 0 52.906880854715155 -12.601269243654826 0 0 0 0 74.292646922345739 -24.282360819928272 0 -24.282360819928272 -54.996135362266614 0 0 0 0 268.43541304069367 -236.51840973393553 0 -236.51840973393553 -420.03299078407395 0 0 0 0 -224.13846707825724 -359.98518377705852 0 -359.98518377705852 -83.094780850528196 0 0 0 0 25.84996966815379 -137.13534577917471 0 -137.13534577917471 87.590696754529745 0 0 0 0 -124.66399221042229 -133.44302401937784 0 -133.44302401937784 149.09969910724976 0 0 0 0 24.22242313438278 -83.203795554880429 0 -83.203795554880429 25.626404300818649 0 0 0 0 -1782.739127220193 1025.2027217724003 0 1025.2027217724003 -429.34892037518148 0 0 0 0 -810.00585416841204 -596.14780706686327 0 -596.14780706686327 -545.42971958862131 0 0 0 0 -284.25799884862136 -124.12366493807392 0 -124.12366493807392 -133.54447975235325 0 0 0 0 -143.73646491354157 64.869153775489394 0 64.869153775489394 493.80285260665551 0 0 0 0 -776.60481800162233 2.8925784085586201 0 2.8925784085586201 1024.3394679070043 0 0 0 0 -390.87336543209676 -350.47552531225483 0 -350.47552531225483 116.41871363179689 0 0 0 0 -60.849205471356981 -51.149592593397756 0 -51.149592593397756 310.62460150533025 0 0 0 0 364.30059796589194 541.67548998355232 0 541.67548998355232 666.11364684659566 0 0 0 0 -15.000683330409863 -0.99842573145275537 0 -0.99842573145275537 6.6705287739921104 0 0 0 0 605.75700188950577 313.76509597394488 0 313.76509597394488 -407.86982547800528 0 0 0 0 -57.377190746092992 26.389015285014302 0 26.389015285014302 -0.81417815722024045 0 0 0 0 -43.162751421892608 47.071595990700189 0 47.071595990700189 35.485926561654196 0 0 0 0 -219.21324114680465 141.532702342638 0 141.532702342638 417.70628864143146 0 0 0 0 -38.221770610465455 29.255341330912159 0 29.255341330912159 -7.6385477737986616 0 0 0 0 -62.704413014376769 30.299955333030539 0 30.299955333030539 55.378605977176449 0 0 0 0 -65.184310489923519 53.384240256996691 0 53.384240256996691 7.7984557968211448 0 0 0 0 -44.910894710177672 18.4321963159814 0 18.4321963159814 54.368436721611943 0 0 0 0 -21.574003497540843 2.9150685264459781 0 2.9150685264459781 14.315518617234067 0 0 0 0 -34.750535146624316 39.153583050310772 0 39.153583050310772 29.473478320653157 0 0 0 0 -22.470521524646998 18.154339425308919 0 18.154339425308919 28.87237394491595 0 0 0 0 -49.455432508628292 40.824093211150284 0 40.824093211150284 34.193350023080711 0 0 0 0 208.23900265752309 -17.661469905520413 0 -17.661469905520413 -29.742258915377079 0 0 0 0 -15.81307526651085 -6.1849894744672724 0 -6.1849894744672724 39.814219582843265 0 0 0 0 -21.511602829428739 -38.936650754882976 0 -38.936650754882976 111.61117058820128 0 0 0 0 208.96145083665033 93.613350661883771 0 93.613350661883771 103.35307807029324 0 0 0 0 3.0774861002781222 7.3585336724639632 0 7.3585336724639632 6.2026544276191888 0 0 0 0 -62.438229877610866 -42.606385811118798 0 -42.606385811118798 249.2992865548058 0 0 0 0 -63.348570360218702 32.998349585398771 0 32.998349585398771 1.199270556219032 0 0 0 0 -65.91206020435493 61.029427193475385 0 61.029427193475385 41.985222358377314 0 0 0 0 -62.877941955943243 53.973271466130427 0 53.973271466130427 17.51480993369205 0 0 0 0 -43.617686859572132 36.716925550746055 0 36.716925550746055 35.578957346901007 0 0 0 0 -71.437986789780552 48.646029635132436 0 48.646029635132436 33.982272539995279 0 0 0 0 -0.40167018309875857 32.788435562461117 0 32.788435562461117 23.877913003117182 0 0 0 0 110.33468069355877 116.42976301545785 0 116.42976301545785 -15.88551875470014 0 0 0 0 -85.319613695275621 51.910098215956623 0 51.910098215956623 38.004211128241877 0 0 0 0 4.8399591485414248 35.109104357921325 0 35.109104357921325 21.5972350281837 0 0 0 0 -8.1851346483526441 38.55324388440242 0 38.55324388440242 29.779108290752703 0 0 0 0 -112.74497379934473 115.23437206620237 0 115.23437206620237 179.2265876265709 0 0 0 0 -74.243208528452669 50.881425044384741 0 50.881425044384741 16.884433260592004 0 0 0 0 -70.3359558491793 50.106241313009832 0 50.106241313009832 12.214449572348713 0 0 0 0 -152.39779775866918 37.901089468271493 0 37.901089468271493 20.523534252141303 0 0 0 0 -77.236465321891643 28.209948835463326 0 28.209948835463326 7.3056725728787431 0 0 0 0 -95.073118196440646 5.7990418496522693 0 5.7990418496522693 4.2804091312160359 0 0 0 0 -90.394666666979901 26.605634389438421 0 26.605634389438421 -258.14935470657127 0 0 0 0 -32.449794293366722 23.576189146304387 0 23.576189146304387 26.271873540223169 0 0 0 0 -16.082848622871808 19.475862114130557 0 19.475862114130557 21.129636910274478 0 0 0 0 -22.188335480627785 12.184196927331264 0 12.184196927331264 33.963276377391786 0 0 0 0 -39.841524671126535 32.429154088222731 0 32.429154088222731 13.372168756021892 0 0 0 0 -24.262055232101055 28.113780314413575 0 28.113780314413575 7.370721713950303 0 0 0 0 -79.24337989808555 44.118455901302696 0 44.118455901302696 17.34422051566662 0 0 0 0 -167.02293104869386 40.982210532931987 0 40.982210532931987 26.019933986665478 0 0 0 0 -11.143122913853787 1.8874084607846839 0 1.8874084607846839 1.4854482607228299 0 0 0 0 -29.151178036705858 26.821160478966483 0 26.821160478966483 7.1377190352306989 0 0 0 0 -19.540588823498183 53.967208194237941 0 53.967208194237941 23.953763300112996 0 0 0 0 -36.736847192390996 25.891421618773165 0 25.891421618773165 20.673023816814748 0 0 0 0 -47.933940204522386 26.270531361366267 0 26.270531361366267 16.309219291888216 0 0 0 0 -52.057030142888834 25.926378403957642 0 25.926378403957642 53.938433488132432 0 0 0 0 -56.603557157886826 22.671658230143294 0 22.671658230143294 49.671787293604211 0 0 0 0 -32.012554494547253 40.218995886064889 0 40.218995886064889 32.892514302318467 0 0 0 0 -39.340744325287233 31.536733345052198 0 31.536733345052198 21.567414630248095 0 0 0 0 -47.054245216102572 26.82638410668369 0 26.82638410668369 22.892561421835126 0 0 0 0 -55.060607115068706 24.251589455037902 0 24.251589455037902 18.718058266444132 0 0 0 0 -31.706270485679852 19.5135459017838 0 19.5135459017838 12.444276127901503 0 0 0 0 -36.793417093520475 46.342940153128893 0 46.342940153128893 -22.557131126355671 0 0 0 0 -86.169291852856986 123.77319617062312 0 123.77319617062312 -53.920390084278552 0 0 0 0 -73.037877019261941 62.503282259141997 0 62.503282259141997 3.1643686711499868 0 0 0 0 -94.829749795495445 53.678109855503862 0 53.678109855503862 24.689813835133464 0 0 0 0 -70.943013066316198 15.717734976127161 0 15.717734976127161 28.304217744882813 0 0 0 0 -121.31641039253736 -138.80194622741328 0 -138.80194622741328 8.2629783332625948 0 0 0 0 -151.62994962181256 62.702368216495415 0 62.702368216495415 130.55536996942465 0 0 0 0 -100.23737235361477 12.24764531178289 0 12.24764531178289 2.4331618287021635 0 0 0 0 -106.9224155976699 73.30890897374411 0 73.30890897374411 73.837984910765954 0 0 0 0 -88.066170843113952 2.7148073297156117 0 2.7148073297156117 -0.50127254114671382 0 0 0 0 -195.4502303826448 56.058180606927635 0 56.058180606927635 183.96841637141722 0 0 0 0 -171.30445489778231 -16.946304451847936 0 -16.946304451847936 180.33143020472198 0 0 0 0 -1592.2571983291946 900.70976664840009 0 900.70976664840009 -663.07365837479665 0 0 0 0 -2.4460598403426559 8.6355251498059147 0 8.6355251498059147 -6.7653532269047503 0 0 0 0 -59.699939943457139 2.5109359049929481 0 2.5109359049929481 -66.108602929427434 0 0 0 0 -31.824068357949727 52.539562607596963 0 52.539562607596963 -347.32076334793237 0 0 0 0 -1552.3980798869852 1061.3159992673427 0 1061.3159992673427 -725.77707709599781 0 0 0 0 -308.57927321398893 28.921928671896239 0 28.921928671896239 76.68159385544277 0 0 0 0 -80.156348713680927 244.42598777241074 0 244.42598777241074 -776.7911128038395 0 0 0 0 -1654.5226124257024 860.84638468575849 0 860.84638468575849 -674.32407375496405 0 0 0 0 -1577.4155329212663 748.55332845529483 0 748.55332845529483 -590.66957081844521 0 0 0 0 -1682.3958111800457 834.47103223060549 0 834.47103223060549 -466.03892584404821 0 0 0 0 -10.398759503536184 -1.0924469616899444 0 -1.0924469616899444 -1.6676893863131781 0 0 0 0 -233.93009461380279 -131.63174855203397 0 -131.63174855203397 24.500938948018302 0 0 0 0 -55.636372285356629 76.885223447079625 0 76.885223447079625 -68.681129992819479 0 0 0 0 -346.44124845265469 87.528223813762452 0 87.528223813762452 -12.543525988890906 0 0 0 0 -91.299732637904526 130.45267694402173 0 130.45267694402173 40.780507754912833 0 0 0 0 -115.36018172156764 118.4603996632959 0 118.4603996632959 55.044739347584255 0 0 0 0 -116.33087851868186 190.62770144520255 0 190.62770144520255 -102.05489153577582 0 0 0 0 -393.3580572577921 217.8348399395436 0 217.8348399395436 228.61766758497834 0 0 0 0 -159.14316131090891 44.564290299475033 0 44.564290299475033 169.07797087398649 0 0 0 0 -104.36878762556444 133.14815339971847 0 133.14815339971847 69.337276207501418 0 0 0 0 -2243.754052010805 732.85585978382733 0 732.85585978382733 -370.92483305632777 0 0 0 0 -1497.5384458701737 674.27595911404205 0 674.27595911404205 -697.25244429800296 0 0 0 0 -1604.4217910849693 751.56668590167828 0 751.56668590167828 -579.62755935434689 0 0 0 0 -1595.193394516129 767.63301927609018 0 767.63301927609018 -805.62437157880777 0 0 0 0 -1650.8459457021891 544.68931050076026 0 544.68931050076026 -782.25623491004035 0 0 0 0 -1381.4475692626584 657.73127338319318 0 657.73127338319318 -661.45830120613573 0 0 0 0 -1634.6668039146025 609.80088202733441 0 609.80088202733441 -545.15825153852347 0 0 0 0 -982.1061640180269 283.79863016741547 0 283.79863016741547 -416.36487827902602 0 0 0 0 -1480.3366915885672 1113.8128082637695 0 1113.8128082637695 -684.19709220106779 0 0 0 0 -1011.8525962116837 1676.2882457458327 0 1676.2882457458327 -394.05876958404588 0 0 0 0 -153.354565804304 660.91881743177782 0 660.91881743177782 -539.57002872621888 0 0 0 0 -575.78822989160835 -9.2348333269328577 0 -9.2348333269328577 -51.785517761944902 0 0 0 0 175.62825175125909 109.63550299739109 0 109.63550299739109 15.281937460924382 0 0 0 0 -0.28756017094785591 1.4145254078386387 0 1.4145254078386387 -0.29706042993129245 0 0 0 0 -2273.632235324254 1810.1077191321911 0 1810.1077191321911 -388.0990629521948 0 0 0 0 -825.02338591081207 1825.540637031585 0 1825.540637031585 -1351.3560191745285 0 0 0 0 -55.289597587692697 748.45027813759816 0 748.45027813759816 51.866881438931159 0 0 0 0 -410.24282195289925 50.39029861550398 0 50.39029861550398 161.85405937931137 0 0 0 0 -1466.0072299652675 140.86560262924468 0 140.86560262924468 228.56986387075449 0 0 0 0 -68.449172373148031 -91.71380315526585 0 -91.71380315526585 -67.447436434171323 0 0 0 0 -207.07734776688449 126.23497919476722 0 126.23497919476722 171.27023183814526 0 0 0 0 -268.73850524355657 22.645625865087823 0 22.645625865087823 91.564895776689809 0 0 0 0 -20.640766048090882 75.798600777834508 0 75.798600777834508 57.045305464458579 0 0 0 0 18.344312110380997 46.666268423637121 0 46.666268423637121 9.0452089058053389 0 0 0 0 -47.40757544569351 2.676902772590438 0 2.676902772590438 -15.027477054831252 0 0 0 0 -21.001851609755249 49.03631135269643 0 49.03631135269643 21.813350521633765 0 0 0 0 -35.224969220394996 35.710939500162567 0 35.710939500162567 11.270788246256416 0 0 0 0 -51.947951616715727 38.424349540742924 0 38.424349540742924 30.65318404149366 0 0 0 0 -121.70910843393358 37.049254013894824 0 37.049254013894824 30.654553368184452 0 0 0 0 -124.34166973432002 98.243114491582674 0 98.243114491582674 34.857456900914485 0 0 0 0 -63.852210682467557 79.29547165627082 0 79.29547165627082 33.817036166630714 0 0 0 0 -112.93931342366704 62.112362738747834 0 62.112362738747834 100.89354872547119 0 0 0 0 
</DataArray>
<DataArray type="Float64" Name="cross_section_updated" format="ascii">
1 1 1 1 1 1 0.006609730021206961 1 1 1 0.0034574263457303675 1 1 1 0.0079715955816578796 1 1 1 1 1 1 0.010134132528446096 0.0045064288473184583 1 1 1 1 0.0099973817607564505 0.010020904579305968 1 0.0076712520063051889 0.0075301992931508313 1 0.0108579925735283 1 1 1 0.0051029309679148233 1 1 0.010722759132112647 1 1 1 1 1 1 1 0.0068408985285933754 1 1 1 1 1 1 1 1 7.5928548864956369e-10 1 1 0.0086910686556471023 1 -1.705172329724558e-09 1 0.0099970595786398747 1 0.0036029987170662602 1 1 1 1 1 1 1 1 1 1 1 1 1 1 1 1 0.015475763514053848 1 1 1 1 1 1 1 1 0.0069046977107025953 1 1 0.0025510274149955561 0.0095883853771085679 1 1 1 1 1 1 1 1 1 1 1 1 -8.6342189647981016e-10 1 1 1 1 1 0.0094057196410770039 1 1 0.0096867702415622051 1 1 1 1 1 1 1 1 1 1 1 1 1 1 1 1 1 1 1 0.0097001928847547658 1 1 1 1 1 0.0099055501103313872 1 1 1 1 1 1 1 1 1 1 1 1 1 1 1 1 1 1 1 1 1 1 1 1 0.010000678168978171 1 0.0057199612498076424 1 1 1 0.0030521239791674419 1 1 1 0.0021783402554778793 1 1 1 0.010070258600495152 -1.0711166294197216e-09 1 1 0.014030983940031237 1 1 1 1 0.013065971238384842 1 1 1 1 1 0.009323386807117244 1 1 1 1 0.010046665739840442 1 0.0096085833718459052 1 1 0.0097956242485368952 1 1 1 0.0099390111421239213 1 1 0.0053331410061521409 1 1 1 1 1 1 1 1 1 1 0.0092057268294263306 1 1 0.010044094712114093 1 1 1 1 1 1 1 0.0093283017945001712 1 1 1 1 1 1 1 1 1 1 1 1 1 1 1 1 1 1 1 1 1 0.0036817167806248909 1 0.0049162310797418955 1 1 1 1 1 0.010000121724517259 1 1 1 1 1 1 1 1 -5.9792180789886018e-09 1 1 1 0.008677887468110608 1 1 0.010984138102406888 1 1 1 1 0.0098708002908174906 1 1 0.0079565531769061996 1 1 1 1 1 0.0109126512519746 1 0.0064881021576256373 1 1 1 1 1 1 1 1 1 1 1 1 1 1 1 1 1 1 0.010267007628476993 1 1 1 1 1 0.0033832344391770686 0.0070983523752845973 1 1 1 1 1 1 1 1 1 1 0.011544902813143134 1 1 1 1 1 1 1 1 1 0.010855144619430088 1 1 0.0035694002320486445 0.010007844164301536 1 1 1 0.0099972879974865661 1 1 0.0023012383705079964 1 1 1 1 1 1 1 1 1 1 1 1 1 1 1 0.010053301602516704 1 1 1 1 1 1 1 1 0.00041878477135653958 1 1 0.0099729842901075741 1 1 1 1 0.00075282086633602155 1 1 1 1 1 1 1 1 1 1 1 1 1 1 0.0084270587548198918 0.010481116345184864 1 1 0.0087074072542093917 0.0050847127431313185 1 0.0098396156917980628 1 0.0040149812611904416 1 0.010246454542554144 1 1 0.0025245493071240216 1 1 1 1 1 1 1 1 1 0.0095485995978174948 0.0078604196753947735 1 1 0.0098926729446273624 1 1 1 1 1 0.010267652681720321 1 1 0.010469838251445918 1 1 1 1 0.010735208406799522 1 1 1 0.0016517062253829373 1 1 1 0.0022067407601075763 1 0.010091149081083337 1 1 0.0093926316160370497 1 1 1 1 1 1 1 1 1 1 1 0.010199228438644285 1 1 1 1 1 1 0.010041681616336869 1 1 1 0.0099828708717410487 1 1 1 1 1 1 1 0.0072588574071640634 1 1 1 1 1 0.0079805770348541465 1 0.0057236379798012438 1 1 1 1 1 0.0084322303700654737 0.0089973070908297287 1 1 1 0.0099981949691779134 0.0070157842746699107 1 0.0053435199021080598 1 1 1 1 1 1 1 0.010701824193514236 1 1 1 1 1 1 1 1 1 1 1 1 1 1 0.010810053911309318 1 1 0.011619837327318892 1 0.011511878104823563 1 1 1 1 1 1 1 1 1 1 1 1 1 1 0.009979879199074948 1 1 1 1 1 1 1 1 1 1 1 1 1 1 1 1 0.0099048411947231935 1 1 1 1 1 1 1 1 1 1 1 0.0089722348756125191 0.0075216052516044307 1 1 1 1 1 1 1 1 1 1 1 1 1 1 1 1 -1.0675033773610565e-09 1 1 1 1 1 1 1 0.0024673390928925294 1 1 1 1 1 1 1 1 0.0074706787567681097 1 1 1 0.0094577174360959138 1 1 1 1 1 1 1 1 1 1 1 1 1 1 1 1 1 1 1 1 1 1 1 1 1 1 1 1 0.0096135069231245655 1 0.0086333870762567693 1 1 1 1 1 1 1 1 1 1 1 1 1 0.0075425614327094903 1 1 1 0.0098379827732852192 1 1 1 1 1 1 1 1 1 1 1 1 1 0.0074313905429896172 0.0070711886069430643 1 1 1 1 1 1 1 0.0057751889524237758 1 1 1 1 1 1 1 1 1 1 1 0.0060612502301069064 1 1 1 1 1 1 1 0.008561940973310039 1 1 1 1 1 1 1 1 1 1 1 1 1 1 1 1 1 0.0095601887428396377 1 1 1 1 1 1 1 1 1 1 0.0096084877887840509 1 1 1 1 1 0.0093901827009504456 1 1 1 0.0097210105399373609 1 1 1 1 0.0032133633835628884 1 1 1 1 1 1 1 0.011028393978577244 1 -1.2114687378272926e-10 1 1 0.012322855088233255 1 0.0097618104748922671 1 1 1 1 1 1 1 1 1 1 1 1 1 1 1 1 1 1 1 1 1 1 1 1 1 1 1 1 1 1 1 1 1 1 1 0.0099521570029461812 1 0.013985327808121149 0.010015370592239385 1 1 1 1 1 1 1 1 1 1 1 0.0077114502229827676 1 1 1 1 1 1 1 0.0053824757622699428 1 0.010228994077880253 1 0.0042960932094616208 1 1 1 1 1 1 0.0081783898295801592 1 0.0099393156277709626 0.0052558794579282107 1 1 1 1 1 1 1 1 1 1 1 1 1 1 1 1 1 0.008603993749344202 1 1 1 1 1 1 1 1 1 1 1 1 1 1 0.0095305117265556127 1 1 1 1 1 1 1 1 1 1 1 1 1 0.009618947164267911 1 1 1 1 1 1 1 1 1 0.010667241346941386 1 1 1 1 1 0.0088698075735122311 0.009953860869753894 1 1 1 1 0.007859161280638927 0.010079961338191093 1 1 1 1 1 1 1 1 1 1 1 0.010334736721034713 1 1 1 1 0.0097618951553353882 1 1 1 1 1 1 0.0074187873160900166 1 1 0.010573677571576352 1 0.0086043606229816195 1 1 1 0.0078671457520922486 1 1 1 1 1 1 1 0.0099812766604219505 1 1 1 1 0.0085588478305405596 0.0074194595121567855 1 1 0.009755202940464858 1 1 1 0.0098590123347972632 0.0032258159125156498 0.0092840836592555549 0.010016109854370755 1 1 0.010172564971443232 1 1 1 1 1 1 1 1 0.0062608643759426898 0.0063476641193408127 1 1 1 1 1 1 0.0064566594424548159 1 0.0081699550347590858 1 1 1 0.0095947294835989141 1 1 1 1 1 1 1 1 1 1 1 1 1 1 1 1 1 1 1 1 1 1 1 1 1 1 1 1 0.0091549182264385551 1 1 1 1 1 1 1 1 1 1 1 1 1 1 1 1 1 1 1 1 1 3.6576548768929573e-09 1 1 1 1 1 1 1 1 1 0.010607651463988715 1 1 1 1 1 1 0.0099673834275647334 1 1 1 1 1 -1.0367067265412699e-09 1 1 1 1 1 0.007673367668719705 1 1 1 1 1 1 1 1 1 1 0.0062639470436092748 1 1 1 1 0.0065733727251101309 0.0092857962221712491 1 1 0.010180908924730454 1 1 1 1 0.0087542965746064128 1 1 0.010114033429614363 1 1 1 1 1 -1.8593696478330646e-09 0.0090409796114061004 1 1 1 1 1 1 0.0073593852609371204 1 1 1 1 1 1 1 0.0084892797388888119 0.0099554003211896405 1 1 1 0.0029177669742302872 1 1 1 0.0038427836971517693 1 1 0.0087061956713493614 1 0.0085970995574624343 1 1 1 0.0066633260313180859 1 1 0.0050304270525760968 0.0092400580367072542 1 1 1 1 1 1 0.0070558755452225482 1 0.010660188683511146 1 0.0099313611102983899 1 1 1 0.0099927255056698212 0.0090922764555955281 1 0.009738601388313067 1 1 1 1 1 1 1 1 1 1 1 1 1 1 1 1 0.0075258293961497557 1 1 1 1 1 1 1 0.011007448520249832 1 1 1 1 1 0.010629521595092045 1 1 1 0.0069971537161845638 1 1 1 1 0.0073137742654098368 1 0.0099822210853633356 1 0.0075731129506045464 1 1 1 1 0.0055514476800530635 1 1 0.012026556615298837 1 1 1 1 1 1 1 1 1 1 1 0.0033012184596923067 1 1 1 1 1.203796427123871e-09 1 1 1 1 0.013474673819200651 1 1 1 1 1 1 0.008076234294956226 1 1 1 -6.5325198462390377e-10 1 0.0099682476853729281 0.0099711714232859731 1 1 1 1 1 1 1 1 1 1 1 1 1 1 1 1 1 1 1 1 1 1 1 1 1 1 1 1 0.0097147738324590872 1 1 0.0098549275882874043 0.0042153185253712405 1 0.0040165295406389481 1 1 1 1 0.0097258244242053905 1 1 0.0098524800556269096 1 1 1 1 1 1 1 1 1 1 1 1 1 1 1 1 1 1 1 1 1 1 1 1 1 1 1 1 0.0087374378605447178 1 1 1 1 1 1 1 1 0.0084913933049154712 1 1 1 1 1 1 1 0.0065426511699279884 1 0.0087605332540380797 1 1 1 0.0063006361724643953 1 1 1 1 1 1 1 0.0075044514628606739 1 0.010637289420078272 1 1 1 1 1 0.0062944898783784363 1 1 1 1 1 1 1 1 1 1 1 1 1 1 1 1 1 1 1 1 1 1 1 1 1 1 1 1 1 1 1 1 1 1 1 1 1 1 1 0.0045801887572583296 0.0052897658905114529 1 1 0.0041295175889303534 1 1 1 0.0087231488087100469 1 1 1 0.008399772732229676 0.0068221464545511739 1 1 0.0053002472107583354 1 1 1 1 1 1 1 1 1 1 1 1 1 1 1 1 1 1 1 1 1 0.0096595702276333541 1 0.0096635261385939995 1 1 1 1 1 1 1 1 1 1 1 1 1 1 1 1 1 1 1 1 1 1 1 1 1 1 1 1 1 1 1 1 1 1 1 1 1 1 1 1 1 1 1 1 1 0.00904752193726234 1 3.8838050466644125e-09 1 0.006406578403926522 1 1 0.0011941391054793252 1 1 1 1 1 1 1 1 1 1 1 1 1 1 1 1 1 1 1 1 1 1 1 1 1 1 1 0.010039688617783215 1 1 1 1 1 1 1 1 1 1 1 1 1 1 1 1 1 1 1 1 1 1 1 1 1 1 1 1 1 1 1 1 1 1 1 1 1 1 1 1 1 1 1 1 1 1 1 1 1 0.0097787977281842634 1 1 1 1 0.0089471557201387091 1 1 1 1 1 1 1 1 0.01063484966912151 1 1 1 1 1 0.0084751521467477317 0.0085640797283998583 0.0088148848257602885 1 1 1 1 0.0068497069543696151 0.0092663487512760646 1 1 0.0092354451335828255 1 1 1 1 1 1 1 1 1 1 1 1 1 1 0.0075123680777759386 0.0099660536869349385 1 0.0097292969680876241 1 1 1 1 1 1 1 1 1 1 1 1 1 1 1 1 1 1 0.01033673670319761 1 1 1 1 1 1 0.011080480109843822 1 1 1 1 1 1 1 1 1 1 1 1 1 1 1 1 1 1 0.0096068187150683947 1 1 1 1 1 1 1 1 1 0.0088323972432573505 1 1 0.010027084530766645 1 1 1 1 1 1 1 1 1 1 1 1 1 1 1 1 0.0081402330317674361 1 0.0058629582433075535 1 1 1 1 0.0045859304597372051 1 0.0094518793404425611 1 1 0.0061604701391644607 0.0066472223518035892 1 1 0.0051469682316792713 1 1 1 0.0098909605653631581 1 1 1 1 1 1 0.0099995781134623388 1 1 1 0.0030815619057306615 1 1 1 1 0.0089520064919864015 1 1 1 1 1 1 1 0.0092757244035686706 1 1 1 1 1 0.0080516869058929238 1 1 0.0096475960786992672 1 1 1 1 1 1 1 0.0097308563297258364 1 1 1 0.010318245440430369 0.0043372919556865838 1 1 1 0.01280380209484297 1 1 1 1 1 0.0099948400626146457 0.0076486299399076462 0.0087509612278903852 1 1 1 1 1 1 1 1 1 0.0060634669490998673 0.0060996985494673143 1 0.0055671763193019842 1 1 1 1 1 0.0077446045051759085 1 1 0.0066497511041004737 1 0.0063847137589686329 1 1 1 0.0059378634724892906 1 1 0.01005373354210648 1 1 1 1 1 1 1 0.010214042702164477 1 1 0.011092224663469255 0.0057367340152580694 1 1 0.010089334090075636 1 0.0095917890279486571 1 1 0.0067494584581766007 1 1 0.0095474493194250953 1 0.0074305454201744579 1 1 1 0.0089616633917044032 1 1 0.010808145088348002 1 0.0091646618260762692 1 1 0.010180307635343945 1 0.0098587595908537998 1 1 1 1 0.0084654749633187917 0.0072010517067783199 1 1 1 1 1 1 1 1 1 0.0092301042634312415 1 1 1 1 1 1 1 1 1 1 1 1 1 1 1 1 1 1 0.010001119827581515 0.01146427100884622 1 1 1 0.0059815789906715652 1 1 1 1 0.0061900920303229919 1 1 0.0065067296474041973 1 1 1 0.0079558687308025986 1 1 0.0067781829285163669 1 1 1 1 0.0099906615192710633 1 1 1 1 1 0.0037627357996720782 1 1 1 0.0050994847704185827 0.010000073492120384 1 1 0.0096307981824806151 1 1 1 1 1 0.0094097920643102968 0.0027702935199977602 1 1 1 1 0.0063140890469701805 1 1 1 1 0.0083291326013175022 1 1 1 1 1 1 1 1 1 1 1 1 1 1 1 1 1 1 1 1 1 1 1 1 1 1 1 1 0.0078563245923262293 1 1 1 1 1 1 1 1 1 1 1 0.0033210558757009161 1 1 1 1 0.0094464375657219227 1 1 1 0.0032240894902531639 1 1 0.010000713113442014 1 1 1 1 1 0.010351624251937055 1 1 1 1 1 1 1 1 1 1 1 1 1 1 1 1 1 1 1 1 0.0085214895264029318 1 1 1 1 1 0.0078961300450807095 1 1 1 1 1 1 1 0.010234062526997986 1 1 1 1 1 1 1 1 1 1 1 1 1 0.0069506810419868066 1 1 1 1 1 0.010678198829142256 0.0048563884627773196 1 1 1 1 0.011454931684420879 1 0.0099956651600425928 1 1 1 0.0077308663319544738 0.0091665107738013295 1 1 1.2495617388030844e-10 1 1 1 -2.1045592005219937e-10 1 1 1 1 0.0080369219883888801 1 1 0.0079907828181609228 0.0092589479286574339 1 1 1 1 1 1 0.0089604078187226766 1 1 0.0090023307508792887 1 1 1 1 0.0091473108703107164 1 1 1 1 1 1 1 1 1 1 1 1 1 1 1 1 1 1 1 0.0047796159454335987 1 0.0099713206751135923 1 1 1 0.01024118174008583 1 0.0079362303008806822 1 0.0099589969200949389 1 1 0.0077227069580386287 1 1 0.0072419314744176415 0.0051681945114401637 0.0081161416537405343 1 1 1 0.0048591755013700014 1 1 1 1 1 1 0.010301138517492522 1 1 1 1 1 1 1 0.0073535339270800366 1 0.010326902715762275 1 1 1 1 1 1 1 0.0089202347541319834 1 1 1 1 1 1 1 1 1 1 1 0.0076045447090765314 1 1 0.010167347119438964 1 1 1 1 1 1 1 1 1 1 1 1 1 1 1 1 0.0084448574453224162 1 1 1 1 1 1 1 1 1 1 1 1 1 1 1 1 1 1 1 1 1 0.0077099985111433109 1 1 1 0.0090256885561987594 1 1 1 1 1 1 1 1 1 1 0.0092237345205229762 1 1 1 1 1 1 1 1 1 1 0.0082937946597617176 1 1 1 1 1 1 0.0079478987886356378 1 1 1 0.004740102121140264 1 1 1 1 1 1 1 1 1 1 1 1 1 1 1 1 1 1 1 1 1 0.0059007666081399932 1 1 1 1 1 -9.6174140387650375e-09 1 1 0.0084897957978373219 1 1 1 1 1 1 0.0082510760010170402 1 1 1 1 0.0092325896305114792 1 1 1 1 1 1 1 1 1 1 1 1 1 1 1 1 1 1 0.0099768886485414199 1 1 1 1 1 0.0041647589334336231 1 1 1 0.00050093994653076929 1 -7.5466170812443778e-10 1 1 1 1 1 1 1 0.0019569410755595311 1 1 1 1.3936276549442184e-08 7.5226369265768422e-09 1 1 1 1 1 0.010871726266816255 1 1 1 0.013160842770310668 1 1 1 1 1 1 1 1 1 1 1 1 1 1 1 0.0039708263466845389 1 1 1 1 1 1 0.0080040193014967384 1 1 1 1 1 1 1 1 1 1 1 0.0088324972402747289 1 1 1 1 1 1 1 1 1 0.0010514214398588614 1 1 1 1 0.0069732563810863575 0.0069815994083591987 1 1 1 1 1 1 1 1 0.0002253656206796413 -1.2731279294686537e-09 1 -2.1357574458980011e-09 1 1 1 1 1 0.0096459304474926233 1 1 1 1 1 1 0.0049253774627021907 1 0.010594959941190821 1 1 1 1 1 1 1 1 1 1 0.0078827465711938036 1 1 1 1 1 1 0.0094197592940109317 1 1 1 1 1 1 1 1 0.0084692880849547257 1 1 1 1 1 0.0083256669847436727 1 1 0.010488105383101756 1 1 1 1 1 1 0.0073180158174023097 1 1 1 1 1 1 1 1 0.0029997348842896385 1 1 1 1 0.00068109595719097887 1 1 1 1 1 1 1 1 1 1 0.0079729221173739356 1 1 1 1 1 1 1 1 1 8.5078383921244338e-10 1 1 1 1 -3.1072464046211223e-10 1 1 1 1 1 1 1 1 0.011700338856266944 1 -5.0966780101857623e-09 1 1 1 0.010070936222164241 1 1 1 1 1 1 1 1 0.0023077479386448274 1 1 1 0.0001936645767986675 1 1 1 0.011161028494161574 1 1 0.010567397886616051 1 1 1 1 1 1 1 1 1 1 1 1 1 1 1 1 1 1 1 1 1 1 1 1 1 1 1 1 1 1 1 1 1 1 1 1 1 1 1 1 1 1 1 1 1 1 1 1 1 1 1 1 1 0.0080397439765269238 1 1 1 0.0086011288204647721 1 1 1 1 1 1 0.01004040232130169 1 0.0099141359518034548 1 1 1 1 0.0084634175192975537 0.0081536894261392198 1 1 1 1 1 1 1 1 1 1 1 1 1 1 1 1 1 1 1 1 1 1 -5.4076189082152837e-09 1 1 0.00037610732193037871 1 1 1 0.0098443106619800907 1 1 1 1 1 1 1 1 1 1 1 1 1 1 0.0087559021665821052 1 0.0034848344229792758 1 0.0058243851744326641 1 1 1 1 1 1 1 1 1 1 1 1 1 1 1 1 1 0.0051071647888530705 1 1 1 1 1 1 1 1 1 1 1 1 1 1 1 1 1 1 1 1 1 1 1 1 1 1 1 1 1 1 1 1 1 0.0097319286671743097 1 1 1 1 1 1 0.0040711026398582706 1 1 0.01417570786927979 1 0.0099534141003974549 1 1 0.0033886804618008803 1 1 1 0.010551317577946858 1 1 1 1 1 1 1 1 1 1 1 1 1 1 1 1 1 1 1 1 1 1 1 1 1 0.0095513871790080598 1 1 1 1 0.0092296973987411393 1 1 0.0096777105186249754 1 1 1 1 1 1 1 1 1 1 1 1 1 1 1 1 1 1 1 1 1 1 1 1 1 1 1 1 1 1 0.010059111774623005 1 1 1 0.0099157352408673419 1 1 1 1 0.01022946417175293 1 1 1 1 1 0.010223260521443791 1 1 1 1 0.010176305968749071 1 1 1 1 1 1 1 1 1 1 1 1 1 1 0.0093686722155763465 0.0081619598219261902 1 0.0062930218655075677 1 0.0080622593650902623 1 1 1 1 1 1 1 1 1 1 1 1 1 1 1 1 1 1 1 1 1 1 1 1 1 0.007583141549777829 0.012536573809936495 1 1 0.0076307680063165684 1 1 0.0078599844967275276 1 1 1 1 1 1 1 1 1 1 1 0.008542450552159124 1 1 0.009566417620010384 1 1 1 1 1 1 1 1 1 1 1 1 1 1 0.0074181846791970193 0.0099580438555911671 1 0.0027886167341059295 0.0099785415056848209 1 1 1 1 0.0099876001791198987 1 1 1 0.010688428995917536 0.0025299390528157814 1 1 1 1 1 1 1 0.0099997512523787441 1 1 1 1 1 1 1 1 1 1 1 1 1 1 1 1 0.0098221674680362692 1 1 1 1 0.010270611473951897 1 1 1 1 1 1 1 0.0027675678228766473 1 1 1 1 1 1 1 0.0042394267396033553 1 1 0.0077041348549197891 1 1 1 1 1 1 1 1 1 1 1 1 1 1 1 0.0098008263565632844 1 1 1 1 1 1 1 1 0.0092952818198221623 1 1 1 1 1 1 1 0.0096396033955873147 1 1 1 1 1 0.0099428421214037849 1 1 1 1 0.0093251404690281037 1 1 1 1 1 1 1 1 1 1 1 1 0.0098048747214892623 1 1 1 1 1 1 1 1 1 1 1 1 1 1 0.0081069072774739917 1 1 1 1 1 1 1 1 1 1 1 1 1 0.009994738996849474 0.010148679327319334 1 1 0.0050524192434601572 1 1 1 1 0.0078978355792627686 1 1 1 0.0067359189608312778 1 1 0.0093226730553607404 1 1 1 1 0.0064770724222706529 1 1 1 1 1 1 1 1 1 1 1 1 1 1 1 1 1 1 1 1 1 1 1 1 1 1 1 1 1 1 1 1 1 1 0.0095520377238344709 1 1 1 0.00842166992133319 1 0.0090965294523051091 1 1 1 1 1 1 1 1 1 1 1 1 1 1 0.0097600016340164478 1 1 1 1 1 1 1 1 0.00034467911947427127 1 1 1 0.0099591752774531514 1 1 1 1 1 1 1 0.0013404737967456226 1 0.00076487036448012746 1 1 1 1 1 1 1 1 1 1 1 1 1 1 0.0077896058509556304 1 1 0.0092067525408318328 1 1 1 1 1 1 1 0.00030451191532587102 1 1 1 1 1 1 1 1 1 1 1 1 1 1 1 1 1 1 1 1 1 1 1 1 1 1 1 0.0066506006438713586 1 1 6.4017555076456567e-09 1 1 1 0.0027670927166554005 1 1 0.00095514162100633626 1 1 1 1 1 1 1 1 1 1 1 1 1 1 1 1 1 1 1 0.0071505727256824247 1 1 1 1 1 1 1 1 1 1 1 1 1 0.0085677194155586202 1 1 1 1 1 1 1 1 1 1 1 1 1 1 1 1 1 1 1 0.0085159152449904279 1 1 1 1 1 1 1 1 1 1 1 1 1 1 1 1 0.0098735768538932064 1 1 0.0088578964220668247 1 1 1 0.0093041196794058784 1 1 0.0098809098097561478 1 1 1 1 1 1 1 1 1 1 1 1 1 1 0.0055372564327506521 1 1 0.0027479193433362289 1 1 1 1 1 1 1 1 1 1 1 1 1 1 1 1 1 1 1 1 1 1 1 1 1 1 1 1 1 1 1 1 1 1 1 1 0.0047276395507922873 1 1 1 1 0.0055164966800098289 1 1 1 1 1 1 1 1 1 1 1 1 1 1 1 0.0037500499292575096 1 0.0057318615676035592 0.0046914905661410988 1 1 0.0072461284935940885 1 0.00345791148242512 1 1 1 1 1 1 1 1 -1.0644660847214382e-09 1 1 0.0069957042526344049 1 1 1 1 0.0035077833932007502 -1.7300502003214646e-09 1 6.3242876560676287e-10 1 1 1 1 1 1 1 1 1 1 1 1 1 1 1 1 1 1 1 1 1 0.0095985205456386308 1 1 1 1 1 1 1 1 1 1 1 1 1 1 1 1 1 1 1 1 1 1 1 1 1 -1.5283619855810393e-09 1 1 1 1 1 -3.636719890509621e-09 1 1 1 1 1 1 1 1 1 -2.3157524509098693e-09 1 1 1 1 1 1 1 1 1 1 1 1 1 1 1 1 1 -4.4658026582267141e-10 0.0021033556890229441 1 1 7.535222182639828e-05 1 1 1 0.0095349713068703934 1 1 1 1 1 1 1 1 1 1 3.1410494351159779e-05 1 1 0.010136725222896707 1 0.0073966795788307435 1 1 1 1 0.0083934253294300869 1 1 1 0.0070184899613526947 1 1 1 1 1 1 0.0087459439272737707 1 1 1 1 1 1 0.0087550541368207682 1 1 1 1 1 1 1 1 1 1 1 1 1 1 0.0095901583424322853 1 1 0.0087863219345285445 1 1 1 0.0091455027886522405 0.0095698767872670898 1 1 1 1 1 1 1 1 1 1 0.0011575464854625475 1 1 1 -9.5878679995387017e-10 1 1 1 1 0.0096108546385077348 1 1 1 1 1 1 1 1 0.0042595580681242754 1 1 1 1 1 0.0048632202751105018 0.0044749001305509559 1 1 1 -6.161247609326459e-09 1 0.0080414193687423988 0.0093439679530057593 1 1 1 1 1 0.002788609264109676 1 1 1 1 1 1 0.0092509587344778085 1 1 1 1 1 1 1 0.0079593818954248052 1 1 0.0071815137910653318 1 1 0.0096753327330926508 1 1 1 1 1 1 1 1 1 1 1 1 1 1 0.006774333235363493 1 1 1 0.0099999711652655268 1 1 0.0074693918735154879 1 1 1 1 0.01000130562492646 1 1 1 1 1 1 1 1 0.0081515505311829661 1 1 1 1 0.00042764078686817475 1 1 1 1 1 1 1 1 0.00015233376430408979 1 1 1 1 1 1 1 1 1 0.010059738944281029 1 1 1 0.01031897127760124 1 1 0.0024296829094386796 1 1 -5.2956473234333501e-09 1 1 1 1 1 1 1 1 1 0.0049961547291656194 1 1 1 1 1 1 1 1 1 1 1 1 1 1 1 1 0.0098029909401738998 1 1 1 1 1 1 1 1 1 1 1 1 1 1 1 1 1 1 1 1 1 1 1 1 1 1 -2.6419410686928657e-09 1 3.0082319520140233e-05 1 1 1 1 1 1 1 1 1 1 3.2512536413120685e-10 1 1 0.0095596020107380844 1 1 1 1 1 1 1 1 1 1 1 1 1 1 1 1 1 1 1 1 1 0.0082130185310436699 1 1 1 1 1 1 1 1 1 0.0045699531566912692 1 0.010218337613838252 1 1 1 1 1 1 1 0.0085080841133626378 1 0.0089784059053706483 1 1 1 1 1 1 1 1 1 1 1 0.0024741852409402611 1 1 1 1 0.010030729443747444 1 0.0080051860097815793 1 1 1 1 1 1 0.0022780659739630518 1 1 0.0062427998124851107 1 1 0.0077756687753131378 1 1 1 0.00050081086811569822 0.0050786675311436519 0.0059766270037103393 1 1 1 1 1 1 1 1 1 1 1 1 1 0.0094778522351954327 1 1 1 1 1 1 1 0.0036364308525472649 1 0.0087573535034180753 1 0.0025006710515682803 1 1 0.0017368731768640545 0.0099968160524059879 1 1 1 1 1 1 0.007857735995404902 1 1 1 1 0.0097256972761724531 1 0.005771855801577741 1 0.0094144307498110636 1 0.0042275785563933334 1 1 1 1 0.0083552755004780363 1 1 1 1 1 0.0092033430196698917 1 1 1 1 1 1 1 1 1 1 1 1 1 1 0.0080689542356065583 1 1 1 1 1 0.0090618272485089562 1 1 1 0.0076199167532434615 1 1 1 1 1 1 1 1 1 1 1 1 1 1 1 1 1 0.00057998917893173352 1 1 1 1 0.001389213164388288 1 1 1 1 1 1 0.010021356902012883 1 1 1 1 1 1 1 1 1 1 0.006651741344889793 1 1 0.0046490452599874561 1 0.010095562565441219 1 1 1 1 1 1 1 1 1 1 1 0.0071378901696678623 1 1 1 1 1 1 0.010426531900733295 1 0.012661071947008596 0.0052082006373878852 1 0.007370983201478512 1 1 1 1 1 1 1 0.010904697073714022 1 1 1 1 1 1 1 1 1 1 1 1 1 1 1 1 0.0079139479024602517 1 1 1 1 1 1 1 1 1 1 0.0079600013982076522 1 1 1 1 1 1 1 1 1 1 0.0062949857734910276 1 1 1 1 0.0083315064195720392 1 1 1 1 1 0.0084870955790193395 1 1 1 1 0.0093286590922477333 1 1 1 1 1 1 1 1 1 1 1 1 1 1 1 1 1 1 0.0085048605342237325 1 1 1 1 1 1 1 1 0.0093912687384207112 1 0.008023075420600637 0.0099936219964625178 1 1 1 1 1 0.0095536310177777323 1 1 1 1 1 1 1 1 1 1 1 1 1 1 0.0078956305718012754 1 1 0.004647646765119565 1 0.0097802376840096759 0.010549291516839603 1 1 1 1 1 1 0.0092568236783142754 1 1 1 1 0.0091109818994261505 1 0.0074800761490664888 1 1 0.0093834359538533686 1 1 1 1 1 1 0.010081149059900301 0.0083274660267804983 1 1 1 1 1 1 1 1 1 1 1 1 1 1 1 0.0079643582755009983 1 1 1 1 1 1 1 0.009828263171139431 1 0.0083842972806317112 1 1 1 0.0094424849310818515 1 0.0084329458282837409 1 1 1 1 1 1 1 1 0.010009501789150868 1 1 1 1 1 0.0079426700112166498 1 0.01015961426599824 1 1 1 1 0.0098779859739474198 1 1 1 1 1 0.0098785617121920927 1 1 1 1 1 1 1 1 1 1 1 1 1 1 1 1 1 1 1 1 1 1 1 1 1.9593302223730458e-09 1 1 1 0.0097330749257166106 1 2.2736609574247613e-09 1 1 1 0.0091012710243068128 1 1 1 1 1 1 1 1 1 1 1 1 1 1 1 1 1 0.0084287089919910501 0.010328553585884271 0.0086180381823138912 0.0087954908537455669 1 1 1 1 1 1 0.01035944236790275 1 1 1 0.011407005331990586 1 1 1 1 1 1 1 1 1 1 0.0082216171377342048 0.002179989982419763 0.0097390830158841039 1 1 0.0067759783042364808 0.010014441404954957 1 1 1 1 1 1 1 1 1 0.0064520022159145277 1 1 1 1 1 1 1 1 0.007126224228290819 0.00086790874878222646 1 1 1 0.0097478089208350334 1 1 1 1 1 1 1 1 1 1 1 0.0020993653533951597 1 0.010092226400985213 1 1 1 1 1 0.0099686609708294384 0.0068359384483973043 1 1 0.0098986143818158793 0.0041615964245044967 1 1 1 1 1 1 1 1 1 1 1 1 1 1 1 1 1 1 1 1 1 1 1 1 1 1 1 1 1 1 1 1 1 1 1 1 1 1 1 1 1 1 0.0068274257405709447 0.007657261485229004 1 1 1 1 1 1 1 1 1 1 1 1 1 1 1 1 1 1 1 1 0.008325029420526462 1 1 1 1 1 1 1 1 1 1 1 1 1 1 1 1 0.009784522059220261 1 0.0074939034849776376 1 1 1 1 1 1 1 1 0.005721359923654426 1 1 1 1 1 1 1 1 1 1 1 0.010011398491407865 1 1 0.001767841068295313 1 1 0.0010834190432376803 1 1 1 1 0.00075332468302285321 1 1 1 1 0.0098605634406265397 1 1 1.3114112330792072e-09 1 0.0029647144045406981 1 1 1 1 1 0.0042954390655973659 1 1 1 1 1 1 1 0.0080768240808484128 1 1 1 1 1 1 1 1 1 1 1 1 1 1 1 1 1 1 1 1 1 1 1 1 0.010254796632039738 1 1 1 0.009948935406588413 1 1 0.010396891932024966 1 1 1 0.0084923030739498528 1 1 1 1 0.0090756771969754263 1 0.010806372203272123 1 1 1 1 1 1 1 1 0.009540952508620526 1 1 1 1 1 1 1 1 1 1 5.214151364146824e-09 1 1 0.0097928134260397096 1 1 0.0049707823794971316 1 1 0.0081335990310494686 0.0095921512398915026 1 1 1 1 1 1 1 0.0071463853362698886 0.012929049657272488 1 1 1 0.0079278479204034046 1 1 0.0083377602452664283 0.0041849630292133521 1 1 1 0.0058242922221372123 0.011469299306491815 1 0.0089715104623936861 1 1 0.0099824028755698627 1 1 1 1 0.015654154226440446 1 0.0041808372477634293 0.0082356100684894389 1 1 1 0.011734427017110784 1 0.0056788269220877374 0.0085076888238345139 1 0.010960586513308373 0.01124102362979164 0.0091636395968346454 0.013127765422117701 1 0.010996882063637071 1 0.0085674095883184719 1 0.010908797786793626 1 1 1 0.010462742643381234 1 1 0.0089486782579258142 1 0.011252871308267201 0.0058462728793354339 1 1 1 1 0.010179159303568804 1 0.0078295300461203397 0.0076455279184779127 1 1 1 0.0079931973426823934 0.0081434523298454554 1 1 0.0054900549915571032 0.0085566933672995178 1 1 1 1 0.010038967738569996 1 1 1 1 0.0096511662370407023 1 1 1 1 0.010182434757236177 1 0.0013193094936975805 1 0.010557763125192682 1 0.0080006641542961048 1 0.005031803517663698 1 0.010002805439594217 1 1 1 1 1 0.0098315494173992699 1 1 0.004791338072033074 0.0098646007245465541 0.008499898286618169 1 1 0.0092226458710619498 0.0090078669605606447 1 0.0071396332195598333 1 1 0.0068607103347775181 1 1 1 1 1 1 0.0067573648254140124 1 1 0.0089810596241903518 1 0.008708778216906448 1 1 1 1 0.007275653010399636 1 0.010067382066463244 1 0.0090865683975143701 1 1 1 0.0096628096671068885 1 1 0.0063485544449560314 1 0.007711675495746903 1 0.0054821852316280957 1 1 1 1 1 0.0081714775024168667 1 1 1 1 1 1 1 1 1 1 0.007845763673368979 1 1 1 1 0.0093096922995422431 1 1 0.0086931775033334008 1 1 1 1 1 0.0099950406072966333 1 1 0.011990763913810402 1 1 1 0.0037336942894438691 1 0.0095348662024215963 1 1 1 0.0044249042956809089 1 1 1 1 0.0034494550415840979 1 1 1 1 -2.638125523590773e-09 0.0095717221822330632 1 1 1 1 1 1 0.0078457548197070261 1 1 0.0045830511734337442 1 1 1 1 1 1 1 1 1 1 1 1 1 1 1 1 1 1 1 1 1 1 1 1 1 1 1 1 1 1 1 1 1 1 1 1 1 1 1 1 1 1 1 1 1 1 1 1 1 1 1 1 1 1 1 1 1 1 0.0064953282521602144 1 1 1 1 1 1 1 1 1 1 1 1 0.016552212470477744 1 1 0.0079151664545721451 1 1 1 0.0097738521549435835 1 1 1 1 1 1 1 1 1 1 1 1 1 1 1 0.00036771776763245244 1 1 1 1 1 1 1 1 1 1 1 1 1 1 1 1 0.0062125571362767794 1 1 1 1 1 1 1 1 1 1 1 1 1 0.0022561971455387761 1 1 0.0094099663716863888 1 1 0.0057728451924791285 1 2.8010454806298712e-09 1 1 1 1 1 1 1 0.00063666032094685313 1 1 1 1 1 1 1 1 1 1 1 1 0.0089833987921387106 1 1 1 0.0094816404435163724 1 1 1 1 1 1 1 1 1 0.0072871776350400628 1 1 1 1 1 1 1.5377888927525785e-09 1 1 1 1 1 1 -1.9729499596554678e-09 1 1 1 0.010605054867278984 1 1 1 1 1 1 1 0.011937601309603632 1 1 1 1 1 1 1 1 1 1 0.00067949040334217697 1 1 1 1 1 1 1 1 1 1 1 1 1 1 1 1 0.0054984645883538654 1 0.0099140113258945999 1 1 1 1 1 1 1 1 1 1 0.013149110567709957 1 0.0059025936079248088 1 1 1 1 1 1 1 1 1 1 1 -1.1672852016572643e-09 1 1 1 1 1 1 1 1 1 1 1 -2.1975900292223183e-09 1 1 1 1 1 1 1 0.0074082590275860068 1 1 1 1 1 1 1 0.0089873389910575061 1 1 1 1 1 1 1 1 1 1 1 0.010757359297390509 1 1 1 1 1 1 1 1 0.0005913463042927765 1 0.01342723300030851 1 1 1 1 1 1 1 1 1 1 0.0081200343059950157 1 1 1 0.0061694251972286051 1 1 1 1 1 1 1 1 1 0.0022992065079359535 1 1 1 1 1 1 1 1 1 1 1 1 1 1 1 1 0.0084542675703765668 1 1 1 1 1 1 1 1 1 1 1 1 1 1 1 1 1 1 0.0092923983181154822 1 1 0.0089830318317305306 1 1 0.0083179327583503097 1 1 1 1 1 0.0068305830658803362 1 1 1 1 1 1 1 1 1 1 1 1 1 1 1 1 1 1 1 1 1 1 1 1 1 1 1 1 1 1 1 1 1 1 1 1 1 1 1 1 1 1 1 1 1 1 1 1 1 1 1 1 1 1 1 1 1 1 1 0.0095367405837035613 1 1 0.0067390615599353726 1 1 1 1 1 1 1 1 1 1 1 1 1 1 1 1 1 1 1 1 1 1 1 1 0.010955414613479778 0.0063682964032935573 1 1 1 1 1 1 1 1 1 1 1 1 1 1 1 1 0.010248498869153922 0.010958842214337693 1 1 1 1 1 1 1 0.0062593812560382163 1 0.0049026436700154502 1 1 0.0017668297171349618 0.01010214521420705 1 1 1 1 1 1 1 1 1 1 1 0.0099958128582417517 1 0.012011689500045705 1 1 1 0.0098667391370515275 1 1 1 0.007710893848136495 1 0.0076281012200253243 1 1 1 1 1 0.007025070345368636 0.005255508948354793 1 1 1 1 1 1 1 1 1 1 1 1 1 1 1 1 1 1 1 1 1 1 1 1 1 1 1 1 1 1 1 1 1 1 1 1 1 1 1 1 1 1 1 1 1 1 1 1 1 1 1 1 1 1 1 1 1 1 1 1 1 1 1 1 1 1 1 1 1 1 1 1 1 1 1 1 1 1 1 1 1 1 1 1 1 1 1 1 1 1 1 1 1 1 1 1 1 1 1 1 1 1 1 1 0.0070970891923123657 0.010224352287809683 1 0.0015283923170635698 1 0.0085782632050364765 1 1 0.0073057269987681309 1 1 1 1 0.010157384723502919 1 1 1 1 1 1 1 2.1549669305953589e-09 0.010372733874938884 0.0088970437752946187 1 1 1 1 1 0.00012633739092386687 0.0089364582527254252 1 1 1 1 1 1 1 1 1 1 1 1 1 1 1 1 1 1 1 1 1 1 1 1 1 1 1 1 1 1 1 1 1 1 0.0044383465686181015 1 1 0.008023214800615748 1 1 1 1 1 1 1 1 1 1 1 0.0090350876940382598 1 1 1 1 1 1 1 0.0077497268168499299 1 1 1 1 1 1 1 1 1 1 1 1 1 1 1 1 0.0042727306275448344 1 1 0.0011034222045857283 1 1 1 1 1 1 1 1 1 1 1 1 1 1 1 1 1 1 1 1 1 1 1 0.010304009993868884 1 1 0.0096329760823933089 1 1 0.0087796908823241284 1 1 1 1 1 1 1 0.0074943300051357993 1 1 1 1 1 1 0.0092446556412924333 1 1 0.0081529660563779624 1 1 1 1 0.0099460980296481212 1 0.010391137497669069 1 1 0.0095112789788486963 1 1 1 1 0.0058669251680918792 1 0.0091134909286764605 1 1 0.0086001999543944153 1 1 1 1 1 1 1 1 1 1 1 1 0.0014950511454469226 1 1 1 0.0077849122593843757 1 1 0.0059395958019365994 1 1 1 1 0.010023228503324402 1 1 1 1 1 1 1 1 1 1 0.010070490882360617 1 1 1 1 1 1 1 1 1 1 0.0099480375485792149 1 1 1 1 1 1 1 1 1 1 1 1 -2.8639989125937848e-09 1 1 0.012817247945505246 1 1 1 1 1 1 1 1 1 1 0.0057878379962260518 1 1 1 1 1 0.0093494174559304068 1 0.010419207919433893 0.0063839209830632519 1 1 0.0074624118717176299 1 1 1 1 1 1 1 1 1 0.0091657607660385158 0.0083255342323204883 1 1 1 1 1 1 0.0083586775385248516 1 1 1 1 1 1 1 1 1 1 1 1 1 1 1 1 1 1 1 1 1 1 1 1 1 0.0098258084597332047 1 1 1 1 1 1 1 1 1 1 1 1 1 1 1 1 1 1 1 1 1 1 1 1 1 1 1 1 1 1 1 1 1 1 1 1 1 1 1 1 0.0058043940799653512 1 1 1 1 1 1 1 1 1 1 0.0096638864110687606 1 1 1 0.0084210910492705793 1 0.0074080593249060012 1 1 1 0.0089984157245169023 1 1 1 0.0099612441454486854 1 0.0070013326078376768 1 0.0058483987799418024 1 0.00925663603661365 0.0099199115066595078 1 1 0.0065307600869291913 1 1 1 0.010289120288218529 1 1 1 1 1 0.010131211089717216 1 1 1 1 0.0077111813424745948 1 1 1 0.0088845548654473937 1 1 1 1 0.0069331653602307747 1 0.010035094417681575 1 1 1 1 1 1 1 1 1 1 1 1 1 1 0.0096438723189142383 1 1 1 1 0.007110815462064787 1 1 0.0083185062079137399 1 1 0.012576274430812842 0.0099627028140725406 1 1 0.009839097053806577 1 0.0078114223830492574 1 1 1 0.010941936086175249 0.011086257808015743 0.0084490487384276461 0.010241474182365783 1 1 0.0079957580794021745 1 1 1 1 0.0083599840641025019 1 0.0046596691442514857 1 1 0.010379059314379348 0.0094263887874303873 0.0098432398687420524 1 0.0070623393600954855 1 1 0.0071679745483676019 0.0073083494028396995 0.0085126369485518869 1 1 1 1 1 1 1 1 1 0.0062920396495229052 0.0019950613918108453 1 1 1 1 0.0025647577568183623 0.0073113097038845776 1 1 1 -4.0062608092084062e-10 1 3.594648236189546e-09 1 1 1 1 1 1 1 1 1 1 1 5.0402282104899943e-09 1 1 1 1 1 1 1 1 1 1 1 1 1 1 1 1 1 1 1 1 1 1 1 0.0091695852512194056 1 1 1 1 1 1 1 1 1 1 1 1 1 1 1 1 4.9311655592187975e-09 1 1 0.0078491158746307917 1 1 1 1 1 1 1 1 1 0.0044260830851972389 1 1 1 0.002597627372449866 0.005795371314122999 1 1 0.010032015631471828 1 1 1 1 1 0.0061681378119943682 1 0.0092327571596501831 1 1 1 0.00335130724648155 1 1 1 1 1 1 1 0.0044543410571415837 1 1 0.0099259004315932868 1 1 1 1 0.0047947065872183774 1 1 1 0.0093311839794157081 0.010016545489970503 1 1 0.0011118643099391253 1 1 1 -6.8718312221105471e-09 1 1 1 1 1 1 1 0.011855488688391792 1 1 -5.4832930626580456e-09 1 0.0054467782636226977 0.0042026452069345716 0.010969482528010954 1 0.0092872312648116309 1 0.00089134141773793141 0.00039595810041182303 1 1 1 1 1 1 -2.6460331217781352e-09 1 1 -6.0496889858763225e-09 1 1 1 1 1 1 1 1 1 1 1 1 1 1 1 1 1 1 1 1 1 1 1 1 1 1 1 1 1 1 1 1 1 1 1 0.0099117362737565842 0.00055943533796673495 1 1 1 1 1 1 1 1 0.0095749424187171681 0.012894426497448055 -3.5520003327516037e-09 0.0010281160642138035 1 1 0.01025699842764527 1 1 1 1 1 1 1 1 0.010416735116718956 1 1 0.0091992749635518012 1 1 1 0.0094336718499376977 1 1 1 1 0.010040624638605083 1 1 1 1 1 1 1 1 1 1 1 1 1 1 0.0067749350910060804 1 1 1 1 1 -1.8183353434064742e-10 1 1 1 1 1 1 1 1 0.0077868837959239549 1 1 1 0.012480819876105597 0.0038333376705946103 1 1 0.0043200764781695516 0.010687086750073731 1 1 1 1 1 0.0097164678187643769 1 1 1 1 1 1 0.0090634748604070618 1 4.9318817432753015e-09 1 1 1 1 1 1 1 1 0.0047193269461762999 0.0015845435987679405 1 3.7100433836201319e-11 0.0068884782287931805 0.0005604097142241117 1 2.9189891510850163e-09 1 1 1 1 1 1 -1.1893835465126568e-09 1 1 1 1 1 1 1 0.00014176673149449842 1 1 1 1 1 1 1 1 1 1 1 1 1 1 1 1 1 1 1 1 1 1 1 1 1 1 1 1 1 1 1 1 1 1 1 1 1 1 1 1 1 1 1 1 1 1 1 1 1 1 1 1 1 1 1 1 1 0.0093512716434744538 1 1 1 1 1 1 1 0.0080025681622088868 1 1 5.8165888598693538e-10 1 1 1 0.022512394762979334 1 0.010004752612490857 1 1 0.01044428111291882 1 1 1 1 1 1 1 0.0074637031247698025 1 1 1 0.0084617910107775661 1 1 1 1 1 1 1 0.011334303786208118 1 0.0094219096639244458 1 1 1 1 1 1 1 1 1 1 1 1 1 1 1 1 1 1 1 1 1 1 1 1 1 0.009686730687298202 1.367010622754794e-09 1 0.0018745666333143778 1 1 1 1 1 1 1 0.013526042133874691 1 0.0079324629495993119 1 0.0019127998595970747 0.015734875430448537 -3.0109104792730434e-10 1 1 -5.2145976009443373e-09 1 1 0.0037122520975583287 1 1 1 0.0073961292181308723 1 1 1 1 1 1 1 0.0092660304747714771 0.0023698550796379687 1 1 0.0033642658449207202 1 1 1 0.0096593468615143348 1 1 1 1 0.0086191255375803171 1 0.0051395918843296102 1 1 1 1 1 1 0.0091783536872687387 1 0.0090358444029731803 1 1 1 1 1 0.0070356190464578375 1 1 0.0082338912378131183 1 1 1 1 1 1 1 1 1 1 1 1 1 1 1 1 0.010123445664913418 1 1 0.00700377544878001 0.010020361074458747 1 0.0099480784839104074 1 1 1 1 1 1 1 1 0.0093615452800491442 1 1 1 1 1 1 1 1 1 1 1 1 1 1 1 1 0.0018498435551798182 1 1 1 0.0087964936280863094 1 1 -3.0987417146133289e-09 1 1 1 1 1 1 0.00034375385585436614 1 1 1 1 1 1 1 1 1 1 1 1 1 1 1 1 1 1 1 0.01028810758416151 0.0099677879007357903 1 1 1 1 1 1 1 0.011078741600850288 1 1 1 0.010011575915593787 1 1 0.0084430614578781139 1 0.0099070229533379413 1 1 0.011263700166284063 1 0.0093482823965406608 0.0037240355270551813 1 0.011137789616558074 1 0.0053215177083205216 1 0.0035703899508713281 1 1 1 1 1 1 1 1 1 1 1 1 1 1 1 0.0078288315818011087 0.010509427775880148 1 1 1 1 1 1 1 0.004818199064058476 1 1 1 1 1 1 1 1 1 1 1 1 1 1 1 0.0080204520818848712 1 0.0091587876020922492 1 1 1 1 1 1 0.007912922316196851 1 1 1 0.0055227481866381885 1 1 1 0.008137707530555819 1 1 1 1 1 1 1 1 1 1 1 1 1 1 1 1 1 1 1 1 1 0.010340004213360976 1 1 1 1 0.0028419058869937914 1 1 1 1 1 2.6545250468232306e-09 1 1 1 6.9459847544795427e-05 1 1 1 1 1 1 1 1 1 1 1 1 0.0099176196612139333 1 1 1 1 0.0015861734566415819 1 1 1 1 1 1 1 1 0.0051233846604700518 1 1 1 1 1 1 1 0.0069395290213391005 1 1 1 1 0.00816263426177 1 1 1 1 1 1 1 1 0.0063740211339416396 1 1 1 1 1 1 1 1 1 0.0086468396553658171 1 1 1 1 1 1 1 1 1 1 1 1 1 1 1 1 1 1 1 1 1 1 1 1 1 1 1 1 0.0089990655106533778 1 1 1 1 1 1 1 0.0033773998337421583 1 1 1 1 1 1 1 1 1 1 1 1 1 1 1 1 1 1 1 1 1 1 1 1 1 1 1 1 1 0.0089789199284635666 1 1 1 1 1 1 1 1 1 1 1 1 1 1 1 1 1 1 1 1 1 1 1 1 1 1 1 1 1 1 1 1 0.0098518203138728468 1 1 0.0099259198822795585 1 1 1 1 0.00036500587689000316 1 1 0.0010521622750217161 1 1 1 1 0.001461484906363171 1 1 1 0.0011922523078064448 1 1 1 0.0082541751374270809 1 1 1 1 1 1 1 1 1 1 0.0047871462340856527 1 1 0.0070447174523326789 1 1 1 1 1 1 4.9700700738959658e-05 1 1 1 1 1 0.0057932384353796881 1 1 1 1 0.0051259213605556395 1 1 1 1 1 1 1 1 1 1 0.0050743703894354456 1 1 1 1 1 1 1 1 1 0.0074833836772860013 1 1 1 1 1 1 1 1 1 1 1 1 1 -2.6553382478922138e-09 1 1 1 1 1 1 1 0.0024216706792878784 1 1 1 1 1 0.0079707764678646938 1 1 1 1 1 1 1 1 1 1 1 1 1 1 0.0063337690163112973 1 1 1 1 1 1 1 1 0.003571285340262598 1 1 1 1 1 1 1 1 1 1 1 1 1 1 1 1 1 1 1 1 1 1 1 1 1 1 1 1 1 1 1 1 1 0.0093442212294631982 1 1 1 1 0.0071587511246840319 0.0095350221890207337 1 1 0.0032158918455442165 1 1 0.0055969048673749997 1 1 0.00040362403342038972 1 1 1 1 1 1 1 1 1 1 1 1 1 1 1 1 1 1 1 -4.0915745930236724e-09 1 1 1 1 3.4547894406378177e-09 1 1 1 1 1 1 1 1 1 1 1 1 1 1 1 1 1 1 1 1 1 1 1 1 1 1 1 1 1 1 1 1 1 1 1 1 1 1 1 1 1 1 1 1 1 1 1 1 1 1 1 1 1 1 1 1 1 1 1 1 1 1 1 1 1 1 1 1 1 1 1 0.0054540067102106515 1 1 1 1 0.01038537948866157 1 0.010618564651595386 1 1 0.0049897760878721137 1 1 1 1 0.0092051383369994855 1 1 0.01003530218760193 1 1 1 1 1 1 1 1 1 1 1 1 1 1 1 1 1 1 1 1 1 1 1 1 1 1 1 1 1 1 1 1 1 1 1 1 1 1 1 1 1 1 1 1 1 1 1 1 1 1 1 1 1 1 1 1 1 1 1 1 0.0099627959106806177 1 1 1 1 1 1 1 1 1 0.0078582416993414964 1 1 1 1 1 1 1 0.0050302739258374432 1 1 1 1 1 1 1 1 1 1 1 1 1 1 1 1 1 1 1 3.9238112342632192e-09 -6.4700504762843503e-10 1 1 0.0099318211059074134 1 0.0097335079996422255 1 1 1 1 1 1 1 1 1 1 1 1 1 1 1 1 1 1 1 1 1 1 1 1 1 1 1 1 1 1 1 1 1 1 1 1 1 1 1 1 1 1 1 1 1 1 1 1 1 1 1 1 1 1 1 0.0038749001465764321 0.0022634776053147426 1 1 1 1 1 1 1 1 1 1 1 1 1 1 1 1 1 1 1 1 0.0098811324851715704 1 1 1 1 1 1 1 1 1 1 0.0099335332534985221 1 1 1 0.0086648834489927145 1 1 1 1 1 1 0.0096922437226603653 1 1 1 1 1 1 1 1 1 1 1 1 1 0.0087588814590805388 1 1 1 1 1 1 0.0093258384135845897 0.010623725590964452 1 0.0038475479494534878 1 1 0.0096617966770697825 1 1 1 0.003866790876382982 1 1 1 0.0041531547572671648 1 1 1 1 1 0.0096963609092669337 1 0.010558855999429536 1 1 1 1 0.0042006617307042901 1 1 1 1 0.010321613262101289 1 0.010079038952667069 1 1 0.0098499328215444631 0.0099035518259349628 1 1 1 1 1 0.009760162518223571 1 1 1 1 1 0.0095203745071544138 0.010151547981500603 0.0086560812124275785 1 0.0069990407350870379 1 0.0100219694125627 1 1 1 1 1 0.0099567077029400486 1 1 1 1 1 1 1 1 0.010018966327063703 0.0068676071060427835 1 1 0.0084012263457532987 1 1 1 1 0.0055691644962347214 1 1 0.0095875094754562743 1 1 0.0097366334169641609 1 1 1 1 1 1 1 1 1 0.0097549725331062959 1 1 1 1 1 1 1 1 0.0095609949930870377 1 1 1 1 1 1 1 1 1 0.010131242450627164 0.0093205039886881669 1 1 1 1 1 1 1 1 1 1 1 1 1 1 1 1 1 1 1 1 1 1 1 1 1 1 1 1 1 1 1 1 1 1 1 0.010575087855890774 1 1 1 1 0.0098858407925879639 1 1 1 1 1 1 1 1 1 1 1 1 1 1 1 1 0.0095893104877623186 0.0032450486947900939 1 1 1 1 1 1 1 1 1 0.0048608660474874152 1 1 1 1 0.0078595440226700355 1 1 0.0079380997269096892 1 1 1 1 1 1 1 1 1 1 1 1 1 0.0097015788550544636 1 1 1 1 1 1 1 1 1 1 1 1 1 1 1 1 1 1 1 1 1 1 1 1 1 0.008015710800411871 1 1 1 1 1 0.010031670728197842 1 1 1 0.0050799041392615707 1 1 1 0.012084933257594591 0.0099620392948365985 1 1 1 1 1 1 1 1 1 1 1 1 1 1 0.0075311366920490092 1 1 1 0.0013514641582021009 1 1 1 1 0.006409289790911335 0.0075240267872440161 1 1 1 1 1 1 1 1 1 1 1 1 1 1 1 1 1 1 1 1 1 1 1 0.004784128192916598 1 1 1 1 1 1 1 1 1 0.0094498540323743139 1 1 1 1 0.0080816655377674226 1 0.0098734936841474129 1 1 1 1 0.010102634833771013 1 1 1 1 1 1 1 1 1 1 1 1 1 1 1 0.0096652513363954303 1 1 0.0090943950575984311 1 1 1 1 1 1 1 1 1 1 0.010606771553739843 0.010679614545502892 1 1 1 1 0.0023789709199981204 1 1 1 0.00059151831900722956 1 1 1 1 0.0093636276894700846 0.0097561859564554848 1 0.0092922715933582891 1 0.010642915768872885 1 5.1014321239550853e-10 1 1 0.0097801614720003614 1 1 0.001119063040870498 1 1 0.0096692071996036869 1 1 1 0.0075931486982506718 1 1 0.010000183646998515 1 0.0098934135994121208 1 0.0049325550671234352 1 1 0.0083628355226544951 1 1 1 1 1 1 1 1 1 1 1 1 1 0.0097076138877690583 1 1 1 1 1 1 1 1 1 1 1 1 1 1 1 1 0.010186939921061918 0.01134779482408641 1 1 1 1 1 0.0053544686613434603 1 1 1 1 0.0039756286184510145 1 1 0.012769685365958242 1 1 1 1 0.0080698263535267378 1 1 1 1 1 1 1 1 1 1 1 1 1 1 1 1 1 1 1 1 1 1 1 1 1 1 1 1 1 1 1 1 1 1 1 1 1 1 0.0092834871745887323 1 1 1 1 1 1 1 1 1 1 1 1 1 0.010604549775143603 1 0.0099367070594919282 1 1 1 1 0.011164001834847729 1 1 1 1 1 1 1 1 1 1 1 1 1 1 1 1 1 1 0.010594197125056826 1 0.010174594129439909 1 1 0.0095362491268121321 1 1 1 0.0088830680921922287 1 1 1 1 1 1 1 1 1 1 1 1 1 1 1 1 1 1 1 1 1 1 1 1 1 1 1 0.0093487604411837035 1 1 0.0084115476868290712 1 1 1 1 1 1 1 1 1 1 1 1 1 1 1 1 1 1 1 1 1 1 1 1 1 1 1 1 1 1 1 1 1 1 1 0.0091280605122403373 1 0.0071864556454976827 1 1 1 1 1 1 1 1 1 1 1 1 1 1 1 1 1 0.0080837931770799398 0.0061015625180411912 1 1 1 1 1 0.0088846361837126991 1 1 1 1 0.0073183989844179675 1 1 1 1 0.0091371847096781769 1 1 1 1 1 1 1 1 1 1 1 1 1 1 1 1 1 1 0.0080177693409612741 1 1 1 1 1 1 0.0082857585447342549 1 1 0.0057401348519202922 1 1 1 1 1 1 1 1 1 1 1 1 0.008682927670566859 1 1 0.0083232175934677619 1 1 1 1 1 1 1 1 0.0094968947867773157 1 1 1 1 1 1 0.0088804691453534257 1 1 0.007314231946058701 1 1 1 1 1 1 1 1 1 1 1 1 1 1 1 1 1 1 1 1 1 1 1 1 1 1 1 1 1 1 1 1 1 1 1 1 0.0095180056662825738 1 1 1 0.0093060308763286623 1 1 0.0091643425729001221 1 1 1 1 1 1 0.0083729115172266923 1 1 1 1 1 0.0093633082079272387 1 1 1 1 1 1 0.0097812550705558051 1 1 1 1 0.0056254540304748815 1 0.0065319872953313596 1 1 0.0077013705621259906 1 1 1 0.0097880252100460627 1 1 1 1 1 1 1 1 1 1 1 1 1 0.0097340432878202619 1 1 1 1 1 1 1 1 1 1 1 1 1 1 1 1 1 1 1 1 1 1 1 1 0.010002988132472383 1 0.010005336660726435 1 0.0096953784821085659 1 0.0098095017901560465 1 1 1 1 0.0098863196742087784 1 1 1 1 0.0086833014047935156 1 1 1 1 1 1 1 1 1 1 1 1 1 1 0.0061605937614450587 1 1 1 0.0042329555517804582 1 1 1 0.0088070231016892375 1 1 0.0076899219849704825 1 1 1 0.0079262149416774036 1 1 1 1 0.0089200808788332045 1 1 1 1 0.0081586624489297724 1 1 1 1 1 1 1 1 1 1 -1.4944208162614991e-09 1 1 1 1 1 6.6390731760880561e-05 1 0.0099891401776916675 1 1 1 1 1 0.0090309676144307675 0.0041681449419877364 1 1 0.0057495502453433489 1 0.010000541813924523 1 1 0.0098442948009323794 1 1 1 1 1 1 1 1 1 1 1 1 1 0.010700930803826498 1 1 1 1 1 -6.251119760714019e-11 1 1 1 1 1 1 1 1 1 1 0.0093657272396552149 1 0.0060848936654503676 1 1 0.0049492330105347856 1 1 0.010139479500118603 1 0.00087680257959850405 1 0.011960474794662935 1 1 1 1 1 0.010066719785359777 0.011298423727855032 1 1 1 1 1 1 1 1 1 1 1 0.010177075628984794 1 1 1 1 1 0.01010260878054188 1 1 1 0.0020159306698061055 1 0.0090688645944084403 1 1 1 1 1 1 1 1 1 1 1 1 1 1 1 0.0099699047707392536 1 1 1 1 0.0099421360729314463 1 1 1 1 1 1 1 1 1 1 1 1 1 1 1 1 1 1 1 1 1 1 1 0.0099722313021922103 1 1 0.0050316929259949239 1 1 1 1 1 1 1 0.0041226107878654557 1 1 0.0091368752003742528 1 0.0066491164103332206 1 1 1 1 1 1 1 1 1 0.0084231717441508522 1 1 0.0023551387165671456 1 1 1 0.0030002599617711574 1 1 1 1 1 1 1 0.0096580898198433077 1 1 1 1 0.003119839261314112 0.011664869267773584 1 1 1 1 1 1 1 1 1 0.0094560721397887269 1 1 1 1 1 1 1 1 1 1 1 1 1 1 1 1 0.0090077782340206893 1 0.0096808940579937372 1 1 1 0.007007039829258481 1 1 1 1 1 1 1 1 1 1 1 1 1 0.0089692155143282527 1 1 1 1 1 0.008332854702052972 1 1 1 0.0086063455461532785 0.0094702716294333897 1 1 1 0.0076145617040939383 1 1 0.0071433650335012023 1 1 1 1 -2.4144369212275585e-09 0.0098035594565140955 1 1 1 0.0087389480163873531 1 1 0.0086074320608758061 1 1 1 1 0.0038134384714733488 1 2.6430108102104555e-10 1 1 1 0.0013937330525503402 1 1 1 1 1 1 1 1 1 1 1 1 1 1 1 1 1 1 1 1 1 0.010045012023737967 1 1 1 1 1 1 1 1 1 0.0022848044244769897 1 1 1 0.0036865627644772428 1 0.0036654465306884335 1 1 1 1 1 1 1 1 1 1 1 0.0048455494291188179 1 1 1 1 1 0.0011794215211349962 1 1 1 1 1 0.0064118002344341653 1 1 1 1 1 1 1 1 1 1 1 1 1 1 1 1 0.0063253162093341031 1 1 1 1 1 1 1 1 1 0.0066489090780671514 1 1 1 1 1 1 1 1 1 1 1 1 1 1 1 0.0095680614634814365 1 1 1 1 1 1 1 1 1 1 1 1 1 1 1 1 1 1 1 1 1 1 1 1 1 1 1 1 1 -1.1879153077876126e-09 1 1 1 1 0.0059529197856530228 1 0.0048071194391600611 0.010021745099978295 1 1 1 1 1 1 0.0095276767410861149 1 0.009314816031598748 1 1 1 0.0099944203661140839 1 1 0.006544303880958776 1 1 1 1 1 1 0.0098032691907362079 1 1 1 1 1 1 1 0.0089406204580795359 1 1 1 1 0.0073558029274914671 1 1 1 1 1 1 0.0053387145215415682 1 1 1 1 1 1 1 1 1 1 1 1 0.0087242949780045043 1 0.0074124995798641596 1 1 1 1 1 1 1 0.0072046331327905583 0.0081830998772115388 1 1 1 1 1 1 1 1 0.0093514135720946107 1 1 1 0.0072648728077901459 1 1 0.0089695562795802236 1 1 1 1 1 1 1 1 1 1 1 1 1 1 1 1 1 1 1 1 1 1 1 1 1 0.0097026075579017233 1 1 0.0098268282531209089 1 1 1 1 1 0.0090736692404674371 1 1 0.0072126892567254269 1 0.0026287647359954577 1 1 1 0.010409050705941173 1 1 1 1 0.0059392097574866992 1 1 0.011561413286002091 0.0043229323624545055 1 1 1 1 1 0.0099289219845564852 1 1 0.010252767264342398 1 1 1 1 1 0.010074874950594172 1 1 1 1 1 1 1 1 1 0.0099278822995682789 1 1 1 1 0.010019189462213779 1 1 1 1 1 1 0.002486723717650012 1 0.0039305508953179011 1 1 1 0.0092269847664625138 1 0.0024041058149618655 1 1 0.0053244626686836244 1 0.010083744480445467 1 1 1 0.010073026887437754 1 1 1 1 1 1 1 1 1 1 1 1 1 -2.3367032822574352e-09 1 1 1 1 1.3965256243086976e-09 1 1 1 1 1 1 0.010394652614094516 1 1 1 1 1 1 1 0.0082334102122196915 1 1 1 1 1 1 0.005375920815108761 1 1 1 1 1 1 1 0.0035690441795248017 1 1 0.0094570929986465806 1 1 1 1 1 1 1 1 1 0.0094143798697504666 0.0088020199327657131 1 1 1 1 1 1 1 1 1 1 1 1 0.0098033441982113625 1 1 1 1 1 1 1 0.0081537983447644846 1 1 1 0.010248116651643508 1 0.006809043337249493 1 1 0.010452197868610871 1 1 1 1 1 0.0088664663246417336 1 1 1 0.0069793382233840351 1 1 1 1 0.0022390317262632672 1 1 1 0.010161392576237108 1 1 1 1 1 1 1 0.0092122507579355511 1 1 0.0095973980500769392 1 1 1 2.1754002696439123e-09 1 1 1 -9.645233917110474e-11 1 1 1 1 0.011867938198261967 1 1 1 0.0095533493639480514 1 1 1 1 1 1 1 1 1 -1.9264418116282656e-09 1 1 1 1 1 1 1 1 1 0.0013183763252582123 1 1 1 1 0.0063375734888581545 1 1 0.0050376890785440373 1 1 1 1 1 1 1 1 1 1 1 1 1 1 1 1 1 1 1 1 1 1 1 1 1 1 0.009664482836123419 1 1 1 1 1 1 1 1 1 1 1 0.009313716937870373 1 1 1 0.010875837116487872 1 1 1 1 1 1 0.010303469208284552 1 1 1 1 1 1 1 1 1 1 1 1 1 1 1 1 1 1 1 1 1 1 1 1 1 1 0.0013378527955272175 1 0.016221975485129114 1 1 0.008012204103636969 0.01166511093404426 1 1 1 1 1 1 1 1 1 1 1 1 1 1 1 1 1 0.0067243262809193859 1 1 1 1 1 1 1 1 1 1 1 1 1 1 1 1 1 1 1 1 1 1 1 1 1 1 1 1 1 1 1 1 1 1 1 1 1 1 1 1 1 1 1 1 1 1 1 1 1 1 1 1 1 1 1 1 1 1 1 1 1 0.01095383353358963 1 1 0.012387896447824315 1 1 1 1 0.01391282013498722 1 1 1 1 1 1 1 1 1 1 0.0099969154393241208 1 0.0034437740706797088 1 1 1 0.0096724726773702828 1 1 1 0.010003748038212187 1 0.0101351823950784 1 1 1 0.0087430044004068314 1 0.0096219285242473904 1 0.0078630836300216736 1 1 1 0.006879085324360934 1 1 1 1 0.0098185843260360298 1 0.0068627048804180898 1 1 1 1 1 0.0075317984248013219 1 0.010009027915857414 0.0097774875101301409 1 1 1 1 1 1 0.0074116840124707414 1 1 1 0.00998723715978923 1 1 1 1 1 1 1 1 1 1 1 1 1 1 1 1 1 1 1 0.01005437961704608 1 1 1 0.0081158089637093714 0.0098021469508503198 1 1 1 1 1 0.0086928886235530869 1 1 1 1 1 1 1 1 1 1 1 1 1 1 0.0077205873907912545 1 1 0.0068880219069468555 1 0.0079106906028147406 1 1 1 0.0092861318070072765 1 0.0092991039161359687 1 1 0.0077157605678797904 1 1 1 1 1 1 1 1 1 1 1 0.0077241671372049528 1 1 1 1 1 1 1 1 1 1 0.0062490347815531457 0.0099063416958952676 1 1 1 1 1 1 1 0.0083189314042893866 1 1 1 1 1 1 1 1 1 1 1 1 1 1 0.0094020912487961187 1 1 1 1 1 1 1 1 1 1 0.0092769794636231601 1 1 1 0.0082163939424222312 1 0.0077890649288040233 0.0079520769040641592 1 1 1 1 1 1 1 1 0.004213692400786344 1 1 1 1 1 1 1 1 1 0.0069434862299587279 1 0.007028236023435698 1 0.010209092933741538 1 1 1 1 1 1 1 1 0.0092395959854294999 1 0.0075312964631428234 1 1 1 1 1 1 0.0058834295626908131 1 1 0.0084259928220750072 1 0.0098560798508586095 1 1 1 1 1 1 1 1 1 1 1 1 1 1 0.0053167761548057399 1 1 1 1 1 1 1 1 1 1 0.007971130568496583 1 1 1 1 1 1 0.0095229740914590383 1 1 1 1 1 1 1 1 1 1 1 1 1 1 1 1 1 1 1 1 1 1 1 1 1 0.0068311628698980095 1 1 1 1 1 0.0024659219462540571 1 1 1 1 1 1 1 1 1 1 1 0.0097278867047475466 1 1 1 1 2.4360947287194179e-10 1 1 1 1 1 1.3684318157791697e-09 1 1 1 1 1 -1.3522245823072154e-10 1 1 0.00025510969137021444 1 1 1 1 1 1 1 1 1 1 1 1 1 1 1 1 1 1 1 1 1 1 1 1 1 1 0.0084744830300332447 1 1 0.0084784778097768722 1 1 1 1 1 1 1 1 1 1 1 1 1 1 1 0.0095713376014771312 1 1 1 1 1 1 1 1 1 0.0090943116929361884 1 1 1 1 1 1 1 0.0007105527134073919 1 1 1 1 1 0.0094899516203841919 1 1 1 1 1 1 0.00018457627931834329 1 1 1 1 0.0011760821741830137 1 1 1 1 1 1 1 0.009762064915636649 1 1 0.00028443187701300554 1 1 0.0018879667519086374 1 1 1 1 0.0026463054352501673 1 1 1 1 1 1 1 1 0.0040864082989902142 1 1 0.0074612441790397957 1 1 1 1 1 1 1 1 1 0.009016119545824727 1 1 1 1 1 0.0093163307400847377 1 1 1 1 0.0089225993612951533 1 1 1 0.0066736619474005495 1 1 1 1 1 1 1 1 1 1 1 0.008600480244686055 0.0085409280474461335 1 1 1 1 1 1 1 1 1 1 1 0.0085389833754370495 1 1 1 1 1 0.0045963119392592785 1 0.0069022820003997089 0.0103294877716796 1 0.00712935058944714 0.010136986620688954 1 1 0.010078020399347975 1 1 1 1 1 1 0.0040249628678394843 1 0.0082116149161105077 0.0099513145290229151 1 1 1 1 1 0.0099999644341144858 1 1 1 1 1 1 1 1 0.0044095526158848281 1 1 1 1 0.0084097982547540698 1 1 1 1 1 0.0097316067298530984 1 1 0.0088501763556491 1 1 1 1 1 1 1 0.0054735416919984015 1 0.010667347814443558 1 1 1 1 1 1 1 0.0066995356126961763 0.0084094784183522849 1 1 1 1 1 1 1 0.0095167730591127295 1 1 1 1 1 1 0.0089384889333641703 1 1 1 1 1 1 1 1 1 1 1 1 1 1 0.0039290455525137422 1 1 0.0079046530261747509 1 1 1 1 0.0095165850141186309 1 1 1 1 0.0052298159333713191 1 1 1 1 1 1 0.0013467451145042276 1 1 1 1 1 1 1 0.009609563439273482 1 1 1 0.0046432085803113105 1 1 1 1 1.0627046517081018e-09 1 1 0.0034630996119835505 1 1 1 1 1 1 1 0.00036856827253055249 1 1 1 1 -7.294783423150708e-10 1 0.0099494044320183779 1 1 1 1 1 1 1 1 1 1 1 1 1 1 0.0069851654347188961 1 1 1 1 1 1 1 0.0064693496839690976 1 1 0.0081662982822191341 1 1 0.0082590185364793331 1 1 1 1 1 1 1 1 1 0.00051820391831780728 1 1 1 0.0024563258204977553 1 1 1 1 1 1 1 1 1 0.0048868560953145689 1 1 1 1 1 1 1 1 1 1 1 0.011579984184163856 1 1 1 0.0081549817134645049 1 1 1 1 1 1 1 1 1 1 1 0.015687168999219556 1 1 1 1 1 1 1 1 1 1 0.020867037296310006 1 1 1 1 1 0.00066905475716045985 1 1 1 1 1 1 1 1 0.0093886277779226812 1 1 2.1153079882325898e-09 1 1 2.5801369260797062e-05 1 1 1 1 -6.80818765729993e-10 0.0074548018362889691 1 1 1 1 0.0027127604376052245 1 1 1 1 0.0085928932336646301 1 1 0.0095721483696883831 1 1 1 1 0.0069422314862645877 1 1 0.0066114572567451046 1 1 1 1 1 0.0063468902209279704 1 1 1 1 1 1 1 1 0.0034331271805090506 1 0.0099871481834819184 1 1 1 1 1 1 1 1 1 0.0089580893344520414 0.0060538268849734183 1 1 1 1 1 1 0.0056388115034896255 1 1 0.0098081271274670818 1 1 0.0097465891574129715 1 0.010001717947994759 1 1 1 0.011152386175519715 1 1 0.010105227885319186 1 1 1 1 1 1 1 1 0.0078812207057974044 0.0076975899671073754 1 1 0.0099411959608033621 0.0020798328095981995 1 1 1 1 0.008906794550405512 1 1 1 0.0050071262392879824 1 0.012378956151154119 1 0.0090562691513788804 0.0055529843369883881 0.0070947621700526067 1 0.011211170366141913 1 1 1 0.010338541140350922 1 1 1 1 1 1 1 1 1 0.0028031765867521062 1 1 0.0034932596051833534 1 1 1 1 1 1 0.012557012073214401 1 1 1 1 1 1 0.010128778091747212 0.010261088002888417 0.014362644750361576 1 1 1 1 1 1 1 1 1 1 1 0.014020728904066243 1 1 1 1 0.004227090339707279 1 1 1 1 1 1 1 1 0.0055588593564333804 1 1 0.012512544367794852 1 1 1 0.0090586758670891006 1 1 1 1 1 1 1 1 1 0.010146201129810841 1 1 1 1 1 1 1 1 0.0028029340550284297 1 1 1 0.0013516576848803205 1 1 0.011695962017671688 1 1 1 0.010381986801361487 1 0.0081839858924445431 1 1 0.0058884688006855717 1 0.0052383308714708367 1 1 0.010216044652969198 1 1 1 1 1 1 0.0077188315145956766 1 1 0.010109417218865947 1 1 1 1 1 1 1 1 1 1 1 1 1 1 1 1 1 1 1 1 1 1 1 1 1 1 1 1 1 1 1 1 1 1 1 1 1 1 1 1 1 1 1 1 1 1 1 1 1 1 1 1 1 1 1 1 1 1 1 1 1 1 1 1 1 1 1 1 1 1 1 1 1 1 1 1 1 1 1 1 1 1 1 1 1 1 1 1 1 1 1 1 1 1 1 1 0.010016792208524753 1 1 1 1 0.0014064803549184647 1 1 1 1 1 1 1 1 1 1 1 1 0.010125767644271203 0.0038692127536675931 1 1 1 1 1 1 1 1 1 1 1 1 1 1 1 0.0083848881388939867 1 1 1 0.0052996571809963509 1 1 1 1 1 1 1 1 1 1 1.2394673724880345e-09 1 3.3235319531199625e-09 1 1 1 1 1 1 1 1 1 1 1 1 1 1 1 1 1 1 1 1 1 1 1 1 0.0091077776051488972 1 1 1 1 0.0078437077885921049 1 1 1 1 1 1 1 1 0.0096984222308823566 1 1 1 1 1 1 1 1 1 1 1 1 1 1 1 1 1 1 1 1 1 1 1 1 1 1 1 1 1 1 1 1 1 1 1 1 1 1 1 1 1 1 1 1 1 1 1 1 1 0.0089257136147185105 1 1 1 1 1 1 1 1 1 1 1 1 1 1 1 1 1 1 1 1 1 1 1 1 1 1 1 1 1 1 1 1 1.3278960622059577e-09 1 1 1 1 1 1 -1.0748282298911338e-10 1 1 1 1 1 1 0.0096668057296035934 1 1 0.010338947428368194 1 0.0091460059568680228 1 0.011659738101365686 1 1 1 1 0.0070884550770043409 1 1 1 1 1 0.0097715716832240933 1 1 1 0.011979710591382227 0.010052300910623257 1 1 1 9.7805880903671909e-05 1 1 1 1 0.010964868595633307 0.01038238051585145 1 1 1 1 1 1 1 1 1 1 1 1 1 1 0.0095203173876460944 1 1 0.0088408178942668177 1 1 0.0099978696848775517 0.0066933410960106025 1 1 1 1 1 1 1 1 1 1 0.00070383430762108873 1 0.00012053071585309272 1 1 1 1 1 1 1 1 1 1 1 0.0027119377961907169 1 1 1 1 1 1 1 0.00045588599293600214 1 1 1 1 1 1 1 1 1 1 1 1 1 1 1 1 1 1 -1.4156094317596679e-09 1.9950333121632191e-09 1 1 1 1 1 1 1 1 1 1 1 1 1 1 1 1 1 -2.0666783562273139e-09 1 1 1 1 1 1 1 1 1 0.0073251015289526236 1 1 1 1 1 1 1 1 1 1 1 1 0.0091808761497950697 1 1 1 1 0.011227436926254986 1 -3.8051284206863656e-09 1 1 1 1 1 1 1 1 1 0.0076065955070894215 1 1 1 1 0.0030613331201808282 1 1 1 1 0.0076020253140937147 1 0.0097909985352044211 1 1 1 1 1 1 1 1 1 1 1 1 0.010438543745977844 1 1 1 1 1 1 1 1 1 1 1 1 1 1 1 0.010592289123064876 1 0.0034384273716545257 1 1 0.0051281766972985122 1 1 1 0.01000047916554871 1 0.011769566392032306 1 1 0.013464991342496761 1 1 0.010024353007788873 1 0.0026087180764490098 1 1 1 1 1 1 1 0.013555925072568913 0.014420751632285103 1 1 1 1 0.0023976404124097534 0.00052118452038141597 1 1 0.012273142654406674 0.011919037683906463 1 0.0092725219292741114 1 1 0.0099917982114677666 0.0071982813321511963 1 1 0.0053189247277254433 1 1 0.01419309574325499 1 1 1 1 1 1 1 1 0.0058906862300639627 1 1 3.1788523152269377e-05 1 0.0012085081161530547 1 1 1 0.010057628848941989 1 1 1 1 1 1 1 1 0.0094693899671357308 1 1 1 1 1 1 1 1 1 1 1 1 1 1 1 1 1 1 1 1 1 1 0.010078251533009369 1 1 1 1 1 1 1 1 1 1 1 1 1 1 1 1 1 1 
</DataArray>
</CellData>
</Piece>
</UnstructuredGrid>
</VTKFile>
